<?xml version="1.0"?>
<VTKFile type="UnstructuredGrid" version="0.1" byte_order="LittleEndian">
<UnstructuredGrid>
<Piece NumberOfPoints="31624" NumberOfCells="11135">
<Points>
<DataArray type="Float64" NumberOfComponents="3" format="ascii">
-0.5 -0.5 0 -0.46834794209927227 -0.49999999999999589 0 -0.46124839104438359 -0.47184821050858811 0 -0.5 -0.5 0 -0.46124839104438359 -0.47184821050858811 0 -0.47839538733203513 -0.45255283270950541 0 -0.5 -0.5 0 -0.47839538733203513 -0.45255283270950541 0 -0.5 -0.41634212646358221 0 -0.46834794209927227 -0.49999999999999589 0 -0.46124839104438359 -0.47184821050858811 0 -0.44466742395999448 -0.48198680820889928 0 -0.46834794209927227 -0.49999999999999589 0 -0.46124839104438359 -0.47184821050858811 0 -0.46124839104438359 -0.47184821050858811 0 -0.44628875665670842 -0.47038924120915709 0 -0.44466742395999448 -0.48198680820889928 0 -0.44628875665670842 -0.47038924120915709 0 -0.43892127773234768 -0.47158291606607761 0 -0.44466742395999448 -0.48198680820889928 0 -0.43892127773234768 -0.47158291606607761 0 -0.44466742395999448 -0.48198680820889928 0 -0.43342607321533239 -0.47830139088408252 0 -0.46834794209927227 -0.49999999999999589 0 -0.44466742395999448 -0.48198680820889928 0 -0.44557145593351588 -0.5 0 -0.44466742395999448 -0.48198680820889928 0 -0.44557145593351588 -0.5 0 -0.43312653844205001 -0.48877620252737142 0 -0.45414883998949879 -0.44369642101717899 0 -0.44207952812631218 -0.432473967552786 0 -0.43250920223850797 -0.44459246166653249 0 -0.44261594655068542 -0.45676344110113321 0 -0.45414883998949879 -0.44369642101717899 0 -0.43250920223850797 -0.44459246166653249 0 -0.44261594655068542 -0.45676344110113321 0 -0.45414883998949879 -0.44369642101717899 0 -0.46124839104438359 -0.47184821050858811 0 -0.44628875665670842 -0.47038924120915709 0 -0.44261594655068542 -0.45676344110113321 0 -0.46124839104438359 -0.47184821050858811 0 -0.44261594655068542 -0.45676344110113321 0 -0.45414883998949879 -0.44369642101717899 0 -0.43892127773234768 -0.47158291606607761 0 -0.44261594655068542 -0.45676344110113321 0 -0.43108305311186512 -0.46983046118508132 0 -0.44628875665670842 -0.47038924120915709 0 -0.43892127773234768 -0.47158291606607761 0 -0.44261594655068542 -0.45676344110113321 0 -0.46124839104438359 -0.47184821050858811 0 -0.45414883998949879 -0.44369642101717899 0 -0.46124839104438359 -0.47184821050858811 0 -0.45414883998949879 -0.44369642101717899 0 -0.47839538733203513 -0.45255283270950541 0 -0.45414883998949879 -0.44369642101717899 0 -0.47839538733203513 -0.45255283270950541 0 -0.46659513334101282 -0.42959449888831008 0 -0.47839538733203513 -0.45255283270950541 0 -0.47904142669251998 -0.41549257675943518 0 -0.46659513334101282 -0.42959449888831008 0 -0.47839538733203513 -0.45255283270950541 0 -0.5 -0.41634212646358221 0 -0.47904142669251998 -0.41549257675943518 0 -0.47904142669251998 -0.41549257675943518 0 -0.46659513334101282 -0.42959449888831008 0 -0.4639294593242288 -0.41565431460942798 0 -0.47904142669251998 -0.41549257675943518 0 -0.46659513334101282 -0.42959449888831008 0 -0.5 -0.41634212646358221 0 -0.47584609506668107 -0.38593418207312258 0 -0.5 -0.35529098361714978 0 -0.5 -0.41634212646358221 0 -0.47904142669251998 -0.41549257675943518 0 -0.47584609506668107 -0.38593418207312258 0 -0.47904142669251998 -0.41549257675943518 0 -0.47584609506668107 -0.38593418207312258 0 -0.46149109699047758 -0.40017815141067298 0 -0.47584609506668107 -0.38593418207312258 0 -0.46149109699047758 -0.40017815141067298 0 -0.45074151240797522 -0.3756336192004277 0 -0.46149109699047758 -0.40017815141067298 0 -0.44123240233692018 -0.39247898051103708 0 -0.44769062116320701 -0.41808770076410873 0 -0.44123240233692018 -0.39247898051103708 0 -0.44769062116320701 -0.41808770076410873 0 -0.44123240233692018 -0.39247898051103708 0 -0.44769062116320701 -0.41808770076410873 0 -0.43964347597476211 -0.40650582484303971 0 -0.44123240233692018 -0.39247898051103708 0 -0.43964347597476211 -0.40650582484303971 0 -0.43536150049179362 -0.39411646262943512 0 -0.46149109699047758 -0.40017815141067298 0 -0.44123240233692018 -0.39247898051103708 0 -0.45074151240797522 -0.3756336192004277 0 -0.44123240233692018 -0.39247898051103708 0 -0.43477418351063268 -0.3668702602579656 0 -0.44123240233692018 -0.39247898051103708 0 -0.45074151240797522 -0.3756336192004277 0 -0.43477418351063268 -0.3668702602579656 0 -0.45414883998949879 -0.44369642101717899 0 -0.46659513334101282 -0.42959449888831008 0 -0.44769062116320701 -0.41808770076410873 0 -0.45414883998949879 -0.44369642101717899 0 -0.46659513334101282 -0.42959449888831008 0 -0.47904142669251998 -0.41549257675943518 0 -0.46149109699047758 -0.40017815141067298 0 -0.4639294593242288 -0.41565431460942798 0 -0.46149109699047758 -0.40017815141067298 0 -0.4639294593242288 -0.41565431460942798 0 -0.44769062116320701 -0.41808770076410873 0 -0.46659513334101282 -0.42959449888831008 0 -0.4639294593242288 -0.41565431460942798 0 -0.44769062116320701 -0.41808770076410873 0 -0.44769062116320701 -0.41808770076410873 0 -0.43964347597476211 -0.40650582484303971 0 -0.43393535136515082 -0.41935446214798378 0 -0.45414883998949879 -0.44369642101717899 0 -0.44769062116320701 -0.41808770076410873 0 -0.45414883998949879 -0.44369642101717899 0 -0.44769062116320701 -0.41808770076410873 0 -0.44207952812631218 -0.432473967552786 0 -0.44769062116320701 -0.41808770076410873 0 -0.44207952812631218 -0.432473967552786 0 -0.43393535136515082 -0.41935446214798378 0 -0.44207952812631218 -0.432473967552786 0 -0.43393535136515082 -0.41935446214798378 0 -0.43250920223850797 -0.44459246166653249 0 -0.42412664681236972 -0.43106778611608709 0 -0.43393535136515082 -0.41935446214798378 0 -0.43250920223850797 -0.44459246166653249 0 -0.43393535136515082 -0.41935446214798378 0 -0.43250920223850797 -0.44459246166653249 0 -0.42412664681236972 -0.43106778611608709 0 -0.43393535136515082 -0.41935446214798378 0 -0.42008671343925569 -0.41855599904193003 0 -0.43393535136515082 -0.41935446214798378 0 -0.43536150049179362 -0.39411646262943512 0 -0.43964347597476211 -0.40650582484303971 0 -0.43393535136515082 -0.41935446214798378 0 -0.43536150049179362 -0.39411646262943512 0 -0.43393535136515082 -0.41935446214798378 0 -0.43536150049179362 -0.39411646262943512 0 -0.42626955791746191 -0.40565109843997899 0 -0.43393535136515082 -0.41935446214798378 0 -0.42508002019755892 -0.41325296613256979 0 -0.42626955791746191 -0.40565109843997899 0 -0.42508002019755892 -0.41325296613256979 0 -0.42002845806836719 -0.40945030490038659 0 -0.42626955791746191 -0.40565109843997899 0 -0.43393535136515082 -0.41935446214798378 0 -0.42508002019755892 -0.41325296613256979 0 -0.42008671343925569 -0.41855599904193003 0 -0.41147163652562352 -0.40866186470119309 0 -0.40779623314709063 -0.42137645569011012 0 -0.40908829863366558 -0.4052806678827936 0 -0.42508002019755892 -0.41325296613256979 0 -0.42008671343925569 -0.41855599904193003 0 -0.42002845806836719 -0.40945030490038659 0 -0.42002845806836719 -0.40945030490038659 0 -0.41147163652562352 -0.40866186470119309 0 -0.41902932537311932 -0.40193604567557389 0 -0.42008671343925569 -0.41855599904193003 0 -0.42002845806836719 -0.40945030490038659 0 -0.41147163652562352 -0.40866186470119309 0 -0.41147163652562352 -0.40866186470119309 0 -0.40908829863366558 -0.4052806678827936 0 -0.42008671343925569 -0.41855599904193003 0 -0.41147163652562352 -0.40866186470119309 0 -0.40779623314709063 -0.42137645569011012 0 -0.40779623314709063 -0.42137645569011012 0 -0.41297188089832498 -0.43545492467774649 0 -0.41624536857426031 -0.42661379138146838 0 -0.42412664681236972 -0.43106778611608709 0 -0.41297188089832498 -0.43545492467774649 0 -0.41624536857426031 -0.42661379138146838 0 -0.42412664681236972 -0.43106778611608709 0 -0.41297188089832498 -0.43545492467774649 0 -0.42220851422656008 -0.4423996471945334 0 -0.42008671343925569 -0.41855599904193003 0 -0.40779623314709063 -0.42137645569011012 0 -0.41624536857426031 -0.42661379138146838 0 -0.42412664681236972 -0.43106778611608709 0 -0.42008671343925569 -0.41855599904193003 0 -0.41624536857426031 -0.42661379138146838 0 -0.42193124107214958 -0.38607546407037979 0 -0.43477418351063268 -0.3668702602579656 0 -0.42193124107214958 -0.38607546407037979 0 -0.43536150049179362 -0.39411646262943512 0 -0.43477418351063268 -0.3668702602579656 0 -0.44123240233692018 -0.39247898051103708 0 -0.43536150049179362 -0.39411646262943512 0 -0.43477418351063268 -0.3668702602579656 0 -0.42193124107214958 -0.38607546407037979 0 -0.42620712211460382 -0.3967458478015739 0 -0.41902932537311932 -0.40193604567557389 0 -0.42193124107214958 -0.38607546407037979 0 -0.42620712211460382 -0.3967458478015739 0 -0.43536150049179362 -0.39411646262943512 0 -0.42620712211460382 -0.3967458478015739 0 -0.43536150049179362 -0.39411646262943512 0 -0.42626955791746191 -0.40565109843997899 0 -0.42620712211460382 -0.3967458478015739 0 -0.42626955791746191 -0.40565109843997899 0 -0.41902932537311932 -0.40193604567557389 0 -0.42193124107214958 -0.38607546407037979 0 -0.40908829863366558 -0.4052806678827936 0 -0.42193124107214958 -0.38607546407037979 0 -0.41902932537311932 -0.40193604567557389 0 -0.40908829863366558 -0.4052806678827936 0 -0.42193124107214958 -0.38607546407037979 0 -0.40908829863366558 -0.4052806678827936 0 -0.39718637242806842 -0.38839562814295331 0 -0.42002845806836719 -0.40945030490038659 0 -0.42626955791746191 -0.40565109843997899 0 -0.41902932537311932 -0.40193604567557389 0 -0.41147163652562352 -0.40866186470119309 0 -0.41902932537311932 -0.40193604567557389 0 -0.40908829863366558 -0.4052806678827936 0 -0.42193124107214958 -0.38607546407037979 0 -0.39718637242806842 -0.38839562814295331 0 -0.40906888710737838 -0.3705341383817366 0 -0.39718637242806842 -0.38839562814295331 0 -0.38528444622247171 -0.37151058840311257 0 -0.39718637242806842 -0.38839562814295331 0 -0.39691291535847278 -0.37525147130316039 0 -0.38528444622247171 -0.37151058840311257 0 -0.39718637242806842 -0.38839562814295331 0 -0.39691291535847278 -0.37525147130316039 0 -0.40906888710737838 -0.3705341383817366 0 -0.40908829863366558 -0.4052806678827936 0 -0.39718637242806842 -0.38839562814295331 0 -0.40908829863366558 -0.4052806678827936 0 -0.39718637242806842 -0.38839562814295331 0 -0.38612187629009692 -0.40625223972103419 0 -0.39718637242806842 -0.38839562814295331 0 -0.37625170319943779 -0.39381119497715922 0 -0.38612187629009692 -0.40625223972103419 0 -0.37625170319943779 -0.39381119497715922 0 -0.38612187629009692 -0.40625223972103419 0 -0.36938048100259863 -0.40396662569772351 0 -0.39718637242806842 -0.38839562814295331 0 -0.38528444622247171 -0.37151058840311257 0 -0.37148004781187433 -0.37828133255875063 0 -0.39718637242806842 -0.38839562814295331 0 -0.37625170319943779 -0.39381119497715922 0 -0.37148004781187433 -0.37828133255875063 0 -0.41297188089832498 -0.43545492467774649 0 -0.3953376264182798 -0.42584328145201128 0 -0.39976423091442281 -0.44415433962138812 0 -0.40779623314709063 -0.42137645569011012 0 -0.41297188089832498 -0.43545492467774649 0 -0.3953376264182798 -0.42584328145201128 0 -0.40779623314709063 -0.42137645569011012 0 -0.40908829863366558 -0.4052806678827936 0 -0.3953376264182798 -0.42584328145201128 0 -0.40908829863366558 -0.4052806678827936 0 -0.3953376264182798 -0.42584328145201128 0 -0.38612187629009692 -0.40625223972103419 0 -0.40908829863366558 -0.4052806678827936 0 -0.3953376264182798 -0.42584328145201128 0 -0.3953376264182798 -0.42584328145201128 0 -0.38612187629009692 -0.40625223972103419 0 -0.37382735791506971 -0.41824141352769789 0 -0.38612187629009692 -0.40625223972103419 0 -0.37382735791506971 -0.41824141352769789 0 -0.36938048100259863 -0.40396662569772351 0 -0.3953376264182798 -0.42584328145201128 0 -0.38158695420289268 -0.44640589502122813 0 -0.37382735791506971 -0.41824141352769789 0 -0.3953376264182798 -0.42584328145201128 0 -0.38158695420289268 -0.44640589502122813 0 -0.38158695420289268 -0.44640589502122813 0 -0.39976423091442281 -0.44415433962138812 0 -0.39016422392410077 -0.4607372548190426 0 -0.3953376264182798 -0.42584328145201128 0 -0.38158695420289268 -0.44640589502122813 0 -0.39976423091442281 -0.44415433962138812 0 -0.39976423091442281 -0.44415433962138812 0 -0.40473522497550179 -0.45537377579979332 0 -0.39016422392410077 -0.4607372548190426 0 -0.40387444790054461 -0.46663645252866892 0 -0.40473522497550179 -0.45537377579979332 0 -0.39016422392410077 -0.4607372548190426 0 -0.40387444790054461 -0.46663645252866892 0 -0.39016422392410077 -0.4607372548190426 0 -0.39374694286666762 -0.47294970122571311 0 -0.39016422392410077 -0.4607372548190426 0 -0.3824612657474562 -0.47394859737146561 0 -0.36783628198750418 -0.46696850859044392 0 -0.38158695420289268 -0.44640589502122813 0 -0.39016422392410077 -0.4607372548190426 0 -0.36783628198750418 -0.46696850859044392 0 -0.3824612657474562 -0.47394859737146561 0 -0.38801974024713248 -0.48560326792690739 0 -0.37253913971187469 -0.48348425429521991 0 -0.3824612657474562 -0.47394859737146561 0 -0.38801974024713248 -0.48560326792690739 0 -0.39374694286666762 -0.47294970122571311 0 -0.39016422392410077 -0.4607372548190426 0 -0.3824612657474562 -0.47394859737146561 0 -0.39374694286666762 -0.47294970122571311 0 -0.3772419974362467 -0.49999999999999539 0 -0.38801974024713248 -0.48560326792690739 0 -0.40001848360200298 -0.5 0 -0.3772419974362467 -0.49999999999999539 0 -0.38801974024713248 -0.48560326792690739 0 -0.37253913971187469 -0.48348425429521991 0 -0.38801974024713248 -0.48560326792690739 0 -0.40001848360200298 -0.5 0 -0.40326605163044899 -0.47995992114249142 0 -0.38801974024713248 -0.48560326792690739 0 -0.39374694286666762 -0.47294970122571311 0 -0.40326605163044899 -0.47995992114249142 0 -0.40387444790054461 -0.46663645252866892 0 -0.39374694286666762 -0.47294970122571311 0 -0.40326605163044899 -0.47995992114249142 0 -0.40387444790054461 -0.46663645252866892 0 -0.40326605163044899 -0.47995992114249142 0 -0.41645439023154901 -0.46985304274522338 0 -0.40326605163044899 -0.47995992114249142 0 -0.4182494923323275 -0.48437116576579953 0 -0.41645439023154901 -0.46985304274522338 0 -0.40001848360200298 -0.5 0 -0.40326605163044899 -0.47995992114249142 0 -0.4182494923323275 -0.48437116576579953 0 -0.40001848360200298 -0.5 0 -0.4182494923323275 -0.48437116576579953 0 -0.42279496976775938 -0.5 0 -0.4182494923323275 -0.48437116576579953 0 -0.42279496976775938 -0.5 0 -0.43312653844205001 -0.48877620252737142 0 -0.44557145593351588 -0.5 0 -0.42279496976775938 -0.5 0 -0.43312653844205001 -0.48877620252737142 0 -0.4182494923323275 -0.48437116576579953 0 -0.41645439023154901 -0.46985304274522338 0 -0.43108305311186512 -0.46983046118508132 0 -0.4182494923323275 -0.48437116576579953 0 -0.43312653844205001 -0.48877620252737142 0 -0.43342607321533239 -0.47830139088408252 0 -0.4182494923323275 -0.48437116576579953 0 -0.43108305311186512 -0.46983046118508132 0 -0.4182494923323275 -0.48437116576579953 0 -0.43342607321533239 -0.47830139088408252 0 -0.43108305311186512 -0.46983046118508132 0 -0.44466742395999448 -0.48198680820889928 0 -0.43312653844205001 -0.48877620252737142 0 -0.43342607321533239 -0.47830139088408252 0 -0.43342607321533239 -0.47830139088408252 0 -0.43108305311186512 -0.46983046118508132 0 -0.43362474374665988 -0.47245037871038809 0 -0.43892127773234768 -0.47158291606607761 0 -0.43342607321533239 -0.47830139088408252 0 -0.43362474374665988 -0.47245037871038809 0 -0.43892127773234768 -0.47158291606607761 0 -0.43108305311186512 -0.46983046118508132 0 -0.43362474374665988 -0.47245037871038809 0 -0.44261594655068542 -0.45676344110113321 0 -0.43108305311186512 -0.46983046118508132 0 -0.44261594655068542 -0.45676344110113321 0 -0.43108305311186512 -0.46983046118508132 0 -0.43250920223850797 -0.44459246166653249 0 -0.43108305311186512 -0.46983046118508132 0 -0.42287189243353968 -0.45670717065242461 0 -0.43250920223850797 -0.44459246166653249 0 -0.43108305311186512 -0.46983046118508132 0 -0.43250920223850797 -0.44459246166653249 0 -0.41645439023154901 -0.46985304274522338 0 -0.43108305311186512 -0.46983046118508132 0 -0.42287189243353968 -0.45670717065242461 0 -0.42412664681236972 -0.43106778611608709 0 -0.43250920223850797 -0.44459246166653249 0 -0.42220851422656008 -0.4423996471945334 0 -0.42287189243353968 -0.45670717065242461 0 -0.43250920223850797 -0.44459246166653249 0 -0.42220851422656008 -0.4423996471945334 0 -0.42287189243353968 -0.45670717065242461 0 -0.42220851422656008 -0.4423996471945334 0 -0.41466808528763771 -0.44848545394804951 0 -0.41297188089832498 -0.43545492467774649 0 -0.42220851422656008 -0.4423996471945334 0 -0.41466808528763771 -0.44848545394804951 0 -0.41297188089832498 -0.43545492467774649 0 -0.39976423091442281 -0.44415433962138812 0 -0.41466808528763771 -0.44848545394804951 0 -0.39976423091442281 -0.44415433962138812 0 -0.40473522497550179 -0.45537377579979332 0 -0.41466808528763771 -0.44848545394804951 0 -0.40473522497550179 -0.45537377579979332 0 -0.41466808528763771 -0.44848545394804951 0 -0.41252080816575448 -0.45941117913483198 0 -0.40387444790054461 -0.46663645252866892 0 -0.40473522497550179 -0.45537377579979332 0 -0.41252080816575448 -0.45941117913483198 0 -0.40387444790054461 -0.46663645252866892 0 -0.41645439023154901 -0.46985304274522338 0 -0.41252080816575448 -0.45941117913483198 0 -0.41645439023154901 -0.46985304274522338 0 -0.42287189243353968 -0.45670717065242461 0 -0.41252080816575448 -0.45941117913483198 0 -0.42287189243353968 -0.45670717065242461 0 -0.41466808528763771 -0.44848545394804951 0 -0.41252080816575448 -0.45941117913483198 0 -0.49999999999999573 -0.27822076126760481 0 -0.4818222042776229 -0.2929627210645519 0 -0.5 -0.35529098361714978 0 -0.44401585412563632 -0.25504528077001382 0 -0.45668839803492373 -0.27072226018884998 0 -0.44569972632370303 -0.28448946357824562 0 -0.44401585412563632 -0.25504528077001382 0 -0.44569972632370303 -0.28448946357824562 0 -0.43112113570260402 -0.27030841062425259 0 -0.44401585412563632 -0.25504528077001382 0 -0.44569972632370303 -0.28448946357824562 0 -0.46869863656081162 -0.27165730741770738 0 -0.45668839803492373 -0.27072226018884998 0 -0.4616124238329064 -0.28652126563977293 0 -0.45668839803492373 -0.27072226018884998 0 -0.4616124238329064 -0.28652126563977293 0 -0.44569972632370303 -0.28448946357824562 0 -0.46869863656081162 -0.27165730741770738 0 -0.45668839803492373 -0.27072226018884998 0 -0.46341534933156142 -0.25589798353851029 0 -0.44401585412563632 -0.25504528077001382 0 -0.45668839803492373 -0.27072226018884998 0 -0.46341534933156142 -0.25589798353851029 0 -0.46869863656081162 -0.27165730741770738 0 -0.48557913910227413 -0.27048348995848981 0 -0.48077732730919293 -0.24978515595674461 0 -0.46869863656081162 -0.27165730741770738 0 -0.46341534933156142 -0.25589798353851029 0 -0.48077732730919293 -0.24978515595674461 0 -0.50000000000000355 -0.26187718495422752 0 -0.48973231596818317 -0.2395841734584927 0 -0.48077732730919293 -0.24978515595674461 0 -0.50000000000000355 -0.26187718495422752 0 -0.48077732730919293 -0.24978515595674461 0 -0.50000000000000355 -0.26187718495422752 0 -0.48557913910227413 -0.27048348995848981 0 -0.48077732730919293 -0.24978515595674461 0 -0.50000000000000355 -0.26187718495422752 0 -0.48557913910227413 -0.27048348995848981 0 -0.49999999999999573 -0.27822076126760481 0 -0.48557913910227413 -0.27048348995848981 0 -0.49999999999999573 -0.27822076126760481 0 -0.4818222042776229 -0.2929627210645519 0 -0.46869863656081162 -0.27165730741770738 0 -0.48557913910227413 -0.27048348995848981 0 -0.4818222042776229 -0.2929627210645519 0 -0.46869863656081162 -0.27165730741770738 0 -0.4818222042776229 -0.2929627210645519 0 -0.4616124238329064 -0.28652126563977293 0 -0.4818222042776229 -0.2929627210645519 0 -0.46364440855525169 -0.30770468086150121 0 -0.46670759513688309 -0.32915269698584249 0 -0.49999999999999573 -0.27822076126760481 0 -0.4818222042776229 -0.2929627210645519 0 -0.4818222042776229 -0.2929627210645519 0 -0.46364440855525169 -0.30770468086150121 0 -0.46364440855525169 -0.30770468086150121 0 -0.45863852615593859 -0.302285087963168 0 -0.44546661283288069 -0.3224466406584503 0 -0.4818222042776229 -0.2929627210645519 0 -0.46364440855525169 -0.30770468086150121 0 -0.45863852615593859 -0.302285087963168 0 -0.45863852615593859 -0.302285087963168 0 -0.4616124238329064 -0.28652126563977293 0 -0.45106476559234587 -0.29364327425958742 0 -0.4818222042776229 -0.2929627210645519 0 -0.45863852615593859 -0.302285087963168 0 -0.4616124238329064 -0.28652126563977293 0 -0.4616124238329064 -0.28652126563977293 0 -0.45106476559234587 -0.29364327425958742 0 -0.44569972632370303 -0.28448946357824562 0 -0.44569972632370303 -0.28448946357824562 0 -0.43830838605683581 -0.30127727985716313 0 -0.42968005226495681 -0.2862097205304579 0 -0.45106476559234587 -0.29364327425958742 0 -0.44569972632370303 -0.28448946357824562 0 -0.43830838605683581 -0.30127727985716313 0 -0.45863852615593859 -0.302285087963168 0 -0.43830838605683581 -0.30127727985716313 0 -0.45863852615593859 -0.302285087963168 0 -0.43830838605683581 -0.30127727985716313 0 -0.44546661283288069 -0.3224466406584503 0 -0.45863852615593859 -0.302285087963168 0 -0.45106476559234587 -0.29364327425958742 0 -0.43830838605683581 -0.30127727985716313 0 -0.44546661283288069 -0.3224466406584503 0 -0.46670759513688309 -0.32915269698584249 0 -0.44550981084642899 -0.34384352072593471 0 -0.44546661283288069 -0.3224466406584503 0 -0.44550981084642899 -0.34384352072593471 0 -0.42728881711051359 -0.33718860045540427 0 -0.46670759513688309 -0.32915269698584249 0 -0.46380253430911411 -0.35266763498746728 0 -0.44550981084642899 -0.34384352072593471 0 -0.46364440855525169 -0.30770468086150121 0 -0.44546661283288069 -0.3224466406584503 0 -0.46364440855525169 -0.30770468086150121 0 -0.44546661283288069 -0.3224466406584503 0 -0.46670759513688309 -0.32915269698584249 0 -0.4818222042776229 -0.2929627210645519 0 -0.46670759513688309 -0.32915269698584249 0 -0.5 -0.35529098361714978 0 -0.47584609506668107 -0.38593418207312258 0 -0.5 -0.35529098361714978 0 -0.46380253430911411 -0.35266763498746728 0 -0.46670759513688309 -0.32915269698584249 0 -0.5 -0.35529098361714978 0 -0.46380253430911411 -0.35266763498746728 0 -0.45074151240797522 -0.3756336192004277 0 -0.46380253430911411 -0.35266763498746728 0 -0.44673177439340078 -0.35662955124879581 0 -0.47584609506668107 -0.38593418207312258 0 -0.45074151240797522 -0.3756336192004277 0 -0.46380253430911411 -0.35266763498746728 0 -0.46380253430911411 -0.35266763498746728 0 -0.44673177439340078 -0.35662955124879581 0 -0.44550981084642899 -0.34384352072593471 0 -0.44550981084642899 -0.34384352072593471 0 -0.43966068306957162 -0.3546205782572161 0 -0.4310315003105748 -0.35202943035668449 0 -0.44673177439340078 -0.35662955124879581 0 -0.44550981084642899 -0.34384352072593471 0 -0.43966068306957162 -0.3546205782572161 0 -0.44673177439340078 -0.35662955124879581 0 -0.43966068306957162 -0.3546205782572161 0 -0.43477418351063268 -0.3668702602579656 0 -0.45074151240797522 -0.3756336192004277 0 -0.44673177439340078 -0.35662955124879581 0 -0.43477418351063268 -0.3668702602579656 0 -0.42193124107214958 -0.38607546407037979 0 -0.43477418351063268 -0.3668702602579656 0 -0.42156921424894722 -0.36517505321943922 0 -0.43477418351063268 -0.3668702602579656 0 -0.4310315003105748 -0.35202943035668449 0 -0.42156921424894722 -0.36517505321943922 0 -0.43477418351063268 -0.3668702602579656 0 -0.4310315003105748 -0.35202943035668449 0 -0.43966068306957162 -0.3546205782572161 0 -0.43477418351063268 -0.3668702602579656 0 -0.4310315003105748 -0.35202943035668449 0 -0.44550981084642899 -0.34384352072593471 0 -0.4310315003105748 -0.35202943035668449 0 -0.42728881711051359 -0.33718860045540427 0 -0.4310315003105748 -0.35202943035668449 0 -0.41104025924400089 -0.35036597303042971 0 -0.42728881711051359 -0.33718860045540427 0 -0.4310315003105748 -0.35202943035668449 0 -0.42728881711051359 -0.33718860045540427 0 -0.4310315003105748 -0.35202943035668449 0 -0.41104025924400089 -0.35036597303042971 0 -0.42156921424894722 -0.36517505321943922 0 -0.41104025924400089 -0.35036597303042971 0 -0.42728881711051359 -0.33718860045540427 0 -0.42193124107214958 -0.38607546407037979 0 -0.42156921424894722 -0.36517505321943922 0 -0.40906888710737838 -0.3705341383817366 0 -0.41104025924400089 -0.35036597303042971 0 -0.42156921424894722 -0.36517505321943922 0 -0.40906888710737838 -0.3705341383817366 0 -0.39691291535847278 -0.37525147130316039 0 -0.40906888710737838 -0.3705341383817366 0 -0.3947917013774922 -0.36354334560545992 0 -0.41104025924400089 -0.35036597303042971 0 -0.40906888710737838 -0.3705341383817366 0 -0.3947917013774922 -0.36354334560545992 0 -0.39691291535847278 -0.37525147130316039 0 -0.3947917013774922 -0.36354334560545992 0 -0.38528444622247171 -0.37151058840311257 0 -0.38528444622247171 -0.37151058840311257 0 -0.37338252001687527 -0.35462554866327167 0 -0.37148004781187433 -0.37828133255875063 0 -0.38528444622247171 -0.37151058840311257 0 -0.37338252001687527 -0.35462554866327167 0 -0.38528444622247171 -0.37151058840311257 0 -0.38553559864094861 -0.36046471794703022 0 -0.37338252001687527 -0.35462554866327167 0 -0.3947917013774922 -0.36354334560545992 0 -0.38528444622247171 -0.37151058840311257 0 -0.38553559864094861 -0.36046471794703022 0 -0.39154919729475368 -0.33608749812129218 0 -0.37338252001687527 -0.35462554866327167 0 -0.37693610807690431 -0.34577444833265258 0 -0.39154919729475368 -0.33608749812129218 0 -0.37338252001687527 -0.35462554866327167 0 -0.38868372694695541 -0.35217938911627628 0 -0.39154919729475368 -0.33608749812129218 0 -0.37338252001687527 -0.35462554866327167 0 -0.38553559864094861 -0.36046471794703022 0 -0.38868372694695541 -0.35217938911627628 0 -0.37338252001687527 -0.35462554866327167 0 -0.3947917013774922 -0.36354334560545992 0 -0.38553559864094861 -0.36046471794703022 0 -0.38868372694695541 -0.35217938911627628 0 -0.41104025924400089 -0.35036597303042971 0 -0.3947917013774922 -0.36354334560545992 0 -0.39848515697633879 -0.34705332950006862 0 -0.41104025924400089 -0.35036597303042971 0 -0.3947917013774922 -0.36354334560545992 0 -0.3947917013774922 -0.36354334560545992 0 -0.38868372694695541 -0.35217938911627628 0 -0.39848515697633879 -0.34705332950006862 0 -0.38868372694695541 -0.35217938911627628 0 -0.39848515697633879 -0.34705332950006862 0 -0.39154919729475368 -0.33608749812129218 0 -0.41104025924400089 -0.35036597303042971 0 -0.39848515697633879 -0.34705332950006862 0 -0.40636090001849151 -0.33309044162688439 0 -0.39848515697633879 -0.34705332950006862 0 -0.39154919729475368 -0.33608749812129218 0 -0.40636090001849151 -0.33309044162688439 0 -0.39154919729475368 -0.33608749812129218 0 -0.39258215356621301 -0.3249644290914413 0 -0.40636090001849151 -0.33309044162688439 0 -0.37693610807690431 -0.34577444833265258 0 -0.39154919729475368 -0.33608749812129218 0 -0.38111310272649951 -0.32221174966090799 0 -0.37693610807690431 -0.34577444833265258 0 -0.38111310272649951 -0.32221174966090799 0 -0.37410916532325278 -0.3344344697227995 0 -0.37693610807690431 -0.34577444833265258 0 -0.38111310272649951 -0.32221174966090799 0 -0.38111310272649951 -0.32221174966090799 0 -0.38131819988917692 -0.31065517485978472 0 -0.37323521679292881 -0.32680228525247418 0 -0.38131819988917692 -0.31065517485978472 0 -0.37323521679292881 -0.32680228525247418 0 -0.38131819988917692 -0.31065517485978472 0 -0.37323521679292881 -0.32680228525247418 0 -0.37199493553327823 -0.31515629561993708 0 -0.38111310272649951 -0.32221174966090799 0 -0.37323521679292881 -0.32680228525247418 0 -0.37410916532325278 -0.3344344697227995 0 -0.39154919729475368 -0.33608749812129218 0 -0.38111310272649951 -0.32221174966090799 0 -0.39258215356621301 -0.3249644290914413 0 -0.38111310272649951 -0.32221174966090799 0 -0.39214236019226528 -0.31273741332013888 0 -0.39258215356621301 -0.3249644290914413 0 -0.39214236019226528 -0.31273741332013888 0 -0.39258215356621301 -0.3249644290914413 0 -0.40117350205391539 -0.3181056237741306 0 -0.39258215356621301 -0.3249644290914413 0 -0.40117350205391539 -0.3181056237741306 0 -0.40636090001849151 -0.33309044162688439 0 -0.40117350205391539 -0.3181056237741306 0 -0.42263353153412542 -0.31872903610327818 0 -0.41085486280317229 -0.30914084824968041 0 -0.40117350205391539 -0.3181056237741306 0 -0.40636090001849151 -0.33309044162688439 0 -0.42263353153412542 -0.31872903610327818 0 -0.40636090001849151 -0.33309044162688439 0 -0.42728881711051359 -0.33718860045540427 0 -0.42263353153412542 -0.31872903610327818 0 -0.41104025924400089 -0.35036597303042971 0 -0.40636090001849151 -0.33309044162688439 0 -0.42728881711051359 -0.33718860045540427 0 -0.44546661283288069 -0.3224466406584503 0 -0.42728881711051359 -0.33718860045540427 0 -0.43830838605683581 -0.30127727985716313 0 -0.44546661283288069 -0.3224466406584503 0 -0.42263353153412542 -0.31872903610327818 0 -0.44546661283288069 -0.3224466406584503 0 -0.42728881711051359 -0.33718860045540427 0 -0.42263353153412542 -0.31872903610327818 0 -0.42728881711051359 -0.33718860045540427 0 -0.42263353153412542 -0.31872903610327818 0 -0.43830838605683581 -0.30127727985716313 0 -0.42263353153412542 -0.31872903610327818 0 -0.41797824595773331 -0.30026947175115298 0 -0.43830838605683581 -0.30127727985716313 0 -0.41797824595773331 -0.30026947175115298 0 -0.43830838605683581 -0.30127727985716313 0 -0.42968005226495681 -0.2862097205304579 0 -0.41797824595773331 -0.30026947175115298 0 -0.41797824595773331 -0.30026947175115298 0 -0.41152361727359249 -0.27467498745823082 0 -0.41797824595773331 -0.30026947175115298 0 -0.40163417166691379 -0.29945926137016021 0 -0.40040516702462969 -0.2857480137506907 0 -0.41797824595773331 -0.30026947175115298 0 -0.40040516702462969 -0.2857480137506907 0 -0.41152361727359249 -0.27467498745823082 0 -0.42968005226495681 -0.2862097205304579 0 -0.41797824595773331 -0.30026947175115298 0 -0.41152361727359249 -0.27467498745823082 0 -0.41797824595773331 -0.30026947175115298 0 -0.41085486280317229 -0.30914084824968041 0 -0.40163417166691379 -0.29945926137016021 0 -0.42263353153412542 -0.31872903610327818 0 -0.41797824595773331 -0.30026947175115298 0 -0.41797824595773331 -0.30026947175115298 0 -0.40163417166691379 -0.29945926137016021 0 -0.42263353153412542 -0.31872903610327818 0 -0.41797824595773331 -0.30026947175115298 0 -0.41085486280317229 -0.30914084824968041 0 -0.39214236019226528 -0.31273741332013888 0 -0.40163417166691379 -0.29945926137016021 0 -0.38529009737609471 -0.29864905098916322 0 -0.40117350205391539 -0.3181056237741306 0 -0.41085486280317229 -0.30914084824968041 0 -0.40163417166691379 -0.29945926137016021 0 -0.39214236019226528 -0.31273741332013888 0 -0.40117350205391539 -0.3181056237741306 0 -0.40163417166691379 -0.29945926137016021 0 -0.40163417166691379 -0.29945926137016021 0 -0.38529009737609471 -0.29864905098916322 0 -0.38111310272649951 -0.32221174966090799 0 -0.39214236019226528 -0.31273741332013888 0 -0.38529009737609471 -0.29864905098916322 0 -0.38111310272649951 -0.32221174966090799 0 -0.38529009737609471 -0.29864905098916322 0 -0.38131819988917692 -0.31065517485978472 0 -0.38111310272649951 -0.32221174966090799 0 -0.38529009737609471 -0.29864905098916322 0 -0.38529009737609471 -0.29864905098916322 0 -0.37318043498615883 -0.30648972405306679 0 -0.3733451042478485 -0.29805691237909188 0 -0.38529009737609471 -0.29864905098916322 0 -0.3733451042478485 -0.29805691237909188 0 -0.38529009737609471 -0.29864905098916322 0 -0.38131819988917692 -0.31065517485978472 0 -0.37318043498615883 -0.30648972405306679 0 -0.38131819988917692 -0.31065517485978472 0 -0.37318043498615883 -0.30648972405306679 0 -0.37199493553327823 -0.31515629561993708 0 -0.38529009737609471 -0.29864905098916322 0 -0.37599023997743491 -0.28771705282648358 0 -0.38973151821916657 -0.2735947069502378 0 -0.38529009737609471 -0.29864905098916322 0 -0.38973151821916657 -0.2735947069502378 0 -0.38529009737609471 -0.29864905098916322 0 -0.37599023997743491 -0.28771705282648358 0 -0.3733451042478485 -0.29805691237909188 0 -0.40163417166691379 -0.29945926137016021 0 -0.38529009737609471 -0.29864905098916322 0 -0.40040516702462969 -0.2857480137506907 0 -0.38529009737609471 -0.29864905098916322 0 -0.40040516702462969 -0.2857480137506907 0 -0.38973151821916657 -0.2735947069502378 0 -0.38973151821916657 -0.2735947069502378 0 -0.39937911055885061 -0.26200380176053262 0 -0.41152361727359249 -0.27467498745823082 0 -0.40040516702462969 -0.2857480137506907 0 -0.38973151821916657 -0.2735947069502378 0 -0.41152361727359249 -0.27467498745823082 0 -0.38973151821916657 -0.2735947069502378 0 -0.37658973850392058 -0.25863578741241072 0 -0.36821422802860237 -0.27603841187175032 0 -0.37599023997743491 -0.28771705282648358 0 -0.38973151821916657 -0.2735947069502378 0 -0.36821422802860237 -0.27603841187175032 0 -0.38973151821916657 -0.2735947069502378 0 -0.37658973850392058 -0.25863578741241072 0 -0.39417293906223849 -0.24854036291131251 0 -0.39937911055885061 -0.26200380176053262 0 -0.41152361727359249 -0.27467498745823082 0 -0.40506898858945029 -0.24908050316530889 0 -0.38973151821916657 -0.2735947069502378 0 -0.39937911055885061 -0.26200380176053262 0 -0.39417293906223849 -0.24854036291131251 0 -0.38973151821916657 -0.2735947069502378 0 -0.39417293906223849 -0.24854036291131251 0 -0.39937911055885061 -0.26200380176053262 0 -0.40506898858945029 -0.24908050316530889 0 -0.39417293906223849 -0.24854036291131251 0 -0.41152361727359249 -0.27467498745823082 0 -0.40506898858945029 -0.24908050316530889 0 -0.41152361727359249 -0.27467498745823082 0 -0.42468642852513172 -0.25112260078431481 0 -0.40506898858945029 -0.24908050316530889 0 -0.42968005226495681 -0.2862097205304579 0 -0.41152361727359249 -0.27467498745823082 0 -0.43112113570260402 -0.27030841062425259 0 -0.44569972632370303 -0.28448946357824562 0 -0.42968005226495681 -0.2862097205304579 0 -0.43112113570260402 -0.27030841062425259 0 -0.41152361727359249 -0.27467498745823082 0 -0.43112113570260402 -0.27030841062425259 0 -0.42468642852513172 -0.25112260078431481 0 -0.44401585412563632 -0.25504528077001382 0 -0.43112113570260402 -0.27030841062425259 0 -0.42468642852513172 -0.25112260078431481 0 -0.31417662199612612 -0.2555997343155551 0 -0.33093606398148351 -0.25433796163322481 0 -0.32499321163518008 -0.24223795506494611 0 -0.31417662199612612 -0.2555997343155551 0 -0.32803552703178218 -0.27093844171645881 0 -0.33093606398148351 -0.25433796163322481 0 -0.31417662199612612 -0.2555997343155551 0 -0.32803552703178218 -0.27093844171645881 0 -0.31022867817425959 -0.27032865686211238 0 -0.32803552703178218 -0.27093844171645881 0 -0.31911303463812069 -0.28073398680490391 0 -0.33177744810237503 -0.29031826652102399 0 -0.32803552703178218 -0.27093844171645881 0 -0.31911303463812069 -0.28073398680490391 0 -0.31022867817425959 -0.27032865686211238 0 -0.32803552703178218 -0.27093844171645881 0 -0.34155476366602211 -0.28063814308208901 0 -0.34396207152350022 -0.26855250241538747 0 -0.32803552703178218 -0.27093844171645881 0 -0.34155476366602211 -0.28063814308208901 0 -0.33177744810237503 -0.29031826652102399 0 -0.33093606398148351 -0.25433796163322481 0 -0.34729545866209061 -0.2528103326161848 0 -0.34396207152350022 -0.26855250241538747 0 -0.32803552703178218 -0.27093844171645881 0 -0.33093606398148351 -0.25433796163322481 0 -0.34396207152350022 -0.26855250241538747 0 -0.34729545866209061 -0.2528103326161848 0 -0.35829182426952338 -0.26364817496730453 0 -0.36271053573838469 -0.24435841446020501 0 -0.34729545866209061 -0.2528103326161848 0 -0.35829182426952338 -0.26364817496730453 0 -0.34396207152350022 -0.26855250241538747 0 -0.37658973850392058 -0.25863578741241072 0 -0.35829182426952338 -0.26364817496730453 0 -0.36271053573838469 -0.24435841446020501 0 -0.37658973850392058 -0.25863578741241072 0 -0.35829182426952338 -0.26364817496730453 0 -0.36821422802860237 -0.27603841187175032 0 -0.35829182426952338 -0.26364817496730453 0 -0.36821422802860237 -0.27603841187175032 0 -0.35399573582741489 -0.27896646452067397 0 -0.35829182426952338 -0.26364817496730453 0 -0.35399573582741489 -0.27896646452067397 0 -0.34396207152350022 -0.26855250241538747 0 -0.34155476366602211 -0.28063814308208901 0 -0.35399573582741489 -0.27896646452067397 0 -0.34396207152350022 -0.26855250241538747 0 -0.34155476366602211 -0.28063814308208901 0 -0.35399573582741489 -0.27896646452067397 0 -0.34858127546138018 -0.29267537284533801 0 -0.34858127546138018 -0.29267537284533801 0 -0.36337025201546219 -0.29224618194217439 0 -0.35569193429544221 -0.3049170609400304 0 -0.35399573582741489 -0.27896646452067397 0 -0.34858127546138018 -0.29267537284533801 0 -0.36337025201546219 -0.29224618194217439 0 -0.37599023997743491 -0.28771705282648358 0 -0.36821422802860237 -0.27603841187175032 0 -0.36337025201546219 -0.29224618194217439 0 -0.36821422802860237 -0.27603841187175032 0 -0.35399573582741489 -0.27896646452067397 0 -0.36337025201546219 -0.29224618194217439 0 -0.37599023997743491 -0.28771705282648358 0 -0.36337025201546219 -0.29224618194217439 0 -0.3733451042478485 -0.29805691237909188 0 -0.37318043498615883 -0.30648972405306679 0 -0.36590702766221173 -0.31079847427060758 0 -0.37199493553327823 -0.31515629561993708 0 -0.37318043498615883 -0.30648972405306679 0 -0.36555768524675047 -0.30259017083846951 0 -0.36590702766221173 -0.31079847427060758 0 -0.36337025201546219 -0.29224618194217439 0 -0.3733451042478485 -0.29805691237909188 0 -0.36555768524675047 -0.30259017083846951 0 -0.37318043498615883 -0.30648972405306679 0 -0.3733451042478485 -0.29805691237909188 0 -0.36555768524675047 -0.30259017083846951 0 -0.36337025201546219 -0.29224618194217439 0 -0.36555768524675047 -0.30259017083846951 0 -0.35569193429544221 -0.3049170609400304 0 -0.36590702766221173 -0.31079847427060758 0 -0.35569193429544221 -0.3049170609400304 0 -0.35759178837890038 -0.31682890825244431 0 -0.36555768524675047 -0.30259017083846951 0 -0.36590702766221173 -0.31079847427060758 0 -0.35569193429544221 -0.3049170609400304 0 -0.35569193429544221 -0.3049170609400304 0 -0.34719361740196369 -0.31379160515985788 0 -0.35759178837890038 -0.31682890825244431 0 -0.34858127546138018 -0.29267537284533801 0 -0.35569193429544221 -0.3049170609400304 0 -0.34077152488457441 -0.30356777299736137 0 -0.35569193429544221 -0.3049170609400304 0 -0.34077152488457441 -0.30356777299736137 0 -0.34719361740196369 -0.31379160515985788 0 -0.34077152488457441 -0.30356777299736137 0 -0.33628176688838968 -0.31490080861796232 0 -0.34719361740196369 -0.31379160515985788 0 -0.34077152488457441 -0.30356777299736137 0 -0.33177744810237503 -0.29031826652102399 0 -0.32605320248467928 -0.3081854985920322 0 -0.34077152488457441 -0.30356777299736137 0 -0.32605320248467928 -0.3081854985920322 0 -0.33628176688838968 -0.31490080861796232 0 -0.34155476366602211 -0.28063814308208901 0 -0.34858127546138018 -0.29267537284533801 0 -0.33177744810237503 -0.29031826652102399 0 -0.34858127546138018 -0.29267537284533801 0 -0.34077152488457441 -0.30356777299736137 0 -0.33177744810237503 -0.29031826652102399 0 -0.31911303463812069 -0.28073398680490391 0 -0.33177744810237503 -0.29031826652102399 0 -0.31452877613515251 -0.29494137631511269 0 -0.31452877613515251 -0.29494137631511269 0 -0.32605320248467928 -0.3081854985920322 0 -0.31007920404855099 -0.31065624059516839 0 -0.33177744810237503 -0.29031826652102399 0 -0.31452877613515251 -0.29494137631511269 0 -0.32605320248467928 -0.3081854985920322 0 -0.32605320248467928 -0.3081854985920322 0 -0.31730323987292891 -0.32057160494816561 0 -0.31007920404855099 -0.31065624059516839 0 -0.32753256943396558 -0.3253119171699248 0 -0.31730323987292891 -0.32057160494816561 0 -0.31533844215437962 -0.33652290441416849 0 -0.31730323987292891 -0.32057160494816561 0 -0.31533844215437962 -0.33652290441416849 0 -0.30566711175936839 -0.32610398363020948 0 -0.32605320248467928 -0.3081854985920322 0 -0.32753256943396558 -0.3253119171699248 0 -0.31730323987292891 -0.32057160494816561 0 -0.32753256943396558 -0.3253119171699248 0 -0.31533844215437962 -0.33652290441416849 0 -0.32666803000829953 -0.34180745490054798 0 -0.31533844215437962 -0.33652290441416849 0 -0.32666803000829953 -0.34180745490054798 0 -0.32040779560599308 -0.35118488158147659 0 -0.32753256943396558 -0.3253119171699248 0 -0.32666803000829953 -0.34180745490054798 0 -0.33553107352661732 -0.33314553903951832 0 -0.32666803000829953 -0.34180745490054798 0 -0.33553107352661732 -0.33314553903951832 0 -0.33854685999045492 -0.34233246329215589 0 -0.33553107352661732 -0.33314553903951832 0 -0.33854685999045492 -0.34233246329215589 0 -0.34504998796360098 -0.33262861066432731 0 -0.33553107352661732 -0.33314553903951832 0 -0.33985792023676542 -0.32364724917063559 0 -0.34504998796360098 -0.33262861066432731 0 -0.32605320248467928 -0.3081854985920322 0 -0.32753256943396558 -0.3253119171699248 0 -0.33628176688838968 -0.31490080861796232 0 -0.32753256943396558 -0.3253119171699248 0 -0.33985792023676542 -0.32364724917063559 0 -0.33628176688838968 -0.31490080861796232 0 -0.32753256943396558 -0.3253119171699248 0 -0.33553107352661732 -0.33314553903951832 0 -0.33985792023676542 -0.32364724917063559 0 -0.33985792023676542 -0.32364724917063559 0 -0.33628176688838968 -0.31490080861796232 0 -0.34719361740196369 -0.31379160515985788 0 -0.33985792023676542 -0.32364724917063559 0 -0.34719361740196369 -0.31379160515985788 0 -0.35083891652575128 -0.32425972678943071 0 -0.33985792023676542 -0.32364724917063559 0 -0.35083891652575128 -0.32425972678943071 0 -0.34504998796360098 -0.33262861066432731 0 -0.35083891652575128 -0.32425972678943071 0 -0.35759178837890038 -0.31682890825244431 0 -0.35958543605211868 -0.32617076269098699 0 -0.35083891652575128 -0.32425972678943071 0 -0.35958543605211868 -0.32617076269098699 0 -0.35357169293167501 -0.33271550464571231 0 -0.34719361740196369 -0.31379160515985788 0 -0.35083891652575128 -0.32425972678943071 0 -0.35759178837890038 -0.31682890825244431 0 -0.36590702766221173 -0.31079847427060758 0 -0.35759178837890038 -0.31682890825244431 0 -0.36633379833591462 -0.32103581966375222 0 -0.35759178837890038 -0.31682890825244431 0 -0.36633379833591462 -0.32103581966375222 0 -0.35958543605211868 -0.32617076269098699 0 -0.36633379833591462 -0.32103581966375222 0 -0.35958543605211868 -0.32617076269098699 0 -0.36551979452400529 -0.33095265289503822 0 -0.36633379833591462 -0.32103581966375222 0 -0.37323521679292881 -0.32680228525247418 0 -0.37199493553327823 -0.31515629561993708 0 -0.36633379833591462 -0.32103581966375222 0 -0.37323521679292881 -0.32680228525247418 0 -0.36551979452400529 -0.33095265289503822 0 -0.36590702766221173 -0.31079847427060758 0 -0.36633379833591462 -0.32103581966375222 0 -0.37199493553327823 -0.31515629561993708 0 -0.37323521679292881 -0.32680228525247418 0 -0.37410916532325278 -0.3344344697227995 0 -0.36515223369667932 -0.34294939564516302 0 -0.37323521679292881 -0.32680228525247418 0 -0.36551979452400529 -0.33095265289503822 0 -0.36515223369667932 -0.34294939564516302 0 -0.37323521679292881 -0.32680228525247418 0 -0.36515223369667932 -0.34294939564516302 0 -0.37693610807690431 -0.34577444833265258 0 -0.37410916532325278 -0.3344344697227995 0 -0.36515223369667932 -0.34294939564516302 0 -0.35958543605211868 -0.32617076269098699 0 -0.36551979452400529 -0.33095265289503822 0 -0.36013653295381809 -0.33203268731517582 0 -0.36551979452400529 -0.33095265289503822 0 -0.36013653295381809 -0.33203268731517582 0 -0.36186920830747349 -0.33829182902896582 0 -0.36551979452400529 -0.33095265289503822 0 -0.36186920830747349 -0.33829182902896582 0 -0.36515223369667932 -0.34294939564516302 0 -0.36186920830747349 -0.33829182902896582 0 -0.36515223369667932 -0.34294939564516302 0 -0.3538821914730213 -0.34121495837921162 0 -0.36186920830747349 -0.33829182902896582 0 -0.36515223369667932 -0.34294939564516302 0 -0.36186920830747349 -0.33829182902896582 0 -0.3538821914730213 -0.34121495837921162 0 -0.35357169293167501 -0.33271550464571231 0 -0.36013653295381809 -0.33203268731517582 0 -0.36186920830747349 -0.33829182902896582 0 -0.35357169293167501 -0.33271550464571231 0 -0.35958543605211868 -0.32617076269098699 0 -0.36013653295381809 -0.33203268731517582 0 -0.35357169293167501 -0.33271550464571231 0 -0.35083891652575128 -0.32425972678943071 0 -0.35357169293167501 -0.33271550464571231 0 -0.34504998796360098 -0.33262861066432731 0 -0.3538821914730213 -0.34121495837921162 0 -0.35357169293167501 -0.33271550464571231 0 -0.34504998796360098 -0.33262861066432731 0 -0.33854685999045492 -0.34233246329215589 0 -0.3538821914730213 -0.34121495837921162 0 -0.34504998796360098 -0.33262861066432731 0 -0.33854685999045492 -0.34233246329215589 0 -0.3538821914730213 -0.34121495837921162 0 -0.34798542010966399 -0.35128988058905569 0 -0.36515223369667932 -0.34294939564516302 0 -0.3538821914730213 -0.34121495837921162 0 -0.34798542010966399 -0.35128988058905569 0 -0.36515223369667932 -0.34294939564516302 0 -0.34798542010966399 -0.35128988058905569 0 -0.35488095830449989 -0.36346798583103751 0 -0.36515223369667932 -0.34294939564516302 0 -0.35488095830449989 -0.36346798583103751 0 -0.36515223369667932 -0.34294939564516302 0 -0.37338252001687527 -0.35462554866327167 0 -0.35488095830449989 -0.36346798583103751 0 -0.36515223369667932 -0.34294939564516302 0 -0.37338252001687527 -0.35462554866327167 0 -0.37693610807690431 -0.34577444833265258 0 -0.36515223369667932 -0.34294939564516302 0 -0.37338252001687527 -0.35462554866327167 0 -0.37338252001687527 -0.35462554866327167 0 -0.35899610146459859 -0.36930606234009261 0 -0.35488095830449989 -0.36346798583103751 0 -0.37338252001687527 -0.35462554866327167 0 -0.35899610146459859 -0.36930606234009261 0 -0.37148004781187433 -0.37828133255875063 0 -0.37338252001687527 -0.35462554866327167 0 -0.35899610146459859 -0.36930606234009261 0 -0.35899610146459859 -0.36930606234009261 0 -0.35488095830449989 -0.36346798583103751 0 -0.34460968291231969 -0.38398657601691139 0 -0.35488095830449989 -0.36346798583103751 0 -0.34460968291231969 -0.38398657601691139 0 -0.35488095830449989 -0.36346798583103751 0 -0.33960646355621488 -0.36539799759433123 0 -0.34460968291231969 -0.38398657601691139 0 -0.34798542010966399 -0.35128988058905569 0 -0.35488095830449989 -0.36346798583103751 0 -0.33960646355621488 -0.36539799759433123 0 -0.33960646355621488 -0.36539799759433123 0 -0.32570434533518422 -0.36253637479273992 0 -0.32999961841296271 -0.37699805077413051 0 -0.33960646355621488 -0.36539799759433123 0 -0.33447102730914879 -0.35240115592132071 0 -0.32570434533518422 -0.36253637479273992 0 -0.34798542010966399 -0.35128988058905569 0 -0.33960646355621488 -0.36539799759433123 0 -0.33447102730914879 -0.35240115592132071 0 -0.33854685999045492 -0.34233246329215589 0 -0.34798542010966399 -0.35128988058905569 0 -0.33447102730914879 -0.35240115592132071 0 -0.32666803000829953 -0.34180745490054798 0 -0.33854685999045492 -0.34233246329215589 0 -0.33447102730914879 -0.35240115592132071 0 -0.33447102730914879 -0.35240115592132071 0 -0.32040779560599308 -0.35118488158147659 0 -0.32570434533518422 -0.36253637479273992 0 -0.32666803000829953 -0.34180745490054798 0 -0.33447102730914879 -0.35240115592132071 0 -0.32040779560599308 -0.35118488158147659 0 -0.31533844215437962 -0.33652290441416849 0 -0.32040779560599308 -0.35118488158147659 0 -0.30857557008430209 -0.34981739528425337 0 -0.32040779560599308 -0.35118488158147659 0 -0.31327793615101829 -0.35991939760014208 0 -0.32570434533518422 -0.36253637479273992 0 -0.32040779560599308 -0.35118488158147659 0 -0.31327793615101829 -0.35991939760014208 0 -0.30857557008430209 -0.34981739528425337 0 -0.31327793615101829 -0.35991939760014208 0 -0.31574804452556943 -0.36993726483709299 0 -0.32570434533518422 -0.36253637479273992 0 -0.31574804452556943 -0.36993726483709299 0 -0.32570434533518422 -0.36253637479273992 0 -0.32999961841296271 -0.37699805077413051 0 -0.30237992599221653 -0.35949804811648328 0 -0.30067528324674042 -0.36870255364325433 0 -0.30766554220934872 -0.36570350899643028 0 -0.30237992599221653 -0.35949804811648328 0 -0.30067528324674042 -0.36870255364325433 0 -0.29517655125608572 -0.36417918792985221 0 -0.30067528324674042 -0.36870255364325433 0 -0.30900168699529962 -0.37333749405318462 0 -0.30766554220934872 -0.36570350899643028 0 -0.31574804452556943 -0.36993726483709299 0 -0.30900168699529962 -0.37333749405318462 0 -0.30766554220934872 -0.36570350899643028 0 -0.30067528324674042 -0.36870255364325433 0 -0.30900168699529962 -0.37333749405318462 0 -0.30565900356667691 -0.37998665313461111 0 -0.31327793615101829 -0.35991939760014208 0 -0.30237992599221653 -0.35949804811648328 0 -0.30766554220934872 -0.36570350899643028 0 -0.31327793615101829 -0.35991939760014208 0 -0.31574804452556943 -0.36993726483709299 0 -0.30766554220934872 -0.36570350899643028 0 -0.31327793615101829 -0.35991939760014208 0 -0.30237992599221653 -0.35949804811648328 0 -0.30857557008430209 -0.34981739528425337 0 -0.30857557008430209 -0.34981739528425337 0 -0.29870559957274467 -0.35074447013627669 0 -0.30108487477668738 -0.3411391716264856 0 -0.30237992599221653 -0.35949804811648328 0 -0.30857557008430209 -0.34981739528425337 0 -0.29870559957274467 -0.35074447013627669 0 -0.30237992599221653 -0.35949804811648328 0 -0.29870559957274467 -0.35074447013627669 0 -0.29291827895859612 -0.35694215045752831 0 -0.29870559957274467 -0.35074447013627669 0 -0.29291827895859612 -0.35694215045752831 0 -0.28976956656808311 -0.34685627678395392 0 -0.29870559957274467 -0.35074447013627669 0 -0.28976956656808311 -0.34685627678395392 0 -0.30108487477668738 -0.3411391716264856 0 -0.28976956656808311 -0.34685627678395392 0 -0.28421020045679052 -0.3546899998737405 0 -0.27706964065945522 -0.34392217182378471 0 -0.29291827895859612 -0.35694215045752831 0 -0.28976956656808311 -0.34685627678395392 0 -0.28421020045679052 -0.3546899998737405 0 -0.29291827895859612 -0.35694215045752831 0 -0.28421020045679052 -0.3546899998737405 0 -0.28718006692230291 -0.36466753424850867 0 -0.28421020045679052 -0.3546899998737405 0 -0.28718006692230291 -0.36466753424850867 0 -0.2738235663254856 -0.36110027299905573 0 -0.29291827895859612 -0.35694215045752831 0 -0.28718006692230291 -0.36466753424850867 0 -0.29517655125608572 -0.36417918792985221 0 -0.28718006692230291 -0.36466753424850867 0 -0.29517655125608572 -0.36417918792985221 0 -0.29272920116057283 -0.37108565318348641 0 -0.30237992599221653 -0.35949804811648328 0 -0.29291827895859612 -0.35694215045752831 0 -0.29517655125608572 -0.36417918792985221 0 -0.30067528324674042 -0.36870255364325433 0 -0.29517655125608572 -0.36417918792985221 0 -0.29272920116057283 -0.37108565318348641 0 -0.28718006692230291 -0.36466753424850867 0 -0.28547050819414171 -0.37430746794443231 0 -0.27898948070505281 -0.36978750493551732 0 -0.28718006692230291 -0.36466753424850867 0 -0.29272920116057283 -0.37108565318348641 0 -0.28547050819414171 -0.37430746794443231 0 -0.27898948070505281 -0.36978750493551732 0 -0.27036938484470918 -0.37178568419280422 0 -0.27749089826650492 -0.37747461974895979 0 -0.28547050819414171 -0.37430746794443231 0 -0.27898948070505281 -0.36978750493551732 0 -0.27749089826650492 -0.37747461974895979 0 -0.27898948070505281 -0.36978750493551732 0 -0.2738235663254856 -0.36110027299905573 0 -0.27036938484470918 -0.37178568419280422 0 -0.28718006692230291 -0.36466753424850867 0 -0.27898948070505281 -0.36978750493551732 0 -0.2738235663254856 -0.36110027299905573 0 -0.2738235663254856 -0.36110027299905573 0 -0.27036938484470918 -0.37178568419280422 0 -0.26072233449869148 -0.36560168224229628 0 -0.26072233449869148 -0.36560168224229628 0 -0.24671633714885899 -0.37500267670740822 0 -0.2499227142646899 -0.35235573747961701 0 -0.27036938484470918 -0.37178568419280422 0 -0.26072233449869148 -0.36560168224229628 0 -0.26109032466993221 -0.37831927443361552 0 -0.26072233449869148 -0.36560168224229628 0 -0.26109032466993221 -0.37831927443361552 0 -0.24671633714885899 -0.37500267670740822 0 -0.26389305503425409 -0.35122967127065863 0 -0.25792701942294799 -0.33316849180853908 0 -0.2499227142646899 -0.35235573747961701 0 -0.26072233449869148 -0.36560168224229628 0 -0.26389305503425409 -0.35122967127065863 0 -0.2499227142646899 -0.35235573747961701 0 -0.28421020045679052 -0.3546899998737405 0 -0.2738235663254856 -0.36110027299905573 0 -0.27706964065945522 -0.34392217182378471 0 -0.2738235663254856 -0.36110027299905573 0 -0.26389305503425409 -0.35122967127065863 0 -0.27706964065945522 -0.34392217182378471 0 -0.2738235663254856 -0.36110027299905573 0 -0.26072233449869148 -0.36560168224229628 0 -0.26389305503425409 -0.35122967127065863 0 -0.26389305503425409 -0.35122967127065863 0 -0.27706964065945522 -0.34392217182378471 0 -0.25792701942294799 -0.33316849180853908 0 -0.27706964065945522 -0.34392217182378471 0 -0.25792701942294799 -0.33316849180853908 0 -0.28206497177204121 -0.32379616284110252 0 -0.25792701942294799 -0.33316849180853908 0 -0.2499227142646899 -0.35235573747961701 0 -0.26593132458121138 -0.31398124613746348 0 -0.24627262270589559 -0.3210583192788774 0 -0.24399705722251039 -0.31175949823066318 0 -0.25792701942294799 -0.33316849180853908 0 -0.26593132458121138 -0.31398124613746348 0 -0.24627262270589559 -0.3210583192788774 0 -0.25792701942294799 -0.33316849180853908 0 -0.26593132458121138 -0.31398124613746348 0 -0.26593132458121138 -0.31398124613746348 0 -0.28206497177204121 -0.32379616284110252 0 -0.28433873130280551 -0.30672115565681801 0 -0.26593132458121138 -0.31398124613746348 0 -0.28206497177204121 -0.32379616284110252 0 -0.25792701942294799 -0.33316849180853908 0 -0.26593132458121138 -0.31398124613746348 0 -0.28206497177204121 -0.32379616284110252 0 -0.28206497177204121 -0.32379616284110252 0 -0.29556118141569682 -0.3162776362094325 0 -0.28433873130280551 -0.30672115565681801 0 -0.28206497177204121 -0.32379616284110252 0 -0.29556118141569682 -0.3162776362094325 0 -0.291869557825222 -0.33301590048582808 0 -0.27706964065945522 -0.34392217182378471 0 -0.28206497177204121 -0.32379616284110252 0 -0.291869557825222 -0.33301590048582808 0 -0.28976956656808311 -0.34685627678395392 0 -0.27706964065945522 -0.34392217182378471 0 -0.291869557825222 -0.33301590048582808 0 -0.28976956656808311 -0.34685627678395392 0 -0.291869557825222 -0.33301590048582808 0 -0.30108487477668738 -0.3411391716264856 0 -0.291869557825222 -0.33301590048582808 0 -0.30108487477668738 -0.3411391716264856 0 -0.30566711175936839 -0.32610398363020948 0 -0.31533844215437962 -0.33652290441416849 0 -0.30857557008430209 -0.34981739528425337 0 -0.30108487477668738 -0.3411391716264856 0 -0.31533844215437962 -0.33652290441416849 0 -0.30108487477668738 -0.3411391716264856 0 -0.30566711175936839 -0.32610398363020948 0 -0.29556118141569682 -0.3162776362094325 0 -0.291869557825222 -0.33301590048582808 0 -0.30566711175936839 -0.32610398363020948 0 -0.31730323987292891 -0.32057160494816561 0 -0.30566711175936839 -0.32610398363020948 0 -0.31007920404855099 -0.31065624059516839 0 -0.29556118141569682 -0.3162776362094325 0 -0.30566711175936839 -0.32610398363020948 0 -0.31007920404855099 -0.31065624059516839 0 -0.29556118141569682 -0.3162776362094325 0 -0.29984242733196259 -0.29918221431144187 0 -0.31007920404855099 -0.31065624059516839 0 -0.31452877613515251 -0.29494137631511269 0 -0.29984242733196259 -0.29918221431144187 0 -0.31007920404855099 -0.31065624059516839 0 -0.31452877613515251 -0.29494137631511269 0 -0.29984242733196259 -0.29918221431144187 0 -0.3003073402052267 -0.28057205106610628 0 -0.31911303463812069 -0.28073398680490391 0 -0.31452877613515251 -0.29494137631511269 0 -0.3003073402052267 -0.28057205106610628 0 -0.28812762314911122 -0.29193422982498451 0 -0.28021112012508781 -0.27975092385264128 0 -0.3003073402052267 -0.28057205106610628 0 -0.29984242733196259 -0.29918221431144187 0 -0.28812762314911122 -0.29193422982498451 0 -0.3003073402052267 -0.28057205106610628 0 -0.29556118141569682 -0.3162776362094325 0 -0.29984242733196259 -0.29918221431144187 0 -0.28433873130280551 -0.30672115565681801 0 -0.28812762314911122 -0.29193422982498451 0 -0.28433873130280551 -0.30672115565681801 0 -0.2730712223531469 -0.29686608499505129 0 -0.29984242733196259 -0.29918221431144187 0 -0.28812762314911122 -0.29193422982498451 0 -0.28433873130280551 -0.30672115565681801 0 -0.26593132458121138 -0.31398124613746348 0 -0.28433873130280551 -0.30672115565681801 0 -0.2730712223531469 -0.29686608499505129 0 -0.26593132458121138 -0.31398124613746348 0 -0.2730712223531469 -0.29686608499505129 0 -0.26593132458121138 -0.31398124613746348 0 -0.24227742392426271 -0.29959137744143183 0 -0.24399705722251039 -0.31175949823066318 0 -0.26593132458121138 -0.31398124613746348 0 -0.24227742392426271 -0.29959137744143183 0 -0.26593132458121138 -0.31398124613746348 0 -0.25708798134836952 -0.29160350062106721 0 -0.2730712223531469 -0.29686608499505129 0 -0.26593132458121138 -0.31398124613746348 0 -0.25708798134836952 -0.29160350062106721 0 -0.24227742392426271 -0.29959137744143183 0 -0.25708798134836952 -0.29160350062106721 0 -0.2668971583263427 -0.28225847775503499 0 -0.25513199288332411 -0.27448597803447933 0 -0.25708798134836952 -0.29160350062106721 0 -0.25513199288332411 -0.27448597803447933 0 -0.23781880050240509 -0.28157483844275699 0 -0.25708798134836952 -0.29160350062106721 0 -0.2668971583263427 -0.28225847775503499 0 -0.2730712223531469 -0.29686608499505129 0 -0.2668971583263427 -0.28225847775503499 0 -0.2730712223531469 -0.29686608499505129 0 -0.28021112012508781 -0.27975092385264128 0 -0.28812762314911122 -0.29193422982498451 0 -0.2730712223531469 -0.29686608499505129 0 -0.28021112012508781 -0.27975092385264128 0 -0.2730712223531469 -0.29686608499505129 0 -0.28021112012508781 -0.27975092385264128 0 -0.28021112012508781 -0.27975092385264128 0 -0.26917674358489457 -0.26742657108178181 0 -0.28256945792721577 -0.25911135046746431 0 -0.2668971583263427 -0.28225847775503499 0 -0.28021112012508781 -0.27975092385264128 0 -0.26917674358489457 -0.26742657108178181 0 -0.2668971583263427 -0.28225847775503499 0 -0.26917674358489457 -0.26742657108178181 0 -0.25513199288332411 -0.27448597803447933 0 -0.26917674358489457 -0.26742657108178181 0 -0.25513199288332411 -0.27448597803447933 0 -0.25959396014445452 -0.25681688998397822 0 -0.25513199288332411 -0.27448597803447933 0 -0.25959396014445452 -0.25681688998397822 0 -0.24369437200891481 -0.26294335837935368 0 -0.25959396014445452 -0.25681688998397822 0 -0.24369437200891481 -0.26294335837935368 0 -0.2483468260877667 -0.24670177710050209 0 -0.26917674358489457 -0.26742657108178181 0 -0.25959396014445452 -0.25681688998397822 0 -0.27238162931076509 -0.25178413916486292 0 -0.27238162931076509 -0.25178413916486292 0 -0.28256945792721577 -0.25911135046746431 0 -0.28332132652505332 -0.24223576790914189 0 -0.26917674358489457 -0.26742657108178181 0 -0.27238162931076509 -0.25178413916486292 0 -0.28256945792721577 -0.25911135046746431 0 -0.28256945792721577 -0.25911135046746431 0 -0.29735355455489759 -0.2495608270936247 0 -0.28332132652505332 -0.24223576790914189 0 -0.28256945792721577 -0.25911135046746431 0 -0.29666601934885511 -0.26565502907259769 0 -0.29735355455489759 -0.2495608270936247 0 -0.28021112012508781 -0.27975092385264128 0 -0.28256945792721577 -0.25911135046746431 0 -0.29666601934885511 -0.26565502907259769 0 -0.28021112012508781 -0.27975092385264128 0 -0.29666601934885511 -0.26565502907259769 0 -0.3003073402052267 -0.28057205106610628 0 -0.31911303463812069 -0.28073398680490391 0 -0.3003073402052267 -0.28057205106610628 0 -0.31022867817425959 -0.27032865686211238 0 -0.29666601934885511 -0.26565502907259769 0 -0.3003073402052267 -0.28057205106610628 0 -0.31022867817425959 -0.27032865686211238 0 -0.31417662199612612 -0.2555997343155551 0 -0.29666601934885511 -0.26565502907259769 0 -0.29735355455489759 -0.2495608270936247 0 -0.31417662199612612 -0.2555997343155551 0 -0.29666601934885511 -0.26565502907259769 0 -0.31022867817425959 -0.27032865686211238 0 -0.33113788325963978 -0.4548994411907421 0 -0.32823879398967098 -0.47744972059537077 0 -0.33113788325963978 -0.4548994411907421 0 -0.32823879398967098 -0.47744972059537077 0 -0.34751596236809618 -0.47023862832064278 0 -0.33113788325963978 -0.4548994411907421 0 -0.34751596236809618 -0.47023862832064278 0 -0.35025251630195608 -0.45477324514811901 0 -0.33113788325963978 -0.4548994411907421 0 -0.33403697252960851 -0.43234916178611338 0 -0.33113788325963978 -0.4548994411907421 0 -0.35025251630195608 -0.45477324514811901 0 -0.34506365322693971 -0.4433336599083787 0 -0.33113788325963978 -0.4548994411907421 0 -0.32462709625005037 -0.44045257055497322 0 -0.33403697252960851 -0.43234916178611338 0 -0.33113788325963978 -0.4548994411907421 0 -0.34506365322693971 -0.4433336599083787 0 -0.33403697252960851 -0.43234916178611338 0 -0.33113788325963978 -0.4548994411907421 0 -0.32462709625005037 -0.44045257055497322 0 -0.31246527538330188 -0.44820040532945382 0 -0.32462709625005037 -0.44045257055497322 0 -0.32318007789297432 -0.42679579555860631 0 -0.31246527538330188 -0.44820040532945382 0 -0.33113788325963978 -0.4548994411907421 0 -0.32823879398967098 -0.47744972059537077 0 -0.31245435207434502 -0.46629031041754782 0 -0.33113788325963978 -0.4548994411907421 0 -0.31245435207434502 -0.46629031041754782 0 -0.31246527538330188 -0.44820040532945382 0 -0.31318934017311428 -0.48563798712654649 0 -0.32823879398967098 -0.47744972059537077 0 -0.31245435207434502 -0.46629031041754782 0 -0.32533970471970242 -0.49999999999999939 0 -0.31318934017311428 -0.48563798712654649 0 -0.32823879398967098 -0.47744972059537077 0 -0.32533970471970242 -0.49999999999999939 0 -0.31318934017311428 -0.48563798712654649 0 -0.29977373220298459 -0.49999999999999589 0 -0.32533970471970242 -0.49999999999999939 0 -0.32823879398967098 -0.47744972059537077 0 -0.32533970471970242 -0.49999999999999939 0 -0.33869770967186308 -0.48993258613754181 0 -0.32823879398967098 -0.47744972059537077 0 -0.32533970471970242 -0.49999999999999939 0 -0.33869770967186308 -0.48993258613754181 0 -0.35129085107797459 -0.5 0 -0.32823879398967098 -0.47744972059537077 0 -0.34317636069185792 -0.48172672023620688 0 -0.34751596236809618 -0.47023862832064278 0 -0.33869770967186308 -0.48993258613754181 0 -0.32823879398967098 -0.47744972059537077 0 -0.34317636069185792 -0.48172672023620688 0 -0.34751596236809618 -0.47023862832064278 0 -0.35225597288292038 -0.49026714231455032 0 -0.36783628198750418 -0.46696850859044392 0 -0.34317636069185792 -0.48172672023620688 0 -0.34751596236809618 -0.47023862832064278 0 -0.35225597288292038 -0.49026714231455032 0 -0.33869770967186308 -0.48993258613754181 0 -0.35129085107797459 -0.5 0 -0.35225597288292038 -0.49026714231455032 0 -0.33869770967186308 -0.48993258613754181 0 -0.34317636069185792 -0.48172672023620688 0 -0.35225597288292038 -0.49026714231455032 0 -0.3772419974362467 -0.49999999999999539 0 -0.35129085107797459 -0.5 0 -0.35225597288292038 -0.49026714231455032 0 -0.3772419974362467 -0.49999999999999539 0 -0.35225597288292038 -0.49026714231455032 0 -0.37253913971187469 -0.48348425429521991 0 -0.3772419974362467 -0.49999999999999539 0 -0.37253913971187469 -0.48348425429521991 0 -0.35225597288292038 -0.49026714231455032 0 -0.37253913971187469 -0.48348425429521991 0 -0.36783628198750418 -0.46696850859044392 0 -0.37253913971187469 -0.48348425429521991 0 -0.36783628198750418 -0.46696850859044392 0 -0.3824612657474562 -0.47394859737146561 0 -0.37253913971187469 -0.48348425429521991 0 -0.36783628198750418 -0.46696850859044392 0 -0.35225597288292038 -0.49026714231455032 0 -0.36783628198750418 -0.46696850859044392 0 -0.38158695420289268 -0.44640589502122813 0 -0.36783628198750418 -0.46696850859044392 0 -0.36783628198750418 -0.46696850859044392 0 -0.35025251630195608 -0.45477324514811901 0 -0.35970880066759969 -0.4384259877303861 0 -0.34751596236809618 -0.47023862832064278 0 -0.36783628198750418 -0.46696850859044392 0 -0.35025251630195608 -0.45477324514811901 0 -0.35025251630195608 -0.45477324514811901 0 -0.34506365322693971 -0.4433336599083787 0 -0.35970880066759969 -0.4384259877303861 0 -0.38158695420289268 -0.44640589502122813 0 -0.36783628198750418 -0.46696850859044392 0 -0.35970880066759969 -0.4384259877303861 0 -0.36783628198750418 -0.46696850859044392 0 -0.35970880066759969 -0.4384259877303861 0 -0.35970880066759969 -0.4384259877303861 0 -0.37382735791506971 -0.41824141352769789 0 -0.35158131934769798 -0.40988346687032762 0 -0.38158695420289268 -0.44640589502122813 0 -0.35970880066759969 -0.4384259877303861 0 -0.37382735791506971 -0.41824141352769789 0 -0.37382735791506971 -0.41824141352769789 0 -0.35158131934769798 -0.40988346687032762 0 -0.36938048100259863 -0.40396662569772351 0 -0.35158131934769798 -0.40988346687032762 0 -0.34466432307663869 -0.42607646683035832 0 -0.34162397109825982 -0.41202373275099602 0 -0.35158131934769798 -0.40988346687032762 0 -0.34588228394284359 -0.40030380863995851 0 -0.34162397109825982 -0.41202373275099602 0 -0.35970880066759969 -0.4384259877303861 0 -0.35158131934769798 -0.40988346687032762 0 -0.35970880066759969 -0.4384259877303861 0 -0.35158131934769798 -0.40988346687032762 0 -0.34466432307663869 -0.42607646683035832 0 -0.34506365322693971 -0.4433336599083787 0 -0.35970880066759969 -0.4384259877303861 0 -0.34466432307663869 -0.42607646683035832 0 -0.35899610146459859 -0.36930606234009261 0 -0.37148004781187433 -0.37828133255875063 0 -0.35912014826069039 -0.39164481339239848 0 -0.37625170319943779 -0.39381119497715922 0 -0.37148004781187433 -0.37828133255875063 0 -0.35912014826069039 -0.39164481339239848 0 -0.35158131934769798 -0.40988346687032762 0 -0.36938048100259863 -0.40396662569772351 0 -0.35912014826069039 -0.39164481339239848 0 -0.37625170319943779 -0.39381119497715922 0 -0.36938048100259863 -0.40396662569772351 0 -0.35912014826069039 -0.39164481339239848 0 -0.35912014826069039 -0.39164481339239848 0 -0.34588228394284359 -0.40030380863995851 0 -0.34460968291231969 -0.38398657601691139 0 -0.35158131934769798 -0.40988346687032762 0 -0.35912014826069039 -0.39164481339239848 0 -0.34588228394284359 -0.40030380863995851 0 -0.35899610146459859 -0.36930606234009261 0 -0.35912014826069039 -0.39164481339239848 0 -0.34460968291231969 -0.38398657601691139 0 -0.35899610146459859 -0.36930606234009261 0 -0.34460968291231969 -0.38398657601691139 0 -0.34460968291231969 -0.38398657601691139 0 -0.32999961841296271 -0.37699805077413051 0 -0.32844619972935057 -0.40048048206241932 0 -0.33960646355621488 -0.36539799759433123 0 -0.34460968291231969 -0.38398657601691139 0 -0.32999961841296271 -0.37699805077413051 0 -0.34460968291231969 -0.38398657601691139 0 -0.32844619972935057 -0.40048048206241932 0 -0.34588228394284359 -0.40030380863995851 0 -0.34460968291231969 -0.38398657601691139 0 -0.3338948804026467 -0.40539118578775879 0 -0.34460968291231969 -0.38398657601691139 0 -0.3338948804026467 -0.40539118578775879 0 -0.34460968291231969 -0.38398657601691139 0 -0.3338948804026467 -0.40539118578775879 0 -0.32844619972935057 -0.40048048206241932 0 -0.34588228394284359 -0.40030380863995851 0 -0.3338948804026467 -0.40539118578775879 0 -0.34162397109825982 -0.41202373275099602 0 -0.3338948804026467 -0.40539118578775879 0 -0.32844619972935057 -0.40048048206241932 0 -0.32445096864283812 -0.41241046287917771 0 -0.32844619972935057 -0.40048048206241932 0 -0.3155765208162476 -0.38268744530453502 0 -0.31106743247622909 -0.3939672583274626 0 -0.32844619972935057 -0.40048048206241932 0 -0.31106743247622909 -0.3939672583274626 0 -0.30759447934349621 -0.40439227149721352 0 -0.32999961841296271 -0.37699805077413051 0 -0.32844619972935057 -0.40048048206241932 0 -0.3155765208162476 -0.38268744530453502 0 -0.31574804452556943 -0.36993726483709299 0 -0.30900168699529962 -0.37333749405318462 0 -0.3155765208162476 -0.38268744530453502 0 -0.31574804452556943 -0.36993726483709299 0 -0.32999961841296271 -0.37699805077413051 0 -0.3155765208162476 -0.38268744530453502 0 -0.34506365322693971 -0.4433336599083787 0 -0.34466432307663869 -0.42607646683035832 0 -0.33403697252960851 -0.43234916178611338 0 -0.33403697252960851 -0.43234916178611338 0 -0.33597122158972681 -0.42044279193594841 0 -0.32318007789297432 -0.42679579555860631 0 -0.34466432307663869 -0.42607646683035832 0 -0.33403697252960851 -0.43234916178611338 0 -0.33597122158972681 -0.42044279193594841 0 -0.34466432307663869 -0.42607646683035832 0 -0.33597122158972681 -0.42044279193594841 0 -0.34162397109825982 -0.41202373275099602 0 -0.3338948804026467 -0.40539118578775879 0 -0.32318007789297432 -0.42679579555860631 0 -0.3338948804026467 -0.40539118578775879 0 -0.33597122158972681 -0.42044279193594841 0 -0.32318007789297432 -0.42679579555860631 0 -0.3338948804026467 -0.40539118578775879 0 -0.33597122158972681 -0.42044279193594841 0 -0.34162397109825982 -0.41202373275099602 0 -0.32844619972935057 -0.40048048206241932 0 -0.32445096864283812 -0.41241046287917771 0 -0.31228271654638101 -0.41697438810792659 0 -0.32844619972935057 -0.40048048206241932 0 -0.31228271654638101 -0.41697438810792659 0 -0.32844619972935057 -0.40048048206241932 0 -0.31228271654638101 -0.41697438810792659 0 -0.30759447934349621 -0.40439227149721352 0 -0.3338948804026467 -0.40539118578775879 0 -0.32445096864283812 -0.41241046287917771 0 -0.32318007789297432 -0.42679579555860631 0 -0.32445096864283812 -0.41241046287917771 0 -0.32318007789297432 -0.42679579555860631 0 -0.31228271654638101 -0.41697438810792659 0 -0.32318007789297432 -0.42679579555860631 0 -0.31011417754272558 -0.4308636243528895 0 -0.31228271654638101 -0.41697438810792659 0 -0.32318007789297432 -0.42679579555860631 0 -0.31011417754272558 -0.4308636243528895 0 -0.31246527538330188 -0.44820040532945382 0 -0.32318007789297432 -0.42679579555860631 0 -0.31246527538330188 -0.44820040532945382 0 -0.32462709625005037 -0.44045257055497322 0 -0.33403697252960851 -0.43234916178611338 0 -0.32318007789297432 -0.42679579555860631 0 -0.31228271654638101 -0.41697438810792659 0 -0.30317788629807763 -0.41733835596701813 0 -0.29611923336341128 -0.43346829415343369 0 -0.31228271654638101 -0.41697438810792659 0 -0.29611923336341128 -0.43346829415343369 0 -0.31011417754272558 -0.4308636243528895 0 -0.31228271654638101 -0.41697438810792659 0 -0.29611923336341128 -0.43346829415343369 0 -0.30317788629807763 -0.41733835596701813 0 -0.29671870789913751 -0.41492952925301307 0 -0.29611923336341128 -0.43346829415343369 0 -0.31228271654638101 -0.41697438810792659 0 -0.30317788629807763 -0.41733835596701813 0 -0.30759447934349621 -0.40439227149721352 0 -0.30317788629807763 -0.41733835596701813 0 -0.29671870789913751 -0.41492952925301307 0 -0.30759447934349621 -0.40439227149721352 0 -0.29486882897873468 -0.41024066874776222 0 -0.29242820096279348 -0.42770039249209879 0 -0.29486882897873468 -0.41024066874776222 0 -0.28681095810633722 -0.41960559393261848 0 -0.29242820096279348 -0.42770039249209879 0 -0.29486882897873468 -0.41024066874776222 0 -0.29611923336341128 -0.43346829415343369 0 -0.29486882897873468 -0.41024066874776222 0 -0.28762829707622772 -0.4129365132778513 0 -0.28681095810633722 -0.41960559393261848 0 -0.29671870789913751 -0.41492952925301307 0 -0.29486882897873468 -0.41024066874776222 0 -0.29611923336341128 -0.43346829415343369 0 -0.29671870789913751 -0.41492952925301307 0 -0.29486882897873468 -0.41024066874776222 0 -0.29675840215818738 -0.39672307184547112 0 -0.29486882897873468 -0.41024066874776222 0 -0.28998746834484918 -0.40818976965646592 0 -0.28762829707622772 -0.4129365132778513 0 -0.29486882897873468 -0.41024066874776222 0 -0.28998746834484918 -0.40818976965646592 0 -0.29024563982462348 -0.40290232630153172 0 -0.28998746834484918 -0.40818976965646592 0 -0.28720710749981121 -0.40667957029871848 0 -0.28762829707622772 -0.4129365132778513 0 -0.28720710749981121 -0.40667957029871848 0 -0.28762829707622772 -0.4129365132778513 0 -0.28066527044107081 -0.41259003527171872 0 -0.28720710749981121 -0.40667957029871848 0 -0.28011940499286597 -0.40486302017794851 0 -0.28066527044107081 -0.41259003527171872 0 -0.28384260695869379 -0.41714444328890049 0 -0.27930600923441862 -0.42106424654986918 0 -0.28066527044107081 -0.41259003527171872 0 -0.28762829707622772 -0.4129365132778513 0 -0.28681095810633722 -0.41960559393261848 0 -0.28384260695869379 -0.41714444328890049 0 -0.28762829707622772 -0.4129365132778513 0 -0.28384260695869379 -0.41714444328890049 0 -0.28066527044107081 -0.41259003527171872 0 -0.28681095810633722 -0.41960559393261848 0 -0.28384260695869379 -0.41714444328890049 0 -0.27930600923441862 -0.42106424654986918 0 -0.29671870789913751 -0.41492952925301307 0 -0.29611923336341128 -0.43346829415343369 0 -0.29486882897873468 -0.41024066874776222 0 -0.29611923336341128 -0.43346829415343369 0 -0.29242820096279348 -0.42770039249209879 0 -0.29286783408332562 -0.43678616033580919 0 -0.29242820096279348 -0.42770039249209879 0 -0.28998757294685151 -0.44516011623643531 0 -0.28681095810633722 -0.41960559393261848 0 -0.28279180542715449 -0.42854729923922952 0 -0.27930600923441862 -0.42106424654986918 0 -0.28453196225993183 -0.43592835817799069 0 -0.29242820096279348 -0.42770039249209879 0 -0.28998757294685151 -0.44516011623643531 0 -0.28681095810633722 -0.41960559393261848 0 -0.28279180542715449 -0.42854729923922952 0 -0.29242820096279348 -0.42770039249209879 0 -0.29242820096279348 -0.42770039249209879 0 -0.28998757294685151 -0.44516011623643531 0 -0.28279180542715449 -0.42854729923922952 0 -0.28453196225993183 -0.43592835817799069 0 -0.29242820096279348 -0.42770039249209879 0 -0.29286783408332562 -0.43678616033580919 0 -0.29611923336341128 -0.43346829415343369 0 -0.29242820096279348 -0.42770039249209879 0 -0.29286783408332562 -0.43678616033580919 0 -0.29611923336341128 -0.43346829415343369 0 -0.30067528324674042 -0.36870255364325433 0 -0.29272920116057283 -0.37108565318348641 0 -0.29777205611273788 -0.38947161119550833 0 -0.30067528324674042 -0.36870255364325433 0 -0.30565900356667691 -0.37998665313461111 0 -0.29777205611273788 -0.38947161119550833 0 -0.30067528324674042 -0.36870255364325433 0 -0.29777205611273788 -0.38947161119550833 0 -0.30900168699529962 -0.37333749405318462 0 -0.3155765208162476 -0.38268744530453502 0 -0.30565900356667691 -0.37998665313461111 0 -0.3155765208162476 -0.38268744530453502 0 -0.30565900356667691 -0.37998665313461111 0 -0.30567120960180111 -0.38801836530957629 0 -0.3155765208162476 -0.38268744530453502 0 -0.30567120960180111 -0.38801836530957629 0 -0.31106743247622909 -0.3939672583274626 0 -0.30565900356667691 -0.37998665313461111 0 -0.30567120960180111 -0.38801836530957629 0 -0.29777205611273788 -0.38947161119550833 0 -0.29671870789913751 -0.41492952925301307 0 -0.30759447934349621 -0.40439227149721352 0 -0.29675840215818738 -0.39672307184547112 0 -0.30567120960180111 -0.38801836530957629 0 -0.29777205611273788 -0.38947161119550833 0 -0.30388539038584872 -0.3945302659651736 0 -0.29777205611273788 -0.38947161119550833 0 -0.29675840215818738 -0.39672307184547112 0 -0.29777205611273788 -0.38947161119550833 0 -0.30388539038584872 -0.3945302659651736 0 -0.29675840215818738 -0.39672307184547112 0 -0.30388539038584872 -0.3945302659651736 0 -0.31106743247622909 -0.3939672583274626 0 -0.30759447934349621 -0.40439227149721352 0 -0.30567120960180111 -0.38801836530957629 0 -0.30388539038584872 -0.3945302659651736 0 -0.31106743247622909 -0.3939672583274626 0 -0.30388539038584872 -0.3945302659651736 0 -0.30759447934349621 -0.40439227149721352 0 -0.29675840215818738 -0.39672307184547112 0 -0.29486882897873468 -0.41024066874776222 0 -0.29379901506965328 -0.39066316096562431 0 -0.29486882897873468 -0.41024066874776222 0 -0.29675840215818738 -0.39672307184547112 0 -0.29379901506965328 -0.39066316096562431 0 -0.29671870789913751 -0.41492952925301307 0 -0.29675840215818738 -0.39672307184547112 0 -0.29486882897873468 -0.41024066874776222 0 -0.29024563982462348 -0.40290232630153172 0 -0.29379901506965328 -0.39066316096562431 0 -0.29486882897873468 -0.41024066874776222 0 -0.29675840215818738 -0.39672307184547112 0 -0.28998746834484918 -0.40818976965646592 0 -0.28720710749981121 -0.40667957029871848 0 -0.29024563982462348 -0.40290232630153172 0 -0.28720710749981121 -0.40667957029871848 0 -0.29024563982462348 -0.40290232630153172 0 -0.28540973258487262 -0.40167441560737122 0 -0.28720710749981121 -0.40667957029871848 0 -0.28540973258487262 -0.40167441560737122 0 -0.28011940499286597 -0.40486302017794851 0 -0.28540973258487262 -0.40167441560737122 0 -0.28067105393946779 -0.40076244671033351 0 -0.28011940499286597 -0.40486302017794851 0 -0.28540973258487262 -0.40167441560737122 0 -0.2837767588961882 -0.39604655670759947 0 -0.28067105393946779 -0.40076244671033351 0 -0.29024563982462348 -0.40290232630153172 0 -0.28540973258487262 -0.40167441560737122 0 -0.28857490579015949 -0.39714435620671268 0 -0.28857490579015949 -0.39714435620671268 0 -0.2837767588961882 -0.39604655670759947 0 -0.28750800177619712 -0.39231440209505353 0 -0.28540973258487262 -0.40167441560737122 0 -0.28857490579015949 -0.39714435620671268 0 -0.2837767588961882 -0.39604655670759947 0 -0.2837767588961882 -0.39604655670759947 0 -0.28307659033515392 -0.38979264654044782 0 -0.27710629728170832 -0.39435370527936647 0 -0.2837767588961882 -0.39604655670759947 0 -0.28750800177619712 -0.39231440209505353 0 -0.28307659033515392 -0.38979264654044782 0 -0.29024563982462348 -0.40290232630153172 0 -0.28857490579015949 -0.39714435620671268 0 -0.29379901506965328 -0.39066316096562431 0 -0.28857490579015949 -0.39714435620671268 0 -0.28750800177619712 -0.39231440209505353 0 -0.29379901506965328 -0.39066316096562431 0 -0.29777205611273788 -0.38947161119550833 0 -0.29675840215818738 -0.39672307184547112 0 -0.29379901506965328 -0.39066316096562431 0 -0.29272920116057283 -0.37108565318348641 0 -0.29777205611273788 -0.38947161119550833 0 -0.29379901506965328 -0.39066316096562431 0 -0.29272920116057283 -0.37108565318348641 0 -0.29379901506965328 -0.39066316096562431 0 -0.29272920116057283 -0.37108565318348641 0 -0.29379901506965328 -0.39066316096562431 0 -0.28872553499752102 -0.38089764320267772 0 -0.29379901506965328 -0.39066316096562431 0 -0.28791387117379791 -0.38703571968461231 0 -0.28872553499752102 -0.38089764320267772 0 -0.28750800177619712 -0.39231440209505353 0 -0.29379901506965328 -0.39066316096562431 0 -0.28791387117379791 -0.38703571968461231 0 -0.28307659033515392 -0.38979264654044782 0 -0.28371507938943952 -0.38139621423523312 0 -0.27718380551594429 -0.38605841468796709 0 -0.28791387117379791 -0.38703571968461231 0 -0.28307659033515392 -0.38979264654044782 0 -0.28371507938943952 -0.38139621423523312 0 -0.28750800177619712 -0.39231440209505353 0 -0.28791387117379791 -0.38703571968461231 0 -0.28307659033515392 -0.38979264654044782 0 -0.28791387117379791 -0.38703571968461231 0 -0.28872553499752102 -0.38089764320267772 0 -0.28371507938943952 -0.38139621423523312 0 -0.28547050819414171 -0.37430746794443231 0 -0.28371507938943952 -0.38139621423523312 0 -0.27749089826650492 -0.37747461974895979 0 -0.29272920116057283 -0.37108565318348641 0 -0.28547050819414171 -0.37430746794443231 0 -0.28872553499752102 -0.38089764320267772 0 -0.28547050819414171 -0.37430746794443231 0 -0.28872553499752102 -0.38089764320267772 0 -0.28371507938943952 -0.38139621423523312 0 -0.27036938484470918 -0.37178568419280422 0 -0.27019722035294191 -0.38204339117159319 0 -0.27749089826650492 -0.37747461974895979 0 -0.27036938484470918 -0.37178568419280422 0 -0.27019722035294191 -0.38204339117159319 0 -0.26109032466993221 -0.37831927443361552 0 -0.27019722035294191 -0.38204339117159319 0 -0.27749089826650492 -0.37747461974895979 0 -0.27718380551594429 -0.38605841468796709 0 -0.28371507938943952 -0.38139621423523312 0 -0.27749089826650492 -0.37747461974895979 0 -0.27718380551594429 -0.38605841468796709 0 -0.27718380551594429 -0.38605841468796709 0 -0.27137942794812381 -0.38947446941279551 0 -0.27710629728170832 -0.39435370527936647 0 -0.28307659033515392 -0.38979264654044782 0 -0.27718380551594429 -0.38605841468796709 0 -0.27710629728170832 -0.39435370527936647 0 -0.27019722035294191 -0.38204339117159319 0 -0.27718380551594429 -0.38605841468796709 0 -0.27137942794812381 -0.38947446941279551 0 -0.27019722035294191 -0.38204339117159319 0 -0.27137942794812381 -0.38947446941279551 0 -0.26410929481557333 -0.38840864660885732 0 -0.27137942794812381 -0.38947446941279551 0 -0.26858573417443798 -0.39660450671885761 0 -0.26410929481557333 -0.38840864660885732 0 -0.27137942794812381 -0.38947446941279551 0 -0.26858573417443798 -0.39660450671885761 0 -0.27710629728170832 -0.39435370527936647 0 -0.26858573417443798 -0.39660450671885761 0 -0.27710629728170832 -0.39435370527936647 0 -0.27498169417149748 -0.40062125484018302 0 -0.2837767588961882 -0.39604655670759947 0 -0.27710629728170832 -0.39435370527936647 0 -0.28067105393946779 -0.40076244671033351 0 -0.27498169417149748 -0.40062125484018302 0 -0.28011940499286597 -0.40486302017794851 0 -0.27178157132047642 -0.40685039833936693 0 -0.27710629728170832 -0.39435370527936647 0 -0.27498169417149748 -0.40062125484018302 0 -0.28067105393946779 -0.40076244671033351 0 -0.27498169417149748 -0.40062125484018302 0 -0.28067105393946779 -0.40076244671033351 0 -0.28011940499286597 -0.40486302017794851 0 -0.26858573417443798 -0.39660450671885761 0 -0.27498169417149748 -0.40062125484018302 0 -0.27178157132047642 -0.40685039833936693 0 -0.26858573417443798 -0.39660450671885761 0 -0.26351582140537738 -0.40319538448463949 0 -0.27178157132047642 -0.40685039833936693 0 -0.26858573417443798 -0.39660450671885761 0 -0.26351582140537738 -0.40319538448463949 0 -0.25921437702325978 -0.39567090723372927 0 -0.26351582140537738 -0.40319538448463949 0 -0.2547681443921207 -0.40375337671297518 0 -0.25921437702325978 -0.39567090723372927 0 -0.2547681443921207 -0.40375337671297518 0 -0.25091853974432787 -0.39681899963758649 0 -0.25921437702325978 -0.39567090723372927 0 -0.2547681443921207 -0.40375337671297518 0 -0.25091853974432787 -0.39681899963758649 0 -0.24508163955823711 -0.40395286098442379 0 -0.25091853974432787 -0.39681899963758649 0 -0.25921437702325978 -0.39567090723372927 0 -0.25442737635881779 -0.3870735656787338 0 -0.26858573417443798 -0.39660450671885761 0 -0.25921437702325978 -0.39567090723372927 0 -0.26410929481557333 -0.38840864660885732 0 -0.25921437702325978 -0.39567090723372927 0 -0.26410929481557333 -0.38840864660885732 0 -0.25442737635881779 -0.3870735656787338 0 -0.26410929481557333 -0.38840864660885732 0 -0.25442737635881779 -0.3870735656787338 0 -0.26109032466993221 -0.37831927443361552 0 -0.27019722035294191 -0.38204339117159319 0 -0.26410929481557333 -0.38840864660885732 0 -0.26109032466993221 -0.37831927443361552 0 -0.25442737635881779 -0.3870735656787338 0 -0.26109032466993221 -0.37831927443361552 0 -0.24671633714885899 -0.37500267670740822 0 -0.26624381152484439 -0.4269770169926706 0 -0.2754619929608812 -0.42692674076378101 0 -0.27213368236379298 -0.41738736062777732 0 -0.26624381152484439 -0.4269770169926706 0 -0.27531913182206408 -0.43576153383787791 0 -0.26053124584029708 -0.44231639314783422 0 -0.26624381152484439 -0.4269770169926706 0 -0.27531913182206408 -0.43576153383787791 0 -0.2754619929608812 -0.42692674076378101 0 -0.28279180542715449 -0.42854729923922952 0 -0.27531913182206408 -0.43576153383787791 0 -0.2754619929608812 -0.42692674076378101 0 -0.28279180542715449 -0.42854729923922952 0 -0.28453196225993183 -0.43592835817799069 0 -0.27531913182206408 -0.43576153383787791 0 -0.28279180542715449 -0.42854729923922952 0 -0.2754619929608812 -0.42692674076378101 0 -0.27930600923441862 -0.42106424654986918 0 -0.27930600923441862 -0.42106424654986918 0 -0.28066527044107081 -0.41259003527171872 0 -0.27213368236379298 -0.41738736062777732 0 -0.2754619929608812 -0.42692674076378101 0 -0.27930600923441862 -0.42106424654986918 0 -0.27213368236379298 -0.41738736062777732 0 -0.28066527044107081 -0.41259003527171872 0 -0.27178157132047642 -0.40685039833936693 0 -0.27213368236379298 -0.41738736062777732 0 -0.28011940499286597 -0.40486302017794851 0 -0.28066527044107081 -0.41259003527171872 0 -0.27178157132047642 -0.40685039833936693 0 -0.27178157132047642 -0.40685039833936693 0 -0.27213368236379298 -0.41738736062777732 0 -0.26152036912886722 -0.4132872757744101 0 -0.26624381152484439 -0.4269770169926706 0 -0.27213368236379298 -0.41738736062777732 0 -0.26152036912886722 -0.4132872757744101 0 -0.26351582140537738 -0.40319538448463949 0 -0.2547681443921207 -0.40375337671297518 0 -0.26152036912886722 -0.4132872757744101 0 -0.26351582140537738 -0.40319538448463949 0 -0.27178157132047642 -0.40685039833936693 0 -0.26152036912886722 -0.4132872757744101 0 -0.2547681443921207 -0.40375337671297518 0 -0.26152036912886722 -0.4132872757744101 0 -0.24855152321588861 -0.41314653328822099 0 -0.26152036912886722 -0.4132872757744101 0 -0.25238978005455143 -0.42583818585533728 0 -0.24855152321588861 -0.41314653328822099 0 -0.25238978005455143 -0.42583818585533728 0 -0.26053124584029708 -0.44231639314783422 0 -0.2371366477423584 -0.43900347742452078 0 -0.26624381152484439 -0.4269770169926706 0 -0.25238978005455143 -0.42583818585533728 0 -0.26053124584029708 -0.44231639314783422 0 -0.26624381152484439 -0.4269770169926706 0 -0.26152036912886722 -0.4132872757744101 0 -0.25238978005455143 -0.42583818585533728 0 -0.25113986275768713 -0.45887945861160639 0 -0.26660912428219152 -0.4626580791158646 0 -0.25691150275338992 -0.48378273650344272 0 -0.26053124584029708 -0.44231639314783422 0 -0.25113986275768713 -0.45887945861160639 0 -0.26660912428219152 -0.4626580791158646 0 -0.26660912428219152 -0.4626580791158646 0 -0.28212680477551177 -0.4615477092220851 0 -0.27869742437592648 -0.48096851638232452 0 -0.26660912428219152 -0.4626580791158646 0 -0.27553711272279968 -0.44972067536728338 0 -0.28212680477551177 -0.4615477092220851 0 -0.27553711272279968 -0.44972067536728338 0 -0.28575792424986368 -0.45225273535987459 0 -0.28212680477551177 -0.4615477092220851 0 -0.26053124584029708 -0.44231639314783422 0 -0.26660912428219152 -0.4626580791158646 0 -0.27553711272279968 -0.44972067536728338 0 -0.27531913182206408 -0.43576153383787791 0 -0.26053124584029708 -0.44231639314783422 0 -0.27553711272279968 -0.44972067536728338 0 -0.27553711272279968 -0.44972067536728338 0 -0.28219627946834702 -0.44287729737636528 0 -0.28575792424986368 -0.45225273535987459 0 -0.27531913182206408 -0.43576153383787791 0 -0.27553711272279968 -0.44972067536728338 0 -0.28219627946834702 -0.44287729737636528 0 -0.28453196225993183 -0.43592835817799069 0 -0.27531913182206408 -0.43576153383787791 0 -0.28219627946834702 -0.44287729737636528 0 -0.29286783408332562 -0.43678616033580919 0 -0.29611923336341128 -0.43346829415343369 0 -0.29536419425065102 -0.45564514690511559 0 -0.29611923336341128 -0.43346829415343369 0 -0.29536419425065102 -0.45564514690511559 0 -0.29734994244789809 -0.45564484403342392 0 -0.29286783408332562 -0.43678616033580919 0 -0.28998757294685151 -0.44516011623643531 0 -0.29536419425065102 -0.45564514690511559 0 -0.29611923336341128 -0.43346829415343369 0 -0.29734994244789809 -0.45564484403342392 0 -0.29611923336341128 -0.43346829415343369 0 -0.29536419425065102 -0.45564514690511559 0 -0.28453196225993183 -0.43592835817799069 0 -0.28219627946834702 -0.44287729737636528 0 -0.28998757294685151 -0.44516011623643531 0 -0.28998757294685151 -0.44516011623643531 0 -0.28575792424986368 -0.45225273535987459 0 -0.29536419425065102 -0.45564514690511559 0 -0.28219627946834702 -0.44287729737636528 0 -0.28998757294685151 -0.44516011623643531 0 -0.28575792424986368 -0.45225273535987459 0 -0.29536419425065102 -0.45564514690511559 0 -0.29734994244789809 -0.45564484403342392 0 -0.29462640298825399 -0.4778225734525563 0 -0.29536419425065102 -0.45564514690511559 0 -0.29462640298825399 -0.4778225734525563 0 -0.28212680477551177 -0.4615477092220851 0 -0.29536419425065102 -0.45564514690511559 0 -0.29462640298825399 -0.4778225734525563 0 -0.28575792424986368 -0.45225273535987459 0 -0.28212680477551177 -0.4615477092220851 0 -0.29536419425065102 -0.45564514690511559 0 -0.29734994244789809 -0.45564484403342392 0 -0.29856183732544139 -0.47782242201670988 0 -0.29734994244789809 -0.45564484403342392 0 -0.31245435207434502 -0.46629031041754782 0 -0.31246527538330188 -0.44820040532945382 0 -0.29734994244789809 -0.45564484403342392 0 -0.31245435207434502 -0.46629031041754782 0 -0.29856183732544139 -0.47782242201670988 0 -0.29611923336341128 -0.43346829415343369 0 -0.29734994244789809 -0.45564484403342392 0 -0.31246527538330188 -0.44820040532945382 0 -0.31011417754272558 -0.4308636243528895 0 -0.29611923336341128 -0.43346829415343369 0 -0.31246527538330188 -0.44820040532945382 0 -0.29977373220298459 -0.49999999999999589 0 -0.29856183732544139 -0.47782242201670988 0 -0.29388861172585717 -0.49999999999999689 0 -0.29977373220298459 -0.49999999999999589 0 -0.29856183732544139 -0.47782242201670988 0 -0.31318934017311428 -0.48563798712654649 0 -0.29977373220298459 -0.49999999999999589 0 -0.29856183732544139 -0.47782242201670988 0 -0.31318934017311428 -0.48563798712654649 0 -0.31245435207434502 -0.46629031041754782 0 -0.29856183732544139 -0.47782242201670988 0 -0.28212680477551177 -0.4615477092220851 0 -0.29462640298825399 -0.4778225734525563 0 -0.27869742437592648 -0.48096851638232452 0 -0.29734994244789809 -0.45564484403342392 0 -0.29856183732544139 -0.47782242201670988 0 -0.29462640298825399 -0.4778225734525563 0 -0.29462640298825399 -0.4778225734525563 0 -0.29388861172585717 -0.49999999999999689 0 -0.27869742437592648 -0.48096851638232452 0 -0.29856183732544139 -0.47782242201670988 0 -0.29462640298825399 -0.4778225734525563 0 -0.29388861172585717 -0.49999999999999689 0 -0.29462640298825399 -0.4778225734525563 0 -0.29388861172585717 -0.49999999999999689 0 -0.29388861172585717 -0.49999999999999689 0 -0.27802209973035558 -0.50000000000000067 0 -0.27869742437592648 -0.48096851638232452 0 -0.27802209973035558 -0.50000000000000067 0 -0.25691150275338992 -0.48378273650344272 0 -0.27802209973035558 -0.50000000000000067 0 -0.27869742437592648 -0.48096851638232452 0 -0.25691150275338992 -0.48378273650344272 0 -0.26660912428219152 -0.4626580791158646 0 -0.27869742437592648 -0.48096851638232452 0 -0.25691150275338992 -0.48378273650344272 0 -0.25691150275338992 -0.48378273650344272 0 -0.25615307957660011 -0.5 0 -0.24559778108811681 -0.49189136825172092 0 -0.27802209973035558 -0.50000000000000067 0 -0.25691150275338992 -0.48378273650344272 0 -0.25615307957660011 -0.5 0 -0.23504248259963301 -0.48378273650344222 0 -0.23428405942284439 -0.49999999999999839 0 -0.25691150275338992 -0.48378273650344272 0 -0.24559778108811681 -0.49189136825172092 0 -0.23504248259963301 -0.48378273650344222 0 -0.24559778108811681 -0.49189136825172092 0 -0.23504248259963301 -0.48378273650344222 0 -0.23428405942284439 -0.49999999999999839 0 -0.25615307957660011 -0.5 0 -0.24559778108811681 -0.49189136825172092 0 -0.23428405942284439 -0.49999999999999839 0 -0.23504248259963301 -0.48378273650344222 0 -0.2358009057764231 -0.46756547300688611 0 -0.25113986275768713 -0.45887945861160639 0 -0.25691150275338992 -0.48378273650344272 0 -0.2358009057764231 -0.46756547300688611 0 -0.25691150275338992 -0.48378273650344272 0 -0.2358009057764231 -0.46756547300688611 0 -0.25691150275338992 -0.48378273650344272 0 -0.23504248259963301 -0.48378273650344222 0 -0.2358009057764231 -0.46756547300688611 0 -0.23504248259963301 -0.48378273650344222 0 -0.2252635384610796 -0.4731266426555385 0 -0.22247633572965661 -0.48707065654359349 0 -0.23504248259963301 -0.48378273650344222 0 -0.2252635384610796 -0.4731266426555385 0 -0.2358009057764231 -0.46756547300688611 0 -0.2252635384610796 -0.4731266426555385 0 -0.22247633572965661 -0.48707065654359349 0 -0.21286163189349641 -0.47767140782621897 0 -0.23428405942284439 -0.49999999999999839 0 -0.22247633572965661 -0.48707065654359349 0 -0.20484588527586681 -0.5 0 -0.23504248259963301 -0.48378273650344222 0 -0.23428405942284439 -0.49999999999999839 0 -0.22247633572965661 -0.48707065654359349 0 -0.26053124584029708 -0.44231639314783422 0 -0.25113986275768713 -0.45887945861160639 0 -0.2371366477423584 -0.43900347742452078 0 -0.2371366477423584 -0.43900347742452078 0 -0.2358009057764231 -0.46756547300688611 0 -0.25113986275768713 -0.45887945861160639 0 -0.2371366477423584 -0.43900347742452078 0 -0.2358009057764231 -0.46756547300688611 0 -0.2371366477423584 -0.43900347742452078 0 -0.2358009057764231 -0.46756547300688611 0 -0.22877292312242459 -0.46216654247576178 0 -0.2252635384610796 -0.4731266426555385 0 -0.2358009057764231 -0.46756547300688611 0 -0.22877292312242459 -0.46216654247576178 0 -0.2358009057764231 -0.46756547300688611 0 -0.22877292312242459 -0.46216654247576178 0 -0.2252635384610796 -0.4731266426555385 0 -0.22877292312242459 -0.46216654247576178 0 -0.2166269516448453 -0.46050303957732852 0 -0.22480527398661329 -0.45223818608418997 0 -0.2166845734368249 -0.44727968485914887 0 -0.2166269516448453 -0.46050303957732852 0 -0.22877292312242459 -0.46216654247576178 0 -0.22480527398661329 -0.45223818608418997 0 -0.2166269516448453 -0.46050303957732852 0 -0.2371366477423584 -0.43900347742452078 0 -0.2166845734368249 -0.44727968485914887 0 -0.22146276262783171 -0.43584388769949067 0 -0.2371366477423584 -0.43900347742452078 0 -0.22877292312242459 -0.46216654247576178 0 -0.22480527398661329 -0.45223818608418997 0 -0.2371366477423584 -0.43900347742452078 0 -0.22480527398661329 -0.45223818608418997 0 -0.2166845734368249 -0.44727968485914887 0 -0.2166845734368249 -0.44727968485914887 0 -0.20516439995776761 -0.44691166783190289 0 -0.20866912247198999 -0.43427388730110672 0 -0.2166845734368249 -0.44727968485914887 0 -0.20866912247198999 -0.43427388730110672 0 -0.22146276262783171 -0.43584388769949067 0 -0.2166845734368249 -0.44727968485914887 0 -0.20516439995776761 -0.44691166783190289 0 -0.20297214423161711 -0.45964964654368939 0 -0.2166269516448453 -0.46050303957732852 0 -0.20297214423161711 -0.45964964654368939 0 -0.21286163189349641 -0.47767140782621897 0 -0.2166845734368249 -0.44727968485914887 0 -0.2166269516448453 -0.46050303957732852 0 -0.20297214423161711 -0.45964964654368939 0 -0.20297214423161711 -0.45964964654368939 0 -0.19233175969063851 -0.44644345262366669 0 -0.180308219052532 -0.46214111538457803 0 -0.20297214423161711 -0.45964964654368939 0 -0.19618581383735659 -0.47661664271410231 0 -0.180308219052532 -0.46214111538457803 0 -0.20516439995776761 -0.44691166783190289 0 -0.19233175969063851 -0.44644345262366669 0 -0.20866912247198999 -0.43427388730110672 0 -0.20516439995776761 -0.44691166783190289 0 -0.20297214423161711 -0.45964964654368939 0 -0.19233175969063851 -0.44644345262366669 0 -0.20484588527586681 -0.5 0 -0.21286163189349641 -0.47767140782621897 0 -0.19618581383735659 -0.47661664271410231 0 -0.22247633572965661 -0.48707065654359349 0 -0.20484588527586681 -0.5 0 -0.21286163189349641 -0.47767140782621897 0 -0.2252635384610796 -0.4731266426555385 0 -0.2166269516448453 -0.46050303957732852 0 -0.21286163189349641 -0.47767140782621897 0 -0.20297214423161711 -0.45964964654368939 0 -0.21286163189349641 -0.47767140782621897 0 -0.19618581383735659 -0.47661664271410231 0 -0.20484588527586681 -0.5 0 -0.19618581383735659 -0.47661664271410231 0 -0.18141207529635481 -0.48374663395529899 0 -0.1754077111288892 -0.5 0 -0.16313887801722191 -0.48107055769228951 0 -0.18141207529635481 -0.48374663395529899 0 -0.20484588527586681 -0.5 0 -0.1754077111288892 -0.5 0 -0.18141207529635481 -0.48374663395529899 0 -0.1754077111288892 -0.5 0 -0.16313887801722191 -0.48107055769228951 0 -0.14596953698191151 -0.50000000000000067 0 -0.16313887801722191 -0.48107055769228951 0 -0.180308219052532 -0.46214111538457803 0 -0.16313887801722191 -0.48107055769228951 0 -0.180308219052532 -0.46214111538457803 0 -0.16046716602174749 -0.46653046155267158 0 -0.16313887801722191 -0.48107055769228951 0 -0.16046716602174749 -0.46653046155267158 0 -0.1493502013458973 -0.47960305076409282 0 -0.16313887801722191 -0.48107055769228951 0 -0.18141207529635481 -0.48374663395529899 0 -0.180308219052532 -0.46214111538457803 0 -0.19618581383735659 -0.47661664271410231 0 -0.18141207529635481 -0.48374663395529899 0 -0.180308219052532 -0.46214111538457803 0 -0.19233175969063851 -0.44644345262366669 0 -0.180308219052532 -0.46214111538457803 0 -0.16633669618649269 -0.44778774508833091 0 -0.19233175969063851 -0.44644345262366669 0 -0.16633669618649269 -0.44778774508833091 0 -0.18929805962503929 -0.42848571740707858 0 -0.16633669618649269 -0.44778774508833091 0 -0.18929805962503929 -0.42848571740707858 0 -0.16633669618649269 -0.44778774508833091 0 -0.15065685457348449 -0.43683814347593142 0 -0.16785277623241299 -0.43310496712312979 0 -0.16633669618649269 -0.44778774508833091 0 -0.16046716602174749 -0.46653046155267158 0 -0.14337533274794659 -0.46708977276958391 0 -0.180308219052532 -0.46214111538457803 0 -0.16633669618649269 -0.44778774508833091 0 -0.16046716602174749 -0.46653046155267158 0 -0.16633669618649269 -0.44778774508833091 0 -0.14522564351033701 -0.45415486454232029 0 -0.14337533274794659 -0.46708977276958391 0 -0.16633669618649269 -0.44778774508833091 0 -0.14337533274794659 -0.46708977276958391 0 -0.14522564351033701 -0.45415486454232029 0 -0.14337533274794659 -0.46708977276958391 0 -0.1334346851647113 -0.45551116210643039 0 -0.14522564351033701 -0.45415486454232029 0 -0.15065685457348449 -0.43683814347593142 0 -0.14522564351033701 -0.45415486454232029 0 -0.13707645915362471 -0.4431299527894913 0 -0.15065685457348449 -0.43683814347593142 0 -0.16633669618649269 -0.44778774508833091 0 -0.14522564351033701 -0.45415486454232029 0 -0.15065685457348449 -0.43683814347593142 0 -0.14522564351033701 -0.45415486454232029 0 -0.13707645915362471 -0.4431299527894913 0 -0.1334346851647113 -0.45551116210643039 0 -0.1271442566298451 -0.44596628899092861 0 -0.1334346851647113 -0.45551116210643039 0 -0.120968343029728 -0.45462115421979032 0 -0.13707645915362471 -0.4431299527894913 0 -0.1271442566298451 -0.44596628899092861 0 -0.1334346851647113 -0.45551116210643039 0 -0.1271442566298451 -0.44596628899092861 0 -0.1286505554066244 -0.43652862388743607 0 -0.122395437252204 -0.43980370574357808 0 -0.13707645915362471 -0.4431299527894913 0 -0.1271442566298451 -0.44596628899092861 0 -0.1286505554066244 -0.43652862388743607 0 -0.14337533274794659 -0.46708977276958391 0 -0.1334346851647113 -0.45551116210643039 0 -0.12629935107648191 -0.46812041530357129 0 -0.1334346851647113 -0.45551116210643039 0 -0.12629935107648191 -0.46812041530357129 0 -0.120968343029728 -0.45462115421979032 0 -0.12629935107648191 -0.46812041530357129 0 -0.13627033042206579 -0.48420719645537519 0 -0.1239596724013798 -0.48203658885458761 0 -0.14337533274794659 -0.46708977276958391 0 -0.12629935107648191 -0.46812041530357129 0 -0.13627033042206579 -0.48420719645537519 0 -0.13627033042206579 -0.48420719645537519 0 -0.1239596724013798 -0.48203658885458761 0 -0.1210211889508961 -0.5 0 -0.13627033042206579 -0.48420719645537519 0 -0.14596953698191151 -0.50000000000000067 0 -0.1210211889508961 -0.5 0 -0.16313887801722191 -0.48107055769228951 0 -0.14596953698191151 -0.50000000000000067 0 -0.16313887801722191 -0.48107055769228951 0 -0.14596953698191151 -0.50000000000000067 0 -0.1493502013458973 -0.47960305076409282 0 -0.13627033042206579 -0.48420719645537519 0 -0.14596953698191151 -0.50000000000000067 0 -0.1493502013458973 -0.47960305076409282 0 -0.16046716602174749 -0.46653046155267158 0 -0.14337533274794659 -0.46708977276958391 0 -0.1493502013458973 -0.47960305076409282 0 -0.14337533274794659 -0.46708977276958391 0 -0.13627033042206579 -0.48420719645537519 0 -0.1493502013458973 -0.47960305076409282 0 -0.14872833990636619 -0.40040071331519461 0 -0.14508838474640481 -0.38911943664951187 0 -0.16458396097748459 -0.39243334792371809 0 -0.14872833990636619 -0.40040071331519461 0 -0.15354685890108899 -0.40508439079549158 0 -0.16458396097748459 -0.39243334792371809 0 -0.14872833990636619 -0.40040071331519461 0 -0.14508838474640481 -0.38911943664951187 0 -0.1385708053801766 -0.40146574734158641 0 -0.14872833990636619 -0.40040071331519461 0 -0.1385708053801766 -0.40146574734158641 0 -0.14451205684648771 -0.40885892084004127 0 -0.14872833990636619 -0.40040071331519461 0 -0.15354685890108899 -0.40508439079549158 0 -0.14451205684648771 -0.40885892084004127 0 -0.15321505093502541 -0.37787944056700662 0 -0.14508838474640481 -0.38911943664951187 0 -0.1351051062916532 -0.37998381608038578 0 -0.15321505093502541 -0.37787944056700662 0 -0.14508838474640481 -0.38911943664951187 0 -0.16458396097748459 -0.39243334792371809 0 -0.14508838474640481 -0.38911943664951187 0 -0.1351051062916532 -0.37998381608038578 0 -0.13009349872902409 -0.39396436485078351 0 -0.1351051062916532 -0.37998381608038578 0 -0.1216493057553388 -0.36805364158635689 0 -0.1226431281372921 -0.38341950810688952 0 -0.1351051062916532 -0.37998381608038578 0 -0.13009349872902409 -0.39396436485078351 0 -0.1226431281372921 -0.38341950810688952 0 -0.14508838474640481 -0.38911943664951187 0 -0.13009349872902409 -0.39396436485078351 0 -0.1385708053801766 -0.40146574734158641 0 -0.1385708053801766 -0.40146574734158641 0 -0.1314041218031485 -0.40266995078240631 0 -0.13501333007481511 -0.41226517030697929 0 -0.13009349872902409 -0.39396436485078351 0 -0.1385708053801766 -0.40146574734158641 0 -0.1314041218031485 -0.40266995078240631 0 -0.1314041218031485 -0.40266995078240631 0 -0.13501333007481511 -0.41226517030697929 0 -0.12434083125225311 -0.40208234895582401 0 -0.13009349872902409 -0.39396436485078351 0 -0.1314041218031485 -0.40266995078240631 0 -0.12434083125225311 -0.40208234895582401 0 -0.13031013140721839 -0.41384368270944971 0 -0.13501333007481511 -0.41226517030697929 0 -0.1560880656366328 -0.41952142240954271 0 -0.13031013140721839 -0.41384368270944971 0 -0.13501333007481511 -0.41226517030697929 0 -0.1136635822756115 -0.40588575951094952 0 -0.13031013140721839 -0.41384368270944971 0 -0.12588779620812371 -0.42207359555134011 0 -0.1192454834063897 -0.41997597996162739 0 -0.13031013140721839 -0.41384368270944971 0 -0.12588779620812371 -0.42207359555134011 0 -0.13215908754788969 -0.42425378121130652 0 -0.13031013140721839 -0.41384368270944971 0 -0.13215908754788969 -0.42425378121130652 0 -0.14148777244203231 -0.42445227316360379 0 -0.1385708053801766 -0.40146574734158641 0 -0.13501333007481511 -0.41226517030697929 0 -0.14451205684648771 -0.40885892084004127 0 -0.1286505554066244 -0.43652862388743607 0 -0.12710503907706461 -0.4283853283328618 0 -0.1360046986050098 -0.43251402629927732 0 -0.1286505554066244 -0.43652862388743607 0 -0.12710503907706461 -0.4283853283328618 0 -0.1208509852946628 -0.4336781170756715 0 -0.12710503907706461 -0.4283853283328618 0 -0.13215908754788969 -0.42425378121130652 0 -0.1360046986050098 -0.43251402629927732 0 -0.12710503907706461 -0.4283853283328618 0 -0.12588779620812371 -0.42207359555134011 0 -0.13215908754788969 -0.42425378121130652 0 -0.13215908754788969 -0.42425378121130652 0 -0.1360046986050098 -0.43251402629927732 0 -0.14148777244203231 -0.42445227316360379 0 -0.13707645915362471 -0.4431299527894913 0 -0.1286505554066244 -0.43652862388743607 0 -0.1360046986050098 -0.43251402629927732 0 -0.14148777244203231 -0.42445227316360379 0 -0.15065685457348449 -0.43683814347593142 0 -0.1560880656366328 -0.41952142240954271 0 -0.15065685457348449 -0.43683814347593142 0 -0.1560880656366328 -0.41952142240954271 0 -0.15992368525428169 -0.42851741329607279 0 -0.15065685457348449 -0.43683814347593142 0 -0.1560880656366328 -0.41952142240954271 0 -0.1360046986050098 -0.43251402629927732 0 -0.14148777244203231 -0.42445227316360379 0 -0.15065685457348449 -0.43683814347593142 0 -0.13707645915362471 -0.4431299527894913 0 -0.1360046986050098 -0.43251402629927732 0 -0.15065685457348449 -0.43683814347593142 0 -0.13031013140721839 -0.41384368270944971 0 -0.1560880656366328 -0.41952142240954271 0 -0.13501333007481511 -0.41226517030697929 0 -0.14451205684648771 -0.40885892084004127 0 -0.1560880656366328 -0.41952142240954271 0 -0.13501333007481511 -0.41226517030697929 0 -0.1560880656366328 -0.41952142240954271 0 -0.13031013140721839 -0.41384368270944971 0 -0.14148777244203231 -0.42445227316360379 0 -0.1560880656366328 -0.41952142240954271 0 -0.15354685890108899 -0.40508439079549158 0 -0.14451205684648771 -0.40885892084004127 0 -0.1560880656366328 -0.41952142240954271 0 -0.1560880656366328 -0.41952142240954271 0 -0.16283241228036191 -0.42115034822754732 0 -0.1721453781168488 -0.40895883530702531 0 -0.1560880656366328 -0.41952142240954271 0 -0.1721453781168488 -0.40895883530702531 0 -0.16458396097748459 -0.39243334792371809 0 -0.1560880656366328 -0.41952142240954271 0 -0.16283241228036191 -0.42115034822754732 0 -0.16283241228036191 -0.42115034822754732 0 -0.17283056874952879 -0.42356514925504463 0 -0.1721453781168488 -0.40895883530702531 0 -0.15065685457348449 -0.43683814347593142 0 -0.15992368525428169 -0.42851741329607279 0 -0.16785277623241299 -0.43310496712312979 0 -0.1560880656366328 -0.41952142240954271 0 -0.16283241228036191 -0.42115034822754732 0 -0.15992368525428169 -0.42851741329607279 0 -0.16283241228036191 -0.42115034822754732 0 -0.15992368525428169 -0.42851741329607279 0 -0.16586808447670751 -0.42655041974888358 0 -0.16283241228036191 -0.42115034822754732 0 -0.17283056874952879 -0.42356514925504463 0 -0.15992368525428169 -0.42851741329607279 0 -0.16586808447670751 -0.42655041974888358 0 -0.16785277623241299 -0.43310496712312979 0 -0.16283241228036191 -0.42115034822754732 0 -0.16586808447670751 -0.42655041974888358 0 -0.17283056874952879 -0.42356514925504463 0 -0.16586808447670751 -0.42655041974888358 0 -0.16785277623241299 -0.43310496712312979 0 -0.17283056874952879 -0.42356514925504463 0 -0.16633669618649269 -0.44778774508833091 0 -0.16785277623241299 -0.43310496712312979 0 -0.18929805962503929 -0.42848571740707858 0 -0.16785277623241299 -0.43310496712312979 0 -0.17283056874952879 -0.42356514925504463 0 -0.18929805962503929 -0.42848571740707858 0 -0.17283056874952879 -0.42356514925504463 0 -0.18929805962503929 -0.42848571740707858 0 -0.17283056874952879 -0.42356514925504463 0 -0.18498409700630131 -0.41544378133201532 0 -0.18929805962503929 -0.42848571740707858 0 -0.1721453781168488 -0.40895883530702531 0 -0.18498409700630131 -0.41544378133201532 0 -0.18844897983385309 -0.39856715215960098 0 -0.17283056874952879 -0.42356514925504463 0 -0.1721453781168488 -0.40895883530702531 0 -0.18498409700630131 -0.41544378133201532 0 -0.16458396097748459 -0.39243334792371809 0 -0.18335101669183779 -0.3812057525156472 0 -0.18844897983385309 -0.39856715215960098 0 -0.1721453781168488 -0.40895883530702531 0 -0.16458396097748459 -0.39243334792371809 0 -0.18844897983385309 -0.39856715215960098 0 -0.1560880656366328 -0.41952142240954271 0 -0.16458396097748459 -0.39243334792371809 0 -0.15354685890108899 -0.40508439079549158 0 -0.1560880656366328 -0.41952142240954271 0 -0.16458396097748459 -0.39243334792371809 0 -0.15321505093502541 -0.37787944056700662 0 -0.16458396097748459 -0.39243334792371809 0 -0.17280484408095151 -0.36622211474442351 0 -0.16458396097748459 -0.39243334792371809 0 -0.17280484408095151 -0.36622211474442351 0 -0.16458396097748459 -0.39243334792371809 0 -0.18335101669183779 -0.3812057525156472 0 -0.17280484408095151 -0.36622211474442351 0 -0.18335101669183779 -0.3812057525156472 0 -0.20123823672103289 -0.38014331815247282 0 -0.18844897983385309 -0.39856715215960098 0 -0.18844897983385309 -0.39856715215960098 0 -0.2046199785867906 -0.39847230417263529 0 -0.20219749870623621 -0.41764205253132708 0 -0.20123823672103289 -0.38014331815247282 0 -0.18844897983385309 -0.39856715215960098 0 -0.2046199785867906 -0.39847230417263529 0 -0.2046199785867906 -0.39847230417263529 0 -0.21611823988539741 -0.38921061036419941 0 -0.21509693778743361 -0.40679838765557641 0 -0.20123823672103289 -0.38014331815247282 0 -0.21611823988539741 -0.38921061036419941 0 -0.217226406021896 -0.37045194409949239 0 -0.20123823672103289 -0.38014331815247282 0 -0.2046199785867906 -0.39847230417263529 0 -0.21611823988539741 -0.38921061036419941 0 -0.18929805962503929 -0.42848571740707858 0 -0.20866912247198999 -0.43427388730110672 0 -0.19233175969063851 -0.44644345262366669 0 -0.18929805962503929 -0.42848571740707858 0 -0.20866912247198999 -0.43427388730110672 0 -0.18929805962503929 -0.42848571740707858 0 -0.20219749870623621 -0.41764205253132708 0 -0.20866912247198999 -0.43427388730110672 0 -0.18929805962503929 -0.42848571740707858 0 -0.20219749870623621 -0.41764205253132708 0 -0.18498409700630131 -0.41544378133201532 0 -0.18844897983385309 -0.39856715215960098 0 -0.20219749870623621 -0.41764205253132708 0 -0.18498409700630131 -0.41544378133201532 0 -0.18929805962503929 -0.42848571740707858 0 -0.20219749870623621 -0.41764205253132708 0 -0.20219749870623621 -0.41764205253132708 0 -0.21509693778743361 -0.40679838765557641 0 -0.22315888221391511 -0.42365845614488601 0 -0.2046199785867906 -0.39847230417263529 0 -0.20219749870623621 -0.41764205253132708 0 -0.21509693778743361 -0.40679838765557641 0 -0.20219749870623621 -0.41764205253132708 0 -0.21509693778743361 -0.40679838765557641 0 -0.20219749870623621 -0.41764205253132708 0 -0.20866912247198999 -0.43427388730110672 0 -0.22315888221391511 -0.42365845614488601 0 -0.20866912247198999 -0.43427388730110672 0 -0.22146276262783171 -0.43584388769949067 0 -0.22315888221391511 -0.42365845614488601 0 -0.2371366477423584 -0.43900347742452078 0 -0.22315888221391511 -0.42365845614488601 0 -0.23935540481235409 -0.42250621193358961 0 -0.2371366477423584 -0.43900347742452078 0 -0.22146276262783171 -0.43584388769949067 0 -0.22315888221391511 -0.42365845614488601 0 -0.21509693778743361 -0.40679838765557641 0 -0.22315888221391511 -0.42365845614488601 0 -0.23554019083505731 -0.41088440695498318 0 -0.22315888221391511 -0.42365845614488601 0 -0.23554019083505731 -0.41088440695498318 0 -0.23935540481235409 -0.42250621193358961 0 -0.2547681443921207 -0.40375337671297518 0 -0.24855152321588861 -0.41314653328822099 0 -0.24508163955823711 -0.40395286098442379 0 -0.23554019083505731 -0.41088440695498318 0 -0.24855152321588861 -0.41314653328822099 0 -0.24508163955823711 -0.40395286098442379 0 -0.25238978005455143 -0.42583818585533728 0 -0.24855152321588861 -0.41314653328822099 0 -0.23935540481235409 -0.42250621193358961 0 -0.23554019083505731 -0.41088440695498318 0 -0.24855152321588861 -0.41314653328822099 0 -0.23935540481235409 -0.42250621193358961 0 -0.25238978005455143 -0.42583818585533728 0 -0.2371366477423584 -0.43900347742452078 0 -0.23935540481235409 -0.42250621193358961 0 -0.21611823988539741 -0.38921061036419941 0 -0.22981893220967731 -0.38178779448398642 0 -0.22750377061148369 -0.39765802623714042 0 -0.21611823988539741 -0.38921061036419941 0 -0.22981893220967731 -0.38178779448398642 0 -0.217226406021896 -0.37045194409949239 0 -0.22981893220967731 -0.38178779448398642 0 -0.22750377061148369 -0.39765802623714042 0 -0.24110116138920401 -0.39364428757807041 0 -0.21611823988539741 -0.38921061036419941 0 -0.21509693778743361 -0.40679838765557641 0 -0.22750377061148369 -0.39765802623714042 0 -0.21509693778743361 -0.40679838765557641 0 -0.23554019083505731 -0.41088440695498318 0 -0.22750377061148369 -0.39765802623714042 0 -0.23554019083505731 -0.41088440695498318 0 -0.24110116138920401 -0.39364428757807041 0 -0.24508163955823711 -0.40395286098442379 0 -0.23554019083505731 -0.41088440695498318 0 -0.22750377061148369 -0.39765802623714042 0 -0.24110116138920401 -0.39364428757807041 0 -0.25091853974432787 -0.39681899963758649 0 -0.25442737635881779 -0.3870735656787338 0 -0.24110116138920401 -0.39364428757807041 0 -0.25091853974432787 -0.39681899963758649 0 -0.24110116138920401 -0.39364428757807041 0 -0.24508163955823711 -0.40395286098442379 0 -0.22981893220967731 -0.38178779448398642 0 -0.24110116138920401 -0.39364428757807041 0 -0.24671633714885899 -0.37500267670740822 0 -0.25442737635881779 -0.3870735656787338 0 -0.24110116138920401 -0.39364428757807041 0 -0.24671633714885899 -0.37500267670740822 0 -0.24671633714885899 -0.37500267670740822 0 -0.23225193856360821 -0.36180630090734539 0 -0.2499227142646899 -0.35235573747961701 0 -0.22981893220967731 -0.38178779448398642 0 -0.24671633714885899 -0.37500267670740822 0 -0.23225193856360821 -0.36180630090734539 0 -0.22981893220967731 -0.38178779448398642 0 -0.23225193856360821 -0.36180630090734539 0 -0.217226406021896 -0.37045194409949239 0 -0.23225193856360821 -0.36180630090734539 0 -0.217226406021896 -0.37045194409949239 0 -0.21571535310111661 -0.34890674183915099 0 -0.23225193856360821 -0.36180630090734539 0 -0.23767629342545649 -0.34543668832237179 0 -0.21571535310111661 -0.34890674183915099 0 -0.23225193856360821 -0.36180630090734539 0 -0.23767629342545649 -0.34543668832237179 0 -0.2499227142646899 -0.35235573747961701 0 -0.25792701942294799 -0.33316849180853908 0 -0.23767629342545649 -0.34543668832237179 0 -0.2499227142646899 -0.35235573747961701 0 -0.25792701942294799 -0.33316849180853908 0 -0.23767629342545649 -0.34543668832237179 0 -0.23256444177491989 -0.33094616957720657 0 -0.25792701942294799 -0.33316849180853908 0 -0.24627262270589559 -0.3210583192788774 0 -0.23256444177491989 -0.33094616957720657 0 -0.24627262270589559 -0.3210583192788774 0 -0.23456795261945829 -0.31766601376298231 0 -0.23256444177491989 -0.33094616957720657 0 -0.24627262270589559 -0.3210583192788774 0 -0.23456795261945829 -0.31766601376298231 0 -0.24399705722251039 -0.31175949823066318 0 -0.2235643709466853 -0.3205747298078489 0 -0.23256444177491989 -0.33094616957720657 0 -0.21462916989388439 -0.33080282301282782 0 -0.2235643709466853 -0.3205747298078489 0 -0.20535327809577511 -0.31703162380887151 0 -0.23093596228172411 -0.3065005345325611 0 -0.23456795261945829 -0.31766601376298231 0 -0.2235643709466853 -0.3205747298078489 0 -0.23093596228172411 -0.3065005345325611 0 -0.23456795261945829 -0.31766601376298231 0 -0.2235643709466853 -0.3205747298078489 0 -0.23256444177491989 -0.33094616957720657 0 -0.23256444177491989 -0.33094616957720657 0 -0.21462916989388439 -0.33080282301282782 0 -0.21571535310111661 -0.34890674183915099 0 -0.23767629342545649 -0.34543668832237179 0 -0.23256444177491989 -0.33094616957720657 0 -0.21571535310111661 -0.34890674183915099 0 -0.21462916989388439 -0.33080282301282782 0 -0.19704710960370089 -0.33352164021142039 0 -0.21571535310111661 -0.34890674183915099 0 -0.21462916989388439 -0.33080282301282782 0 -0.20535327809577511 -0.31703162380887151 0 -0.19704710960370089 -0.33352164021142039 0 -0.2235643709466853 -0.3205747298078489 0 -0.21462916989388439 -0.33080282301282782 0 -0.20535327809577511 -0.31703162380887151 0 -0.20535327809577511 -0.31703162380887151 0 -0.19704710960370089 -0.33352164021142039 0 -0.179770593909826 -0.32756271308518181 0 -0.20535327809577511 -0.31703162380887151 0 -0.179770593909826 -0.32756271308518181 0 -0.20535327809577511 -0.31703162380887151 0 -0.1867374130007903 -0.30452120294841267 0 -0.179770593909826 -0.32756271308518181 0 -0.19704710960370089 -0.33352164021142039 0 -0.19333814233855501 -0.3582673578751267 0 -0.18102572718441851 -0.34001088156512888 0 -0.19704710960370089 -0.33352164021142039 0 -0.19333814233855501 -0.3582673578751267 0 -0.21571535310111661 -0.34890674183915099 0 -0.18335101669183779 -0.3812057525156472 0 -0.20123823672103289 -0.38014331815247282 0 -0.19333814233855501 -0.3582673578751267 0 -0.20123823672103289 -0.38014331815247282 0 -0.19333814233855501 -0.3582673578751267 0 -0.217226406021896 -0.37045194409949239 0 -0.19333814233855501 -0.3582673578751267 0 -0.217226406021896 -0.37045194409949239 0 -0.21571535310111661 -0.34890674183915099 0 -0.2249129292632864 -0.26513074351846949 0 -0.234398189469262 -0.25214845472677339 0 -0.21978578570267129 -0.24479074222682279 0 -0.2249129292632864 -0.26513074351846949 0 -0.24369437200891481 -0.26294335837935368 0 -0.234398189469262 -0.25214845472677339 0 -0.2249129292632864 -0.26513074351846949 0 -0.21277857210478801 -0.25724972204334928 0 -0.21978578570267129 -0.24479074222682279 0 -0.24369437200891481 -0.26294335837935368 0 -0.234398189469262 -0.25214845472677339 0 -0.2483468260877667 -0.24670177710050209 0 -0.2249129292632864 -0.26513074351846949 0 -0.24369437200891481 -0.26294335837935368 0 -0.23781880050240509 -0.28157483844275699 0 -0.25513199288332411 -0.27448597803447933 0 -0.24369437200891481 -0.26294335837935368 0 -0.23781880050240509 -0.28157483844275699 0 -0.2249129292632864 -0.26513074351846949 0 -0.23781880050240509 -0.28157483844275699 0 -0.2186235232673136 -0.2852015087454009 0 -0.23781880050240509 -0.28157483844275699 0 -0.24227742392426271 -0.29959137744143183 0 -0.2186235232673136 -0.2852015087454009 0 -0.24227742392426271 -0.29959137744143183 0 -0.2186235232673136 -0.2852015087454009 0 -0.25708798134836952 -0.29160350062106721 0 -0.23781880050240509 -0.28157483844275699 0 -0.24227742392426271 -0.29959137744143183 0 -0.23456795261945829 -0.31766601376298231 0 -0.24399705722251039 -0.31175949823066318 0 -0.23093596228172411 -0.3065005345325611 0 -0.24227742392426271 -0.29959137744143183 0 -0.24399705722251039 -0.31175949823066318 0 -0.23093596228172411 -0.3065005345325611 0 -0.24227742392426271 -0.29959137744143183 0 -0.23093596228172411 -0.3065005345325611 0 -0.2186235232673136 -0.2852015087454009 0 -0.23093596228172411 -0.3065005345325611 0 -0.2139098406754662 -0.30096465562103542 0 -0.2186235232673136 -0.2852015087454009 0 -0.20535327809577511 -0.31703162380887151 0 -0.2139098406754662 -0.30096465562103542 0 -0.1998890726099633 -0.29111635835828098 0 -0.20535327809577511 -0.31703162380887151 0 -0.23093596228172411 -0.3065005345325611 0 -0.2139098406754662 -0.30096465562103542 0 -0.20535327809577511 -0.31703162380887151 0 -0.23093596228172411 -0.3065005345325611 0 -0.20535327809577511 -0.31703162380887151 0 -0.1998890726099633 -0.29111635835828098 0 -0.1867374130007903 -0.30452120294841267 0 -0.1998890726099633 -0.29111635835828098 0 -0.1949696226103643 -0.27081164004936992 0 -0.18617063966443559 -0.28434103840972619 0 -0.1998890726099633 -0.29111635835828098 0 -0.18617063966443559 -0.28434103840972619 0 -0.1867374130007903 -0.30452120294841267 0 -0.1998890726099633 -0.29111635835828098 0 -0.2186235232673136 -0.2852015087454009 0 -0.1949696226103643 -0.27081164004936992 0 -0.2139098406754662 -0.30096465562103542 0 -0.1998890726099633 -0.29111635835828098 0 -0.2186235232673136 -0.2852015087454009 0 -0.2186235232673136 -0.2852015087454009 0 -0.1949696226103643 -0.27081164004936992 0 -0.2186235232673136 -0.2852015087454009 0 -0.2112926499809118 -0.26763186227899838 0 -0.1949696226103643 -0.27081164004936992 0 -0.2249129292632864 -0.26513074351846949 0 -0.2186235232673136 -0.2852015087454009 0 -0.2112926499809118 -0.26763186227899838 0 -0.2112926499809118 -0.26763186227899838 0 -0.1949696226103643 -0.27081164004936992 0 -0.2022508905064806 -0.26073370432659382 0 -0.2022508905064806 -0.26073370432659382 0 -0.1788047671982789 -0.25746564027792762 0 -0.1919820056061752 -0.24866694914454751 0 -0.2022508905064806 -0.26073370432659382 0 -0.1788047671982789 -0.25746564027792762 0 -0.1949696226103643 -0.27081164004936992 0 -0.2022508905064806 -0.26073370432659382 0 -0.1787311889223008 -0.25952123097563079 0 -0.2022508905064806 -0.26073370432659382 0 -0.20565060507058999 -0.2479615578658618 0 -0.1919820056061752 -0.24866694914454751 0 -0.2022508905064806 -0.26073370432659382 0 -0.21277857210478801 -0.25724972204334928 0 -0.20565060507058999 -0.2479615578658618 0 -0.2112926499809118 -0.26763186227899838 0 -0.2022508905064806 -0.26073370432659382 0 -0.21277857210478801 -0.25724972204334928 0 -0.2249129292632864 -0.26513074351846949 0 -0.2112926499809118 -0.26763186227899838 0 -0.21277857210478801 -0.25724972204334928 0 -0.21277857210478801 -0.25724972204334928 0 -0.20565060507058999 -0.2479615578658618 0 -0.21978578570267129 -0.24479074222682279 0 -0.16555693033609031 -0.25561907576051202 0 -0.1483751555864386 -0.25322417492281102 0 -0.16555693033609031 -0.25561907576051202 0 -0.1483751555864386 -0.25322417492281102 0 -0.15845336225840409 -0.24859694491914161 0 -0.16555693033609031 -0.25561907576051202 0 -0.16677071226738061 -0.25365681120774819 0 -0.15845336225840409 -0.24859694491914161 0 -0.16677071226738061 -0.25365681120774819 0 -0.15845336225840409 -0.24859694491914161 0 -0.17131572195341579 -0.2564217713533376 0 -0.16555693033609031 -0.25561907576051202 0 -0.17244510792259371 -0.26538286052072479 0 -0.16555693033609031 -0.25561907576051202 0 -0.17244510792259371 -0.26538286052072479 0 -0.16655454190856689 -0.26952093780149139 0 -0.17131572195341579 -0.2564217713533376 0 -0.16677071226738061 -0.25365681120774819 0 -0.17131572195341579 -0.2564217713533376 0 -0.16677071226738061 -0.25365681120774819 0 -0.17444109585231091 -0.2412564603483803 0 -0.17131572195341579 -0.2564217713533376 0 -0.16555693033609031 -0.25561907576051202 0 -0.17131572195341579 -0.2564217713533376 0 -0.16555693033609031 -0.25561907576051202 0 -0.16677071226738061 -0.25365681120774819 0 -0.16555693033609031 -0.25561907576051202 0 -0.16677071226738061 -0.25365681120774819 0 -0.2022508905064806 -0.26073370432659382 0 -0.1788047671982789 -0.25746564027792762 0 -0.1787311889223008 -0.25952123097563079 0 -0.1949696226103643 -0.27081164004936992 0 -0.17131572195341579 -0.2564217713533376 0 -0.18069048994711359 -0.26915991169565728 0 -0.1949696226103643 -0.27081164004936992 0 -0.17131572195341579 -0.2564217713533376 0 -0.1787311889223008 -0.25952123097563079 0 -0.17131572195341579 -0.2564217713533376 0 -0.1788047671982789 -0.25746564027792762 0 -0.17444109585231091 -0.2412564603483803 0 -0.1949696226103643 -0.27081164004936992 0 -0.17131572195341579 -0.2564217713533376 0 -0.17131572195341579 -0.2564217713533376 0 -0.1788047671982789 -0.25746564027792762 0 -0.17131572195341579 -0.2564217713533376 0 -0.1788047671982789 -0.25746564027792762 0 -0.1787311889223008 -0.25952123097563079 0 -0.17131572195341579 -0.2564217713533376 0 -0.17244510792259371 -0.26538286052072479 0 -0.18069048994711359 -0.26915991169565728 0 -0.1788047671982789 -0.25746564027792762 0 -0.1787311889223008 -0.25952123097563079 0 -0.17244510792259371 -0.26538286052072479 0 -0.18069048994711359 -0.26915991169565728 0 -0.17508300659927609 -0.28054465255992389 0 -0.1949696226103643 -0.27081164004936992 0 -0.18069048994711359 -0.26915991169565728 0 -0.18617063966443559 -0.28434103840972619 0 -0.18069048994711359 -0.26915991169565728 0 -0.17508300659927609 -0.28054465255992389 0 -0.18617063966443559 -0.28434103840972619 0 -0.16555693033609031 -0.25561907576051202 0 -0.15294487971856069 -0.27600838888703011 0 -0.17508300659927609 -0.28054465255992389 0 -0.16655454190856689 -0.26952093780149139 0 -0.15294487971856069 -0.27600838888703011 0 -0.17508300659927609 -0.28054465255992389 0 -0.1624576465082106 -0.28640402103727719 0 -0.15294487971856069 -0.27600838888703011 0 -0.16555693033609031 -0.25561907576051202 0 -0.16655454190856689 -0.26952093780149139 0 -0.15294487971856069 -0.27600838888703011 0 -0.17508300659927609 -0.28054465255992389 0 -0.15294487971856069 -0.27600838888703011 0 -0.17244510792259371 -0.26538286052072479 0 -0.17508300659927609 -0.28054465255992389 0 -0.16655454190856689 -0.26952093780149139 0 -0.1624576465082106 -0.28640402103727719 0 -0.1612920494038346 -0.30195190961163809 0 -0.1497962277106572 -0.29081339194827138 0 -0.1624576465082106 -0.28640402103727719 0 -0.17437717083932949 -0.29428980521607168 0 -0.1612920494038346 -0.30195190961163809 0 -0.17508300659927609 -0.28054465255992389 0 -0.1624576465082106 -0.28640402103727719 0 -0.17437717083932949 -0.29428980521607168 0 -0.17508300659927609 -0.28054465255992389 0 -0.18617063966443559 -0.28434103840972619 0 -0.17437717083932949 -0.29428980521607168 0 -0.18617063966443559 -0.28434103840972619 0 -0.17437717083932949 -0.29428980521607168 0 -0.1867374130007903 -0.30452120294841267 0 -0.17437717083932949 -0.29428980521607168 0 -0.1867374130007903 -0.30452120294841267 0 -0.17232349386785589 -0.30980823188335188 0 -0.17232349386785589 -0.30980823188335188 0 -0.1612920494038346 -0.30195190961163809 0 -0.16105020430837941 -0.31924672814491728 0 -0.1612920494038346 -0.30195190961163809 0 -0.1466247412903332 -0.30429304124932338 0 -0.16105020430837941 -0.31924672814491728 0 -0.17437717083932949 -0.29428980521607168 0 -0.17232349386785589 -0.30980823188335188 0 -0.1612920494038346 -0.30195190961163809 0 -0.1612920494038346 -0.30195190961163809 0 -0.1466247412903332 -0.30429304124932338 0 -0.1497962277106572 -0.29081339194827138 0 -0.12810749051203341 -0.30647622405821667 0 -0.13514212453672511 -0.29482263686292137 0 -0.1179537143652763 -0.29258218609846842 0 -0.1466247412903332 -0.30429304124932338 0 -0.12810749051203341 -0.30647622405821667 0 -0.14153083199836469 -0.31844482065653001 0 -0.1466247412903332 -0.30429304124932338 0 -0.12810749051203341 -0.30647622405821667 0 -0.13514212453672511 -0.29482263686292137 0 -0.13514212453672511 -0.29482263686292137 0 -0.12957604585634469 -0.28386838998949399 0 -0.1179537143652763 -0.29258218609846842 0 -0.13514212453672511 -0.29482263686292137 0 -0.1179537143652763 -0.29258218609846842 0 -0.13514212453672511 -0.29482263686292137 0 -0.12957604585634469 -0.28386838998949399 0 -0.14165376500057661 -0.28160886421773917 0 -0.14165376500057661 -0.28160886421773917 0 -0.1497962277106572 -0.29081339194827138 0 -0.14870752354462541 -0.28218443559448259 0 -0.13514212453672511 -0.29482263686292137 0 -0.14165376500057661 -0.28160886421773917 0 -0.1497962277106572 -0.29081339194827138 0 -0.1466247412903332 -0.30429304124932338 0 -0.13514212453672511 -0.29482263686292137 0 -0.1497962277106572 -0.29081339194827138 0 -0.1624576465082106 -0.28640402103727719 0 -0.15322781583488301 -0.28232662856583168 0 -0.15294487971856069 -0.27600838888703011 0 -0.1497962277106572 -0.29081339194827138 0 -0.15322781583488301 -0.28232662856583168 0 -0.14870752354462541 -0.28218443559448259 0 -0.1624576465082106 -0.28640402103727719 0 -0.1497962277106572 -0.29081339194827138 0 -0.15322781583488301 -0.28232662856583168 0 -0.15294487971856069 -0.27600838888703011 0 -0.13420930821660171 -0.27216933362941298 0 -0.14660214400164659 -0.26355963996941417 0 -0.14165376500057661 -0.28160886421773917 0 -0.15294487971856069 -0.27600838888703011 0 -0.13420930821660171 -0.27216933362941298 0 -0.15294487971856069 -0.27600838888703011 0 -0.13420930821660171 -0.27216933362941298 0 -0.15322781583488301 -0.28232662856583168 0 -0.14870752354462541 -0.28218443559448259 0 -0.15294487971856069 -0.27600838888703011 0 -0.14165376500057661 -0.28160886421773917 0 -0.14870752354462541 -0.28218443559448259 0 -0.15294487971856069 -0.27600838888703011 0 -0.12957604585634469 -0.28386838998949399 0 -0.13420930821660171 -0.27216933362941298 0 -0.11803180414177911 -0.27967295107608459 0 -0.12957604585634469 -0.28386838998949399 0 -0.14165376500057661 -0.28160886421773917 0 -0.13420930821660171 -0.27216933362941298 0 -0.13420930821660171 -0.27216933362941298 0 -0.13192444615054111 -0.26077722664730452 0 -0.1154737367146428 -0.26833027837179618 0 -0.13420930821660171 -0.27216933362941298 0 -0.13192444615054111 -0.26077722664730452 0 -0.14660214400164659 -0.26355963996941417 0 -0.13192444615054111 -0.26077722664730452 0 -0.1483751555864386 -0.25322417492281102 0 -0.1483751555864386 -0.25322417492281102 0 -0.12299439152227851 -0.24968644881451429 0 -0.13192444615054111 -0.26077722664730452 0 -0.13019383987934591 -0.25527922225530869 0 -0.1483751555864386 -0.25322417492281102 0 -0.13019383987934591 -0.25527922225530869 0 -0.1483751555864386 -0.25322417492281102 0 -0.12299439152227851 -0.24968644881451429 0 -0.13192444615054111 -0.26077722664730452 0 -0.13019383987934591 -0.25527922225530869 0 -0.12327246693702661 -0.25860308091611311 0 -0.13019383987934591 -0.25527922225530869 0 -0.1238297159623879 -0.25421046074079778 0 -0.12299439152227851 -0.24968644881451429 0 -0.13019383987934591 -0.25527922225530869 0 -0.1238297159623879 -0.25421046074079778 0 -0.12327246693702661 -0.25860308091611311 0 -0.16555693033609031 -0.25561907576051202 0 -0.1483751555864386 -0.25322417492281102 0 -0.14660214400164659 -0.26355963996941417 0 -0.13192444615054111 -0.26077722664730452 0 -0.1483751555864386 -0.25322417492281102 0 -0.14660214400164659 -0.26355963996941417 0 -0.16555693033609031 -0.25561907576051202 0 -0.15294487971856069 -0.27600838888703011 0 -0.14660214400164659 -0.26355963996941417 0 -0.1483751555864386 -0.25322417492281102 0 -0.15845336225840409 -0.24859694491914161 0 -0.1641278598919699 -0.35149132152700951 0 -0.17280484408095151 -0.36622211474442351 0 -0.14849295857863279 -0.36163848743699351 0 -0.15321505093502541 -0.37787944056700662 0 -0.17280484408095151 -0.36622211474442351 0 -0.14849295857863279 -0.36163848743699351 0 -0.18335101669183779 -0.3812057525156472 0 -0.19333814233855501 -0.3582673578751267 0 -0.17280484408095151 -0.36622211474442351 0 -0.19333814233855501 -0.3582673578751267 0 -0.17280484408095151 -0.36622211474442351 0 -0.18102572718441851 -0.34001088156512888 0 -0.1641278598919699 -0.35149132152700951 0 -0.17280484408095151 -0.36622211474442351 0 -0.18102572718441851 -0.34001088156512888 0 -0.17280484408095151 -0.36622211474442351 0 -0.18102572718441851 -0.34001088156512888 0 -0.19704710960370089 -0.33352164021142039 0 -0.18102572718441851 -0.34001088156512888 0 -0.179770593909826 -0.32756271308518181 0 -0.1867374130007903 -0.30452120294841267 0 -0.17232349386785589 -0.30980823188335188 0 -0.179770593909826 -0.32756271308518181 0 -0.17232349386785589 -0.30980823188335188 0 -0.179770593909826 -0.32756271308518181 0 -0.16105020430837941 -0.31924672814491728 0 -0.179770593909826 -0.32756271308518181 0 -0.154187909723877 -0.33809380236149222 0 -0.1641278598919699 -0.35149132152700951 0 -0.18102572718441851 -0.34001088156512888 0 -0.154187909723877 -0.33809380236149222 0 -0.18102572718441851 -0.34001088156512888 0 -0.179770593909826 -0.32756271308518181 0 -0.154187909723877 -0.33809380236149222 0 -0.179770593909826 -0.32756271308518181 0 -0.16105020430837941 -0.31924672814491728 0 -0.154187909723877 -0.33809380236149222 0 -0.154187909723877 -0.33809380236149222 0 -0.12860522553792769 -0.34862489163780258 0 -0.154187909723877 -0.33809380236149222 0 -0.14153083199836469 -0.31844482065653001 0 -0.13460838587011539 -0.33164345574372001 0 -0.1466247412903332 -0.30429304124932338 0 -0.16105020430837941 -0.31924672814491728 0 -0.14153083199836469 -0.31844482065653001 0 -0.16105020430837941 -0.31924672814491728 0 -0.154187909723877 -0.33809380236149222 0 -0.14153083199836469 -0.31844482065653001 0 -0.14153083199836469 -0.31844482065653001 0 -0.13460838587011539 -0.33164345574372001 0 -0.11781007259933279 -0.32164305590152492 0 -0.12810749051203341 -0.30647622405821667 0 -0.14153083199836469 -0.31844482065653001 0 -0.11781007259933279 -0.32164305590152492 0 -0.13460838587011539 -0.33164345574372001 0 -0.12860522553792769 -0.34862489163780258 0 -0.11781007259933279 -0.32164305590152492 0 -0.154187909723877 -0.33809380236149222 0 -0.13460838587011539 -0.33164345574372001 0 -0.12860522553792769 -0.34862489163780258 0 -0.1641278598919699 -0.35149132152700951 0 -0.154187909723877 -0.33809380236149222 0 -0.14849295857863279 -0.36163848743699351 0 -0.154187909723877 -0.33809380236149222 0 -0.12860522553792769 -0.34862489163780258 0 -0.14849295857863279 -0.36163848743699351 0 -0.15321505093502541 -0.37787944056700662 0 -0.1351051062916532 -0.37998381608038578 0 -0.14849295857863279 -0.36163848743699351 0 -0.12860522553792769 -0.34862489163780258 0 -0.14849295857863279 -0.36163848743699351 0 -0.1216493057553388 -0.36805364158635689 0 -0.1351051062916532 -0.37998381608038578 0 -0.14849295857863279 -0.36163848743699351 0 -0.1216493057553388 -0.36805364158635689 0 -0.1216493057553388 -0.36805364158635689 0 -0.10302254135197859 -0.35915598091411288 0 -0.1100341500844285 -0.38127356203782381 0 -0.10302254135197859 -0.35915598091411288 0 -0.1100341500844285 -0.38127356203782381 0 -0.094417510917414016 -0.38317459984341867 0 -0.10302254135197859 -0.35915598091411288 0 -0.1037270401820601 -0.33523978344281019 0 -0.087321653022158968 -0.33873010444274149 0 -0.12860522553792769 -0.34862489163780258 0 -0.10302254135197859 -0.35915598091411288 0 -0.1037270401820601 -0.33523978344281019 0 -0.12860522553792769 -0.34862489163780258 0 -0.1216493057553388 -0.36805364158635689 0 -0.10302254135197859 -0.35915598091411288 0 -0.12860522553792769 -0.34862489163780258 0 -0.10302254135197859 -0.35915598091411288 0 -0.12860522553792769 -0.34862489163780258 0 -0.11781007259933279 -0.32164305590152492 0 -0.1037270401820601 -0.33523978344281019 0 -0.11781007259933279 -0.32164305590152492 0 -0.10178294649758821 -0.31877447658633179 0 -0.10958345828216839 -0.3070716035805322 0 -0.11781007259933279 -0.32164305590152492 0 -0.10178294649758821 -0.31877447658633179 0 -0.1037270401820601 -0.33523978344281019 0 -0.10178294649758821 -0.31877447658633179 0 -0.1037270401820601 -0.33523978344281019 0 -0.084941006218310744 -0.32316471489318871 0 -0.1037270401820601 -0.33523978344281019 0 -0.087321653022158968 -0.33873010444274149 0 -0.084941006218310744 -0.32316471489318871 0 -0.087321653022158968 -0.33873010444274149 0 -0.084941006218310744 -0.32316471489318871 0 -0.071690417376959026 -0.33230148012328958 0 -0.087321653022158968 -0.33873010444274149 0 -0.071690417376959026 -0.33230148012328958 0 -0.077387585693331942 -0.35305291340557382 0 -0.10178294649758821 -0.31877447658633179 0 -0.084941006218310744 -0.32316471489318871 0 -0.092853155206069252 -0.3067532251136032 0 -0.084941006218310744 -0.32316471489318871 0 -0.092853155206069252 -0.3067532251136032 0 -0.084941006218310744 -0.32316471489318871 0 -0.092853155206069252 -0.3067532251136032 0 -0.071598766257318619 -0.31170468267346391 0 -0.084941006218310744 -0.32316471489318871 0 -0.071690417376959026 -0.33230148012328958 0 -0.071598766257318619 -0.31170468267346391 0 -0.071690417376959026 -0.33230148012328958 0 -0.071598766257318619 -0.31170468267346391 0 -0.053852765752708788 -0.32370909014396038 0 -0.071690417376959026 -0.33230148012328958 0 -0.077387585693331942 -0.35305291340557382 0 -0.059988781294164219 -0.34443049784195479 0 -0.077387585693331942 -0.35305291340557382 0 -0.062864246052430808 -0.37092917749799231 0 -0.059988781294164219 -0.34443049784195479 0 -0.077387585693331942 -0.35305291340557382 0 -0.062864246052430808 -0.37092917749799231 0 -0.080538891866247464 -0.37347976891145163 0 -0.10302254135197859 -0.35915598091411288 0 -0.077387585693331942 -0.35305291340557382 0 -0.080538891866247464 -0.37347976891145163 0 -0.10302254135197859 -0.35915598091411288 0 -0.080538891866247464 -0.37347976891145163 0 -0.094417510917414016 -0.38317459984341867 0 -0.10302254135197859 -0.35915598091411288 0 -0.087321653022158968 -0.33873010444274149 0 -0.077387585693331942 -0.35305291340557382 0 -0.1117455546609591 -0.26756634667571277 0 -0.08575059305818214 -0.26223978943659809 0 -0.099781053319634105 -0.2598618641048262 0 -0.1117455546609591 -0.26756634667571277 0 -0.08575059305818214 -0.26223978943659809 0 -0.099781053319634105 -0.2598618641048262 0 -0.089537996638064749 -0.25029171891982521 0 -0.1010034765090346 -0.24844173791520191 0 -0.099781053319634105 -0.2598618641048262 0 -0.1075847568092468 -0.26024848169510079 0 -0.1117455546609591 -0.26756634667571277 0 -0.099781053319634105 -0.2598618641048262 0 -0.1075847568092468 -0.26024848169510079 0 -0.1060513725854416 -0.25487129971591821 0 -0.1060513725854416 -0.25487129971591821 0 -0.1114590930870898 -0.25660878757765132 0 -0.1102891706316249 -0.24875416485820759 0 -0.1075847568092468 -0.26024848169510079 0 -0.1060513725854416 -0.25487129971591821 0 -0.1114590930870898 -0.25660878757765132 0 -0.099781053319634105 -0.2598618641048262 0 -0.1060513725854416 -0.25487129971591821 0 -0.1010034765090346 -0.24844173791520191 0 -0.1060513725854416 -0.25487129971591821 0 -0.1102891706316249 -0.24875416485820759 0 -0.1010034765090346 -0.24844173791520191 0 -0.13192444615054111 -0.26077722664730452 0 -0.1154737367146428 -0.26833027837179618 0 -0.13192444615054111 -0.26077722664730452 0 -0.12327246693702661 -0.25860308091611311 0 -0.1154737367146428 -0.26833027837179618 0 -0.1114590930870898 -0.25660878757765132 0 -0.1200835581443566 -0.25027154356196418 0 -0.1102891706316249 -0.24875416485820759 0 -0.1200835581443566 -0.25027154356196418 0 -0.1195754369593158 -0.25606711719023728 0 -0.1117455546609591 -0.26756634667571277 0 -0.1114590930870898 -0.25660878757765132 0 -0.1200835581443566 -0.25027154356196418 0 -0.1117455546609591 -0.26756634667571277 0 -0.1200835581443566 -0.25027154356196418 0 -0.1117455546609591 -0.26756634667571277 0 -0.1200835581443566 -0.25027154356196418 0 -0.1195754369593158 -0.25606711719023728 0 -0.1220310933209116 -0.25242727473769822 0 -0.1195754369593158 -0.25606711719023728 0 -0.1238297159623879 -0.25421046074079778 0 -0.1220310933209116 -0.25242727473769822 0 -0.1195754369593158 -0.25606711719023728 0 -0.1238297159623879 -0.25421046074079778 0 -0.12327246693702661 -0.25860308091611311 0 -0.1238297159623879 -0.25421046074079778 0 -0.1220310933209116 -0.25242727473769822 0 -0.12299439152227851 -0.24968644881451429 0 -0.1200835581443566 -0.25027154356196418 0 -0.1220310933209116 -0.25242727473769822 0 -0.12299439152227851 -0.24968644881451429 0 -0.12327246693702661 -0.25860308091611311 0 -0.1175167988179861 -0.26264170578846452 0 -0.1154737367146428 -0.26833027837179618 0 -0.1195754369593158 -0.25606711719023728 0 -0.12327246693702661 -0.25860308091611311 0 -0.1175167988179861 -0.26264170578846452 0 -0.1195754369593158 -0.25606711719023728 0 -0.1175167988179861 -0.26264170578846452 0 -0.1117455546609591 -0.26756634667571277 0 -0.1075847568092468 -0.26024848169510079 0 -0.1114590930870898 -0.25660878757765132 0 -0.1117455546609591 -0.26756634667571277 0 -0.1117455546609591 -0.26756634667571277 0 -0.110212715503982 -0.27074578303332031 0 -0.1154737367146428 -0.26833027837179618 0 -0.13420930821660171 -0.27216933362941298 0 -0.1154737367146428 -0.26833027837179618 0 -0.110212715503982 -0.27074578303332031 0 -0.1154737367146428 -0.26833027837179618 0 -0.11803180414177911 -0.27967295107608459 0 -0.13420930821660171 -0.27216933362941298 0 -0.1154737367146428 -0.26833027837179618 0 -0.11803180414177911 -0.27967295107608459 0 -0.110212715503982 -0.27074578303332031 0 -0.11803180414177911 -0.27967295107608459 0 -0.1007653041938272 -0.29034173533401741 0 -0.1117455546609591 -0.26756634667571277 0 -0.110212715503982 -0.27074578303332031 0 -0.110212715503982 -0.27074578303332031 0 -0.1154737367146428 -0.26833027837179618 0 -0.1175167988179861 -0.26264170578846452 0 -0.1117455546609591 -0.26756634667571277 0 -0.1154737367146428 -0.26833027837179618 0 -0.1117455546609591 -0.26756634667571277 0 -0.1154737367146428 -0.26833027837179618 0 -0.110212715503982 -0.27074578303332031 0 -0.092546781188284188 -0.27885678372711481 0 -0.08575059305818214 -0.26223978943659809 0 -0.110212715503982 -0.27074578303332031 0 -0.1007653041938272 -0.29034173533401741 0 -0.092546781188284188 -0.27885678372711481 0 -0.1117455546609591 -0.26756634667571277 0 -0.110212715503982 -0.27074578303332031 0 -0.08575059305818214 -0.26223978943659809 0 -0.110212715503982 -0.27074578303332031 0 -0.092546781188284188 -0.27885678372711481 0 -0.110212715503982 -0.27074578303332031 0 -0.1007653041938272 -0.29034173533401741 0 -0.1007653041938272 -0.29034173533401741 0 -0.1179537143652763 -0.29258218609846842 0 -0.1007653041938272 -0.29034173533401741 0 -0.1179537143652763 -0.29258218609846842 0 -0.10958345828216839 -0.3070716035805322 0 -0.11803180414177911 -0.27967295107608459 0 -0.1007653041938272 -0.29034173533401741 0 -0.1179537143652763 -0.29258218609846842 0 -0.12957604585634469 -0.28386838998949399 0 -0.11803180414177911 -0.27967295107608459 0 -0.1179537143652763 -0.29258218609846842 0 -0.12810749051203341 -0.30647622405821667 0 -0.11781007259933279 -0.32164305590152492 0 -0.10958345828216839 -0.3070716035805322 0 -0.12810749051203341 -0.30647622405821667 0 -0.1179537143652763 -0.29258218609846842 0 -0.10958345828216839 -0.3070716035805322 0 -0.10178294649758821 -0.31877447658633179 0 -0.10958345828216839 -0.3070716035805322 0 -0.092853155206069252 -0.3067532251136032 0 -0.1007653041938272 -0.29034173533401741 0 -0.10958345828216839 -0.3070716035805322 0 -0.092853155206069252 -0.3067532251136032 0 -0.1007653041938272 -0.29034173533401741 0 -0.092853155206069252 -0.3067532251136032 0 -0.092853155206069252 -0.3067532251136032 0 -0.071598766257318619 -0.31170468267346391 0 -0.074880846872585838 -0.28696778442090809 0 -0.071598766257318619 -0.31170468267346391 0 -0.074880846872585838 -0.28696778442090809 0 -0.052182607203894019 -0.29738927894311229 0 -0.068945024282875828 -0.28438608064580562 0 -0.074880846872585838 -0.28696778442090809 0 -0.058267589014556358 -0.28480230280295638 0 -0.074880846872585838 -0.28696778442090809 0 -0.052182607203894019 -0.29738927894311229 0 -0.074880846872585838 -0.28696778442090809 0 -0.058267589014556358 -0.28480230280295638 0 -0.068945024282875828 -0.28438608064580562 0 -0.074880846872585838 -0.28696778442090809 0 -0.077152034188336951 -0.27664369750822521 0 -0.1007653041938272 -0.29034173533401741 0 -0.074880846872585838 -0.28696778442090809 0 -0.092546781188284188 -0.27885678372711481 0 -0.1007653041938272 -0.29034173533401741 0 -0.074880846872585838 -0.28696778442090809 0 -0.074880846872585838 -0.28696778442090809 0 -0.092546781188284188 -0.27885678372711481 0 -0.1007653041938272 -0.29034173533401741 0 -0.092853155206069252 -0.3067532251136032 0 -0.074880846872585838 -0.28696778442090809 0 -0.074880846872585838 -0.28696778442090809 0 -0.092546781188284188 -0.27885678372711481 0 -0.077152034188336951 -0.27664369750822521 0 -0.092546781188284188 -0.27885678372711481 0 -0.077152034188336951 -0.27664369750822521 0 -0.08575059305818214 -0.26223978943659809 0 -0.068945024282875828 -0.28438608064580562 0 -0.059755631455404988 -0.25691323219748369 0 -0.068945024282875828 -0.28438608064580562 0 -0.059755631455404988 -0.25691323219748369 0 -0.058821847608694473 -0.2729761895946865 0 -0.068945024282875828 -0.28438608064580562 0 -0.077152034188336951 -0.27664369750822521 0 -0.070935487071933992 -0.26844698657982841 0 -0.068945024282875828 -0.28438608064580562 0 -0.070935487071933992 -0.26844698657982841 0 -0.059755631455404988 -0.25691323219748369 0 -0.077152034188336951 -0.27664369750822521 0 -0.070935487071933992 -0.26844698657982841 0 -0.08575059305818214 -0.26223978943659809 0 -0.07637393942701047 -0.25111169802867211 0 -0.059755631455404988 -0.25691323219748369 0 -0.064649991064126097 -0.2424395968593327 0 -0.08575059305818214 -0.26223978943659809 0 -0.059755631455404988 -0.25691323219748369 0 -0.070935487071933992 -0.26844698657982841 0 -0.08575059305818214 -0.26223978943659809 0 -0.059755631455404988 -0.25691323219748369 0 -0.07637393942701047 -0.25111169802867211 0 -0.08575059305818214 -0.26223978943659809 0 -0.059755631455404988 -0.25691323219748369 0 -0.07637393942701047 -0.25111169802867211 0 -0.08575059305818214 -0.26223978943659809 0 -0.089537996638064749 -0.25029171891982521 0 -0.099781053319634105 -0.2598618641048262 0 -0.08575059305818214 -0.26223978943659809 0 -0.089537996638064749 -0.25029171891982521 0 -0.033925471559598207 -0.25988288336286081 0 -0.045650034501603522 -0.25307332536883509 0 -0.037194096020048667 -0.24615814040950751 0 -0.033925471559598207 -0.25988288336286081 0 -0.024170965573579461 -0.24951732615867561 0 -0.037194096020048667 -0.24615814040950751 0 -0.033925471559598207 -0.25988288336286081 0 -0.045165931987348577 -0.26224039109951952 0 -0.045650034501603522 -0.25307332536883509 0 -0.033925471559598207 -0.25988288336286081 0 -0.045165931987348577 -0.26224039109951952 0 -0.043418703961020953 -0.27187406747314202 0 -0.045650034501603522 -0.25307332536883509 0 -0.054574268323191143 -0.25585153309893799 0 -0.050923734615293752 -0.26023130727472171 0 -0.059755631455404988 -0.25691323219748369 0 -0.05479545082470301 -0.26379638539080907 0 -0.058821847608694473 -0.2729761895946865 0 -0.054574268323191143 -0.25585153309893799 0 -0.059755631455404988 -0.25691323219748369 0 -0.054574268323191143 -0.25585153309893799 0 -0.059755631455404988 -0.25691323219748369 0 -0.05479545082470301 -0.26379638539080907 0 -0.05479545082470301 -0.26379638539080907 0 -0.050923734615293752 -0.26023130727472171 0 -0.049950315466297732 -0.26585525532344928 0 -0.054574268323191143 -0.25585153309893799 0 -0.05479545082470301 -0.26379638539080907 0 -0.050923734615293752 -0.26023130727472171 0 -0.045165931987348577 -0.26224039109951952 0 -0.045650034501603522 -0.25307332536883509 0 -0.050923734615293752 -0.26023130727472171 0 -0.045165931987348577 -0.26224039109951952 0 -0.050923734615293752 -0.26023130727472171 0 -0.049950315466297732 -0.26585525532344928 0 -0.049950315466297732 -0.26585525532344928 0 -0.054046059015549749 -0.27076746433209609 0 -0.043418703961020953 -0.27187406747314202 0 -0.054046059015549749 -0.27076746433209609 0 -0.051241706151269689 -0.27661136907757727 0 -0.043418703961020953 -0.27187406747314202 0 -0.05479545082470301 -0.26379638539080907 0 -0.049950315466297732 -0.26585525532344928 0 -0.054046059015549749 -0.27076746433209609 0 -0.05479545082470301 -0.26379638539080907 0 -0.054046059015549749 -0.27076746433209609 0 -0.058821847608694473 -0.2729761895946865 0 -0.058821847608694473 -0.2729761895946865 0 -0.051241706151269689 -0.27661136907757727 0 -0.058267589014556358 -0.28480230280295638 0 -0.068945024282875828 -0.28438608064580562 0 -0.058821847608694473 -0.2729761895946865 0 -0.058267589014556358 -0.28480230280295638 0 -0.054046059015549749 -0.27076746433209609 0 -0.058821847608694473 -0.2729761895946865 0 -0.051241706151269689 -0.27661136907757727 0 -0.051241706151269689 -0.27661136907757727 0 -0.043418703961020953 -0.27187406747314202 0 -0.041654331156526898 -0.28263682118500522 0 -0.045165931987348577 -0.26224039109951952 0 -0.049950315466297732 -0.26585525532344928 0 -0.043418703961020953 -0.27187406747314202 0 -0.033925471559598207 -0.25988288336286081 0 -0.043418703961020953 -0.27187406747314202 0 -0.0281947683262209 -0.27488666795593769 0 -0.043418703961020953 -0.27187406747314202 0 -0.041654331156526898 -0.28263682118500522 0 -0.0281947683262209 -0.27488666795593769 0 -0.041654331156526898 -0.28263682118500522 0 -0.052182607203894019 -0.29738927894311229 0 -0.029160911972020229 -0.29129466554884542 0 -0.041654331156526898 -0.28263682118500522 0 -0.029160911972020229 -0.29129466554884542 0 -0.0281947683262209 -0.27488666795593769 0 -0.074880846872585838 -0.28696778442090809 0 -0.058267589014556358 -0.28480230280295638 0 -0.052182607203894019 -0.29738927894311229 0 -0.051241706151269689 -0.27661136907757727 0 -0.041654331156526898 -0.28263682118500522 0 -0.058267589014556358 -0.28480230280295638 0 -0.041654331156526898 -0.28263682118500522 0 -0.058267589014556358 -0.28480230280295638 0 -0.041654331156526898 -0.28263682118500522 0 -0.058267589014556358 -0.28480230280295638 0 -0.052182607203894019 -0.29738927894311229 0 -0.071598766257318619 -0.31170468267346391 0 -0.052182607203894019 -0.29738927894311229 0 -0.053852765752708788 -0.32370909014396038 0 -0.052182607203894019 -0.29738927894311229 0 -0.029484367535202009 -0.30781077346531599 0 -0.029160911972020229 -0.29129466554884542 0 -0.052182607203894019 -0.29738927894311229 0 -0.029484367535202009 -0.30781077346531599 0 -0.053852765752708788 -0.32370909014396038 0 -0.052182607203894019 -0.29738927894311229 0 -0.029484367535202009 -0.30781077346531599 0 -0.029484367535202009 -0.30781077346531599 0 -0.01335061878545442 -0.30013944469227732 0 -0.0067861278665100116 -0.31823226798751969 0 -0.029484367535202009 -0.30781077346531599 0 -0.01335061878545442 -0.30013944469227732 0 -0.029160911972020229 -0.29129466554884542 0 -0.01335061878545442 -0.30013944469227732 0 -0.0067861278665100116 -0.31823226798751969 0 0.0064242334297343467 -0.29596416480486287 0 -0.01335061878545442 -0.30013944469227732 0 -0.0096051494108007045 -0.28267180051718732 0 0.0064242334297343467 -0.29596416480486287 0 -0.01335061878545442 -0.30013944469227732 0 -0.0096051494108007045 -0.28267180051718732 0 -0.029160911972020229 -0.29129466554884542 0 -0.0096051494108007045 -0.28267180051718732 0 -0.029160911972020229 -0.29129466554884542 0 -0.0281947683262209 -0.27488666795593769 0 -0.0096051494108007045 -0.28267180051718732 0 -0.0281947683262209 -0.27488666795593769 0 -0.011198362974849069 -0.26002926692598732 0 -0.0096051494108007045 -0.28267180051718732 0 -0.011198362974849069 -0.26002926692598732 0 0.0083501829783922451 -0.27651919851405921 0 -0.011198362974849069 -0.26002926692598732 0 -0.0022516370053341471 -0.23545927786715129 0 0.01233219874044964 -0.25796139629811699 0 -0.033925471559598207 -0.25988288336286081 0 -0.011198362974849069 -0.26002926692598732 0 -0.024170965573579461 -0.24951732615867561 0 -0.033925471559598207 -0.25988288336286081 0 -0.0281947683262209 -0.27488666795593769 0 -0.011198362974849069 -0.26002926692598732 0 -0.032247257311874007 -0.35818776151130111 0 -0.051208705006446142 -0.35821773304279758 0 -0.03232527746627762 -0.33473361205785163 0 -0.032247257311874007 -0.35818776151130111 0 -0.051208705006446142 -0.35821773304279758 0 -0.038195030947134667 -0.3805858198552603 0 -0.051208705006446142 -0.35821773304279758 0 -0.038195030947134667 -0.3805858198552603 0 -0.062864246052430808 -0.37092917749799231 0 -0.051208705006446142 -0.35821773304279758 0 -0.038195030947134667 -0.3805858198552603 0 -0.059988781294164219 -0.34443049784195479 0 -0.051208705006446142 -0.35821773304279758 0 -0.03232527746627762 -0.33473361205785163 0 -0.062864246052430808 -0.37092917749799231 0 -0.059988781294164219 -0.34443049784195479 0 -0.051208705006446142 -0.35821773304279758 0 -0.059988781294164219 -0.34443049784195479 0 -0.053852765752708788 -0.32370909014396038 0 -0.03232527746627762 -0.33473361205785163 0 -0.071690417376959026 -0.33230148012328958 0 -0.059988781294164219 -0.34443049784195479 0 -0.053852765752708788 -0.32370909014396038 0 -0.029484367535202009 -0.30781077346531599 0 -0.053852765752708788 -0.32370909014396038 0 -0.03232527746627762 -0.33473361205785163 0 -0.03232527746627762 -0.33473361205785163 0 -0.0067154017777816969 -0.33441449113079758 0 -0.01553153923158963 -0.34948248451740149 0 -0.029484367535202009 -0.30781077346531599 0 -0.0067861278665100116 -0.31823226798751969 0 -0.029484367535202009 -0.30781077346531599 0 -0.03232527746627762 -0.33473361205785163 0 -0.0067861278665100116 -0.31823226798751969 0 -0.03232527746627762 -0.33473361205785163 0 -0.0067861278665100116 -0.31823226798751969 0 -0.0067154017777816969 -0.33441449113079758 0 -0.0067861278665100116 -0.31823226798751969 0 -0.0067154017777816969 -0.33441449113079758 0 0.009450680032491901 -0.33514053998728371 0 -0.0067154017777816969 -0.33441449113079758 0 -0.0015223315641915371 -0.34974098354736799 0 0.001547595890080177 -0.34062457432859128 0 -0.0015223315641915371 -0.34974098354736799 0 -0.01553153923158963 -0.34948248451740149 0 -0.0028135983845018649 -0.3602934208782837 0 -0.01553153923158963 -0.34948248451740149 0 -0.01607113328231928 -0.36444314667335143 0 -0.0028135983845018649 -0.3602934208782837 0 -0.0067154017777816969 -0.33441449113079758 0 -0.0015223315641915371 -0.34974098354736799 0 -0.01553153923158963 -0.34948248451740149 0 -0.032247257311874007 -0.35818776151130111 0 -0.03232527746627762 -0.33473361205785163 0 -0.01553153923158963 -0.34948248451740149 0 -0.032247257311874007 -0.35818776151130111 0 -0.01553153923158963 -0.34948248451740149 0 -0.01607113328231928 -0.36444314667335143 0 -0.032247257311874007 -0.35818776151130111 0 -0.01607113328231928 -0.36444314667335143 0 -0.038195030947134667 -0.3805858198552603 0 -0.01607113328231928 -0.36444314667335143 0 -0.0033357649270666289 -0.36992112802659999 0 -0.011201836655199859 -0.38375699468889612 0 -0.01607113328231928 -0.36444314667335143 0 -0.0028135983845018649 -0.3602934208782837 0 -0.0033357649270666289 -0.36992112802659999 0 -0.011201836655199859 -0.38375699468889612 0 0.0037804335083421962 -0.38963603693425308 0 0.0044794117490076267 -0.37804111952204511 0 -0.0033357649270666289 -0.36992112802659999 0 -0.011201836655199859 -0.38375699468889612 0 0.0044794117490076267 -0.37804111952204511 0 -0.011201836655199859 -0.38375699468889612 0 -0.0062166918575127291 -0.40030365906373799 0 -0.02518135688782314 -0.40295390666772313 0 -0.011201836655199859 -0.38375699468889612 0 -0.0062166918575127291 -0.40030365906373799 0 0.0037804335083421962 -0.38963603693425308 0 -0.011201836655199859 -0.38375699468889612 0 -0.02518135688782314 -0.40295390666772313 0 -0.038195030947134667 -0.3805858198552603 0 -0.01607113328231928 -0.36444314667335143 0 -0.011201836655199859 -0.38375699468889612 0 -0.038195030947134667 -0.3805858198552603 0 -0.02518135688782314 -0.40295390666772313 0 -0.038195030947134667 -0.3805858198552603 0 -0.02518135688782314 -0.40295390666772313 0 -0.038195030947134667 -0.3805858198552603 0 -0.047575046006752643 -0.40341458672500502 0 -0.038195030947134667 -0.3805858198552603 0 -0.047575046006752643 -0.40341458672500502 0 -0.06470246178541339 -0.38963121766116582 0 -0.047575046006752643 -0.40341458672500502 0 -0.06470246178541339 -0.38963121766116582 0 -0.064033204448350159 -0.40792732798015952 0 -0.062864246052430808 -0.37092917749799231 0 -0.038195030947134667 -0.3805858198552603 0 -0.06470246178541339 -0.38963121766116582 0 -0.049175303256925498 -0.42798142649656379 0 -0.059081053699328138 -0.43346108113793558 0 -0.051802223290213938 -0.4187753707550752 0 -0.049175303256925498 -0.42798142649656379 0 -0.059081053699328138 -0.43346108113793558 0 -0.046648946329487337 -0.4395613627963188 0 -0.059081053699328138 -0.43346108113793558 0 -0.064033204448350159 -0.40792732798015952 0 -0.059081053699328138 -0.43346108113793558 0 -0.051802223290213938 -0.4187753707550752 0 -0.064033204448350159 -0.40792732798015952 0 -0.047575046006752643 -0.40341458672500502 0 -0.051802223290213938 -0.4187753707550752 0 -0.064033204448350159 -0.40792732798015952 0 -0.02518135688782314 -0.40295390666772313 0 -0.047575046006752643 -0.40341458672500502 0 -0.03916898970867258 -0.42012789129692552 0 -0.047575046006752643 -0.40341458672500502 0 -0.051802223290213938 -0.4187753707550752 0 -0.03916898970867258 -0.42012789129692552 0 -0.03916898970867258 -0.42012789129692552 0 -0.035293062420194601 -0.4342881633313409 0 -0.02642320371975811 -0.42468956006573771 0 -0.049175303256925498 -0.42798142649656379 0 -0.03916898970867258 -0.42012789129692552 0 -0.046648946329487337 -0.4395613627963188 0 -0.03916898970867258 -0.42012789129692552 0 -0.035293062420194601 -0.4342881633313409 0 -0.046648946329487337 -0.4395613627963188 0 -0.03916898970867258 -0.42012789129692552 0 -0.046648946329487337 -0.4395613627963188 0 -0.049175303256925498 -0.42798142649656379 0 -0.051802223290213938 -0.4187753707550752 0 -0.03916898970867258 -0.42012789129692552 0 -0.02642320371975811 -0.42468956006573771 0 -0.021100569542598601 -0.43536288099148351 0 -0.026924380954839469 -0.43786950677017927 0 -0.035293062420194601 -0.4342881633313409 0 -0.02642320371975811 -0.42468956006573771 0 -0.026924380954839469 -0.43786950677017927 0 -0.02642320371975811 -0.42468956006573771 0 -0.021100569542598601 -0.43536288099148351 0 -0.012167682828512241 -0.42532199348018618 0 -0.02518135688782314 -0.40295390666772313 0 -0.012167682828512241 -0.42532199348018618 0 -0.02518135688782314 -0.40295390666772313 0 -0.03916898970867258 -0.42012789129692552 0 -0.02642320371975811 -0.42468956006573771 0 -0.02518135688782314 -0.40295390666772313 0 -0.02642320371975811 -0.42468956006573771 0 -0.012167682828512241 -0.42532199348018618 0 -0.0062166918575127291 -0.40030365906373799 0 -0.001240350368216776 -0.41636033696578151 0 -0.012167682828512241 -0.42532199348018618 0 -0.0062166918575127291 -0.40030365906373799 0 -0.001240350368216776 -0.41636033696578151 0 0.0039723761283745511 -0.40959269182397551 0 -0.0062166918575127291 -0.40030365906373799 0 -0.02518135688782314 -0.40295390666772313 0 -0.012167682828512241 -0.42532199348018618 0 -0.0062166918575127291 -0.40030365906373799 0 -0.012167682828512241 -0.42532199348018618 0 -0.00847544082220952 -0.43166827119954321 0 -0.003588703389994073 -0.42857839893847371 0 0.00096222214801448651 -0.44501303615862597 0 -0.00847544082220952 -0.43166827119954321 0 -0.012167682828512241 -0.42532199348018618 0 -0.0096419780424979624 -0.43889344112204648 0 -0.00847544082220952 -0.43166827119954321 0 -0.012167682828512241 -0.42532199348018618 0 -0.003588703389994073 -0.42857839893847371 0 -0.00847544082220952 -0.43166827119954321 0 -0.012167682828512241 -0.42532199348018618 0 -0.001240350368216776 -0.41636033696578151 0 -0.012167682828512241 -0.42532199348018618 0 -0.003588703389994073 -0.42857839893847371 0 -0.001240350368216776 -0.41636033696578151 0 -0.003588703389994073 -0.42857839893847371 0 0.0029090937296297561 -0.42498108175462468 0 -0.012167682828512241 -0.42532199348018618 0 -0.018887010667284571 -0.45357046364983061 0 -0.00847544082220952 -0.43166827119954321 0 -0.0096419780424979624 -0.43889344112204648 0 0.00096222214801448651 -0.44501303615862597 0 -0.0096419780424979624 -0.43889344112204648 0 -0.018887010667284571 -0.45357046364983061 0 0.00096222214801448651 -0.44501303615862597 0 -0.012167682828512241 -0.42532199348018618 0 -0.0096419780424979624 -0.43889344112204648 0 -0.018887010667284571 -0.45357046364983061 0 -0.01296115568987463 -0.46862901941050711 0 0.00096222214801448651 -0.44501303615862597 0 0.0075172732684439404 -0.46129266557249721 0 -0.01296115568987463 -0.46862901941050711 0 0.00096222214801448651 -0.44501303615862597 0 -0.01296115568987463 -0.46862901941050711 0 -0.018887010667284571 -0.45357046364983061 0 0.00096222214801448651 -0.44501303615862597 0 -0.018887010667284571 -0.45357046364983061 0 -0.025606338506055971 -0.48181893381947521 0 -0.018887010667284571 -0.45357046364983061 0 -0.029247168404879429 -0.45971372865164439 0 -0.025606338506055971 -0.48181893381947521 0 -0.01296115568987463 -0.46862901941050711 0 -0.018887010667284571 -0.45357046364983061 0 -0.025606338506055971 -0.48181893381947521 0 -0.018887010667284571 -0.45357046364983061 0 -0.029247168404879429 -0.45971372865164439 0 -0.029340619450048309 -0.44804591916194042 0 -0.021100569542598601 -0.43536288099148351 0 -0.012167682828512241 -0.42532199348018618 0 -0.018887010667284571 -0.45357046364983061 0 -0.018887010667284571 -0.45357046364983061 0 -0.029340619450048309 -0.44804591916194042 0 -0.026924380954839469 -0.43786950677017927 0 -0.021100569542598601 -0.43536288099148351 0 -0.018887010667284571 -0.45357046364983061 0 -0.026924380954839469 -0.43786950677017927 0 -0.029340619450048309 -0.44804591916194042 0 -0.026924380954839469 -0.43786950677017927 0 -0.03294519342348274 -0.44090645175369442 0 -0.010595794118598669 -0.48553800860270452 0 -0.024135614195470501 -0.50000000000000089 0 0.0035359825922742778 -0.5 0 -0.010595794118598669 -0.48553800860270452 0 0.0061881552061334782 -0.47724208978353999 0 0.0035359825922742778 -0.5 0 -0.01296115568987463 -0.46862901941050711 0 -0.010595794118598669 -0.48553800860270452 0 0.0061881552061334782 -0.47724208978353999 0 -0.029247168404879429 -0.45971372865164439 0 -0.025606338506055971 -0.48181893381947521 0 -0.032179162532159682 -0.47171110887565898 0 -0.01296115568987463 -0.46862901941050711 0 -0.010595794118598669 -0.48553800860270452 0 -0.025606338506055971 -0.48181893381947521 0 -0.024135614195470501 -0.50000000000000089 0 -0.032179162532159682 -0.47171110887565898 0 -0.010595794118598669 -0.48553800860270452 0 -0.025606338506055971 -0.48181893381947521 0 -0.024135614195470501 -0.50000000000000089 0 -0.025606338506055971 -0.48181893381947521 0 -0.024135614195470501 -0.50000000000000089 0 -0.032179162532159682 -0.47171110887565898 0 -0.046176144857849953 -0.500000000000002 0 -0.038654125050586782 -0.48561124030436892 0 -0.050152523904078213 -0.47949741714785699 0 -0.024135614195470501 -0.50000000000000089 0 -0.046176144857849953 -0.500000000000002 0 -0.038654125050586782 -0.48561124030436892 0 -0.024135614195470501 -0.50000000000000089 0 -0.038654125050586782 -0.48561124030436892 0 -0.032179162532159682 -0.47171110887565898 0 -0.038654125050586782 -0.48561124030436892 0 -0.041385808480044001 -0.47614878715026521 0 -0.050152523904078213 -0.47949741714785699 0 -0.038654125050586782 -0.48561124030436892 0 -0.032179162532159682 -0.47171110887565898 0 -0.041385808480044001 -0.47614878715026521 0 -0.032179162532159682 -0.47171110887565898 0 -0.041385808480044001 -0.47614878715026521 0 -0.044557422433351347 -0.46777538227317589 0 -0.041385808480044001 -0.47614878715026521 0 -0.050152523904078213 -0.47949741714785699 0 -0.044557422433351347 -0.46777538227317589 0 -0.050152523904078213 -0.47949741714785699 0 -0.054128902950304231 -0.45899483429571142 0 -0.050152523904078213 -0.47949741714785699 0 -0.044557422433351347 -0.46777538227317589 0 -0.054128902950304231 -0.45899483429571142 0 -0.060493581168670048 -0.47553073136432261 0 -0.050152523904078213 -0.47949741714785699 0 -0.054128902950304231 -0.45899483429571142 0 -0.060493581168670048 -0.47553073136432261 0 -0.050152523904078213 -0.47949741714785699 0 -0.057827101196006703 -0.48604724037565061 0 -0.060493581168670048 -0.47553073136432261 0 -0.057827101196006703 -0.48604724037565061 0 -0.066858259387038016 -0.49206662843293297 0 -0.046176144857849953 -0.500000000000002 0 -0.050152523904078213 -0.47949741714785699 0 -0.057827101196006703 -0.48604724037565061 0 -0.046176144857849953 -0.500000000000002 0 -0.057827101196006703 -0.48604724037565061 0 -0.066858259387038016 -0.49206662843293297 0 -0.046176144857849953 -0.500000000000002 0 -0.050152523904078213 -0.47949741714785699 0 -0.046176144857849953 -0.500000000000002 0 -0.071124492888865354 -0.5 0 -0.066858259387038016 -0.49206662843293297 0 -0.046648946329487337 -0.4395613627963188 0 -0.040222710868848599 -0.44342221775131702 0 -0.043547429022830243 -0.45629298119843648 0 -0.029247168404879429 -0.45971372865164439 0 -0.029340619450048309 -0.44804591916194042 0 -0.040222710868848599 -0.44342221775131702 0 -0.035293062420194601 -0.4342881633313409 0 -0.046648946329487337 -0.4395613627963188 0 -0.040222710868848599 -0.44342221775131702 0 -0.035293062420194601 -0.4342881633313409 0 -0.026924380954839469 -0.43786950677017927 0 -0.03294519342348274 -0.44090645175369442 0 -0.035293062420194601 -0.4342881633313409 0 -0.040222710868848599 -0.44342221775131702 0 -0.03294519342348274 -0.44090645175369442 0 -0.029340619450048309 -0.44804591916194042 0 -0.040222710868848599 -0.44342221775131702 0 -0.03294519342348274 -0.44090645175369442 0 -0.029247168404879429 -0.45971372865164439 0 -0.032179162532159682 -0.47171110887565898 0 -0.040222710868848599 -0.44342221775131702 0 -0.032179162532159682 -0.47171110887565898 0 -0.040222710868848599 -0.44342221775131702 0 -0.043547429022830243 -0.45629298119843648 0 -0.032179162532159682 -0.47171110887565898 0 -0.040222710868848599 -0.44342221775131702 0 -0.032179162532159682 -0.47171110887565898 0 -0.044557422433351347 -0.46777538227317589 0 -0.043547429022830243 -0.45629298119843648 0 -0.060493581168670048 -0.47553073136432261 0 -0.054128902950304231 -0.45899483429571142 0 -0.060493581168670048 -0.47553073136432261 0 -0.054128902950304231 -0.45899483429571142 0 -0.065032570829358066 -0.46573233473260378 0 -0.044557422433351347 -0.46777538227317589 0 -0.043547429022830243 -0.45629298119843648 0 -0.054128902950304231 -0.45899483429571142 0 -0.059081053699328138 -0.43346108113793558 0 -0.046648946329487337 -0.4395613627963188 0 -0.054128902950304231 -0.45899483429571142 0 -0.059081053699328138 -0.43346108113793558 0 -0.054128902950304231 -0.45899483429571142 0 -0.066310321737219721 -0.44537606709482119 0 -0.046648946329487337 -0.4395613627963188 0 -0.043547429022830243 -0.45629298119843648 0 -0.054128902950304231 -0.45899483429571142 0 -0.046648946329487337 -0.4395613627963188 0 -0.054128902950304231 -0.45899483429571142 0 -0.059081053699328138 -0.43346108113793558 0 -0.054128902950304231 -0.45899483429571142 0 -0.059081053699328138 -0.43346108113793558 0 -0.066310321737219721 -0.44537606709482119 0 -0.075535818143584371 -0.43549093892865898 0 -0.076568165015752698 -0.44817953209817851 0 -0.066310321737219721 -0.44537606709482119 0 -0.075535818143584371 -0.43549093892865898 0 -0.076568165015752698 -0.44817953209817851 0 -0.082252794175092112 -0.44191598633777213 0 -0.075535818143584371 -0.43549093892865898 0 -0.076568165015752698 -0.44817953209817851 0 -0.066310321737219721 -0.44537606709482119 0 -0.068579112789432184 -0.45674317292275363 0 -0.054128902950304231 -0.45899483429571142 0 -0.068579112789432184 -0.45674317292275363 0 -0.065032570829358066 -0.46573233473260378 0 -0.054128902950304231 -0.45899483429571142 0 -0.066310321737219721 -0.44537606709482119 0 -0.068579112789432184 -0.45674317292275363 0 -0.068579112789432184 -0.45674317292275363 0 -0.065032570829358066 -0.46573233473260378 0 -0.073280894425862372 -0.46483941346706331 0 -0.065032570829358066 -0.46573233473260378 0 -0.073280894425862372 -0.46483941346706331 0 -0.069205089369513126 -0.47217935542277989 0 -0.076568165015752698 -0.44817953209817851 0 -0.068579112789432184 -0.45674317292275363 0 -0.078703260406235917 -0.45679883430010998 0 -0.068579112789432184 -0.45674317292275363 0 -0.073280894425862372 -0.46483941346706331 0 -0.078703260406235917 -0.45679883430010998 0 -0.073280894425862372 -0.46483941346706331 0 -0.078703260406235917 -0.45679883430010998 0 -0.086919132327261783 -0.46110910735707428 0 -0.078703260406235917 -0.45679883430010998 0 -0.086919132327261783 -0.46110910735707428 0 -0.08902328667390573 -0.44800258894385758 0 -0.073280894425862372 -0.46483941346706331 0 -0.086919132327261783 -0.46110910735707428 0 -0.077466072172757069 -0.47250787811941769 0 -0.086919132327261783 -0.46110910735707428 0 -0.086255850330182904 -0.47525702682212839 0 -0.099285401748321012 -0.4685726677646227 0 -0.086919132327261783 -0.46110910735707428 0 -0.08902328667390573 -0.44800258894385758 0 -0.099629336054976564 -0.4556163852308544 0 -0.08902328667390573 -0.44800258894385758 0 -0.098099720432939991 -0.43728256451959452 0 -0.087883906867125675 -0.43599088538039288 0 -0.08902328667390573 -0.44800258894385758 0 -0.082252794175092112 -0.44191598633777213 0 -0.087883906867125675 -0.43599088538039288 0 -0.082252794175092112 -0.44191598633777213 0 -0.075535818143584371 -0.43549093892865898 0 -0.087883906867125675 -0.43599088538039288 0 -0.076568165015752698 -0.44817953209817851 0 -0.08902328667390573 -0.44800258894385758 0 -0.082252794175092112 -0.44191598633777213 0 -0.076568165015752698 -0.44817953209817851 0 -0.078703260406235917 -0.45679883430010998 0 -0.08902328667390573 -0.44800258894385758 0 -0.071124492888865354 -0.5 0 -0.066858259387038016 -0.49206662843293297 0 -0.081544890964114908 -0.48928256202185288 0 -0.066858259387038016 -0.49206662843293297 0 -0.072271015724478249 -0.48049042171662892 0 -0.081544890964114908 -0.48928256202185288 0 -0.060493581168670048 -0.47553073136432261 0 -0.066858259387038016 -0.49206662843293297 0 -0.060493581168670048 -0.47553073136432261 0 -0.066858259387038016 -0.49206662843293297 0 -0.072271015724478249 -0.48049042171662892 0 -0.060493581168670048 -0.47553073136432261 0 -0.065032570829358066 -0.46573233473260378 0 -0.069205089369513126 -0.47217935542277989 0 -0.060493581168670048 -0.47553073136432261 0 -0.072271015724478249 -0.48049042171662892 0 -0.069205089369513126 -0.47217935542277989 0 -0.072271015724478249 -0.48049042171662892 0 -0.069205089369513126 -0.47217935542277989 0 -0.077466072172757069 -0.47250787811941769 0 -0.073280894425862372 -0.46483941346706331 0 -0.069205089369513126 -0.47217935542277989 0 -0.077466072172757069 -0.47250787811941769 0 -0.086255850330182904 -0.47525702682212839 0 -0.081544890964114908 -0.48928256202185288 0 -0.099404665344911852 -0.48482183337800128 0 -0.072271015724478249 -0.48049042171662892 0 -0.077466072172757069 -0.47250787811941769 0 -0.086255850330182904 -0.47525702682212839 0 -0.086919132327261783 -0.46110910735707428 0 -0.077466072172757069 -0.47250787811941769 0 -0.086255850330182904 -0.47525702682212839 0 -0.072271015724478249 -0.48049042171662892 0 -0.086255850330182904 -0.47525702682212839 0 -0.081544890964114908 -0.48928256202185288 0 -0.081544890964114908 -0.48928256202185288 0 -0.096072840919880775 -0.5 0 -0.099404665344911852 -0.48482183337800128 0 -0.071124492888865354 -0.5 0 -0.081544890964114908 -0.48928256202185288 0 -0.096072840919880775 -0.5 0 -0.096072840919880775 -0.5 0 -0.099404665344911852 -0.48482183337800128 0 -0.1210211889508961 -0.5 0 -0.086255850330182904 -0.47525702682212839 0 -0.099404665344911852 -0.48482183337800128 0 -0.099285401748321012 -0.4685726677646227 0 -0.099404665344911852 -0.48482183337800128 0 -0.1122478191560755 -0.47581874365940358 0 -0.099285401748321012 -0.4685726677646227 0 -0.12629935107648191 -0.46812041530357129 0 -0.1122478191560755 -0.47581874365940358 0 -0.1239596724013798 -0.48203658885458761 0 -0.099404665344911852 -0.48482183337800128 0 -0.1122478191560755 -0.47581874365940358 0 -0.1210211889508961 -0.5 0 -0.1122478191560755 -0.47581874365940358 0 -0.1239596724013798 -0.48203658885458761 0 -0.1210211889508961 -0.5 0 -0.1020079300888409 -0.44598776708359722 0 -0.099629336054976564 -0.4556163852308544 0 -0.10966799031424621 -0.45186593385096901 0 -0.1020079300888409 -0.44598776708359722 0 -0.10966799031424621 -0.45186593385096901 0 -0.10977399923197791 -0.4445480435502987 0 -0.1020079300888409 -0.44598776708359722 0 -0.1071407274518112 -0.43758829681090988 0 -0.098099720432939991 -0.43728256451959452 0 -0.1020079300888409 -0.44598776708359722 0 -0.1071407274518112 -0.43758829681090988 0 -0.10977399923197791 -0.4445480435502987 0 -0.08902328667390573 -0.44800258894385758 0 -0.1020079300888409 -0.44598776708359722 0 -0.098099720432939991 -0.43728256451959452 0 -0.08902328667390573 -0.44800258894385758 0 -0.1020079300888409 -0.44598776708359722 0 -0.099629336054976564 -0.4556163852308544 0 -0.086919132327261783 -0.46110910735707428 0 -0.099629336054976564 -0.4556163852308544 0 -0.099285401748321012 -0.4685726677646227 0 -0.099629336054976564 -0.4556163852308544 0 -0.099285401748321012 -0.4685726677646227 0 -0.1113660798922773 -0.46167528116607709 0 -0.1122478191560755 -0.47581874365940358 0 -0.099285401748321012 -0.4685726677646227 0 -0.1113660798922773 -0.46167528116607709 0 -0.099629336054976564 -0.4556163852308544 0 -0.1113660798922773 -0.46167528116607709 0 -0.10966799031424621 -0.45186593385096901 0 -0.1113660798922773 -0.46167528116607709 0 -0.120968343029728 -0.45462115421979032 0 -0.10966799031424621 -0.45186593385096901 0 -0.12629935107648191 -0.46812041530357129 0 -0.1122478191560755 -0.47581874365940358 0 -0.1113660798922773 -0.46167528116607709 0 -0.12629935107648191 -0.46812041530357129 0 -0.1113660798922773 -0.46167528116607709 0 -0.120968343029728 -0.45462115421979032 0 -0.1271442566298451 -0.44596628899092861 0 -0.120968343029728 -0.45462115421979032 0 -0.1173522046920252 -0.44629227682695788 0 -0.120968343029728 -0.45462115421979032 0 -0.1173522046920252 -0.44629227682695788 0 -0.10966799031424621 -0.45186593385096901 0 -0.1173522046920252 -0.44629227682695788 0 -0.10966799031424621 -0.45186593385096901 0 -0.10977399923197791 -0.4445480435502987 0 -0.1071407274518112 -0.43758829681090988 0 -0.10977399923197791 -0.4445480435502987 0 -0.11486146859235161 -0.43897036279024992 0 -0.1173522046920252 -0.44629227682695788 0 -0.10977399923197791 -0.4445480435502987 0 -0.11486146859235161 -0.43897036279024992 0 -0.1271442566298451 -0.44596628899092861 0 -0.1173522046920252 -0.44629227682695788 0 -0.122395437252204 -0.43980370574357808 0 -0.1173522046920252 -0.44629227682695788 0 -0.11486146859235161 -0.43897036279024992 0 -0.122395437252204 -0.43980370574357808 0 -0.1208509852946628 -0.4336781170756715 0 -0.1192489907696884 -0.4265966499406052 0 -0.1128444206700436 -0.43178403175929858 0 -0.1286505554066244 -0.43652862388743607 0 -0.122395437252204 -0.43980370574357808 0 -0.1208509852946628 -0.4336781170756715 0 -0.11486146859235161 -0.43897036279024992 0 -0.122395437252204 -0.43980370574357808 0 -0.1208509852946628 -0.4336781170756715 0 -0.12710503907706461 -0.4283853283328618 0 -0.12588779620812371 -0.42207359555134011 0 -0.1192489907696884 -0.4265966499406052 0 -0.12710503907706461 -0.4283853283328618 0 -0.1208509852946628 -0.4336781170756715 0 -0.1192489907696884 -0.4265966499406052 0 -0.12588779620812371 -0.42207359555134011 0 -0.1192489907696884 -0.4265966499406052 0 -0.1192454834063897 -0.41997597996162739 0 -0.1118983379335735 -0.42423427768804911 0 -0.1128444206700436 -0.43178403175929858 0 -0.10475493162901139 -0.42985571335678391 0 -0.1192489907696884 -0.4265966499406052 0 -0.1118983379335735 -0.42423427768804911 0 -0.1192454834063897 -0.41997597996162739 0 -0.1192489907696884 -0.4265966499406052 0 -0.1118983379335735 -0.42423427768804911 0 -0.1128444206700436 -0.43178403175929858 0 -0.11486146859235161 -0.43897036279024992 0 -0.1208509852946628 -0.4336781170756715 0 -0.1128444206700436 -0.43178403175929858 0 -0.1071407274518112 -0.43758829681090988 0 -0.11486146859235161 -0.43897036279024992 0 -0.1128444206700436 -0.43178403175929858 0 -0.1071407274518112 -0.43758829681090988 0 -0.10475493162901139 -0.42985571335678391 0 -0.098099720432939991 -0.43728256451959452 0 -0.1071407274518112 -0.43758829681090988 0 -0.1128444206700436 -0.43178403175929858 0 -0.10475493162901139 -0.42985571335678391 0 -0.10475493162901139 -0.42985571335678391 0 -0.1045551403445356 -0.4223512449499498 0 -0.09605032129263863 -0.42585970419571961 0 -0.1118983379335735 -0.42423427768804911 0 -0.10475493162901139 -0.42985571335678391 0 -0.1045551403445356 -0.4223512449499498 0 -0.09605032129263863 -0.42585970419571961 0 -0.098099720432939991 -0.43728256451959452 0 -0.087883906867125675 -0.43599088538039288 0 -0.10475493162901139 -0.42985571335678391 0 -0.09605032129263863 -0.42585970419571961 0 -0.098099720432939991 -0.43728256451959452 0 -0.1011450855566455 -0.41671262166972001 0 -0.104532197177804 -0.40816594300935671 0 -0.091898823377809302 -0.41454193872280609 0 -0.1045551403445356 -0.4223512449499498 0 -0.09605032129263863 -0.42585970419571961 0 -0.1011450855566455 -0.41671262166972001 0 -0.09605032129263863 -0.42585970419571961 0 -0.1011450855566455 -0.41671262166972001 0 -0.091898823377809302 -0.41454193872280609 0 -0.1045551403445356 -0.4223512449499498 0 -0.1011450855566455 -0.41671262166972001 0 -0.1111216977032191 -0.41657258615399279 0 -0.1118983379335735 -0.42423427768804911 0 -0.1045551403445356 -0.4223512449499498 0 -0.1111216977032191 -0.41657258615399279 0 -0.1011450855566455 -0.41671262166972001 0 -0.104532197177804 -0.40816594300935671 0 -0.1111216977032191 -0.41657258615399279 0 -0.13031013140721839 -0.41384368270944971 0 -0.104532197177804 -0.40816594300935671 0 -0.13031013140721839 -0.41384368270944971 0 -0.104532197177804 -0.40816594300935671 0 -0.1111216977032191 -0.41657258615399279 0 -0.13501333007481511 -0.41226517030697929 0 -0.1136635822756115 -0.40588575951094952 0 -0.13501333007481511 -0.41226517030697929 0 -0.12434083125225311 -0.40208234895582401 0 -0.1136635822756115 -0.40588575951094952 0 -0.13031013140721839 -0.41384368270944971 0 -0.104532197177804 -0.40816594300935671 0 -0.1136635822756115 -0.40588575951094952 0 -0.13031013140721839 -0.41384368270944971 0 -0.1111216977032191 -0.41657258615399279 0 -0.1192454834063897 -0.41997597996162739 0 -0.1118983379335735 -0.42423427768804911 0 -0.1111216977032191 -0.41657258615399279 0 -0.1192454834063897 -0.41997597996162739 0 -0.12434083125225311 -0.40208234895582401 0 -0.1163335798260158 -0.39382215597909731 0 -0.1136635822756115 -0.40588575951094952 0 -0.13009349872902409 -0.39396436485078351 0 -0.12434083125225311 -0.40208234895582401 0 -0.1163335798260158 -0.39382215597909731 0 -0.1163335798260158 -0.39382215597909731 0 -0.1136635822756115 -0.40588575951094952 0 -0.10508051969915019 -0.3927941655318295 0 -0.1216493057553388 -0.36805364158635689 0 -0.1226431281372921 -0.38341950810688952 0 -0.1100341500844285 -0.38127356203782381 0 -0.13009349872902409 -0.39396436485078351 0 -0.1163335798260158 -0.39382215597909731 0 -0.1226431281372921 -0.38341950810688952 0 -0.1163335798260158 -0.39382215597909731 0 -0.1226431281372921 -0.38341950810688952 0 -0.1100341500844285 -0.38127356203782381 0 -0.1163335798260158 -0.39382215597909731 0 -0.1100341500844285 -0.38127356203782381 0 -0.10508051969915019 -0.3927941655318295 0 -0.1100341500844285 -0.38127356203782381 0 -0.094417510917414016 -0.38317459984341867 0 -0.10508051969915019 -0.3927941655318295 0 -0.094417510917414016 -0.38317459984341867 0 -0.10508051969915019 -0.3927941655318295 0 -0.092313834476407952 -0.39950634871491969 0 -0.1136635822756115 -0.40588575951094952 0 -0.092313834476407952 -0.39950634871491969 0 -0.104532197177804 -0.40816594300935671 0 -0.1136635822756115 -0.40588575951094952 0 -0.092313834476407952 -0.39950634871491969 0 -0.1136635822756115 -0.40588575951094952 0 -0.10508051969915019 -0.3927941655318295 0 -0.092313834476407952 -0.39950634871491969 0 -0.094417510917414016 -0.38317459984341867 0 -0.092313834476407952 -0.39950634871491969 0 -0.082145392398774456 -0.38965602768804392 0 -0.104532197177804 -0.40816594300935671 0 -0.092313834476407952 -0.39950634871491969 0 -0.078754262948389456 -0.40248820330926371 0 -0.104532197177804 -0.40816594300935671 0 -0.078754262948389456 -0.40248820330926371 0 -0.092313834476407952 -0.39950634871491969 0 -0.078754262948389456 -0.40248820330926371 0 -0.082145392398774456 -0.38965602768804392 0 -0.080538891866247464 -0.37347976891145163 0 -0.094417510917414016 -0.38317459984341867 0 -0.082145392398774456 -0.38965602768804392 0 -0.062864246052430808 -0.37092917749799231 0 -0.080538891866247464 -0.37347976891145163 0 -0.06470246178541339 -0.38963121766116582 0 -0.080538891866247464 -0.37347976891145163 0 -0.082145392398774456 -0.38965602768804392 0 -0.06470246178541339 -0.38963121766116582 0 -0.078754262948389456 -0.40248820330926371 0 -0.082145392398774456 -0.38965602768804392 0 -0.06470246178541339 -0.38963121766116582 0 -0.078754262948389456 -0.40248820330926371 0 -0.06470246178541339 -0.38963121766116582 0 -0.064033204448350159 -0.40792732798015952 0 -0.064033204448350159 -0.40792732798015952 0 -0.072157676118210543 -0.42310363459472422 0 -0.079943820686403405 -0.41438491289013429 0 -0.059081053699328138 -0.43346108113793558 0 -0.064033204448350159 -0.40792732798015952 0 -0.072157676118210543 -0.42310363459472422 0 -0.078754262948389456 -0.40248820330926371 0 -0.064033204448350159 -0.40792732798015952 0 -0.079943820686403405 -0.41438491289013429 0 -0.059081053699328138 -0.43346108113793558 0 -0.075535818143584371 -0.43549093892865898 0 -0.072157676118210543 -0.42310363459472422 0 -0.075535818143584371 -0.43549093892865898 0 -0.072157676118210543 -0.42310363459472422 0 -0.084052214343115078 -0.42532121820392482 0 -0.075535818143584371 -0.43549093892865898 0 -0.084052214343115078 -0.42532121820392482 0 -0.087883906867125675 -0.43599088538039288 0 -0.09605032129263863 -0.42585970419571961 0 -0.084052214343115078 -0.42532121820392482 0 -0.087883906867125675 -0.43599088538039288 0 -0.09605032129263863 -0.42585970419571961 0 -0.084052214343115078 -0.42532121820392482 0 -0.091898823377809302 -0.41454193872280609 0 -0.104532197177804 -0.40816594300935671 0 -0.078754262948389456 -0.40248820330926371 0 -0.091898823377809302 -0.41454193872280609 0 -0.078754262948389456 -0.40248820330926371 0 -0.091898823377809302 -0.41454193872280609 0 -0.079943820686403405 -0.41438491289013429 0 -0.072157676118210543 -0.42310363459472422 0 -0.084052214343115078 -0.42532121820392482 0 -0.079943820686403405 -0.41438491289013429 0 -0.084052214343115078 -0.42532121820392482 0 -0.091898823377809302 -0.41454193872280609 0 -0.079943820686403405 -0.41438491289013429 0 -0.074085798501945355 -0.081576344101759873 0 -0.07769683473781186 -0.098704246660850856 0 -0.091719877732741997 -0.09440464567378469 0 -0.074085798501945355 -0.081576344101759873 0 -0.091719877732741997 -0.09440464567378469 0 -0.098445032472609606 -0.081369899906778939 0 -0.084071437065032048 -0.065476577966459837 0 -0.098445032472609606 -0.081369899906778939 0 -0.084071437065032048 -0.065476577966459837 0 -0.074085798501945355 -0.081576344101759873 0 -0.098445032472609606 -0.081369899906778939 0 -0.084071437065032048 -0.065476577966459837 0 -0.062502398775672333 -0.066566472610548627 0 -0.074085798501945355 -0.081576344101759873 0 -0.062502398775672333 -0.066566472610548627 0 -0.074085798501945355 -0.081576344101759873 0 -0.055306955893887462 -0.083549689194957713 0 -0.074085798501945355 -0.081576344101759873 0 -0.065390596180403313 -0.090822777912275596 0 -0.055306955893887462 -0.083549689194957713 0 -0.074085798501945355 -0.081576344101759873 0 -0.065390596180403313 -0.090822777912275596 0 -0.07769683473781186 -0.098704246660850856 0 -0.065390596180403313 -0.090822777912275596 0 -0.065350321199533809 -0.10067420092090219 0 -0.07769683473781186 -0.098704246660850856 0 -0.065350321199533809 -0.10067420092090219 0 -0.07769683473781186 -0.098704246660850856 0 -0.067512828879044168 -0.1117348170332913 0 -0.067512828879044168 -0.1117348170332913 0 -0.080531236145691451 -0.11933730844748359 0 -0.067777966929164726 -0.12749705551743859 0 -0.067512828879044168 -0.1117348170332913 0 -0.054815750958622449 -0.12121993458671421 0 -0.067777966929164726 -0.12749705551743859 0 -0.07769683473781186 -0.098704246660850856 0 -0.067512828879044168 -0.1117348170332913 0 -0.080531236145691451 -0.11933730844748359 0 -0.080531236145691451 -0.11933730844748359 0 -0.093254983250060819 -0.110169785287593 0 -0.094098559536747062 -0.12988730152384939 0 -0.07769683473781186 -0.098704246660850856 0 -0.080531236145691451 -0.11933730844748359 0 -0.093254983250060819 -0.110169785287593 0 -0.07769683473781186 -0.098704246660850856 0 -0.093254983250060819 -0.110169785287593 0 -0.091719877732741997 -0.09440464567378469 0 -0.091719877732741997 -0.09440464567378469 0 -0.1102470482850666 -0.1056183188276715 0 -0.1083363911862389 -0.0901767323308722 0 -0.093254983250060819 -0.110169785287593 0 -0.091719877732741997 -0.09440464567378469 0 -0.1102470482850666 -0.1056183188276715 0 -0.093254983250060819 -0.110169785287593 0 -0.11277651521281599 -0.1234892566383398 0 -0.094098559536747062 -0.12988730152384939 0 -0.093254983250060819 -0.110169785287593 0 -0.11277651521281599 -0.1234892566383398 0 -0.1102470482850666 -0.1056183188276715 0 -0.11277651521281599 -0.1234892566383398 0 -0.12374626213362271 -0.111929850458328 0 -0.13437452860801971 -0.1239487887983642 0 -0.11277651521281599 -0.1234892566383398 0 -0.12374626213362271 -0.111929850458328 0 -0.1102470482850666 -0.1056183188276715 0 -0.12374626213362271 -0.111929850458328 0 -0.1102470482850666 -0.1056183188276715 0 -0.1236972460038322 -0.091538441889713273 0 -0.1102470482850666 -0.1056183188276715 0 -0.1236972460038322 -0.091538441889713273 0 -0.1083363911862389 -0.0901767323308722 0 -0.1236972460038322 -0.091538441889713273 0 -0.11350130534713079 -0.073332913563975421 0 -0.13058466754914791 -0.072696764781637224 0 -0.1236972460038322 -0.091538441889713273 0 -0.1083363911862389 -0.0901767323308722 0 -0.11350130534713079 -0.073332913563975421 0 -0.091719877732741997 -0.09440464567378469 0 -0.1083363911862389 -0.0901767323308722 0 -0.098445032472609606 -0.081369899906778939 0 -0.1083363911862389 -0.0901767323308722 0 -0.098445032472609606 -0.081369899906778939 0 -0.11350130534713079 -0.073332913563975421 0 -0.098884823393860302 -0.066039301776300713 0 -0.11350130534713079 -0.073332913563975421 0 -0.1085484736132991 -0.055968258314139652 0 -0.084071437065032048 -0.065476577966459837 0 -0.098445032472609606 -0.081369899906778939 0 -0.098884823393860302 -0.066039301776300713 0 -0.098445032472609606 -0.081369899906778939 0 -0.098884823393860302 -0.066039301776300713 0 -0.11350130534713079 -0.073332913563975421 0 -0.11350130534713079 -0.073332913563975421 0 -0.13058466754914791 -0.072696764781637224 0 -0.12559633262467301 -0.055414330815554858 0 -0.11449569996834261 -0.042169398212593252 0 -0.1085484736132991 -0.055968258314139652 0 -0.12559633262467301 -0.055414330815554858 0 -0.11350130534713079 -0.073332913563975421 0 -0.1085484736132991 -0.055968258314139652 0 -0.12559633262467301 -0.055414330815554858 0 -0.11449569996834261 -0.042169398212593252 0 -0.1228826187542597 -0.028283879923342189 0 -0.1066383164100458 -0.028839028527172531 0 -0.11449569996834261 -0.042169398212593252 0 -0.1228826187542597 -0.028283879923342189 0 -0.13073959040624369 -0.040407347587496832 0 -0.11449569996834261 -0.042169398212593252 0 -0.13073959040624369 -0.040407347587496832 0 -0.12559633262467301 -0.055414330815554858 0 -0.11449569996834261 -0.042169398212593252 0 -0.1066383164100458 -0.028839028527172531 0 -0.092707764324808081 -0.044557768692739551 0 -0.098884823393860302 -0.066039301776300713 0 -0.1085484736132991 -0.055968258314139652 0 -0.092707764324808081 -0.044557768692739551 0 -0.11449569996834261 -0.042169398212593252 0 -0.1085484736132991 -0.055968258314139652 0 -0.092707764324808081 -0.044557768692739551 0 -0.1101430223599959 -0.0097464949415967794 0 -0.13146021635722041 -0.015740197922043599 0 -0.12332417756614659 0.01212573047390467 0 -0.1101430223599959 -0.0097464949415967794 0 -0.1228826187542597 -0.028283879923342189 0 -0.13146021635722041 -0.015740197922043599 0 -0.1101430223599959 -0.0097464949415967794 0 -0.1228826187542597 -0.028283879923342189 0 -0.1066383164100458 -0.028839028527172531 0 -0.1101430223599959 -0.0097464949415967794 0 -0.1066383164100458 -0.028839028527172531 0 -0.094384690615410591 -0.018461186907755431 0 -0.1066383164100458 -0.028839028527172531 0 -0.094384690615410591 -0.018461186907755431 0 -0.092707764324808081 -0.044557768692739551 0 -0.1101430223599959 -0.0097464949415967794 0 -0.094384690615410591 -0.018461186907755431 0 -0.089612629523708298 -0.002578900474753773 0 -0.089612629523708298 -0.002578900474753773 0 -0.079655235590582754 -0.026081078250446661 0 -0.094384690615410591 -0.018461186907755431 0 -0.089612629523708298 -0.002578900474753773 0 -0.079655235590582754 -0.026081078250446661 0 -0.094384690615410591 -0.018461186907755431 0 -0.079655235590582754 -0.026081078250446661 0 -0.092707764324808081 -0.044557768692739551 0 -0.079655235590582754 -0.026081078250446661 0 -0.064293171325576548 -0.01105348015708171 0 -0.057751921302950933 -0.036374288284677508 0 -0.089612629523708298 -0.002578900474753773 0 -0.079655235590582754 -0.026081078250446661 0 -0.064293171325576548 -0.01105348015708171 0 -0.089612629523708298 -0.002578900474753773 0 -0.064293171325576548 -0.01105348015708171 0 -0.075867284991946005 0.0089052263810172338 0 -0.084071437065032048 -0.065476577966459837 0 -0.092707764324808081 -0.044557768692739551 0 -0.069697841657456294 -0.049583256026139153 0 -0.084071437065032048 -0.065476577966459837 0 -0.098884823393860302 -0.066039301776300713 0 -0.092707764324808081 -0.044557768692739551 0 -0.079655235590582754 -0.026081078250446661 0 -0.092707764324808081 -0.044557768692739551 0 -0.069697841657456294 -0.049583256026139153 0 -0.079655235590582754 -0.026081078250446661 0 -0.069697841657456294 -0.049583256026139153 0 -0.057751921302950933 -0.036374288284677508 0 -0.079655235590582754 -0.026081078250446661 0 -0.069697841657456294 -0.049583256026139153 0 -0.069697841657456294 -0.049583256026139153 0 -0.057751921302950933 -0.036374288284677508 0 -0.084071437065032048 -0.065476577966459837 0 -0.069697841657456294 -0.049583256026139153 0 -0.062502398775672333 -0.066566472610548627 0 -0.069697841657456294 -0.049583256026139153 0 -0.062502398775672333 -0.066566472610548627 0 -0.069697841657456294 -0.049583256026139153 0 -0.057488067872478663 -0.049253430858104463 0 -0.084071437065032048 -0.065476577966459837 0 -0.062502398775672333 -0.066566472610548627 0 -0.069697841657456294 -0.049583256026139153 0 -0.062502398775672333 -0.066566472610548627 0 -0.048807710746795463 -0.057091287033548883 0 -0.057488067872478663 -0.049253430858104463 0 -0.048807710746795463 -0.057091287033548883 0 -0.057488067872478663 -0.049253430858104463 0 -0.046598869342508412 -0.041104374816612971 0 -0.057751921302950933 -0.036374288284677508 0 -0.046598869342508412 -0.041104374816612971 0 -0.045806000948447327 -0.023165320543214251 0 -0.069697841657456294 -0.049583256026139153 0 -0.057488067872478663 -0.049253430858104463 0 -0.057751921302950933 -0.036374288284677508 0 -0.057488067872478663 -0.049253430858104463 0 -0.057751921302950933 -0.036374288284677508 0 -0.046598869342508412 -0.041104374816612971 0 -0.046598869342508412 -0.041104374816612971 0 -0.033907047959314568 -0.033381337947351257 0 -0.045806000948447327 -0.023165320543214251 0 -0.046598869342508412 -0.041104374816612971 0 -0.033907047959314568 -0.033381337947351257 0 -0.035398801071519798 -0.048288193499657482 0 -0.048807710746795463 -0.057091287033548883 0 -0.046598869342508412 -0.041104374816612971 0 -0.035398801071519798 -0.048288193499657482 0 -0.035398801071519798 -0.048288193499657482 0 -0.026069077130162769 -0.054531219747255097 0 -0.036939226902127163 -0.062931312652176524 0 -0.048807710746795463 -0.057091287033548883 0 -0.035398801071519798 -0.048288193499657482 0 -0.036939226902127163 -0.062931312652176524 0 -0.064293171325576548 -0.01105348015708171 0 -0.046732334298602442 -0.006744458449042038 0 -0.055020306791806882 0.011606654754603559 0 -0.064293171325576548 -0.01105348015708171 0 -0.045806000948447327 -0.023165320543214251 0 -0.046732334298602442 -0.006744458449042038 0 -0.064293171325576548 -0.01105348015708171 0 -0.057751921302950933 -0.036374288284677508 0 -0.045806000948447327 -0.023165320543214251 0 -0.057751921302950933 -0.036374288284677508 0 -0.045806000948447327 -0.023165320543214251 0 -0.033907047959314568 -0.033381337947351257 0 -0.045806000948447327 -0.023165320543214251 0 -0.031181786465542458 -0.016180041564069589 0 -0.045806000948447327 -0.023165320543214251 0 -0.046732334298602442 -0.006744458449042038 0 -0.031181786465542458 -0.016180041564069589 0 -0.046732334298602442 -0.006744458449042038 0 -0.031181786465542458 -0.016180041564069589 0 -0.031201037738230551 0.0036621007205455318 0 -0.031181786465542458 -0.016180041564069589 0 -0.0089960230977084721 -0.01103573319387138 0 -0.031201037738230551 0.0036621007205455318 0 -0.033907047959314568 -0.033381337947351257 0 -0.031181786465542458 -0.016180041564069589 0 -0.020448274750951439 -0.026415499971484142 0 -0.031181786465542458 -0.016180041564069589 0 -0.020448274750951439 -0.026415499971484142 0 -0.0089960230977084721 -0.01103573319387138 0 -0.020448274750951439 -0.026415499971484142 0 -0.0089960230977084721 -0.01103573319387138 0 -0.0094790806124092734 -0.03309812690331923 0 -0.0089960230977084721 -0.01103573319387138 0 -0.0094790806124092734 -0.03309812690331923 0 0.0048975611539584241 -0.02794060840334903 0 -0.026069077130162769 -0.054531219747255097 0 -0.0095309463923188946 -0.048888633496284598 0 -0.02395945393859622 -0.069836658589220182 0 -0.0095309463923188946 -0.048888633496284598 0 -0.02395945393859622 -0.069836658589220182 0 -0.026069077130162769 -0.054531219747255097 0 -0.022250228461045692 -0.040796471105595568 0 -0.0095309463923188946 -0.048888633496284598 0 -0.026069077130162769 -0.054531219747255097 0 -0.02395945393859622 -0.069836658589220182 0 -0.036939226902127163 -0.062931312652176524 0 -0.035398801071519798 -0.048288193499657482 0 -0.026069077130162769 -0.054531219747255097 0 -0.022250228461045692 -0.040796471105595568 0 -0.033907047959314568 -0.033381337947351257 0 -0.035398801071519798 -0.048288193499657482 0 -0.022250228461045692 -0.040796471105595568 0 -0.033907047959314568 -0.033381337947351257 0 -0.020448274750951439 -0.026415499971484142 0 -0.022250228461045692 -0.040796471105595568 0 -0.020448274750951439 -0.026415499971484142 0 -0.022250228461045692 -0.040796471105595568 0 -0.0094790806124092734 -0.03309812690331923 0 -0.0094790806124092734 -0.03309812690331923 0 -0.0095309463923188946 -0.048888633496284598 0 0.0048975611539584241 -0.02794060840334903 0 -0.0095309463923188946 -0.048888633496284598 0 0.0048975611539584241 -0.02794060840334903 0 -0.022250228461045692 -0.040796471105595568 0 -0.0094790806124092734 -0.03309812690331923 0 -0.0095309463923188946 -0.048888633496284598 0 -0.0095309463923188946 -0.048888633496284598 0 -0.0090160515042696371 -0.060056871246355968 0 -0.02395945393859622 -0.069836658589220182 0 -0.0095309463923188946 -0.048888633496284598 0 -0.0090160515042696371 -0.060056871246355968 0 0.0048162015510652464 -0.051653981403253703 0 -0.0090160515042696371 -0.060056871246355968 0 -0.011587357023271801 -0.077936715443332361 0 -0.02395945393859622 -0.069836658589220182 0 -0.0090160515042696371 -0.060056871246355968 0 -0.011587357023271801 -0.077936715443332361 0 0.00059150691515684006 -0.073338185880521253 0 -0.011587357023271801 -0.077936715443332361 0 -0.0033480317749526489 -0.083631419035902738 0 -0.01138852615450052 -0.094849773798394932 0 -0.01138852615450052 -0.094849773798394932 0 0.0089922491628055441 -0.088401001021362557 0 -0.0033480317749526489 -0.083631419035902738 0 -0.01138852615450052 -0.094849773798394932 0 0.0089922491628055441 -0.088401001021362557 0 -0.011587357023271801 -0.077936715443332361 0 -0.023231854058221479 -0.086126058582896237 0 -0.01138852615450052 -0.094849773798394932 0 -0.011587357023271801 -0.077936715443332361 0 -0.0033480317749526489 -0.083631419035902738 0 0.00059150691515684006 -0.073338185880521253 0 -0.023231854058221479 -0.086126058582896237 0 -0.02395945393859622 -0.069836658589220182 0 -0.038387961484873008 -0.090784683682156198 0 -0.02395945393859622 -0.069836658589220182 0 -0.038387961484873008 -0.090784683682156198 0 -0.023231854058221479 -0.086126058582896237 0 -0.038387961484873008 -0.090784683682156198 0 -0.031769301471806823 -0.1012985465754266 0 -0.011587357023271801 -0.077936715443332361 0 -0.023231854058221479 -0.086126058582896237 0 -0.02395945393859622 -0.069836658589220182 0 -0.02395945393859622 -0.069836658589220182 0 -0.036939226902127163 -0.062931312652176524 0 -0.037921657435383747 -0.07467361321573332 0 -0.048807710746795463 -0.057091287033548883 0 -0.036939226902127163 -0.062931312652176524 0 -0.049478661090304972 -0.073166903827644222 0 -0.036939226902127163 -0.062931312652176524 0 -0.037921657435383747 -0.07467361321573332 0 -0.049478661090304972 -0.073166903827644222 0 -0.038387961484873008 -0.090784683682156198 0 -0.049478661090304972 -0.073166903827644222 0 -0.02395945393859622 -0.069836658589220182 0 -0.037921657435383747 -0.07467361321573332 0 -0.038387961484873008 -0.090784683682156198 0 -0.038387961484873008 -0.090784683682156198 0 -0.04831002283188273 -0.088134216723946862 0 -0.049478661090304972 -0.073166903827644222 0 -0.037921657435383747 -0.07467361321573332 0 -0.038387961484873008 -0.090784683682156198 0 -0.049478661090304972 -0.073166903827644222 0 -0.038387961484873008 -0.090784683682156198 0 -0.04831002283188273 -0.088134216723946862 0 -0.043243840676972498 -0.097834690679629133 0 -0.04831002283188273 -0.088134216723946862 0 -0.055306955893887462 -0.083549689194957713 0 -0.049478661090304972 -0.073166903827644222 0 -0.04831002283188273 -0.088134216723946862 0 -0.055306955893887462 -0.083549689194957713 0 -0.055132695013375713 -0.095335116235347045 0 -0.065390596180403313 -0.090822777912275596 0 -0.055306955893887462 -0.083549689194957713 0 -0.055132695013375713 -0.095335116235347045 0 -0.062502398775672333 -0.066566472610548627 0 -0.055306955893887462 -0.083549689194957713 0 -0.062502398775672333 -0.066566472610548627 0 -0.048807710746795463 -0.057091287033548883 0 -0.049478661090304972 -0.073166903827644222 0 -0.062502398775672333 -0.066566472610548627 0 -0.055306955893887462 -0.083549689194957713 0 -0.049478661090304972 -0.073166903827644222 0 -0.054815750958622449 -0.12121993458671421 0 -0.052226185020874803 -0.10777140110035199 0 -0.042975603979200937 -0.1162690010508441 0 -0.067512828879044168 -0.1117348170332913 0 -0.054815750958622449 -0.12121993458671421 0 -0.052226185020874803 -0.10777140110035199 0 -0.065350321199533809 -0.10067420092090219 0 -0.067512828879044168 -0.1117348170332913 0 -0.052226185020874803 -0.10777140110035199 0 -0.065350321199533809 -0.10067420092090219 0 -0.055132695013375713 -0.095335116235347045 0 -0.052226185020874803 -0.10777140110035199 0 -0.065390596180403313 -0.090822777912275596 0 -0.065350321199533809 -0.10067420092090219 0 -0.055132695013375713 -0.095335116235347045 0 -0.04831002283188273 -0.088134216723946862 0 -0.055132695013375713 -0.095335116235347045 0 -0.043243840676972498 -0.097834690679629133 0 -0.055132695013375713 -0.095335116235347045 0 -0.052226185020874803 -0.10777140110035199 0 -0.043243840676972498 -0.097834690679629133 0 -0.052226185020874803 -0.10777140110035199 0 -0.031769301471806823 -0.1012985465754266 0 -0.052226185020874803 -0.10777140110035199 0 -0.043243840676972498 -0.097834690679629133 0 -0.031769301471806823 -0.1012985465754266 0 -0.052226185020874803 -0.10777140110035199 0 -0.031769301471806823 -0.1012985465754266 0 -0.042975603979200937 -0.1162690010508441 0 -0.038387961484873008 -0.090784683682156198 0 -0.043243840676972498 -0.097834690679629133 0 -0.038387961484873008 -0.090784683682156198 0 -0.031769301471806823 -0.1012985465754266 0 -0.038387961484873008 -0.090784683682156198 0 -0.043243840676972498 -0.097834690679629133 0 -0.031769301471806823 -0.1012985465754266 0 -0.031769301471806823 -0.1012985465754266 0 -0.042975603979200937 -0.1162690010508441 0 -0.033102693190611897 -0.1228771290668647 0 -0.054815750958622449 -0.12121993458671421 0 -0.042975603979200937 -0.1162690010508441 0 -0.042662499150644427 -0.1279125563856108 0 -0.042975603979200937 -0.1162690010508441 0 -0.033102693190611897 -0.1228771290668647 0 -0.042662499150644427 -0.1279125563856108 0 -0.031769301471806823 -0.1012985465754266 0 -0.018552202747981361 -0.1222941504521793 0 -0.031769301471806823 -0.1012985465754266 0 -0.033102693190611897 -0.1228771290668647 0 -0.018552202747981361 -0.1222941504521793 0 -0.023231854058221479 -0.086126058582896237 0 -0.031769301471806823 -0.1012985465754266 0 -0.01138852615450052 -0.094849773798394932 0 -0.031769301471806823 -0.1012985465754266 0 -0.01138852615450052 -0.094849773798394932 0 -0.031769301471806823 -0.1012985465754266 0 -0.018552202747981361 -0.1222941504521793 0 -0.01138852615450052 -0.094849773798394932 0 -0.01138852615450052 -0.094849773798394932 0 0.0018285725693265691 -0.1158453776751463 0 0.0089922491628055441 -0.088401001021362557 0 -0.018552202747981361 -0.1222941504521793 0 -0.01138852615450052 -0.094849773798394932 0 0.0018285725693265691 -0.1158453776751463 0 -0.018552202747981361 -0.1222941504521793 0 -0.01827961465405548 -0.1413526675001415 0 -0.0053351040241528189 -0.1432897543289301 0 -0.018552202747981361 -0.1222941504521793 0 -0.0053351040241528189 -0.1432897543289301 0 0.0018285725693265691 -0.1158453776751463 0 -0.0053351040241528189 -0.1432897543289301 0 0.0018285725693265691 -0.1158453776751463 0 -0.018552202747981361 -0.1222941504521793 0 -0.0053351040241528189 -0.1432897543289301 0 -0.018552202747981361 -0.1222941504521793 0 -0.03075436980735214 -0.1331723399831046 0 -0.01827961465405548 -0.1413526675001415 0 -0.03075436980735214 -0.1331723399831046 0 -0.030235058224615349 -0.14441508308584239 0 -0.01827961465405548 -0.1413526675001415 0 -0.033102693190611897 -0.1228771290668647 0 -0.018552202747981361 -0.1222941504521793 0 -0.03075436980735214 -0.1331723399831046 0 -0.02476563778962981 -0.1515908766422889 0 -0.028916892841322012 -0.15948829731533831 0 -0.037857510454729799 -0.15327031880003711 0 -0.02476563778962981 -0.1515908766422889 0 -0.030235058224615349 -0.14441508308584239 0 -0.037857510454729799 -0.15327031880003711 0 -0.02476563778962981 -0.1515908766422889 0 -0.030235058224615349 -0.14441508308584239 0 -0.01827961465405548 -0.1413526675001415 0 -0.02476563778962981 -0.1515908766422889 0 -0.01827961465405548 -0.1413526675001415 0 -0.016514312235611919 -0.1514402258515847 0 -0.02476563778962981 -0.1515908766422889 0 -0.016514312235611919 -0.1514402258515847 0 -0.019638212935777059 -0.15885756867436279 0 -0.016514312235611919 -0.1514402258515847 0 -0.01221238989625738 -0.15557817792426151 0 -0.019638212935777059 -0.15885756867436279 0 -0.0053351040241528189 -0.1432897543289301 0 -0.0041922669992184216 -0.15234980027260381 0 0.0075355300201016672 -0.16373499270402719 0 -0.016514312235611919 -0.1514402258515847 0 -0.01221238989625738 -0.15557817792426151 0 -0.01099585087998883 -0.1511336670057343 0 -0.016514312235611919 -0.1514402258515847 0 -0.01099585087998883 -0.1511336670057343 0 -0.010597965072124431 -0.14651341959730321 0 -0.01099585087998883 -0.1511336670057343 0 -0.0078380637608168047 -0.14856013101238291 0 -0.010597965072124431 -0.14651341959730321 0 -0.01099585087998883 -0.1511336670057343 0 -0.0078380637608168047 -0.14856013101238291 0 -0.0077706840870299422 -0.1519134053950601 0 -0.01099585087998883 -0.1511336670057343 0 -0.0095978925725992356 -0.15307601793908901 0 -0.0077706840870299422 -0.1519134053950601 0 -0.0095978925725992356 -0.15307601793908901 0 -0.0071701574387160374 -0.15531634884297801 0 -0.0077706840870299422 -0.1519134053950601 0 -0.01221238989625738 -0.15557817792426151 0 -0.0095978925725992356 -0.15307601793908901 0 -0.0071701574387160374 -0.15531634884297801 0 -0.01221238989625738 -0.15557817792426151 0 -0.01099585087998883 -0.1511336670057343 0 -0.0095978925725992356 -0.15307601793908901 0 -0.01827961465405548 -0.1413526675001415 0 -0.016514312235611919 -0.1514402258515847 0 -0.010597965072124431 -0.14651341959730321 0 -0.01827961465405548 -0.1413526675001415 0 -0.010597965072124431 -0.14651341959730321 0 -0.0053351040241528189 -0.1432897543289301 0 -0.0078380637608168047 -0.14856013101238291 0 -0.010597965072124431 -0.14651341959730321 0 -0.0053351040241528189 -0.1432897543289301 0 -0.0078380637608168047 -0.14856013101238291 0 -0.0053351040241528189 -0.1432897543289301 0 -0.0041922669992184216 -0.15234980027260381 0 -0.0041922669992184216 -0.15234980027260381 0 -0.0071701574387160374 -0.15531634884297801 0 -0.0034622320605035388 -0.15995017327122979 0 -0.0041922669992184216 -0.15234980027260381 0 -0.0071701574387160374 -0.15531634884297801 0 -0.0077706840870299422 -0.1519134053950601 0 -0.0078380637608168047 -0.14856013101238291 0 -0.0041922669992184216 -0.15234980027260381 0 -0.0077706840870299422 -0.1519134053950601 0 -0.0041922669992184216 -0.15234980027260381 0 -0.0034622320605035388 -0.15995017327122979 0 0.0075355300201016672 -0.16373499270402719 0 -0.0071701574387160374 -0.15531634884297801 0 -0.0034622320605035388 -0.15995017327122979 0 -0.0086881255788250449 -0.1592138141305203 0 -0.0034622320605035388 -0.15995017327122979 0 -0.00059843098376162549 -0.1664542859823821 0 -0.0077986154932478697 -0.16452359618629889 0 -0.0034622320605035388 -0.15995017327122979 0 -0.0077986154932478697 -0.16452359618629889 0 -0.0086881255788250449 -0.1592138141305203 0 -0.00059843098376162549 -0.1664542859823821 0 -0.0042276626384493404 -0.17282719865605081 0 0.0046798418731774814 -0.1740902648174221 0 -0.00059843098376162549 -0.1664542859823821 0 -0.0077986154932478697 -0.16452359618629889 0 -0.0042276626384493404 -0.17282719865605081 0 -0.0077986154932478697 -0.16452359618629889 0 -0.013375292063502291 -0.1749639759624145 0 -0.017554219497494469 -0.16651941216622199 0 -0.0077986154932478697 -0.16452359618629889 0 -0.0042276626384493404 -0.17282719865605081 0 -0.013375292063502291 -0.1749639759624145 0 -0.0077986154932478697 -0.16452359618629889 0 -0.01288217763228354 -0.1600096030255615 0 -0.017554219497494469 -0.16651941216622199 0 -0.01221238989625738 -0.15557817792426151 0 -0.01288217763228354 -0.1600096030255615 0 -0.019638212935777059 -0.15885756867436279 0 -0.01221238989625738 -0.15557817792426151 0 -0.01288217763228354 -0.1600096030255615 0 -0.0086881255788250449 -0.1592138141305203 0 -0.01221238989625738 -0.15557817792426151 0 -0.0071701574387160374 -0.15531634884297801 0 -0.0086881255788250449 -0.1592138141305203 0 -0.0077986154932478697 -0.16452359618629889 0 -0.01288217763228354 -0.1600096030255615 0 -0.0086881255788250449 -0.1592138141305203 0 -0.0096276291966440695 -0.18293031249833611 0 -0.0055764814704000994 -0.19390034300100201 0 0.002399983828949417 -0.1833954459737217 0 -0.0042276626384493404 -0.17282719865605081 0 -0.0096276291966440695 -0.18293031249833611 0 0.002399983828949417 -0.1833954459737217 0 -0.0042276626384493404 -0.17282719865605081 0 -0.013375292063502291 -0.1749639759624145 0 -0.0096276291966440695 -0.18293031249833611 0 -0.013375292063502291 -0.1749639759624145 0 -0.0096276291966440695 -0.18293031249833611 0 -0.020662692045132849 -0.1818219172109726 0 -0.020662692045132849 -0.1818219172109726 0 -0.035723976126734079 -0.1838131573128288 0 -0.01866632327336613 -0.19151758793377749 0 -0.0096276291966440695 -0.18293031249833611 0 -0.020662692045132849 -0.1818219172109726 0 -0.01866632327336613 -0.19151758793377749 0 -0.013375292063502291 -0.1749639759624145 0 -0.020662692045132849 -0.1818219172109726 0 -0.026763386705139069 -0.17494674971494659 0 -0.013375292063502291 -0.1749639759624145 0 -0.026763386705139069 -0.17494674971494659 0 -0.017554219497494469 -0.16651941216622199 0 -0.020662692045132849 -0.1818219172109726 0 -0.026763386705139069 -0.17494674971494659 0 -0.035723976126734079 -0.1838131573128288 0 -0.019638212935777059 -0.15885756867436279 0 -0.017554219497494469 -0.16651941216622199 0 -0.025689264022812412 -0.1662025032312269 0 -0.01288217763228354 -0.1600096030255615 0 -0.019638212935777059 -0.15885756867436279 0 -0.017554219497494469 -0.16651941216622199 0 -0.026763386705139069 -0.17494674971494659 0 -0.017554219497494469 -0.16651941216622199 0 -0.025689264022812412 -0.1662025032312269 0 -0.025689264022812412 -0.1662025032312269 0 -0.028916892841322012 -0.15948829731533831 0 -0.03603638492102626 -0.16759617782033279 0 -0.026763386705139069 -0.17494674971494659 0 -0.025689264022812412 -0.1662025032312269 0 -0.03603638492102626 -0.16759617782033279 0 -0.019638212935777059 -0.15885756867436279 0 -0.025689264022812412 -0.1662025032312269 0 -0.028916892841322012 -0.15948829731533831 0 -0.02476563778962981 -0.1515908766422889 0 -0.019638212935777059 -0.15885756867436279 0 -0.028916892841322012 -0.15948829731533831 0 -0.028916892841322012 -0.15948829731533831 0 -0.03603638492102626 -0.16759617782033279 0 -0.037857510454729799 -0.15327031880003711 0 -0.03603638492102626 -0.16759617782033279 0 -0.047747134968894038 -0.17543414686019901 0 -0.050852751029709077 -0.161350051637317 0 -0.03603638492102626 -0.16759617782033279 0 -0.050852751029709077 -0.161350051637317 0 -0.037857510454729799 -0.15327031880003711 0 -0.035723976126734079 -0.1838131573128288 0 -0.047747134968894038 -0.17543414686019901 0 -0.05284786563246633 -0.19386794761493639 0 -0.026763386705139069 -0.17494674971494659 0 -0.03603638492102626 -0.16759617782033279 0 -0.035723976126734079 -0.1838131573128288 0 -0.03603638492102626 -0.16759617782033279 0 -0.035723976126734079 -0.1838131573128288 0 -0.047747134968894038 -0.17543414686019901 0 -0.047747134968894038 -0.17543414686019901 0 -0.05284786563246633 -0.19386794761493639 0 -0.062593949518641903 -0.1761778253726303 0 -0.050852751029709077 -0.161350051637317 0 -0.066116709995575479 -0.15910738082248699 0 -0.062593949518641903 -0.1761778253726303 0 -0.047747134968894038 -0.17543414686019901 0 -0.050852751029709077 -0.161350051637317 0 -0.062593949518641903 -0.1761778253726303 0 -0.052773847214700811 -0.14820037936064431 0 -0.066690587532801854 -0.14229183223754571 0 -0.066116709995575479 -0.15910738082248699 0 -0.050852751029709077 -0.161350051637317 0 -0.052773847214700811 -0.14820037936064431 0 -0.066116709995575479 -0.15910738082248699 0 -0.050852751029709077 -0.161350051637317 0 -0.052773847214700811 -0.14820037936064431 0 -0.037857510454729799 -0.15327031880003711 0 -0.052773847214700811 -0.14820037936064431 0 -0.054288123020816648 -0.134566460284751 0 -0.041694150876204331 -0.14018245340798879 0 -0.052773847214700811 -0.14820037936064431 0 -0.054288123020816648 -0.134566460284751 0 -0.066690587532801854 -0.14229183223754571 0 -0.054815750958622449 -0.12121993458671421 0 -0.054288123020816648 -0.134566460284751 0 -0.067777966929164726 -0.12749705551743859 0 -0.054815750958622449 -0.12121993458671421 0 -0.054288123020816648 -0.134566460284751 0 -0.042662499150644427 -0.1279125563856108 0 -0.054288123020816648 -0.134566460284751 0 -0.041694150876204331 -0.14018245340798879 0 -0.042662499150644427 -0.1279125563856108 0 -0.033102693190611897 -0.1228771290668647 0 -0.03075436980735214 -0.1331723399831046 0 -0.042662499150644427 -0.1279125563856108 0 -0.03075436980735214 -0.1331723399831046 0 -0.030235058224615349 -0.14441508308584239 0 -0.041694150876204331 -0.14018245340798879 0 -0.03075436980735214 -0.1331723399831046 0 -0.041694150876204331 -0.14018245340798879 0 -0.042662499150644427 -0.1279125563856108 0 -0.030235058224615349 -0.14441508308584239 0 -0.041694150876204331 -0.14018245340798879 0 -0.037857510454729799 -0.15327031880003711 0 -0.052773847214700811 -0.14820037936064431 0 -0.041694150876204331 -0.14018245340798879 0 -0.037857510454729799 -0.15327031880003711 0 -0.024170965573579461 -0.24951732615867561 0 -0.0022516370053341471 -0.23545927786715129 0 -0.028283570602786991 -0.2332373991753707 0 -0.024170965573579461 -0.24951732615867561 0 -0.028283570602786991 -0.2332373991753707 0 -0.037194096020048667 -0.24615814040950751 0 -0.011198362974849069 -0.26002926692598732 0 -0.024170965573579461 -0.24951732615867561 0 -0.0022516370053341471 -0.23545927786715129 0 -0.0022516370053341471 -0.23545927786715129 0 -0.016835472751119851 -0.2129571594361869 0 0.00516441215593446 -0.22158586113786161 0 -0.0022516370053341471 -0.23545927786715129 0 -0.016835472751119851 -0.2129571594361869 0 -0.0022516370053341471 -0.23545927786715129 0 -0.028283570602786991 -0.2332373991753707 0 -0.016835472751119851 -0.2129571594361869 0 -0.028283570602786991 -0.2332373991753707 0 -0.016835472751119851 -0.2129571594361869 0 -0.03310933264011777 -0.21812008500322819 0 -0.023850492690660269 -0.21020575801998689 0 -0.016835472751119851 -0.2129571594361869 0 -0.03310933264011777 -0.21812008500322819 0 -0.023850492690660269 -0.21020575801998689 0 -0.033091977739123667 -0.20700633468291921 0 -0.03310933264011777 -0.21812008500322819 0 -0.023850492690660269 -0.21020575801998689 0 -0.02627972443892599 -0.19838515837450721 0 -0.033091977739123667 -0.20700633468291921 0 -0.023850492690660269 -0.21020575801998689 0 -0.016835472751119851 -0.2129571594361869 0 -0.02627972443892599 -0.19838515837450721 0 -0.016835472751119851 -0.2129571594361869 0 -0.014337623797781701 -0.20117778510809731 0 -0.02627972443892599 -0.19838515837450721 0 -0.016835472751119851 -0.2129571594361869 0 -0.02627972443892599 -0.19838515837450721 0 -0.023850492690660269 -0.21020575801998689 0 -0.016835472751119851 -0.2129571594361869 0 -0.016835472751119851 -0.2129571594361869 0 -0.001925340291015288 -0.20597243848106289 0 0.00516441215593446 -0.22158586113786161 0 -0.016835472751119851 -0.2129571594361869 0 0.00516441215593446 -0.22158586113786161 0 -0.016835472751119851 -0.2129571594361869 0 -0.001925340291015288 -0.20597243848106289 0 -0.014337623797781701 -0.20117778510809731 0 -0.014337623797781701 -0.20117778510809731 0 -0.0055764814704000994 -0.19390034300100201 0 -0.01866632327336613 -0.19151758793377749 0 -0.001925340291015288 -0.20597243848106289 0 -0.014337623797781701 -0.20117778510809731 0 -0.0055764814704000994 -0.19390034300100201 0 -0.001925340291015288 -0.20597243848106289 0 -0.0055764814704000994 -0.19390034300100201 0 0.0059444003428096122 -0.19443651352465419 0 -0.0096276291966440695 -0.18293031249833611 0 -0.0055764814704000994 -0.19390034300100201 0 -0.01866632327336613 -0.19151758793377749 0 -0.035723976126734079 -0.1838131573128288 0 -0.01866632327336613 -0.19151758793377749 0 -0.02627972443892599 -0.19838515837450721 0 -0.014337623797781701 -0.20117778510809731 0 -0.01866632327336613 -0.19151758793377749 0 -0.02627972443892599 -0.19838515837450721 0 -0.035723976126734079 -0.1838131573128288 0 -0.02627972443892599 -0.19838515837450721 0 -0.038484264298025407 -0.198862151944527 0 -0.05284786563246633 -0.19386794761493639 0 -0.044477777552876997 -0.21123816173744331 0 -0.035723976126734079 -0.1838131573128288 0 -0.038484264298025407 -0.198862151944527 0 -0.05284786563246633 -0.19386794761493639 0 -0.035723976126734079 -0.1838131573128288 0 -0.02627972443892599 -0.19838515837450721 0 -0.038484264298025407 -0.198862151944527 0 -0.02627972443892599 -0.19838515837450721 0 -0.038484264298025407 -0.198862151944527 0 -0.033091977739123667 -0.20700633468291921 0 -0.05284786563246633 -0.19386794761493639 0 -0.044477777552876997 -0.21123816173744331 0 -0.069600273218505163 -0.21968687177514359 0 -0.038484264298025407 -0.198862151944527 0 -0.044477777552876997 -0.21123816173744331 0 -0.033091977739123667 -0.20700633468291921 0 -0.044477777552876997 -0.21123816173744331 0 -0.033091977739123667 -0.20700633468291921 0 -0.03310933264011777 -0.21812008500322819 0 -0.044477777552876997 -0.21123816173744331 0 -0.03310933264011777 -0.21812008500322819 0 -0.052116704504140812 -0.23407569696746361 0 -0.028283570602786991 -0.2332373991753707 0 -0.03310933264011777 -0.21812008500322819 0 -0.052116704504140812 -0.23407569696746361 0 -0.044477777552876997 -0.21123816173744331 0 -0.052116704504140812 -0.23407569696746361 0 -0.069600273218505163 -0.21968687177514359 0 -0.044477777552876997 -0.21123816173744331 0 -0.052116704504140812 -0.23407569696746361 0 -0.052116704504140812 -0.23407569696746361 0 -0.064649991064126097 -0.2424395968593327 0 -0.069600273218505163 -0.21968687177514359 0 -0.045650034501603522 -0.25307332536883509 0 -0.054574268323191143 -0.25585153309893799 0 -0.052116704504140812 -0.23407569696746361 0 -0.059755631455404988 -0.25691323219748369 0 -0.052116704504140812 -0.23407569696746361 0 -0.054574268323191143 -0.25585153309893799 0 -0.059755631455404988 -0.25691323219748369 0 -0.052116704504140812 -0.23407569696746361 0 -0.059755631455404988 -0.25691323219748369 0 -0.052116704504140812 -0.23407569696746361 0 -0.064649991064126097 -0.2424395968593327 0 -0.028283570602786991 -0.2332373991753707 0 -0.052116704504140812 -0.23407569696746361 0 -0.037194096020048667 -0.24615814040950751 0 -0.045650034501603522 -0.25307332536883509 0 -0.052116704504140812 -0.23407569696746361 0 -0.037194096020048667 -0.24615814040950751 0 -0.089537996638064749 -0.25029171891982521 0 -0.080290806967230774 -0.23976608717855799 0 -0.094028110547296428 -0.2403291368550951 0 -0.080290806967230774 -0.23976608717855799 0 -0.089610963234068031 -0.22798153938087209 0 -0.094028110547296428 -0.2403291368550951 0 -0.07637393942701047 -0.25111169802867211 0 -0.089537996638064749 -0.25029171891982521 0 -0.080290806967230774 -0.23976608717855799 0 -0.07637393942701047 -0.25111169802867211 0 -0.080290806967230774 -0.23976608717855799 0 -0.064649991064126097 -0.2424395968593327 0 -0.080290806967230774 -0.23976608717855799 0 -0.064649991064126097 -0.2424395968593327 0 -0.069600273218505163 -0.21968687177514359 0 -0.080290806967230774 -0.23976608717855799 0 -0.069600273218505163 -0.21968687177514359 0 -0.089610963234068031 -0.22798153938087209 0 -0.069600273218505163 -0.21968687177514359 0 -0.089610963234068031 -0.22798153938087209 0 -0.097858581117585913 -0.21173406310836079 0 -0.074378180000065575 -0.19744974299086709 0 -0.097858581117585913 -0.21173406310836079 0 -0.069600273218505163 -0.21968687177514359 0 -0.074378180000065575 -0.19744974299086709 0 -0.097858581117585913 -0.21173406310836079 0 -0.05284786563246633 -0.19386794761493639 0 -0.069600273218505163 -0.21968687177514359 0 -0.074378180000065575 -0.19744974299086709 0 -0.05284786563246633 -0.19386794761493639 0 -0.074378180000065575 -0.19744974299086709 0 -0.062593949518641903 -0.1761778253726303 0 -0.074378180000065575 -0.19744974299086709 0 -0.092010862622215528 -0.19006372685148881 0 -0.097858581117585913 -0.21173406310836079 0 -0.092010862622215528 -0.19006372685148881 0 -0.1109027796678594 -0.19364567346150549 0 -0.097858581117585913 -0.21173406310836079 0 -0.1109027796678594 -0.19364567346150549 0 -0.12545818671210421 -0.1802449876311536 0 -0.13238880602313419 -0.20328257652291951 0 -0.1109027796678594 -0.19364567346150549 0 -0.1156222872609213 -0.20867017407966029 0 -0.13238880602313419 -0.20328257652291951 0 -0.1156222872609213 -0.20867017407966029 0 -0.1213389822351057 -0.22601838322585521 0 -0.13238880602313419 -0.20328257652291951 0 -0.1156222872609213 -0.20867017407966029 0 -0.097858581117585913 -0.21173406310836079 0 -0.1213389822351057 -0.22601838322585521 0 -0.1109027796678594 -0.19364567346150549 0 -0.1156222872609213 -0.20867017407966029 0 -0.097858581117585913 -0.21173406310836079 0 -0.097858581117585913 -0.21173406310836079 0 -0.10353472907741409 -0.23346927384328939 0 -0.1213389822351057 -0.22601838322585521 0 -0.089610963234068031 -0.22798153938087209 0 -0.097858581117585913 -0.21173406310836079 0 -0.10353472907741409 -0.23346927384328939 0 -0.089610963234068031 -0.22798153938087209 0 -0.10353472907741409 -0.23346927384328939 0 -0.094028110547296428 -0.2403291368550951 0 -0.097858581117585913 -0.21173406310836079 0 -0.1213389822351057 -0.22601838322585521 0 -0.1213389822351057 -0.22601838322585521 0 -0.1102891706316249 -0.24875416485820759 0 -0.1200835581443566 -0.25027154356196418 0 -0.1213389822351057 -0.22601838322585521 0 -0.12299439152227851 -0.24968644881451429 0 -0.1200835581443566 -0.25027154356196418 0 -0.1213389822351057 -0.22601838322585521 0 -0.1102891706316249 -0.24875416485820759 0 -0.10353472907741409 -0.23346927384328939 0 -0.1213389822351057 -0.22601838322585521 0 -0.1102891706316249 -0.24875416485820759 0 -0.10353472907741409 -0.23346927384328939 0 -0.1102891706316249 -0.24875416485820759 0 -0.1010034765090346 -0.24844173791520191 0 -0.10353472907741409 -0.23346927384328939 0 -0.094028110547296428 -0.2403291368550951 0 -0.1010034765090346 -0.24844173791520191 0 -0.089537996638064749 -0.25029171891982521 0 -0.094028110547296428 -0.2403291368550951 0 -0.1010034765090346 -0.24844173791520191 0 -0.081665794070388514 -0.15343426541369731 0 -0.093486879180356572 -0.14630688115997381 0 -0.10217753897885699 -0.167410136491286 0 -0.081665794070388514 -0.15343426541369731 0 -0.093486879180356572 -0.14630688115997381 0 -0.080590832379880087 -0.13609069786919631 0 -0.080531236145691451 -0.11933730844748359 0 -0.080590832379880087 -0.13609069786919631 0 -0.094098559536747062 -0.12988730152384939 0 -0.093486879180356572 -0.14630688115997381 0 -0.080590832379880087 -0.13609069786919631 0 -0.094098559536747062 -0.12988730152384939 0 -0.080531236145691451 -0.11933730844748359 0 -0.080590832379880087 -0.13609069786919631 0 -0.067777966929164726 -0.12749705551743859 0 -0.080590832379880087 -0.13609069786919631 0 -0.067777966929164726 -0.12749705551743859 0 -0.066690587532801854 -0.14229183223754571 0 -0.054288123020816648 -0.134566460284751 0 -0.067777966929164726 -0.12749705551743859 0 -0.066690587532801854 -0.14229183223754571 0 -0.081665794070388514 -0.15343426541369731 0 -0.080590832379880087 -0.13609069786919631 0 -0.066690587532801854 -0.14229183223754571 0 -0.081665794070388514 -0.15343426541369731 0 -0.066690587532801854 -0.14229183223754571 0 -0.066116709995575479 -0.15910738082248699 0 -0.081665794070388514 -0.15343426541369731 0 -0.066116709995575479 -0.15910738082248699 0 -0.082123330607210721 -0.1731899309130874 0 -0.066116709995575479 -0.15910738082248699 0 -0.062593949518641903 -0.1761778253726303 0 -0.082123330607210721 -0.1731899309130874 0 -0.074378180000065575 -0.19744974299086709 0 -0.062593949518641903 -0.1761778253726303 0 -0.082123330607210721 -0.1731899309130874 0 -0.074378180000065575 -0.19744974299086709 0 -0.092010862622215528 -0.19006372685148881 0 -0.082123330607210721 -0.1731899309130874 0 -0.092010862622215528 -0.19006372685148881 0 -0.082123330607210721 -0.1731899309130874 0 -0.10217753897885699 -0.167410136491286 0 -0.081665794070388514 -0.15343426541369731 0 -0.082123330607210721 -0.1731899309130874 0 -0.10217753897885699 -0.167410136491286 0 -0.092010862622215528 -0.19006372685148881 0 -0.1109027796678594 -0.19364567346150549 0 -0.10217753897885699 -0.167410136491286 0 -0.1109027796678594 -0.19364567346150549 0 -0.10217753897885699 -0.167410136491286 0 -0.12545818671210421 -0.1802449876311536 0 -0.10217753897885699 -0.167410136491286 0 -0.1288638440347919 -0.15931358579649799 0 -0.12545818671210421 -0.1802449876311536 0 -0.10217753897885699 -0.167410136491286 0 -0.10890167093591011 -0.14471200450184021 0 -0.1288638440347919 -0.15931358579649799 0 -0.10890167093591011 -0.14471200450184021 0 -0.12505063256529819 -0.13949554111926879 0 -0.1288638440347919 -0.15931358579649799 0 -0.093486879180356572 -0.14630688115997381 0 -0.10217753897885699 -0.167410136491286 0 -0.10890167093591011 -0.14471200450184021 0 -0.093486879180356572 -0.14630688115997381 0 -0.10890167093591011 -0.14471200450184021 0 -0.094098559536747062 -0.12988730152384939 0 -0.11277651521281599 -0.1234892566383398 0 -0.10890167093591011 -0.14471200450184021 0 -0.094098559536747062 -0.12988730152384939 0 -0.11277651521281599 -0.1234892566383398 0 -0.10890167093591011 -0.14471200450184021 0 -0.12505063256529819 -0.13949554111926879 0 -0.11277651521281599 -0.1234892566383398 0 -0.12505063256529819 -0.13949554111926879 0 -0.13437452860801971 -0.1239487887983642 0 -0.12505063256529819 -0.13949554111926879 0 -0.14272000011978209 -0.14401847840120061 0 -0.13437452860801971 -0.1239487887983642 0 -0.15017576859723 -0.12918542774626909 0 -0.14272000011978209 -0.14401847840120061 0 -0.16533614497992999 -0.14435068304762599 0 -0.15017576859723 -0.12918542774626909 0 -0.14272000011978209 -0.14401847840120061 0 -0.13437452860801971 -0.1239487887983642 0 -0.14272000011978209 -0.14401847840120061 0 -0.1544884535991915 -0.1578109631170482 0 -0.16533614497992999 -0.14435068304762599 0 -0.14272000011978209 -0.14401847840120061 0 -0.1288638440347919 -0.15931358579649799 0 -0.1544884535991915 -0.1578109631170482 0 -0.12505063256529819 -0.13949554111926879 0 -0.14272000011978209 -0.14401847840120061 0 -0.1288638440347919 -0.15931358579649799 0 -0.1288638440347919 -0.15931358579649799 0 -0.12545818671210421 -0.1802449876311536 0 -0.1434386298111629 -0.18054676981998391 0 -0.1434386298111629 -0.18054676981998391 0 -0.16286553274057419 -0.17706955229793439 0 -0.15664331573222101 -0.1903812831209136 0 -0.1434386298111629 -0.18054676981998391 0 -0.1544884535991915 -0.1578109631170482 0 -0.16286553274057419 -0.17706955229793439 0 -0.1288638440347919 -0.15931358579649799 0 -0.1434386298111629 -0.18054676981998391 0 -0.1544884535991915 -0.1578109631170482 0 -0.1434386298111629 -0.18054676981998391 0 -0.1544884535991915 -0.1578109631170482 0 -0.1544884535991915 -0.1578109631170482 0 -0.16911163524981351 -0.16131867374166919 0 -0.16286553274057419 -0.17706955229793439 0 -0.16911163524981351 -0.16131867374166919 0 -0.16286553274057419 -0.17706955229793439 0 -0.17312482930980269 -0.17662847075191729 0 -0.16286553274057419 -0.17706955229793439 0 -0.1704096747582142 -0.1870484722770259 0 -0.15664331573222101 -0.1903812831209136 0 -0.16286553274057419 -0.17706955229793439 0 -0.1704096747582142 -0.1870484722770259 0 -0.17312482930980269 -0.17662847075191729 0 -0.18576898581204429 -0.17890251557725881 0 -0.18196698318111401 -0.16912133386360051 0 -0.18127032061929771 -0.18858432157935651 0 -0.18196698318111401 -0.16912133386360051 0 -0.18127032061929771 -0.18858432157935651 0 -0.17312482930980269 -0.17662847075191729 0 -0.18196698318111401 -0.16912133386360051 0 -0.18127032061929771 -0.18858432157935651 0 -0.1704096747582142 -0.1870484722770259 0 -0.17312482930980269 -0.17662847075191729 0 -0.18127032061929771 -0.18858432157935651 0 -0.18576898581204429 -0.17890251557725881 0 -0.18656871762372279 -0.18491184535135269 0 -0.18127032061929771 -0.18858432157935651 0 -0.18576898581204429 -0.17890251557725881 0 -0.18196698318111401 -0.16912133386360051 0 -0.19451473362871199 -0.16276739251605979 0 -0.16911163524981351 -0.16131867374166919 0 -0.18196698318111401 -0.16912133386360051 0 -0.1817827980923882 -0.1567619125222002 0 -0.16911163524981351 -0.16131867374166919 0 -0.17312482930980269 -0.17662847075191729 0 -0.18196698318111401 -0.16912133386360051 0 -0.18196698318111401 -0.16912133386360051 0 -0.1817827980923882 -0.1567619125222002 0 -0.19451473362871199 -0.16276739251605979 0 -0.1817827980923882 -0.1567619125222002 0 -0.18717727438414189 -0.14851358184850311 0 -0.18171401193812989 -0.14944382757774721 0 -0.17538518820359461 -0.15011972083405331 0 -0.18251078707239499 -0.1423800951062324 0 -0.16533614497992999 -0.14435068304762599 0 -0.16911163524981351 -0.16131867374166919 0 -0.1817827980923882 -0.1567619125222002 0 -0.17538518820359461 -0.15011972083405331 0 -0.1817827980923882 -0.1567619125222002 0 -0.18171401193812989 -0.14944382757774721 0 -0.17538518820359461 -0.15011972083405331 0 -0.18717727438414189 -0.14851358184850311 0 -0.18251078707239499 -0.1423800951062324 0 -0.1884157596294008 -0.138318424394934 0 -0.18171401193812989 -0.14944382757774721 0 -0.17538518820359461 -0.15011972083405331 0 -0.18251078707239499 -0.1423800951062324 0 -0.18717727438414189 -0.14851358184850311 0 -0.18171401193812989 -0.14944382757774721 0 -0.18251078707239499 -0.1423800951062324 0 -0.18251078707239499 -0.1423800951062324 0 -0.17555766286729721 -0.13040894284357429 0 -0.1884157596294008 -0.138318424394934 0 -0.18251078707239499 -0.1423800951062324 0 -0.17555766286729721 -0.13040894284357429 0 -0.16533614497992999 -0.14435068304762599 0 -0.18251078707239499 -0.1423800951062324 0 -0.1884157596294008 -0.138318424394934 0 -0.17555766286729721 -0.13040894284357429 0 -0.1884157596294008 -0.138318424394934 0 -0.18546239176448359 -0.12518813494572259 0 -0.17555766286729721 -0.13040894284357429 0 -0.1884157596294008 -0.138318424394934 0 -0.17555766286729721 -0.13040894284357429 0 -0.16533614497992999 -0.14435068304762599 0 -0.16359745754718019 -0.12338248359937889 0 -0.15017576859723 -0.12918542774626909 0 -0.16533614497992999 -0.14435068304762599 0 -0.16359745754718019 -0.12338248359937889 0 -0.1544884535991915 -0.1578109631170482 0 -0.16911163524981351 -0.16131867374166919 0 -0.16533614497992999 -0.14435068304762599 0 -0.16911163524981351 -0.16131867374166919 0 -0.17538518820359461 -0.15011972083405331 0 -0.16533614497992999 -0.14435068304762599 0 -0.13989617224675471 -0.2373076640724987 0 -0.15845336225840409 -0.24859694491914161 0 -0.1483751555864386 -0.25322417492281102 0 -0.13989617224675471 -0.2373076640724987 0 -0.15845336225840409 -0.24859694491914161 0 -0.13989617224675471 -0.2373076640724987 0 -0.15166742403090669 -0.23170741275409881 0 -0.15845336225840409 -0.24859694491914161 0 -0.1213389822351057 -0.22601838322585521 0 -0.12299439152227851 -0.24968644881451429 0 -0.13989617224675471 -0.2373076640724987 0 -0.1483751555864386 -0.25322417492281102 0 -0.12299439152227851 -0.24968644881451429 0 -0.13989617224675471 -0.2373076640724987 0 -0.1213389822351057 -0.22601838322585521 0 -0.13989617224675471 -0.2373076640724987 0 -0.1213389822351057 -0.22601838322585521 0 -0.13989617224675471 -0.2373076640724987 0 -0.13620450323287431 -0.2224792989618464 0 -0.13620450323287431 -0.2224792989618464 0 -0.15166742403090669 -0.23170741275409881 0 -0.1514047154603772 -0.2209101016505669 0 -0.13989617224675471 -0.2373076640724987 0 -0.13620450323287431 -0.2224792989618464 0 -0.15166742403090669 -0.23170741275409881 0 -0.15166742403090669 -0.23170741275409881 0 -0.1514047154603772 -0.2209101016505669 0 -0.16206977806914141 -0.22060874668559829 0 -0.1514047154603772 -0.2209101016505669 0 -0.13238880602313419 -0.20328257652291951 0 -0.15812548057954409 -0.2071079727743535 0 -0.13620450323287431 -0.2224792989618464 0 -0.1514047154603772 -0.2209101016505669 0 -0.13238880602313419 -0.20328257652291951 0 -0.1213389822351057 -0.22601838322585521 0 -0.13238880602313419 -0.20328257652291951 0 -0.1213389822351057 -0.22601838322585521 0 -0.13620450323287431 -0.2224792989618464 0 -0.13238880602313419 -0.20328257652291951 0 -0.1434386298111629 -0.18054676981998391 0 -0.13238880602313419 -0.20328257652291951 0 -0.12545818671210421 -0.1802449876311536 0 -0.1434386298111629 -0.18054676981998391 0 -0.13238880602313419 -0.20328257652291951 0 -0.13238880602313419 -0.20328257652291951 0 -0.15664331573222101 -0.1903812831209136 0 -0.15812548057954409 -0.2071079727743535 0 -0.1434386298111629 -0.18054676981998391 0 -0.13238880602313419 -0.20328257652291951 0 -0.15664331573222101 -0.1903812831209136 0 -0.15664331573222101 -0.1903812831209136 0 -0.16623873905900649 -0.1965942653675147 0 -0.15812548057954409 -0.2071079727743535 0 -0.16623873905900649 -0.1965942653675147 0 -0.17072449620061739 -0.20419887195019271 0 -0.15812548057954409 -0.2071079727743535 0 -0.16623873905900649 -0.1965942653675147 0 -0.17384337773892339 -0.1968946480938405 0 -0.17072449620061739 -0.20419887195019271 0 -0.1704096747582142 -0.1870484722770259 0 -0.15664331573222101 -0.1903812831209136 0 -0.16623873905900649 -0.1965942653675147 0 -0.1704096747582142 -0.1870484722770259 0 -0.16623873905900649 -0.1965942653675147 0 -0.17384337773892339 -0.1968946480938405 0 -0.1704096747582142 -0.1870484722770259 0 -0.18127032061929771 -0.18858432157935651 0 -0.17384337773892339 -0.1968946480938405 0 -0.18127032061929771 -0.18858432157935651 0 -0.18057365805748049 -0.2080473092951125 0 -0.18127032061929771 -0.18858432157935651 0 -0.17384337773892339 -0.1968946480938405 0 -0.18057365805748049 -0.2080473092951125 0 -0.18127032061929771 -0.18858432157935651 0 -0.18057365805748049 -0.2080473092951125 0 -0.1876178909277722 -0.19827380177333931 0 -0.18127032061929771 -0.18858432157935651 0 -0.1870810421502829 -0.18931429966484389 0 -0.1876178909277722 -0.19827380177333931 0 -0.18656871762372279 -0.18491184535135269 0 -0.18127032061929771 -0.18858432157935651 0 -0.1870810421502829 -0.18931429966484389 0 -0.17384337773892339 -0.1968946480938405 0 -0.18057365805748049 -0.2080473092951125 0 -0.17072449620061739 -0.20419887195019271 0 -0.18057365805748049 -0.2080473092951125 0 -0.17000984117427431 -0.21348205228003569 0 -0.18057365805748049 -0.2080473092951125 0 -0.18024835445158419 -0.2171354682295048 0 -0.19756596068946011 -0.19930531778315189 0 -0.18057365805748049 -0.2080473092951125 0 -0.17000984117427431 -0.21348205228003569 0 -0.17072449620061739 -0.20419887195019271 0 -0.18057365805748049 -0.2080473092951125 0 -0.18024835445158419 -0.2171354682295048 0 -0.18057365805748049 -0.2080473092951125 0 -0.18024835445158419 -0.2171354682295048 0 -0.17000984117427431 -0.21348205228003569 0 -0.17000984117427431 -0.21348205228003569 0 -0.17072449620061739 -0.20419887195019271 0 -0.15812548057954409 -0.2071079727743535 0 -0.1514047154603772 -0.2209101016505669 0 -0.15812548057954409 -0.2071079727743535 0 -0.16206977806914141 -0.22060874668559829 0 -0.17000984117427431 -0.21348205228003569 0 -0.15812548057954409 -0.2071079727743535 0 -0.16206977806914141 -0.22060874668559829 0 -0.15166742403090669 -0.23170741275409881 0 -0.16206977806914141 -0.22060874668559829 0 -0.1628259978788871 -0.2370395830882791 0 -0.16206977806914141 -0.22060874668559829 0 -0.1703995987239301 -0.22727571474633049 0 -0.1628259978788871 -0.2370395830882791 0 -0.1703995987239301 -0.22727571474633049 0 -0.1701697398291302 -0.23491668400633631 0 -0.1628259978788871 -0.2370395830882791 0 -0.17000984117427431 -0.21348205228003569 0 -0.16206977806914141 -0.22060874668559829 0 -0.1703995987239301 -0.22727571474633049 0 -0.18024835445158419 -0.2171354682295048 0 -0.17968861992929169 -0.23277303328412269 0 -0.19069874449240401 -0.2149734791840815 0 -0.17968861992929169 -0.23277303328412269 0 -0.19069874449240401 -0.2149734791840815 0 -0.17968861992929169 -0.23277303328412269 0 -0.17946756871522859 -0.23894864440443631 0 -0.20083960997568079 -0.2291360503806231 0 -0.18024835445158419 -0.2171354682295048 0 -0.1703995987239301 -0.22727571474633049 0 -0.18024835445158419 -0.2171354682295048 0 -0.1703995987239301 -0.22727571474633049 0 -0.17968861992929169 -0.23277303328412269 0 -0.18024835445158419 -0.2171354682295048 0 -0.17968861992929169 -0.23277303328412269 0 -0.18024835445158419 -0.2171354682295048 0 -0.17000984117427431 -0.21348205228003569 0 -0.1703995987239301 -0.22727571474633049 0 -0.1703995987239301 -0.22727571474633049 0 -0.17968861992929169 -0.23277303328412269 0 -0.1701697398291302 -0.23491668400633631 0 -0.17968861992929169 -0.23277303328412269 0 -0.17444109585231091 -0.2412564603483803 0 -0.1701697398291302 -0.23491668400633631 0 -0.17968861992929169 -0.23277303328412269 0 -0.17444109585231091 -0.2412564603483803 0 -0.1788047671982789 -0.25746564027792762 0 -0.17444109585231091 -0.2412564603483803 0 -0.17946756871522859 -0.23894864440443631 0 -0.17968861992929169 -0.23277303328412269 0 -0.17444109585231091 -0.2412564603483803 0 -0.17946756871522859 -0.23894864440443631 0 -0.1788047671982789 -0.25746564027792762 0 -0.17946756871522859 -0.23894864440443631 0 -0.1788047671982789 -0.25746564027792762 0 -0.17946756871522859 -0.23894864440443631 0 -0.1919820056061752 -0.24866694914454751 0 -0.17444109585231091 -0.2412564603483803 0 -0.17946756871522859 -0.23894864440443631 0 -0.17968861992929169 -0.23277303328412269 0 -0.17946756871522859 -0.23894864440443631 0 -0.15166742403090669 -0.23170741275409881 0 -0.1628259978788871 -0.2370395830882791 0 -0.15845336225840409 -0.24859694491914161 0 -0.16677071226738061 -0.25365681120774819 0 -0.17444109585231091 -0.2412564603483803 0 -0.16677071226738061 -0.25365681120774819 0 -0.17444109585231091 -0.2412564603483803 0 -0.15845336225840409 -0.24859694491914161 0 -0.17444109585231091 -0.2412564603483803 0 -0.15845336225840409 -0.24859694491914161 0 -0.17444109585231091 -0.2412564603483803 0 -0.1628259978788871 -0.2370395830882791 0 -0.15845336225840409 -0.24859694491914161 0 -0.17444109585231091 -0.2412564603483803 0 -0.1701697398291302 -0.23491668400633631 0 -0.1628259978788871 -0.2370395830882791 0 -0.20887667506423541 -0.23755441023813051 0 -0.20565060507058999 -0.2479615578658618 0 -0.21978578570267129 -0.24479074222682279 0 -0.20887667506423541 -0.23755441023813051 0 -0.20565060507058999 -0.2479615578658618 0 -0.19736329288638191 -0.2404535224067198 0 -0.17946756871522859 -0.23894864440443631 0 -0.1919820056061752 -0.24866694914454751 0 -0.19736329288638191 -0.2404535224067198 0 -0.17946756871522859 -0.23894864440443631 0 -0.19736329288638191 -0.2404535224067198 0 -0.20083960997568079 -0.2291360503806231 0 -0.20565060507058999 -0.2479615578658618 0 -0.1919820056061752 -0.24866694914454751 0 -0.19736329288638191 -0.2404535224067198 0 -0.20887667506423541 -0.23755441023813051 0 -0.19736329288638191 -0.2404535224067198 0 -0.20083960997568079 -0.2291360503806231 0 -0.17946756871522859 -0.23894864440443631 0 -0.20083960997568079 -0.2291360503806231 0 -0.20083960997568079 -0.2291360503806231 0 -0.2064042364648746 -0.2132313983189458 0 -0.19069874449240401 -0.2149734791840815 0 -0.17968861992929169 -0.23277303328412269 0 -0.20083960997568079 -0.2291360503806231 0 -0.19069874449240401 -0.2149734791840815 0 -0.20083960997568079 -0.2291360503806231 0 -0.2222116512361326 -0.2193234563568088 0 -0.20083960997568079 -0.2291360503806231 0 -0.2064042364648746 -0.2132313983189458 0 -0.2222116512361326 -0.2193234563568088 0 -0.20887667506423541 -0.23755441023813051 0 -0.2222116512361326 -0.2193234563568088 0 -0.21978578570267129 -0.24479074222682279 0 -0.20887667506423541 -0.23755441023813051 0 -0.20083960997568079 -0.2291360503806231 0 -0.2222116512361326 -0.2193234563568088 0 -0.2064042364648746 -0.2132313983189458 0 -0.21429923961852251 -0.2013705982940702 0 -0.2222116512361326 -0.2193234563568088 0 -0.2064042364648746 -0.2132313983189458 0 -0.2017088690555156 -0.19717392508404 0 -0.21429923961852251 -0.2013705982940702 0 -0.19069874449240401 -0.2149734791840815 0 -0.2017088690555156 -0.19717392508404 0 -0.19756596068946011 -0.19930531778315189 0 -0.19069874449240401 -0.2149734791840815 0 -0.2017088690555156 -0.19717392508404 0 -0.18024835445158419 -0.2171354682295048 0 -0.19756596068946011 -0.19930531778315189 0 -0.2064042364648746 -0.2132313983189458 0 -0.19069874449240401 -0.2149734791840815 0 -0.2017088690555156 -0.19717392508404 0 -0.18057365805748049 -0.2080473092951125 0 -0.19756596068946011 -0.19930531778315189 0 -0.18024835445158419 -0.2171354682295048 0 -0.19069874449240401 -0.2149734791840815 0 -0.19756596068946011 -0.19930531778315189 0 -0.18057365805748049 -0.2080473092951125 0 -0.19756596068946011 -0.19930531778315189 0 -0.1876178909277722 -0.19827380177333931 0 -0.2017088690555156 -0.19717392508404 0 -0.19756596068946011 -0.19930531778315189 0 -0.2053441781789237 -0.19129689062892871 0 -0.2017088690555156 -0.19717392508404 0 -0.19756596068946011 -0.19930531778315189 0 -0.19756596068946011 -0.19930531778315189 0 -0.1876178909277722 -0.19827380177333931 0 -0.19091689050611549 -0.19449932602587111 0 -0.19756596068946011 -0.19930531778315189 0 -0.19091689050611549 -0.19449932602587111 0 -0.1952834904471093 -0.19282287314090599 0 -0.1870810421502829 -0.18931429966484389 0 -0.1876178909277722 -0.19827380177333931 0 -0.19091689050611549 -0.19449932602587111 0 -0.1870810421502829 -0.18931429966484389 0 -0.1952834904471093 -0.19282287314090599 0 -0.19505258936467831 -0.1837955151479406 0 -0.1952834904471093 -0.19282287314090599 0 -0.19505258936467831 -0.1837955151479406 0 -0.1870810421502829 -0.18931429966484389 0 -0.19091689050611549 -0.19449932602587111 0 -0.1952834904471093 -0.19282287314090599 0 -0.19756596068946011 -0.19930531778315189 0 -0.2053441781789237 -0.19129689062892871 0 -0.1952834904471093 -0.19282287314090599 0 -0.2053441781789237 -0.19129689062892871 0 -0.19505258936467831 -0.1837955151479406 0 -0.19756596068946011 -0.19930531778315189 0 -0.1952834904471093 -0.19282287314090599 0 -0.2053441781789237 -0.19129689062892871 0 -0.2017088690555156 -0.19717392508404 0 -0.2053441781789237 -0.19129689062892871 0 -0.2182052821928667 -0.18868705271907341 0 -0.2017088690555156 -0.19717392508404 0 -0.21429923961852251 -0.2013705982940702 0 -0.2182052821928667 -0.18868705271907341 0 -0.2017088690555156 -0.19717392508404 0 -0.2182052821928667 -0.18868705271907341 0 -0.2017088690555156 -0.19717392508404 0 -0.2053441781789237 -0.19129689062892871 0 -0.227875077305594 -0.19842900771046379 0 -0.23961132633301141 -0.19201141292091359 0 -0.23470169533021759 -0.1802001803541067 0 -0.2182052821928667 -0.18868705271907341 0 -0.227875077305594 -0.19842900771046379 0 -0.23470169533021759 -0.1802001803541067 0 -0.21429923961852251 -0.2013705982940702 0 -0.2182052821928667 -0.18868705271907341 0 -0.227875077305594 -0.19842900771046379 0 -0.23961132633301141 -0.19201141292091359 0 -0.23822126912281311 -0.2089813456178102 0 -0.25366509967595402 -0.1948527909645893 0 -0.227875077305594 -0.19842900771046379 0 -0.23961132633301141 -0.19201141292091359 0 -0.23822126912281311 -0.2089813456178102 0 -0.23961132633301141 -0.19201141292091359 0 -0.24859954248683089 -0.18143928639920409 0 -0.25366509967595402 -0.1948527909645893 0 -0.23822126912281311 -0.2089813456178102 0 -0.25317274192714162 -0.21441552365493749 0 -0.25366509967595402 -0.1948527909645893 0 -0.23822126912281311 -0.2089813456178102 0 -0.23992074575463701 -0.2228500697442464 0 -0.25317274192714162 -0.21441552365493749 0 -0.227875077305594 -0.19842900771046379 0 -0.23822126912281311 -0.2089813456178102 0 -0.2222116512361326 -0.2193234563568088 0 -0.23822126912281311 -0.2089813456178102 0 -0.2222116512361326 -0.2193234563568088 0 -0.23992074575463701 -0.2228500697442464 0 -0.21429923961852251 -0.2013705982940702 0 -0.227875077305594 -0.19842900771046379 0 -0.2222116512361326 -0.2193234563568088 0 -0.2222116512361326 -0.2193234563568088 0 -0.23422236826404921 -0.2366043332488959 0 -0.21978578570267129 -0.24479074222682279 0 -0.2222116512361326 -0.2193234563568088 0 -0.23992074575463701 -0.2228500697442464 0 -0.23422236826404921 -0.2366043332488959 0 -0.23992074575463701 -0.2228500697442464 0 -0.23422236826404921 -0.2366043332488959 0 -0.25106874030253501 -0.2324917081722214 0 -0.23992074575463701 -0.2228500697442464 0 -0.25106874030253501 -0.2324917081722214 0 -0.25317274192714162 -0.21441552365493749 0 -0.2483468260877667 -0.24670177710050209 0 -0.23422236826404921 -0.2366043332488959 0 -0.25106874030253501 -0.2324917081722214 0 -0.234398189469262 -0.25214845472677339 0 -0.2483468260877667 -0.24670177710050209 0 -0.23422236826404921 -0.2366043332488959 0 -0.234398189469262 -0.25214845472677339 0 -0.23422236826404921 -0.2366043332488959 0 -0.21978578570267129 -0.24479074222682279 0 -0.20954272037304411 -0.15131438400932151 0 -0.2162979725539029 -0.14595545493736001 0 -0.20402921032502239 -0.13533937231246729 0 -0.2162979725539029 -0.14595545493736001 0 -0.20402921032502239 -0.13533937231246729 0 -0.20954272037304411 -0.15131438400932151 0 -0.19986270195139019 -0.1589935247353923 0 -0.20954272037304411 -0.15131438400932151 0 -0.224416398568661 -0.1604637227851754 0 -0.20954272037304411 -0.15131438400932151 0 -0.2162979725539029 -0.14595545493736001 0 -0.20954272037304411 -0.15131438400932151 0 -0.2162979725539029 -0.14595545493736001 0 -0.2228088737724328 -0.15158929672261581 0 -0.2162979725539029 -0.14595545493736001 0 -0.20402921032502239 -0.13533937231246729 0 -0.2194331806492634 -0.14346830014890111 0 -0.2162979725539029 -0.14595545493736001 0 -0.2194331806492634 -0.14346830014890111 0 -0.2194331806492634 -0.14346830014890111 0 -0.2244625779739384 -0.1290549203194136 0 -0.21087190621796381 -0.12287220986863651 0 -0.2194331806492634 -0.14346830014890111 0 -0.21087190621796381 -0.12287220986863651 0 -0.20402921032502239 -0.13533937231246729 0 -0.2194331806492634 -0.14346830014890111 0 -0.21087190621796381 -0.12287220986863651 0 -0.20402921032502239 -0.13533937231246729 0 -0.19379474461712609 -0.13461854847336949 0 -0.19397687789274501 -0.14173926988417901 0 -0.20402921032502239 -0.13533937231246729 0 -0.19379474461712609 -0.13461854847336949 0 -0.21087190621796381 -0.12287220986863651 0 -0.19379474461712609 -0.13461854847336949 0 -0.21087190621796381 -0.12287220986863651 0 -0.18546239176448359 -0.12518813494572259 0 -0.19379474461712609 -0.13461854847336949 0 -0.1884157596294008 -0.138318424394934 0 -0.19379474461712609 -0.13461854847336949 0 -0.19397687789274501 -0.14173926988417901 0 -0.19379474461712609 -0.13461854847336949 0 -0.1884157596294008 -0.138318424394934 0 -0.19397687789274501 -0.14173926988417901 0 -0.19379474461712609 -0.13461854847336949 0 -0.1884157596294008 -0.138318424394934 0 -0.1884157596294008 -0.138318424394934 0 -0.19397687789274501 -0.14173926988417901 0 -0.19397687789274501 -0.14173926988417901 0 -0.19451473362871199 -0.16276739251605979 0 -0.18717727438414189 -0.14851358184850311 0 -0.19397687789274501 -0.14173926988417901 0 -0.19451473362871199 -0.16276739251605979 0 -0.20954272037304411 -0.15131438400932151 0 -0.19397687789274501 -0.14173926988417901 0 -0.19986270195139019 -0.1589935247353923 0 -0.19397687789274501 -0.14173926988417901 0 -0.19451473362871199 -0.16276739251605979 0 -0.19986270195139019 -0.1589935247353923 0 -0.20954272037304411 -0.15131438400932151 0 -0.20402921032502239 -0.13533937231246729 0 -0.19397687789274501 -0.14173926988417901 0 -0.18717727438414189 -0.14851358184850311 0 -0.1884157596294008 -0.138318424394934 0 -0.19397687789274501 -0.14173926988417901 0 -0.20954272037304411 -0.15131438400932151 0 -0.19397687789274501 -0.14173926988417901 0 -0.1817827980923882 -0.1567619125222002 0 -0.18717727438414189 -0.14851358184850311 0 -0.19451473362871199 -0.16276739251605979 0 -0.19451473362871199 -0.16276739251605979 0 -0.2030087920064004 -0.16738612023977251 0 -0.19505258936467831 -0.1837955151479406 0 -0.19451473362871199 -0.16276739251605979 0 -0.2030087920064004 -0.16738612023977251 0 -0.19986270195139019 -0.1589935247353923 0 -0.2030087920064004 -0.16738612023977251 0 -0.19505258936467831 -0.1837955151479406 0 -0.20811013810539569 -0.17475563921407741 0 -0.2053441781789237 -0.19129689062892871 0 -0.19505258936467831 -0.1837955151479406 0 -0.20811013810539569 -0.17475563921407741 0 -0.19451473362871199 -0.16276739251605979 0 -0.19505258936467831 -0.1837955151479406 0 -0.18576898581204429 -0.17890251557725881 0 -0.19451473362871199 -0.16276739251605979 0 -0.19505258936467831 -0.1837955151479406 0 -0.1870810421502829 -0.18931429966484389 0 -0.19505258936467831 -0.1837955151479406 0 -0.18656871762372279 -0.18491184535135269 0 -0.1870810421502829 -0.18931429966484389 0 -0.19505258936467831 -0.1837955151479406 0 -0.18576898581204429 -0.17890251557725881 0 -0.18656871762372279 -0.18491184535135269 0 -0.19505258936467831 -0.1837955151479406 0 -0.19505258936467831 -0.1837955151479406 0 -0.20811013810539569 -0.17475563921407741 0 -0.2053441781789237 -0.19129689062892871 0 -0.20811013810539569 -0.17475563921407741 0 -0.22116768684611479 -0.16571576328021659 0 -0.2053441781789237 -0.19129689062892871 0 -0.22116768684611479 -0.16571576328021659 0 -0.2053441781789237 -0.19129689062892871 0 -0.226061199187025 -0.1699667139116221 0 -0.22116768684611479 -0.16571576328021659 0 -0.2053441781789237 -0.19129689062892871 0 -0.226061199187025 -0.1699667139116221 0 -0.2053441781789237 -0.19129689062892871 0 -0.2182052821928667 -0.18868705271907341 0 -0.226061199187025 -0.1699667139116221 0 -0.2030087920064004 -0.16738612023977251 0 -0.19986270195139019 -0.1589935247353923 0 -0.21101807297516759 -0.16310485904399291 0 -0.20954272037304411 -0.15131438400932151 0 -0.19986270195139019 -0.1589935247353923 0 -0.21101807297516759 -0.16310485904399291 0 -0.2030087920064004 -0.16738612023977251 0 -0.20811013810539569 -0.17475563921407741 0 -0.21101807297516759 -0.16310485904399291 0 -0.20811013810539569 -0.17475563921407741 0 -0.22116768684611479 -0.16571576328021659 0 -0.20811013810539569 -0.17475563921407741 0 -0.21101807297516759 -0.16310485904399291 0 -0.22116768684611479 -0.16571576328021659 0 -0.20954272037304411 -0.15131438400932151 0 -0.21101807297516759 -0.16310485904399291 0 -0.224416398568661 -0.1604637227851754 0 -0.2267131836226195 -0.16187655855300151 0 -0.23470169533021759 -0.1802001803541067 0 -0.21101807297516759 -0.16310485904399291 0 -0.224416398568661 -0.1604637227851754 0 -0.22116768684611479 -0.16571576328021659 0 -0.22566122364418539 -0.15845127223114719 0 -0.224416398568661 -0.1604637227851754 0 -0.2228088737724328 -0.15158929672261581 0 -0.226061199187025 -0.1699667139116221 0 -0.2267131836226195 -0.16187655855300151 0 -0.23470169533021759 -0.1802001803541067 0 -0.22566122364418539 -0.15845127223114719 0 -0.224416398568661 -0.1604637227851754 0 -0.22566122364418539 -0.15845127223114719 0 -0.2274315495883959 -0.15558926896878281 0 -0.22116768684611479 -0.16571576328021659 0 -0.2267131836226195 -0.16187655855300151 0 -0.224416398568661 -0.1604637227851754 0 -0.22116768684611479 -0.16571576328021659 0 -0.224416398568661 -0.1604637227851754 0 -0.22116768684611479 -0.16571576328021659 0 -0.2267131836226195 -0.16187655855300151 0 -0.22566122364418539 -0.15845127223114719 0 -0.2267131836226195 -0.16187655855300151 0 -0.22566122364418539 -0.15845127223114719 0 -0.224416398568661 -0.1604637227851754 0 -0.2267131836226195 -0.16187655855300151 0 -0.224416398568661 -0.1604637227851754 0 -0.2267131836226195 -0.16187655855300151 0 -0.226061199187025 -0.1699667139116221 0 -0.22116768684611479 -0.16571576328021659 0 -0.2267131836226195 -0.16187655855300151 0 -0.22566122364418539 -0.15845127223114719 0 -0.23114876993867059 -0.15880575630770649 0 -0.2267131836226195 -0.16187655855300151 0 -0.22566122364418539 -0.15845127223114719 0 -0.23114876993867059 -0.15880575630770649 0 -0.2274315495883959 -0.15558926896878281 0 -0.23114876993867059 -0.15880575630770649 0 -0.2274315495883959 -0.15558926896878281 0 -0.23114876993867059 -0.15880575630770649 0 -0.2267131836226195 -0.16187655855300151 0 -0.2182052821928667 -0.18868705271907341 0 -0.23470169533021759 -0.1802001803541067 0 -0.2182052821928667 -0.18868705271907341 0 -0.226061199187025 -0.1699667139116221 0 -0.23470169533021759 -0.1802001803541067 0 -0.23961132633301141 -0.19201141292091359 0 -0.23470169533021759 -0.1802001803541067 0 -0.23961132633301141 -0.19201141292091359 0 -0.23470169533021759 -0.1802001803541067 0 -0.24859954248683089 -0.18143928639920409 0 -0.23470169533021759 -0.1802001803541067 0 -0.24797942554236649 -0.17336921651556181 0 -0.23470169533021759 -0.1802001803541067 0 -0.24797942554236649 -0.17336921651556181 0 -0.24859954248683089 -0.18143928639920409 0 -0.24797942554236649 -0.17336921651556181 0 -0.24859954248683089 -0.18143928639920409 0 -0.25039736844854388 -0.17644555942502901 0 -0.24797942554236649 -0.17336921651556181 0 -0.25039736844854388 -0.17644555942502901 0 -0.23114876993867059 -0.15880575630770649 0 -0.24797942554236649 -0.17336921651556181 0 -0.23114876993867059 -0.15880575630770649 0 -0.248532515222471 -0.16028806219974051 0 -0.2494567402559198 -0.1528904046332156 0 -0.23114876993867059 -0.15880575630770649 0 -0.24797942554236649 -0.17336921651556181 0 -0.248532515222471 -0.16028806219974051 0 -0.2267131836226195 -0.16187655855300151 0 -0.24797942554236649 -0.17336921651556181 0 -0.2267131836226195 -0.16187655855300151 0 -0.23470169533021759 -0.1802001803541067 0 -0.24797942554236649 -0.17336921651556181 0 -0.23114876993867059 -0.15880575630770649 0 -0.2267131836226195 -0.16187655855300151 0 -0.24797942554236649 -0.17336921651556181 0 -0.2274315495883959 -0.15558926896878281 0 -0.24286157697291319 -0.13064426443032429 0 -0.23114876993867059 -0.15880575630770649 0 -0.2494567402559198 -0.1528904046332156 0 -0.25355617736538799 -0.14329287658126119 0 -0.23114876993867059 -0.15880575630770649 0 -0.25355617736538799 -0.14329287658126119 0 -0.23114876993867059 -0.15880575630770649 0 -0.2274315495883959 -0.15558926896878281 0 -0.25355617736538799 -0.14329287658126119 0 -0.2274315495883959 -0.15558926896878281 0 -0.24286157697291319 -0.13064426443032429 0 -0.25355617736538799 -0.14329287658126119 0 -0.2194331806492634 -0.14346830014890111 0 -0.2228088737724328 -0.15158929672261581 0 -0.24286157697291319 -0.13064426443032429 0 -0.2274315495883959 -0.15558926896878281 0 -0.2228088737724328 -0.15158929672261581 0 -0.24286157697291319 -0.13064426443032429 0 -0.2162979725539029 -0.14595545493736001 0 -0.2194331806492634 -0.14346830014890111 0 -0.2228088737724328 -0.15158929672261581 0 -0.2194331806492634 -0.14346830014890111 0 -0.2228088737724328 -0.15158929672261581 0 -0.20954272037304411 -0.15131438400932151 0 -0.224416398568661 -0.1604637227851754 0 -0.2228088737724328 -0.15158929672261581 0 -0.2162979725539029 -0.14595545493736001 0 -0.2228088737724328 -0.15158929672261581 0 -0.22566122364418539 -0.15845127223114719 0 -0.2274315495883959 -0.15558926896878281 0 -0.2228088737724328 -0.15158929672261581 0 -0.22566122364418539 -0.15845127223114719 0 -0.2228088737724328 -0.15158929672261581 0 -0.2274315495883959 -0.15558926896878281 0 -0.2228088737724328 -0.15158929672261581 0 -0.2194331806492634 -0.14346830014890111 0 -0.2398220812961375 -0.1272938229426385 0 -0.24286157697291319 -0.13064426443032429 0 -0.2194331806492634 -0.14346830014890111 0 -0.2244625779739384 -0.1290549203194136 0 -0.2398220812961375 -0.1272938229426385 0 -0.2194331806492634 -0.14346830014890111 0 -0.2398220812961375 -0.1272938229426385 0 -0.2244625779739384 -0.1290549203194136 0 -0.2398220812961375 -0.1272938229426385 0 -0.23278640641095821 -0.119538386009705 0 -0.2398220812961375 -0.1272938229426385 0 -0.24286157697291319 -0.13064426443032429 0 -0.24286157697291319 -0.13064426443032429 0 -0.2561520241318701 -0.14529434795947191 0 -0.244042885142947 -0.1287344986905469 0 -0.24286157697291319 -0.13064426443032429 0 -0.25723802464344048 -0.1318703987773184 0 -0.2398220812961375 -0.1272938229426385 0 -0.244042885142947 -0.1287344986905469 0 -0.25133096567543273 -0.12503417873500211 0 -0.2398220812961375 -0.1272938229426385 0 -0.244042885142947 -0.1287344986905469 0 -0.24286157697291319 -0.13064426443032429 0 -0.244042885142947 -0.1287344986905469 0 -0.24286157697291319 -0.13064426443032429 0 -0.2398220812961375 -0.1272938229426385 0 -0.25280495125304681 -0.1169945361970291 0 -0.25133096567543273 -0.12503417873500211 0 -0.2398220812961375 -0.1272938229426385 0 -0.25280495125304681 -0.1169945361970291 0 -0.2398220812961375 -0.1272938229426385 0 -0.24172308667225439 -0.1154077905854007 0 -0.25280495125304681 -0.1169945361970291 0 -0.24172308667225439 -0.1154077905854007 0 -0.24927704965079389 -0.10811927048862451 0 -0.2323137651122254 -0.10812366202596981 0 -0.2398220812961375 -0.1272938229426385 0 -0.24172308667225439 -0.1154077905854007 0 -0.23278640641095821 -0.119538386009705 0 -0.2398220812961375 -0.1272938229426385 0 -0.23278640641095821 -0.119538386009705 0 -0.24172308667225439 -0.1154077905854007 0 -0.2323137651122254 -0.10812366202596981 0 -0.23278640641095821 -0.119538386009705 0 -0.24172308667225439 -0.1154077905854007 0 -0.24927704965079389 -0.10811927048862451 0 -0.25280495125304681 -0.1169945361970291 0 -0.24927704965079389 -0.10811927048862451 0 -0.2323137651122254 -0.10812366202596981 0 -0.25375562400648699 -0.093375114183303284 0 -0.2323137651122254 -0.10812366202596981 0 -0.23834795727657129 -0.08272724145437689 0 -0.25375562400648699 -0.093375114183303284 0 -0.2323137651122254 -0.10812366202596981 0 -0.25375562400648699 -0.093375114183303284 0 -0.2244625779739384 -0.1290549203194136 0 -0.23278640641095821 -0.119538386009705 0 -0.21087190621796381 -0.12287220986863651 0 -0.2323137651122254 -0.10812366202596981 0 -0.21087190621796381 -0.12287220986863651 0 -0.2323137651122254 -0.10812366202596981 0 -0.23278640641095821 -0.119538386009705 0 -0.21087190621796381 -0.12287220986863651 0 -0.23834795727657129 -0.08272724145437689 0 -0.2310511482814015 -0.061242204551110929 0 -0.25286892980714532 -0.069080915611492183 0 -0.23834795727657129 -0.08272724145437689 0 -0.25286892980714532 -0.069080915611492183 0 -0.25375562400648699 -0.093375114183303284 0 -0.2323137651122254 -0.10812366202596981 0 -0.23834795727657129 -0.08272724145437689 0 -0.21900970357834751 -0.083280827786513689 0 -0.23834795727657129 -0.08272724145437689 0 -0.21900970357834751 -0.083280827786513689 0 -0.2310511482814015 -0.061242204551110929 0 -0.21900970357834751 -0.083280827786513689 0 -0.21080025626669971 -0.062268983347459693 0 -0.2310511482814015 -0.061242204551110929 0 -0.21900970357834751 -0.083280827786513689 0 -0.19235488008581661 -0.078325297490098506 0 -0.21080025626669971 -0.062268983347459693 0 -0.21900970357834751 -0.083280827786513689 0 -0.19235488008581661 -0.078325297490098506 0 -0.20161339315188981 -0.1005987536793676 0 -0.19235488008581661 -0.078325297490098506 0 -0.19307481235147211 -0.106471922981734 0 -0.1786744009573894 -0.086342272341572907 0 -0.19235488008581661 -0.078325297490098506 0 -0.20161339315188981 -0.1005987536793676 0 -0.19235488008581661 -0.078325297490098506 0 -0.19307481235147211 -0.106471922981734 0 -0.19235488008581661 -0.078325297490098506 0 -0.19159363184306061 -0.048563373740798957 0 -0.21080025626669971 -0.062268983347459693 0 -0.19235488008581661 -0.078325297490098506 0 -0.19159363184306061 -0.048563373740798957 0 -0.2323137651122254 -0.10812366202596981 0 -0.21087190621796381 -0.12287220986863651 0 -0.20161339315188981 -0.1005987536793676 0 -0.21087190621796381 -0.12287220986863651 0 -0.20161339315188981 -0.1005987536793676 0 -0.2323137651122254 -0.10812366202596981 0 -0.21900970357834751 -0.083280827786513689 0 -0.20161339315188981 -0.1005987536793676 0 -0.19235488008581661 -0.078325297490098506 0 -0.20161339315188981 -0.1005987536793676 0 -0.19307481235147211 -0.106471922981734 0 -0.19379474461712609 -0.13461854847336949 0 -0.19307481235147211 -0.106471922981734 0 -0.19379474461712609 -0.13461854847336949 0 -0.21087190621796381 -0.12287220986863651 0 -0.19307481235147211 -0.106471922981734 0 -0.21087190621796381 -0.12287220986863651 0 -0.20161339315188981 -0.1005987536793676 0 -0.19307481235147211 -0.106471922981734 0 -0.18546239176448359 -0.12518813494572259 0 -0.19379474461712609 -0.13461854847336949 0 -0.19307481235147211 -0.106471922981734 0 -0.18546239176448359 -0.12518813494572259 0 -0.19307481235147211 -0.106471922981734 0 -0.17646897935712219 -0.1161228360350017 0 -0.18546239176448359 -0.12518813494572259 0 -0.17555766286729721 -0.13040894284357429 0 -0.17646897935712219 -0.1161228360350017 0 -0.16359745754718019 -0.12338248359937889 0 -0.1637735145926921 -0.10745689698454219 0 -0.14969402744536539 -0.1140795351587596 0 -0.17555766286729721 -0.13040894284357429 0 -0.17646897935712219 -0.1161228360350017 0 -0.16359745754718019 -0.12338248359937889 0 -0.17646897935712219 -0.1161228360350017 0 -0.16359745754718019 -0.12338248359937889 0 -0.1637735145926921 -0.10745689698454219 0 -0.1637735145926921 -0.10745689698454219 0 -0.16527366322048531 -0.09270087423411176 0 -0.15131826916585059 -0.098243797589406712 0 -0.1637735145926921 -0.10745689698454219 0 -0.17545307409583219 -0.10181896051539251 0 -0.16527366322048531 -0.09270087423411176 0 -0.19307481235147211 -0.106471922981734 0 -0.17646897935712219 -0.1161228360350017 0 -0.17545307409583219 -0.10181896051539251 0 -0.19307481235147211 -0.106471922981734 0 -0.17545307409583219 -0.10181896051539251 0 -0.1786744009573894 -0.086342272341572907 0 -0.17646897935712219 -0.1161228360350017 0 -0.1637735145926921 -0.10745689698454219 0 -0.17545307409583219 -0.10181896051539251 0 -0.19235488008581661 -0.078325297490098506 0 -0.1786744009573894 -0.086342272341572907 0 -0.17996124905398619 -0.07155743140511292 0 -0.17545307409583219 -0.10181896051539251 0 -0.1786744009573894 -0.086342272341572907 0 -0.16527366322048531 -0.09270087423411176 0 -0.1786744009573894 -0.086342272341572907 0 -0.17996124905398619 -0.07155743140511292 0 -0.16732257058684799 -0.069367230213746647 0 -0.19235488008581661 -0.078325297490098506 0 -0.18149314458588961 -0.052194925575033677 0 -0.1786744009573894 -0.086342272341572907 0 -0.16732257058684799 -0.069367230213746647 0 -0.17996124905398619 -0.07155743140511292 0 -0.16732257058684799 -0.069367230213746647 0 -0.18149314458588961 -0.052194925575033677 0 -0.19235488008581661 -0.078325297490098506 0 -0.17996124905398619 -0.07155743140511292 0 -0.18149314458588961 -0.052194925575033677 0 -0.16732257058684799 -0.069367230213746647 0 -0.14731846231001211 -0.070520794653119168 0 -0.15597074021630661 -0.052392188085920353 0 -0.16732257058684799 -0.069367230213746647 0 -0.16527366322048531 -0.09270087423411176 0 -0.15363142221900791 -0.083974900720187484 0 -0.1786744009573894 -0.086342272341572907 0 -0.16732257058684799 -0.069367230213746647 0 -0.16527366322048531 -0.09270087423411176 0 -0.16527366322048531 -0.09270087423411176 0 -0.15363142221900791 -0.083974900720187484 0 -0.15131826916585059 -0.098243797589406712 0 -0.15363142221900791 -0.083974900720187484 0 -0.14731846231001211 -0.070520794653119168 0 -0.13889028885676721 -0.086763365866160735 0 -0.15363142221900791 -0.083974900720187484 0 -0.13889028885676721 -0.086763365866160735 0 -0.15131826916585059 -0.098243797589406712 0 -0.16732257058684799 -0.069367230213746647 0 -0.15363142221900791 -0.083974900720187484 0 -0.14731846231001211 -0.070520794653119168 0 -0.14731846231001211 -0.070520794653119168 0 -0.13058466754914791 -0.072696764781637224 0 -0.13889028885676721 -0.086763365866160735 0 -0.14731846231001211 -0.070520794653119168 0 -0.13058466754914791 -0.072696764781637224 0 -0.13924484101693299 -0.058484521346367932 0 -0.1236972460038322 -0.091538441889713273 0 -0.13058466754914791 -0.072696764781637224 0 -0.13889028885676721 -0.086763365866160735 0 -0.1236972460038322 -0.091538441889713273 0 -0.13889028885676721 -0.086763365866160735 0 -0.13664669866078591 -0.10448721257267859 0 -0.12374626213362271 -0.111929850458328 0 -0.1236972460038322 -0.091538441889713273 0 -0.13664669866078591 -0.10448721257267859 0 -0.12374626213362271 -0.111929850458328 0 -0.13664669866078591 -0.10448721257267859 0 -0.13437452860801971 -0.1239487887983642 0 -0.13664669866078591 -0.10448721257267859 0 -0.13437452860801971 -0.1239487887983642 0 -0.14969402744536539 -0.1140795351587596 0 -0.15017576859723 -0.12918542774626909 0 -0.13437452860801971 -0.1239487887983642 0 -0.14969402744536539 -0.1140795351587596 0 -0.15017576859723 -0.12918542774626909 0 -0.16359745754718019 -0.12338248359937889 0 -0.14969402744536539 -0.1140795351587596 0 -0.1637735145926921 -0.10745689698454219 0 -0.14969402744536539 -0.1140795351587596 0 -0.15131826916585059 -0.098243797589406712 0 -0.13889028885676721 -0.086763365866160735 0 -0.13664669866078591 -0.10448721257267859 0 -0.15131826916585059 -0.098243797589406712 0 -0.13664669866078591 -0.10448721257267859 0 -0.14969402744536539 -0.1140795351587596 0 -0.15131826916585059 -0.098243797589406712 0 -0.1523031397181169 -0.01778593827869248 0 -0.13146021635722041 -0.015740197922043599 0 -0.14461890984576531 -0.035417145958093997 0 -0.1523031397181169 -0.01778593827869248 0 -0.14461890984576531 -0.035417145958093997 0 -0.17063140908596311 -0.026064553659968719 0 -0.1523031397181169 -0.01778593827869248 0 -0.16027982176568631 -0.00116145906776613 0 -0.14131752195370059 0.001569289130654902 0 -0.1523031397181169 -0.01778593827869248 0 -0.13146021635722041 -0.015740197922043599 0 -0.14131752195370059 0.001569289130654902 0 -0.13146021635722041 -0.015740197922043599 0 -0.14131752195370059 0.001569289130654902 0 -0.12332417756614659 0.01212573047390467 0 -0.1228826187542597 -0.028283879923342189 0 -0.13146021635722041 -0.015740197922043599 0 -0.14461890984576531 -0.035417145958093997 0 -0.13146021635722041 -0.015740197922043599 0 -0.14461890984576531 -0.035417145958093997 0 -0.1228826187542597 -0.028283879923342189 0 -0.13073959040624369 -0.040407347587496832 0 -0.14461890984576531 -0.035417145958093997 0 -0.13073959040624369 -0.040407347587496832 0 -0.13987651297059581 -0.047179842554106073 0 -0.14461890984576531 -0.035417145958093997 0 -0.13073959040624369 -0.040407347587496832 0 -0.14461890984576531 -0.035417145958093997 0 -0.13058466754914791 -0.072696764781637224 0 -0.12559633262467301 -0.055414330815554858 0 -0.13924484101693299 -0.058484521346367932 0 -0.13073959040624369 -0.040407347587496832 0 -0.12559633262467301 -0.055414330815554858 0 -0.13987651297059581 -0.047179842554106073 0 -0.12559633262467301 -0.055414330815554858 0 -0.13987651297059581 -0.047179842554106073 0 -0.13924484101693299 -0.058484521346367932 0 -0.14731846231001211 -0.070520794653119168 0 -0.13924484101693299 -0.058484521346367932 0 -0.15597074021630661 -0.052392188085920353 0 -0.13987651297059581 -0.047179842554106073 0 -0.13924484101693299 -0.058484521346367932 0 -0.15597074021630661 -0.052392188085920353 0 -0.13987651297059581 -0.047179842554106073 0 -0.15597074021630661 -0.052392188085920353 0 -0.14461890984576531 -0.035417145958093997 0 -0.15597074021630661 -0.052392188085920353 0 -0.14461890984576531 -0.035417145958093997 0 -0.15597074021630661 -0.052392188085920353 0 -0.14461890984576531 -0.035417145958093997 0 -0.17063140908596311 -0.026064553659968719 0 -0.15597074021630661 -0.052392188085920353 0 -0.18149314458588961 -0.052194925575033677 0 -0.17063140908596311 -0.026064553659968719 0 -0.16732257058684799 -0.069367230213746647 0 -0.15597074021630661 -0.052392188085920353 0 -0.18149314458588961 -0.052194925575033677 0 -0.16732257058684799 -0.069367230213746647 0 -0.15597074021630661 -0.052392188085920353 0 -0.18149314458588961 -0.052194925575033677 0 -0.17063140908596311 -0.026064553659968719 0 -0.18149314458588961 -0.052194925575033677 0 -0.17063140908596311 -0.026064553659968719 0 -0.19159363184306061 -0.048563373740798957 0 -0.17063140908596311 -0.026064553659968719 0 -0.19083238360030419 -0.01880144999149955 0 -0.17063140908596311 -0.026064553659968719 0 -0.17740468971305831 -0.0094075288373980069 0 -0.19083238360030419 -0.01880144999149955 0 -0.17063140908596311 -0.026064553659968719 0 -0.19083238360030419 -0.01880144999149955 0 -0.19159363184306061 -0.048563373740798957 0 -0.14461890984576531 -0.035417145958093997 0 -0.17063140908596311 -0.026064553659968719 0 -0.17063140908596311 -0.026064553659968719 0 -0.16027982176568631 -0.00116145906776613 0 -0.17740468971305831 -0.0094075288373980069 0 -0.1523031397181169 -0.01778593827869248 0 -0.17063140908596311 -0.026064553659968719 0 -0.16027982176568631 -0.00116145906776613 0 -0.17063140908596311 -0.026064553659968719 0 -0.16027982176568631 -0.00116145906776613 0 -0.16027982176568631 -0.00116145906776613 0 -0.17740468971305831 -0.0094075288373980069 0 -0.1901437370436016 0.0081220227465518963 0 -0.17740468971305831 -0.0094075288373980069 0 -0.19083238360030419 -0.01880144999149955 0 -0.1901437370436016 0.0081220227465518963 0 -0.19083238360030419 -0.01880144999149955 0 -0.20988707629803419 -0.011950483057401861 0 -0.19083238360030419 -0.01880144999149955 0 -0.1901437370436016 0.0081220227465518963 0 -0.20447405146865369 0.0015694416137433901 0 -0.19083238360030419 -0.01880144999149955 0 -0.1901437370436016 0.0081220227465518963 0 -0.19083238360030419 -0.01880144999149955 0 -0.20988707629803419 -0.011950483057401861 0 -0.20447405146865369 0.0015694416137433901 0 -0.19083238360030419 -0.01880144999149955 0 -0.20654206781325091 -0.028061570099416479 0 -0.20988707629803419 -0.011950483057401861 0 -0.20654206781325091 -0.028061570099416479 0 -0.21999191754487099 -0.039933213168776377 0 -0.22040532977998559 -0.021059330538605651 0 -0.20654206781325091 -0.028061570099416479 0 -0.20988707629803419 -0.011950483057401861 0 -0.22040532977998559 -0.021059330538605651 0 -0.20988707629803419 -0.011950483057401861 0 -0.20447405146865369 0.0015694416137433901 0 -0.2212337546737895 0.008973270288563498 0 -0.19235488008581661 -0.078325297490098506 0 -0.18149314458588961 -0.052194925575033677 0 -0.19159363184306061 -0.048563373740798957 0 -0.19083238360030419 -0.01880144999149955 0 -0.19159363184306061 -0.048563373740798957 0 -0.19083238360030419 -0.01880144999149955 0 -0.20654206781325091 -0.028061570099416479 0 -0.19159363184306061 -0.048563373740798957 0 -0.20654206781325091 -0.028061570099416479 0 -0.19159363184306061 -0.048563373740798957 0 -0.21999191754487099 -0.039933213168776377 0 -0.19159363184306061 -0.048563373740798957 0 -0.21080025626669971 -0.062268983347459693 0 -0.21999191754487099 -0.039933213168776377 0 -0.2310511482814015 -0.061242204551110929 0 -0.21999191754487099 -0.039933213168776377 0 -0.24718038159089789 -0.042889499401326601 0 -0.21080025626669971 -0.062268983347459693 0 -0.2310511482814015 -0.061242204551110929 0 -0.21999191754487099 -0.039933213168776377 0 -0.21999191754487099 -0.039933213168776377 0 -0.24718038159089789 -0.042889499401326601 0 -0.23851398810622079 -0.020888352744531061 0 -0.2310511482814015 -0.061242204551110929 0 -0.24718038159089789 -0.042889499401326601 0 -0.25286892980714532 -0.069080915611492183 0 -0.20988707629803419 -0.011950483057401861 0 -0.2289417689957631 -0.0050995161233011316 0 -0.22040532977998559 -0.021059330538605651 0 -0.20988707629803419 -0.011950483057401861 0 -0.2289417689957631 -0.0050995161233011316 0 -0.2212337546737895 0.008973270288563498 0 -0.20988707629803419 -0.011950483057401861 0 -0.2289417689957631 -0.0050995161233011316 0 -0.2289417689957631 -0.0050995161233011316 0 -0.22040532977998559 -0.021059330538605651 0 -0.23851398810622079 -0.020888352744531061 0 -0.21999191754487099 -0.039933213168776377 0 -0.22040532977998559 -0.021059330538605651 0 -0.23851398810622079 -0.020888352744531061 0 -0.24718038159089789 -0.042889499401326601 0 -0.23851398810622079 -0.020888352744531061 0 -0.25161887970381169 -0.026555602016597249 0 -0.23851398810622079 -0.020888352744531061 0 -0.24995590060037429 -0.012374967383483291 0 -0.25161887970381169 -0.026555602016597249 0 -0.23851398810622079 -0.020888352744531061 0 -0.24995590060037429 -0.012374967383483291 0 -0.2479964616934921 0.001751450810798965 0 -0.2289417689957631 -0.0050995161233011316 0 -0.23851398810622079 -0.020888352744531061 0 -0.2479964616934921 0.001751450810798965 0 -0.2289417689957631 -0.0050995161233011316 0 -0.2479964616934921 0.001751450810798965 0 -0.23851398810622079 -0.020888352744531061 0 -0.2479964616934921 0.001751450810798965 0 -0.24995590060037429 -0.012374967383483291 0 -0.25280093984145469 -0.0047812359067542958 0 -0.26105000904448772 -0.0034130563339460351 0 -0.24995590060037429 -0.012374967383483291 0 -0.25280093984145469 -0.0047812359067542958 0 -0.2479964616934921 0.001751450810798965 0 -0.24995590060037429 -0.012374967383483291 0 -0.26105000904448772 -0.0034130563339460351 0 -0.26576583366324302 -0.028484226336176369 0 -0.25280093984145469 -0.0047812359067542958 0 -0.26105000904448772 -0.0034130563339460351 0 -0.25234564295639661 0.0033151651931428612 0 -0.26105000904448772 -0.0034130563339460351 0 -0.26576583366324302 -0.028484226336176369 0 -0.24995590060037429 -0.012374967383483291 0 -0.25161887970381169 -0.026555602016597249 0 -0.26576583366324302 -0.028484226336176369 0 -0.26105000904448772 -0.0034130563339460351 0 -0.26576583366324302 -0.028484226336176369 0 -0.28213990078279327 -0.020330057919978162 0 -0.26576583366324302 -0.028484226336176369 0 -0.28213990078279327 -0.020330057919978162 0 -0.28263457589675078 -0.041748749314530063 0 -0.26105000904448772 -0.0034130563339460351 0 -0.28213990078279327 -0.020330057919978162 0 -0.28360401817538239 0.00097631935184466052 0 -0.29359687102034132 -0.0088652826219001151 0 -0.28213990078279327 -0.020330057919978162 0 -0.28360401817538239 0.00097631935184466052 0 -0.28213990078279327 -0.020330057919978162 0 -0.29551592908947077 -0.023398446759708879 0 -0.29384224977469919 -0.036973700234540982 0 -0.29359687102034132 -0.0088652826219001151 0 -0.28213990078279327 -0.020330057919978162 0 -0.29551592908947077 -0.023398446759708879 0 -0.29551592908947077 -0.023398446759708879 0 -0.30380688173598369 -0.01138626731336888 0 -0.30469613815389102 -0.032584574158448419 0 -0.30380688173598369 -0.01138626731336888 0 -0.30469613815389102 -0.032584574158448419 0 -0.30380688173598369 -0.01138626731336888 0 -0.30469613815389102 -0.032584574158448419 0 -0.31569077912235949 -0.019775086275797861 0 -0.29551592908947077 -0.023398446759708879 0 -0.30469613815389102 -0.032584574158448419 0 -0.29551592908947077 -0.023398446759708879 0 -0.30469613815389102 -0.032584574158448419 0 -0.29384224977469919 -0.036973700234540982 0 -0.30380688173598369 -0.01138626731336888 0 -0.30291762531807659 0.0098120395317106771 0 -0.29359687102034132 -0.0088652826219001151 0 -0.30380688173598369 -0.01138626731336888 0 -0.30291762531807659 0.0098120395317106771 0 -0.30380688173598369 -0.01138626731336888 0 -0.3163223612136904 -0.0047133062924637663 0 -0.30291762531807659 0.0098120395317106771 0 -0.30380688173598369 -0.01138626731336888 0 -0.3163223612136904 -0.0047133062924637663 0 -0.31569077912235949 -0.019775086275797861 0 -0.29359687102034132 -0.0088652826219001151 0 -0.29551592908947077 -0.023398446759708879 0 -0.30380688173598369 -0.01138626731336888 0 -0.2975724881329011 -0.06323616400781347 0 -0.31940052681062298 -0.073271505383787974 0 -0.31994749336505318 -0.047845761674990078 0 -0.30555114515486298 -0.052966435223850472 0 -0.29384224977469919 -0.036973700234540982 0 -0.292515809570427 -0.050813938030729942 0 -0.30555114515486298 -0.052966435223850472 0 -0.2975724881329011 -0.06323616400781347 0 -0.31994749336505318 -0.047845761674990078 0 -0.2975724881329011 -0.06323616400781347 0 -0.31994749336505318 -0.047845761674990078 0 -0.30555114515486298 -0.052966435223850472 0 -0.292515809570427 -0.050813938030729942 0 -0.2975724881329011 -0.06323616400781347 0 -0.30555114515486298 -0.052966435223850472 0 -0.30469613815389102 -0.032584574158448419 0 -0.30469613815389102 -0.032584574158448419 0 -0.31994749336505318 -0.047845761674990078 0 -0.30555114515486298 -0.052966435223850472 0 -0.30469613815389102 -0.032584574158448419 0 -0.29384224977469919 -0.036973700234540982 0 -0.30555114515486298 -0.052966435223850472 0 -0.30469613815389102 -0.032584574158448419 0 -0.31994749336505318 -0.047845761674990078 0 -0.28213990078279327 -0.020330057919978162 0 -0.29384224977469919 -0.036973700234540982 0 -0.28263457589675078 -0.041748749314530063 0 -0.29384224977469919 -0.036973700234540982 0 -0.28263457589675078 -0.041748749314530063 0 -0.292515809570427 -0.050813938030729942 0 -0.28263457589675078 -0.041748749314530063 0 -0.292515809570427 -0.050813938030729942 0 -0.28339456941993257 -0.058901685946030263 0 -0.292515809570427 -0.050813938030729942 0 -0.28339456941993257 -0.058901685946030263 0 -0.2975724881329011 -0.06323616400781347 0 -0.28263457589675078 -0.041748749314530063 0 -0.28339456941993257 -0.058901685946030263 0 -0.27048165828199838 -0.053555396338406849 0 -0.26576583366324302 -0.028484226336176369 0 -0.28263457589675078 -0.041748749314530063 0 -0.27048165828199838 -0.053555396338406849 0 -0.26576583366324302 -0.028484226336176369 0 -0.27048165828199838 -0.053555396338406849 0 -0.24718038159089789 -0.042889499401326601 0 -0.25161887970381169 -0.026555602016597249 0 -0.26576583366324302 -0.028484226336176369 0 -0.24718038159089789 -0.042889499401326601 0 -0.26576583366324302 -0.028484226336176369 0 -0.27048165828199838 -0.053555396338406849 0 -0.24718038159089789 -0.042889499401326601 0 -0.27048165828199838 -0.053555396338406849 0 -0.25286892980714532 -0.069080915611492183 0 -0.25375562400648699 -0.093375114183303284 0 -0.27519748290074969 -0.07862656634063811 0 -0.26578782120995609 -0.1066952494514198 0 -0.25375562400648699 -0.093375114183303284 0 -0.27519748290074969 -0.07862656634063811 0 -0.25286892980714532 -0.069080915611492183 0 -0.25375562400648699 -0.093375114183303284 0 -0.27519748290074969 -0.07862656634063811 0 -0.27519748290074969 -0.07862656634063811 0 -0.28001720763493898 -0.10425011003522951 0 -0.27048165828199838 -0.053555396338406849 0 -0.25286892980714532 -0.069080915611492183 0 -0.27519748290074969 -0.07862656634063811 0 -0.28339456941993257 -0.058901685946030263 0 -0.27048165828199838 -0.053555396338406849 0 -0.27519748290074969 -0.07862656634063811 0 -0.27048165828199838 -0.053555396338406849 0 -0.27519748290074969 -0.07862656634063811 0 -0.24927704965079389 -0.10811927048862451 0 -0.25280495125304681 -0.1169945361970291 0 -0.26578782120995609 -0.1066952494514198 0 -0.26308785999280138 -0.12041780650020829 0 -0.25280495125304681 -0.1169945361970291 0 -0.25133096567543273 -0.12503417873500211 0 -0.25280495125304681 -0.1169945361970291 0 -0.26578782120995609 -0.1066952494514198 0 -0.26308785999280138 -0.12041780650020829 0 -0.25280495125304681 -0.1169945361970291 0 -0.26578782120995609 -0.1066952494514198 0 -0.24927704965079389 -0.10811927048862451 0 -0.25375562400648699 -0.093375114183303284 0 -0.26578782120995609 -0.1066952494514198 0 -0.27519748290074969 -0.07862656634063811 0 -0.28001720763493898 -0.10425011003522951 0 -0.26578782120995609 -0.1066952494514198 0 -0.28001720763493898 -0.10425011003522951 0 -0.26578782120995609 -0.1066952494514198 0 -0.27318877727601792 -0.1159591940231159 0 -0.28001720763493898 -0.10425011003522951 0 -0.27318877727601792 -0.1159591940231159 0 -0.28493146939076602 -0.12057831041018061 0 -0.26308785999280138 -0.12041780650020829 0 -0.26578782120995609 -0.1066952494514198 0 -0.27318877727601792 -0.1159591940231159 0 -0.27318877727601792 -0.1159591940231159 0 -0.28493146939076602 -0.12057831041018061 0 -0.27211952815162699 -0.1278544937185413 0 -0.26308785999280138 -0.12041780650020829 0 -0.27318877727601792 -0.1159591940231159 0 -0.27211952815162699 -0.1278544937185413 0 -0.28001720763493898 -0.10425011003522951 0 -0.28493146939076602 -0.12057831041018061 0 -0.29070005717534841 -0.1088646648341406 0 -0.28493146939076602 -0.12057831041018061 0 -0.29070005717534841 -0.1088646648341406 0 -0.3022482884458414 -0.1261125124430105 0 -0.29070005717534841 -0.1088646648341406 0 -0.30141991056019057 -0.1030377554698646 0 -0.28894203648890859 -0.093327457121329838 0 -0.28001720763493898 -0.10425011003522951 0 -0.29070005717534841 -0.1088646648341406 0 -0.28894203648890859 -0.093327457121329838 0 -0.30141991056019057 -0.1030377554698646 0 -0.28894203648890859 -0.093327457121329838 0 -0.30089206431760612 -0.084931924786172827 0 -0.31059843504919499 -0.099825517773343447 0 -0.30141991056019057 -0.1030377554698646 0 -0.31865119702334799 -0.1091965529202064 0 -0.31059843504919499 -0.099825517773343447 0 -0.30141991056019057 -0.1030377554698646 0 -0.30089206431760612 -0.084931924786172827 0 -0.30141991056019057 -0.1030377554698646 0 -0.31865119702334799 -0.1091965529202064 0 -0.3022482884458414 -0.1261125124430105 0 -0.31865119702334799 -0.1091965529202064 0 -0.3022482884458414 -0.1261125124430105 0 -0.29070005717534841 -0.1088646648341406 0 -0.30141991056019057 -0.1030377554698646 0 -0.3022482884458414 -0.1261125124430105 0 -0.27519748290074969 -0.07862656634063811 0 -0.30089206431760612 -0.084931924786172827 0 -0.2975724881329011 -0.06323616400781347 0 -0.28339456941993257 -0.058901685946030263 0 -0.27519748290074969 -0.07862656634063811 0 -0.2975724881329011 -0.06323616400781347 0 -0.27519748290074969 -0.07862656634063811 0 -0.2975724881329011 -0.06323616400781347 0 -0.27519748290074969 -0.07862656634063811 0 -0.28001720763493898 -0.10425011003522951 0 -0.28894203648890859 -0.093327457121329838 0 -0.27519748290074969 -0.07862656634063811 0 -0.28894203648890859 -0.093327457121329838 0 -0.30089206431760612 -0.084931924786172827 0 -0.30089206431760612 -0.084931924786172827 0 -0.31940052681062298 -0.073271505383787974 0 -0.31501746761955152 -0.090992252100627224 0 -0.31059843504919499 -0.099825517773343447 0 -0.30089206431760612 -0.084931924786172827 0 -0.31501746761955152 -0.090992252100627224 0 -0.30089206431760612 -0.084931924786172827 0 -0.2975724881329011 -0.06323616400781347 0 -0.31940052681062298 -0.073271505383787974 0 -0.31940052681062298 -0.073271505383787974 0 -0.33167147993343837 -0.0806386069629174 0 -0.33258187330511563 -0.071847539073424893 0 -0.31940052681062298 -0.073271505383787974 0 -0.31501746761955152 -0.090992252100627224 0 -0.32460777225248377 -0.089063391693113031 0 -0.31940052681062298 -0.073271505383787974 0 -0.32460777225248377 -0.089063391693113031 0 -0.33167147993343837 -0.0806386069629174 0 -0.33971912747365501 -0.083029597110440362 0 -0.34024678333177488 -0.094999967555602777 0 -0.34813783664332643 -0.078972587266705335 0 -0.32460777225248377 -0.089063391693113031 0 -0.33167147993343837 -0.0806386069629174 0 -0.33505410560085458 -0.092280593397402425 0 -0.33167147993343837 -0.0806386069629174 0 -0.33505410560085458 -0.092280593397402425 0 -0.34024678333177488 -0.094999967555602777 0 -0.33167147993343837 -0.0806386069629174 0 -0.34024678333177488 -0.094999967555602777 0 -0.33167147993343837 -0.0806386069629174 0 -0.33971912747365501 -0.083029597110440362 0 -0.34024678333177488 -0.094999967555602777 0 -0.33971912747365501 -0.083029597110440362 0 -0.33882040998608282 -0.07750722665653477 0 -0.34813783664332643 -0.078972587266705335 0 -0.33167147993343837 -0.0806386069629174 0 -0.33971912747365501 -0.083029597110440362 0 -0.33882040998608282 -0.07750722665653477 0 -0.33882040998608282 -0.07750722665653477 0 -0.33258187330511563 -0.071847539073424893 0 -0.34540924704448139 -0.073323930140787114 0 -0.34540924704448139 -0.073323930140787114 0 -0.33518383243456529 -0.052155535624345328 0 -0.34540924704448139 -0.073323930140787114 0 -0.3326783702047677 -0.060584845907888242 0 -0.33258187330511563 -0.071847539073424893 0 -0.34540924704448139 -0.073323930140787114 0 -0.3326783702047677 -0.060584845907888242 0 -0.31940052681062298 -0.073271505383787974 0 -0.33258187330511563 -0.071847539073424893 0 -0.3326783702047677 -0.060584845907888242 0 -0.33167147993343837 -0.0806386069629174 0 -0.33882040998608282 -0.07750722665653477 0 -0.33258187330511563 -0.071847539073424893 0 -0.32810237840269763 -0.1196662558818702 0 -0.31865119702334799 -0.1091965529202064 0 -0.31891090034324182 -0.12736182355918671 0 -0.31865119702334799 -0.1091965529202064 0 -0.3022482884458414 -0.1261125124430105 0 -0.31891090034324182 -0.12736182355918671 0 -0.33505410560085458 -0.092280593397402425 0 -0.31865119702334799 -0.1091965529202064 0 -0.31059843504919499 -0.099825517773343447 0 -0.31501746761955152 -0.090992252100627224 0 -0.31865119702334799 -0.1091965529202064 0 -0.31501746761955152 -0.090992252100627224 0 -0.32460777225248377 -0.089063391693113031 0 -0.31865119702334799 -0.1091965529202064 0 -0.32460777225248377 -0.089063391693113031 0 -0.33505410560085458 -0.092280593397402425 0 -0.31865119702334799 -0.1091965529202064 0 -0.32810237840269763 -0.1196662558818702 0 -0.34024678333177488 -0.094999967555602777 0 -0.32810237840269763 -0.1196662558818702 0 -0.31865119702334799 -0.1091965529202064 0 -0.34024678333177488 -0.094999967555602777 0 -0.33505410560085458 -0.092280593397402425 0 -0.31865119702334799 -0.1091965529202064 0 -0.34024678333177488 -0.094999967555602777 0 -0.32810237840269763 -0.1196662558818702 0 -0.33781140765928069 -0.1235229548137686 0 -0.3454497603817428 -0.1173098489617271 0 -0.32810237840269763 -0.1196662558818702 0 -0.34024678333177488 -0.094999967555602777 0 -0.3454497603817428 -0.1173098489617271 0 -0.34366047079634848 -0.122996848275744 0 -0.33781140765928069 -0.1235229548137686 0 -0.3454497603817428 -0.1173098489617271 0 -0.35219782940513089 -0.11501480250040361 0 -0.36319717345102709 -0.1334357887662404 0 -0.35219782940513089 -0.11501480250040361 0 -0.36207258902975498 -0.12055122510730901 0 -0.36319717345102709 -0.1334357887662404 0 -0.34731752122567672 -0.1215272453254367 0 -0.35219782940513089 -0.11501480250040361 0 -0.35176664503227961 -0.12728906372644119 0 -0.34366047079634848 -0.122996848275744 0 -0.34731752122567672 -0.1215272453254367 0 -0.34361731729155798 -0.12881944393541889 0 -0.34731752122567672 -0.1215272453254367 0 -0.3454497603817428 -0.1173098489617271 0 -0.34721310444700071 -0.11773346455288559 0 -0.34366047079634848 -0.122996848275744 0 -0.34731752122567672 -0.1215272453254367 0 -0.3454497603817428 -0.1173098489617271 0 -0.34731752122567672 -0.1215272453254367 0 -0.34721310444700071 -0.11773346455288559 0 -0.35219782940513089 -0.11501480250040361 0 -0.34721310444700071 -0.11773346455288559 0 -0.3493291349872385 -0.11021049960267019 0 -0.35219782940513089 -0.11501480250040361 0 -0.34721310444700071 -0.11773346455288559 0 -0.35219782940513089 -0.11501480250040361 0 -0.3454497603817428 -0.1173098489617271 0 -0.34721310444700071 -0.11773346455288559 0 -0.3493291349872385 -0.11021049960267019 0 -0.3454497603817428 -0.1173098489617271 0 -0.3493291349872385 -0.11021049960267019 0 -0.3493291349872385 -0.11021049960267019 0 -0.35219782940513089 -0.11501480250040361 0 -0.35219782940513089 -0.11501480250040361 0 -0.3627642780705696 -0.1092518761087734 0 -0.36207258902975498 -0.12055122510730901 0 -0.35219782940513089 -0.11501480250040361 0 -0.3627642780705696 -0.1092518761087734 0 -0.3493291349872385 -0.11021049960267019 0 -0.35219782940513089 -0.11501480250040361 0 -0.3627642780705696 -0.1092518761087734 0 -0.34024678333177488 -0.094999967555602777 0 -0.3454497603817428 -0.1173098489617271 0 -0.3493291349872385 -0.11021049960267019 0 -0.34024678333177488 -0.094999967555602777 0 -0.3493291349872385 -0.11021049960267019 0 -0.35670612205010338 -0.096710434849363258 0 -0.3493291349872385 -0.11021049960267019 0 -0.35670612205010338 -0.096710434849363258 0 -0.3627642780705696 -0.1092518761087734 0 -0.3493291349872385 -0.11021049960267019 0 -0.35670612205010338 -0.096710434849363258 0 -0.34024678333177488 -0.094999967555602777 0 -0.3493291349872385 -0.11021049960267019 0 -0.3627642780705696 -0.1092518761087734 0 -0.37983823747089002 -0.1140314496256568 0 -0.3771805720070675 -0.101389249466024 0 -0.36524200376925969 -0.097533456485385459 0 -0.36431704294929829 -0.08278226551738159 0 -0.3771805720070675 -0.101389249466024 0 -0.35670612205010338 -0.096710434849363258 0 -0.36524200376925969 -0.097533456485385459 0 -0.3627642780705696 -0.1092518761087734 0 -0.3627642780705696 -0.1092518761087734 0 -0.3771805720070675 -0.101389249466024 0 -0.36524200376925969 -0.097533456485385459 0 -0.3627642780705696 -0.1092518761087734 0 -0.3771805720070675 -0.101389249466024 0 -0.35670612205010338 -0.096710434849363258 0 -0.3627642780705696 -0.1092518761087734 0 -0.3627642780705696 -0.1092518761087734 0 -0.37403702289685531 -0.118678940056357 0 -0.37983823747089002 -0.1140314496256568 0 -0.3627642780705696 -0.1092518761087734 0 -0.37013107519229249 -0.1245024330538185 0 -0.3627642780705696 -0.1092518761087734 0 -0.37403702289685531 -0.118678940056357 0 -0.37013107519229249 -0.1245024330538185 0 -0.37403702289685531 -0.118678940056357 0 -0.37013107519229249 -0.1245024330538185 0 -0.37396262712923661 -0.12573471229752711 0 -0.3627642780705696 -0.1092518761087734 0 -0.37013107519229249 -0.1245024330538185 0 -0.36207258902975498 -0.12055122510730901 0 -0.35377205317546512 -0.067529028666190788 0 -0.36431704294929829 -0.08278226551738159 0 -0.35377205317546512 -0.067529028666190788 0 -0.35366345925254078 -0.081583463707765869 0 -0.36431704294929829 -0.08278226551738159 0 -0.35377205317546512 -0.067529028666190788 0 -0.3491004260425653 -0.077017488783080207 0 -0.35366345925254078 -0.081583463707765869 0 -0.35377205317546512 -0.067529028666190788 0 -0.34540924704448139 -0.073323930140787114 0 -0.34487610946889941 -0.062012581890525671 0 -0.35377205317546512 -0.067529028666190788 0 -0.3491004260425653 -0.077017488783080207 0 -0.35377205317546512 -0.067529028666190788 0 -0.34540924704448139 -0.073323930140787114 0 -0.3491004260425653 -0.077017488783080207 0 -0.33882040998608282 -0.07750722665653477 0 -0.34540924704448139 -0.073323930140787114 0 -0.34813783664332643 -0.078972587266705335 0 -0.3491004260425653 -0.077017488783080207 0 -0.34813783664332643 -0.078972587266705335 0 -0.34540924704448139 -0.073323930140787114 0 -0.3491004260425653 -0.077017488783080207 0 -0.34813783664332643 -0.078972587266705335 0 -0.34540924704448139 -0.073323930140787114 0 -0.34813783664332643 -0.078972587266705335 0 -0.34540924704448139 -0.073323930140787114 0 -0.3491004260425653 -0.077017488783080207 0 -0.34024678333177488 -0.094999967555602777 0 -0.34813783664332643 -0.078972587266705335 0 -0.34024678333177488 -0.094999967555602777 0 -0.35670612205010338 -0.096710434849363258 0 -0.34813783664332643 -0.078972587266705335 0 -0.35670612205010338 -0.096710434849363258 0 -0.34813783664332643 -0.078972587266705335 0 -0.35366345925254078 -0.081583463707765869 0 -0.35670612205010338 -0.096710434849363258 0 -0.34813783664332643 -0.078972587266705335 0 -0.3491004260425653 -0.077017488783080207 0 -0.34813783664332643 -0.078972587266705335 0 -0.35366345925254078 -0.081583463707765869 0 -0.3491004260425653 -0.077017488783080207 0 -0.35366345925254078 -0.081583463707765869 0 -0.35670612205010338 -0.096710434849363258 0 -0.35366345925254078 -0.081583463707765869 0 -0.36431704294929829 -0.08278226551738159 0 -0.36431704294929829 -0.08278226551738159 0 -0.3771805720070675 -0.101389249466024 0 -0.36431704294929829 -0.08278226551738159 0 -0.3821870053603057 -0.079775508001927647 0 -0.3771805720070675 -0.101389249466024 0 -0.35670612205010338 -0.096710434849363258 0 -0.36524200376925969 -0.097533456485385459 0 -0.36431704294929829 -0.08278226551738159 0 -0.35670612205010338 -0.096710434849363258 0 -0.36431704294929829 -0.08278226551738159 0 -0.36431704294929829 -0.08278226551738159 0 -0.37506547387842742 -0.063112376943205178 0 -0.35377205317546512 -0.067529028666190788 0 -0.36431704294929829 -0.08278226551738159 0 -0.37506547387842742 -0.063112376943205178 0 -0.36431704294929829 -0.08278226551738159 0 -0.37506547387842742 -0.063112376943205178 0 -0.3821870053603057 -0.079775508001927647 0 -0.35377205317546512 -0.067529028666190788 0 -0.36545064736328559 -0.043744858477626977 0 -0.37506547387842742 -0.063112376943205178 0 -0.35377205317546512 -0.067529028666190788 0 -0.36545064736328559 -0.043744858477626977 0 -0.35377205317546512 -0.067529028666190788 0 -0.34513930522108549 -0.055041833130779268 0 -0.36545064736328559 -0.043744858477626977 0 -0.35377205317546512 -0.067529028666190788 0 -0.34513930522108549 -0.055041833130779268 0 -0.34487610946889941 -0.062012581890525671 0 -0.35377205317546512 -0.067529028666190788 0 -0.34513930522108549 -0.055041833130779268 0 -0.34513930522108549 -0.055041833130779268 0 -0.35103668912041258 -0.04173717852569301 0 -0.36545064736328559 -0.043744858477626977 0 -0.34576672194315461 -0.032592046829504992 0 -0.35103668912041258 -0.04173717852569301 0 -0.3573306752504915 -0.03059540102605442 0 -0.34576672194315461 -0.032592046829504992 0 -0.35103668912041258 -0.04173717852569301 0 -0.33650655726670609 -0.042554637595367581 0 -0.34513930522108549 -0.055041833130779268 0 -0.35103668912041258 -0.04173717852569301 0 -0.33650655726670609 -0.042554637595367581 0 -0.35103668912041258 -0.04173717852569301 0 -0.36545064736328559 -0.043744858477626977 0 -0.3573306752504915 -0.03059540102605442 0 -0.36545064736328559 -0.043744858477626977 0 -0.3731545506364613 -0.02816157726383367 0 -0.3573306752504915 -0.03059540102605442 0 -0.36545064736328559 -0.043744858477626977 0 -0.3731545506364613 -0.02816157726383367 0 -0.38581390480755567 -0.043442488369028427 0 -0.36545064736328559 -0.043744858477626977 0 -0.3731545506364613 -0.02816157726383367 0 -0.3731545506364613 -0.02816157726383367 0 -0.3633269970862596 -0.014156457108189619 0 -0.3573306752504915 -0.03059540102605442 0 -0.3731545506364613 -0.02816157726383367 0 -0.3633269970862596 -0.014156457108189619 0 -0.38083309878301741 -0.01256581249675404 0 -0.3633269970862596 -0.014156457108189619 0 -0.38083309878301741 -0.01256581249675404 0 -0.36816400398299193 0.0056681537939764493 0 -0.3633269970862596 -0.014156457108189619 0 -0.3515617356953476 -0.0014948321373378769 0 -0.36816400398299193 0.0056681537939764493 0 -0.3515617356953476 -0.0014948321373378769 0 -0.34020042749406948 -0.0073900965852247494 0 -0.3396507374462937 0.0085495496487234379 0 -0.3633269970862596 -0.014156457108189619 0 -0.3515617356953476 -0.0014948321373378769 0 -0.34755367207871279 -0.01913887443340009 0 -0.3515617356953476 -0.0014948321373378769 0 -0.34755367207871279 -0.01913887443340009 0 -0.34020042749406948 -0.0073900965852247494 0 -0.3633269970862596 -0.014156457108189619 0 -0.3573306752504915 -0.03059540102605442 0 -0.34755367207871279 -0.01913887443340009 0 -0.34576672194315461 -0.032592046829504992 0 -0.3573306752504915 -0.03059540102605442 0 -0.34755367207871279 -0.01913887443340009 0 -0.34755367207871279 -0.01913887443340009 0 -0.3364060159994498 -0.028934142567009821 0 -0.33006558174626521 -0.016050427865307151 0 -0.34576672194315461 -0.032592046829504992 0 -0.34755367207871279 -0.01913887443340009 0 -0.3364060159994498 -0.028934142567009821 0 -0.3364060159994498 -0.028934142567009821 0 -0.33006558174626521 -0.016050427865307151 0 -0.32495841782464913 -0.030987141107903422 0 -0.33006558174626521 -0.016050427865307151 0 -0.34020042749406948 -0.0073900965852247494 0 -0.32841165485387902 0.00074677658014647198 0 -0.34755367207871279 -0.01913887443340009 0 -0.33006558174626521 -0.016050427865307151 0 -0.34020042749406948 -0.0073900965852247494 0 -0.33006558174626521 -0.016050427865307151 0 -0.3163223612136904 -0.0047133062924637663 0 -0.32841165485387902 0.00074677658014647198 0 -0.33006558174626521 -0.016050427865307151 0 -0.3163223612136904 -0.0047133062924637663 0 -0.31569077912235949 -0.019775086275797861 0 -0.30469613815389102 -0.032584574158448419 0 -0.32495841782464913 -0.030987141107903422 0 -0.31569077912235949 -0.019775086275797861 0 -0.33006558174626521 -0.016050427865307151 0 -0.32495841782464913 -0.030987141107903422 0 -0.31569077912235949 -0.019775086275797861 0 -0.30469613815389102 -0.032584574158448419 0 -0.32335471779868041 -0.045502139658920603 0 -0.31994749336505318 -0.047845761674990078 0 -0.30469613815389102 -0.032584574158448419 0 -0.32495841782464913 -0.030987141107903422 0 -0.32335471779868041 -0.045502139658920603 0 -0.32495841782464913 -0.030987141107903422 0 -0.32335471779868041 -0.045502139658920603 0 -0.33518383243456529 -0.052155535624345328 0 -0.32335471779868041 -0.045502139658920603 0 -0.31994749336505318 -0.047845761674990078 0 -0.31940052681062298 -0.073271505383787974 0 -0.31994749336505318 -0.047845761674990078 0 -0.3326783702047677 -0.060584845907888242 0 -0.32335471779868041 -0.045502139658920603 0 -0.31994749336505318 -0.047845761674990078 0 -0.33518383243456529 -0.052155535624345328 0 -0.31994749336505318 -0.047845761674990078 0 -0.3326783702047677 -0.060584845907888242 0 -0.34540924704448139 -0.073323930140787114 0 -0.33518383243456529 -0.052155535624345328 0 -0.3326783702047677 -0.060584845907888242 0 -0.31994749336505318 -0.047845761674990078 0 -0.33518383243456529 -0.052155535624345328 0 -0.3326783702047677 -0.060584845907888242 0 -0.34540924704448139 -0.073323930140787114 0 -0.34487610946889941 -0.062012581890525671 0 -0.33518383243456529 -0.052155535624345328 0 -0.34513930522108549 -0.055041833130779268 0 -0.34487610946889941 -0.062012581890525671 0 -0.33518383243456529 -0.052155535624345328 0 -0.34513930522108549 -0.055041833130779268 0 -0.33650655726670609 -0.042554637595367581 0 -0.34513930522108549 -0.055041833130779268 0 -0.33518383243456529 -0.052155535624345328 0 -0.33650655726670609 -0.042554637595367581 0 -0.32495841782464913 -0.030987141107903422 0 -0.33518383243456529 -0.052155535624345328 0 -0.32495841782464913 -0.030987141107903422 0 -0.33518383243456529 -0.052155535624345328 0 -0.33650655726670609 -0.042554637595367581 0 -0.34576672194315461 -0.032592046829504992 0 -0.3364060159994498 -0.028934142567009821 0 -0.33650655726670609 -0.042554637595367581 0 -0.3364060159994498 -0.028934142567009821 0 -0.32495841782464913 -0.030987141107903422 0 -0.33650655726670609 -0.042554637595367581 0 -0.31417662199612612 -0.2555997343155551 0 -0.29735355455489759 -0.2495608270936247 0 -0.31179059662622982 -0.23890118582432129 0 -0.29735355455489759 -0.2495608270936247 0 -0.31179059662622982 -0.23890118582432129 0 -0.29559730490590558 -0.2358618949726676 0 -0.30441745623266547 -0.22752752931840281 0 -0.29610576206555073 -0.2192675054032561 0 -0.29559730490590558 -0.2358618949726676 0 -0.31179059662622982 -0.23890118582432129 0 -0.30441745623266547 -0.22752752931840281 0 -0.31261898273915312 -0.22921423392787879 0 -0.31179059662622982 -0.23890118582432129 0 -0.30441745623266547 -0.22752752931840281 0 -0.29559730490590558 -0.2358618949726676 0 -0.30441745623266547 -0.22752752931840281 0 -0.30759354751214252 -0.21602605986408741 0 -0.31453151858161649 -0.22082212380587221 0 -0.30441745623266547 -0.22752752931840281 0 -0.31453151858161649 -0.22082212380587221 0 -0.31261898273915312 -0.22921423392787879 0 -0.30441745623266547 -0.22752752931840281 0 -0.29610576206555073 -0.2192675054032561 0 -0.30759354751214252 -0.21602605986408741 0 -0.28412931628838423 -0.226080133028563 0 -0.29610576206555073 -0.2192675054032561 0 -0.29559730490590558 -0.2358618949726676 0 -0.28412931628838423 -0.226080133028563 0 -0.29559730490590558 -0.2358618949726676 0 -0.28332132652505332 -0.24223576790914189 0 -0.29735355455489759 -0.2495608270936247 0 -0.29559730490590558 -0.2358618949726676 0 -0.28332132652505332 -0.24223576790914189 0 -0.27238162931076509 -0.25178413916486292 0 -0.28332132652505332 -0.24223576790914189 0 -0.26710332633738509 -0.23920591809179001 0 -0.28412931628838423 -0.226080133028563 0 -0.28332132652505332 -0.24223576790914189 0 -0.26710332633738509 -0.23920591809179001 0 -0.25959396014445452 -0.25681688998397822 0 -0.27238162931076509 -0.25178413916486292 0 -0.26710332633738509 -0.23920591809179001 0 -0.25959396014445452 -0.25681688998397822 0 -0.2483468260877667 -0.24670177710050209 0 -0.26710332633738509 -0.23920591809179001 0 -0.2483468260877667 -0.24670177710050209 0 -0.26710332633738509 -0.23920591809179001 0 -0.25106874030253501 -0.2324917081722214 0 -0.25106874030253501 -0.2324917081722214 0 -0.26780997820087671 -0.22109193076991721 0 -0.25317274192714162 -0.21441552365493749 0 -0.26710332633738509 -0.23920591809179001 0 -0.25106874030253501 -0.2324917081722214 0 -0.26780997820087671 -0.22109193076991721 0 -0.28412931628838423 -0.226080133028563 0 -0.26710332633738509 -0.23920591809179001 0 -0.26780997820087671 -0.22109193076991721 0 -0.28412931628838423 -0.226080133028563 0 -0.26780997820087671 -0.22109193076991721 0 -0.28332108918162979 -0.21015238032413719 0 -0.26780997820087671 -0.22109193076991721 0 -0.26806465516818501 -0.2042059213478544 0 -0.28332108918162979 -0.21015238032413719 0 -0.26780997820087671 -0.22109193076991721 0 -0.26806465516818501 -0.2042059213478544 0 -0.25317274192714162 -0.21441552365493749 0 -0.26806465516818501 -0.2042059213478544 0 -0.25317274192714162 -0.21441552365493749 0 -0.25366509967595402 -0.1948527909645893 0 -0.26806465516818501 -0.2042059213478544 0 -0.25366509967595402 -0.1948527909645893 0 -0.26713779662764547 -0.18994683425770989 0 -0.26806465516818501 -0.2042059213478544 0 -0.26713779662764547 -0.18994683425770989 0 -0.28212145759835772 -0.1946000304173317 0 -0.26806465516818501 -0.2042059213478544 0 -0.28212145759835772 -0.1946000304173317 0 -0.28332108918162979 -0.21015238032413719 0 -0.3033484477886505 -0.19731904965529631 0 -0.28713234268507232 -0.1794440081729827 0 -0.28212145759835772 -0.1946000304173317 0 -0.28332108918162979 -0.21015238032413719 0 -0.3033484477886505 -0.19731904965529631 0 -0.28212145759835772 -0.1946000304173317 0 -0.3033484477886505 -0.19731904965529631 0 -0.28713234268507232 -0.1794440081729827 0 -0.29610576206555073 -0.2192675054032561 0 -0.28332108918162979 -0.21015238032413719 0 -0.3033484477886505 -0.19731904965529631 0 -0.28412931628838423 -0.226080133028563 0 -0.29610576206555073 -0.2192675054032561 0 -0.28332108918162979 -0.21015238032413719 0 -0.30759354751214252 -0.21602605986408741 0 -0.3033484477886505 -0.19731904965529631 0 -0.31956455289222879 -0.2151940911376099 0 -0.29610576206555073 -0.2192675054032561 0 -0.30759354751214252 -0.21602605986408741 0 -0.3033484477886505 -0.19731904965529631 0 -0.3033484477886505 -0.19731904965529631 0 -0.31956455289222879 -0.2151940911376099 0 -0.3033484477886505 -0.19731904965529631 0 -0.30298794029856602 -0.17451950520635551 0 -0.28713234268507232 -0.1794440081729827 0 -0.30298794029856602 -0.17451950520635551 0 -0.31431134103694758 -0.1608540368834098 0 -0.31782016283822762 -0.18320654552211699 0 -0.3033484477886505 -0.19731904965529631 0 -0.30298794029856602 -0.17451950520635551 0 -0.31782016283822762 -0.18320654552211699 0 -0.30298794029856602 -0.17451950520635551 0 -0.29873293158119257 -0.1599156717709273 0 -0.31431134103694758 -0.1608540368834098 0 -0.30298794029856602 -0.17451950520635551 0 -0.29873293158119257 -0.1599156717709273 0 -0.28604718021004222 -0.16700067694061019 0 -0.28604718021004222 -0.16700067694061019 0 -0.28713234268507232 -0.1794440081729827 0 -0.27091623758149341 -0.16156896669066961 0 -0.29873293158119257 -0.1599156717709273 0 -0.28604718021004222 -0.16700067694061019 0 -0.2896356980762978 -0.1551555854962394 0 -0.28604718021004222 -0.16700067694061019 0 -0.27690836640345839 -0.1584862097250804 0 -0.2896356980762978 -0.1551555854962394 0 -0.30298794029856602 -0.17451950520635551 0 -0.28604718021004222 -0.16700067694061019 0 -0.28713234268507232 -0.1794440081729827 0 -0.28713234268507232 -0.1794440081729827 0 -0.27400814574003762 -0.17505709643466799 0 -0.27091623758149341 -0.16156896669066961 0 -0.26713779662764547 -0.18994683425770989 0 -0.28212145759835772 -0.1946000304173317 0 -0.27400814574003762 -0.17505709643466799 0 -0.28212145759835772 -0.1946000304173317 0 -0.28713234268507232 -0.1794440081729827 0 -0.27400814574003762 -0.17505709643466799 0 -0.27400814574003762 -0.17505709643466799 0 -0.26422760711508231 -0.17636840896220651 0 -0.26483199743743069 -0.16469911195986051 0 -0.26713779662764547 -0.18994683425770989 0 -0.27400814574003762 -0.17505709643466799 0 -0.26422760711508231 -0.17636840896220651 0 -0.25366509967595402 -0.1948527909645893 0 -0.26713779662764547 -0.18994683425770989 0 -0.25257170258291523 -0.17734288489297231 0 -0.26713779662764547 -0.18994683425770989 0 -0.25257170258291523 -0.17734288489297231 0 -0.24859954248683089 -0.18143928639920409 0 -0.25366509967595402 -0.1948527909645893 0 -0.25257170258291523 -0.17734288489297231 0 -0.26713779662764547 -0.18994683425770989 0 -0.26422760711508231 -0.17636840896220651 0 -0.25257170258291523 -0.17734288489297231 0 -0.26422760711508231 -0.17636840896220651 0 -0.25257170258291523 -0.17734288489297231 0 -0.26483199743743069 -0.16469911195986051 0 -0.24797942554236649 -0.17336921651556181 0 -0.25257170258291523 -0.17734288489297231 0 -0.24797942554236649 -0.17336921651556181 0 -0.25257170258291523 -0.17734288489297231 0 -0.25039736844854388 -0.17644555942502901 0 -0.24859954248683089 -0.18143928639920409 0 -0.25257170258291523 -0.17734288489297231 0 -0.24859954248683089 -0.18143928639920409 0 -0.25257170258291523 -0.17734288489297231 0 -0.25039736844854388 -0.17644555942502901 0 -0.24797942554236649 -0.17336921651556181 0 -0.25406069055586461 -0.16383914464769711 0 -0.26483199743743069 -0.16469911195986051 0 -0.24797942554236649 -0.17336921651556181 0 -0.26483199743743069 -0.16469911195986051 0 -0.24797942554236649 -0.17336921651556181 0 -0.25257170258291523 -0.17734288489297231 0 -0.26483199743743069 -0.16469911195986051 0 -0.248532515222471 -0.16028806219974051 0 -0.2494567402559198 -0.1528904046332156 0 -0.25789421462119888 -0.15677098011789831 0 -0.248532515222471 -0.16028806219974051 0 -0.25406069055586461 -0.16383914464769711 0 -0.25789421462119888 -0.15677098011789831 0 -0.24797942554236649 -0.17336921651556181 0 -0.248532515222471 -0.16028806219974051 0 -0.25406069055586461 -0.16383914464769711 0 -0.25257170258291523 -0.17734288489297231 0 -0.26483199743743069 -0.16469911195986051 0 -0.25406069055586461 -0.16383914464769711 0 -0.26483199743743069 -0.16469911195986051 0 -0.25789421462119888 -0.15677098011789831 0 -0.26483199743743069 -0.16469911195986051 0 -0.25789421462119888 -0.15677098011789831 0 -0.26944247129082788 -0.15994443148861881 0 -0.28713234268507232 -0.1794440081729827 0 -0.27091623758149341 -0.16156896669066961 0 -0.26483199743743069 -0.16469911195986051 0 -0.26944247129082788 -0.15994443148861881 0 -0.27091623758149341 -0.16156896669066961 0 -0.26483199743743069 -0.16469911195986051 0 -0.26944247129082788 -0.15994443148861881 0 -0.26483199743743069 -0.16469911195986051 0 -0.27091623758149341 -0.16156896669066961 0 -0.26944247129082788 -0.15994443148861881 0 -0.27091623758149341 -0.16156896669066961 0 -0.26944247129082788 -0.15994443148861881 0 -0.27091623758149341 -0.16156896669066961 0 -0.27690836640345839 -0.1584862097250804 0 -0.27400814574003762 -0.17505709643466799 0 -0.26483199743743069 -0.16469911195986051 0 -0.27091623758149341 -0.16156896669066961 0 -0.28604718021004222 -0.16700067694061019 0 -0.27091623758149341 -0.16156896669066961 0 -0.27690836640345839 -0.1584862097250804 0 -0.27091623758149341 -0.16156896669066961 0 -0.27690836640345839 -0.1584862097250804 0 -0.26944247129082788 -0.15994443148861881 0 -0.26958569630421081 -0.143319950067756 0 -0.28584537986833458 -0.14302847196581461 0 -0.26944247129082788 -0.15994443148861881 0 -0.27690836640345839 -0.1584862097250804 0 -0.28584537986833458 -0.14302847196581461 0 -0.26944247129082788 -0.15994443148861881 0 -0.28584537986833458 -0.14302847196581461 0 -0.25789421462119888 -0.15677098011789831 0 -0.26944247129082788 -0.15994443148861881 0 -0.2561520241318701 -0.14529434795947191 0 -0.26944247129082788 -0.15994443148861881 0 -0.2561520241318701 -0.14529434795947191 0 -0.26944247129082788 -0.15994443148861881 0 -0.26958569630421081 -0.143319950067756 0 -0.2561520241318701 -0.14529434795947191 0 -0.2494567402559198 -0.1528904046332156 0 -0.2561520241318701 -0.14529434795947191 0 -0.25355617736538799 -0.14329287658126119 0 -0.2494567402559198 -0.1528904046332156 0 -0.25789421462119888 -0.15677098011789831 0 -0.2561520241318701 -0.14529434795947191 0 -0.26308785999280138 -0.12041780650020829 0 -0.25723802464344048 -0.1318703987773184 0 -0.25133096567543273 -0.12503417873500211 0 -0.244042885142947 -0.1287344986905469 0 -0.25723802464344048 -0.1318703987773184 0 -0.25133096567543273 -0.12503417873500211 0 -0.24286157697291319 -0.13064426443032429 0 -0.2561520241318701 -0.14529434795947191 0 -0.25355617736538799 -0.14329287658126119 0 -0.24286157697291319 -0.13064426443032429 0 -0.2561520241318701 -0.14529434795947191 0 -0.25723802464344048 -0.1318703987773184 0 -0.26958569630421081 -0.143319950067756 0 -0.2561520241318701 -0.14529434795947191 0 -0.25723802464344048 -0.1318703987773184 0 -0.26308785999280138 -0.12041780650020829 0 -0.25723802464344048 -0.1318703987773184 0 -0.27211952815162699 -0.1278544937185413 0 -0.26958569630421081 -0.143319950067756 0 -0.27211952815162699 -0.1278544937185413 0 -0.28584537986833458 -0.14302847196581461 0 -0.28493146939076602 -0.12057831041018061 0 -0.27211952815162699 -0.1278544937185413 0 -0.28584537986833458 -0.14302847196581461 0 -0.26958569630421081 -0.143319950067756 0 -0.25723802464344048 -0.1318703987773184 0 -0.27211952815162699 -0.1278544937185413 0 -0.28584537986833458 -0.14302847196581461 0 -0.30064463231846128 -0.14734689707876439 0 -0.3022482884458414 -0.1261125124430105 0 -0.28584537986833458 -0.14302847196581461 0 -0.3022482884458414 -0.1261125124430105 0 -0.28493146939076602 -0.12057831041018061 0 -0.28584537986833458 -0.14302847196581461 0 -0.3022482884458414 -0.1261125124430105 0 -0.27690836640345839 -0.1584862097250804 0 -0.28584537986833458 -0.14302847196581461 0 -0.2896356980762978 -0.1551555854962394 0 -0.29873293158119257 -0.1599156717709273 0 -0.2896356980762978 -0.1551555854962394 0 -0.30064463231846128 -0.14734689707876439 0 -0.28584537986833458 -0.14302847196581461 0 -0.2896356980762978 -0.1551555854962394 0 -0.30064463231846128 -0.14734689707876439 0 -0.30064463231846128 -0.14734689707876439 0 -0.31631286990504498 -0.1404993691009091 0 -0.31431134103694758 -0.1608540368834098 0 -0.29873293158119257 -0.1599156717709273 0 -0.30064463231846128 -0.14734689707876439 0 -0.31431134103694758 -0.1608540368834098 0 -0.3022482884458414 -0.1261125124430105 0 -0.31891090034324182 -0.12736182355918671 0 -0.31631286990504498 -0.1404993691009091 0 -0.30064463231846128 -0.14734689707876439 0 -0.3022482884458414 -0.1261125124430105 0 -0.31631286990504498 -0.1404993691009091 0 -0.31891090034324182 -0.12736182355918671 0 -0.31631286990504498 -0.1404993691009091 0 -0.3311275730250185 -0.13370256006486489 0 -0.32810237840269763 -0.1196662558818702 0 -0.31891090034324182 -0.12736182355918671 0 -0.3311275730250185 -0.13370256006486489 0 -0.31631286990504498 -0.1404993691009091 0 -0.33046739245070111 -0.1520302194178888 0 -0.3311275730250185 -0.13370256006486489 0 -0.31631286990504498 -0.1404993691009091 0 -0.33046739245070111 -0.1520302194178888 0 -0.31431134103694758 -0.1608540368834098 0 -0.33046739245070111 -0.1520302194178888 0 -0.34348840719547941 -0.14316566171009371 0 -0.3311275730250185 -0.13370256006486489 0 -0.33046739245070111 -0.1520302194178888 0 -0.34348840719547941 -0.14316566171009371 0 -0.34695031863621972 -0.159672881227716 0 -0.34348840719547941 -0.14316566171009371 0 -0.3311275730250185 -0.13370256006486489 0 -0.34361731729155798 -0.12881944393541889 0 -0.32810237840269763 -0.1196662558818702 0 -0.33781140765928069 -0.1235229548137686 0 -0.3311275730250185 -0.13370256006486489 0 -0.33781140765928069 -0.1235229548137686 0 -0.3311275730250185 -0.13370256006486489 0 -0.34361731729155798 -0.12881944393541889 0 -0.34366047079634848 -0.122996848275744 0 -0.33781140765928069 -0.1235229548137686 0 -0.34361731729155798 -0.12881944393541889 0 -0.35219782940513089 -0.11501480250040361 0 -0.35176664503227961 -0.12728906372644119 0 -0.36319717345102709 -0.1334357887662404 0 -0.34361731729155798 -0.12881944393541889 0 -0.3520506502750792 -0.13658723510449561 0 -0.35176664503227961 -0.12728906372644119 0 -0.34731752122567672 -0.1215272453254367 0 -0.34361731729155798 -0.12881944393541889 0 -0.35176664503227961 -0.12728906372644119 0 -0.34348840719547941 -0.14316566171009371 0 -0.34361731729155798 -0.12881944393541889 0 -0.3520506502750792 -0.13658723510449561 0 -0.3520506502750792 -0.13658723510449561 0 -0.36319717345102709 -0.1334357887662404 0 -0.35812391636095992 -0.14802090380341551 0 -0.3520506502750792 -0.13658723510449561 0 -0.35176664503227961 -0.12728906372644119 0 -0.36319717345102709 -0.1334357887662404 0 -0.37013107519229249 -0.1245024330538185 0 -0.36207258902975498 -0.12055122510730901 0 -0.36319717345102709 -0.1334357887662404 0 -0.37013107519229249 -0.1245024330538185 0 -0.36319717345102709 -0.1334357887662404 0 -0.37749787231401322 -0.13975298999886479 0 -0.37013107519229249 -0.1245024330538185 0 -0.37749787231401322 -0.13975298999886479 0 -0.37013107519229249 -0.1245024330538185 0 -0.37396262712923661 -0.12573471229752711 0 -0.37749787231401322 -0.13975298999886479 0 -0.36319717345102709 -0.1334357887662404 0 -0.37419651749692329 -0.1518567750320772 0 -0.36319717345102709 -0.1334357887662404 0 -0.37419651749692329 -0.1518567750320772 0 -0.35812391636095992 -0.14802090380341551 0 -0.37419651749692329 -0.1518567750320772 0 -0.35812391636095992 -0.14802090380341551 0 -0.36727346032014813 -0.16184510263473481 0 -0.36319717345102709 -0.1334357887662404 0 -0.37419651749692329 -0.1518567750320772 0 -0.37749787231401322 -0.13975298999886479 0 -0.34348840719547941 -0.14316566171009371 0 -0.35812391636095992 -0.14802090380341551 0 -0.34695031863621972 -0.159672881227716 0 -0.34348840719547941 -0.14316566171009371 0 -0.3520506502750792 -0.13658723510449561 0 -0.35812391636095992 -0.14802090380341551 0 -0.36727346032014813 -0.16184510263473481 0 -0.3513704911775084 -0.1796280988023598 0 -0.35812391636095992 -0.14802090380341551 0 -0.34695031863621972 -0.159672881227716 0 -0.36727346032014813 -0.16184510263473481 0 -0.34695031863621972 -0.159672881227716 0 -0.36727346032014813 -0.16184510263473481 0 -0.3513704911775084 -0.1796280988023598 0 -0.36727346032014813 -0.16184510263473481 0 -0.3696776321477096 -0.17999745207401299 0 -0.38519586154281771 -0.17027776129791511 0 -0.36727346032014813 -0.16184510263473481 0 -0.3696776321477096 -0.17999745207401299 0 -0.3513704911775084 -0.1796280988023598 0 -0.3696776321477096 -0.17999745207401299 0 -0.3513704911775084 -0.1796280988023598 0 -0.35350524784176057 -0.1975395157807481 0 -0.33257623388039348 -0.1722415466365341 0 -0.31782016283822762 -0.18320654552211699 0 -0.33546752203486863 -0.1974110949699848 0 -0.3513704911775084 -0.1796280988023598 0 -0.33257623388039348 -0.1722415466365341 0 -0.33546752203486863 -0.1974110949699848 0 -0.34695031863621972 -0.159672881227716 0 -0.3513704911775084 -0.1796280988023598 0 -0.33257623388039348 -0.1722415466365341 0 -0.33046739245070111 -0.1520302194178888 0 -0.34695031863621972 -0.159672881227716 0 -0.33257623388039348 -0.1722415466365341 0 -0.33046739245070111 -0.1520302194178888 0 -0.33257623388039348 -0.1722415466365341 0 -0.31431134103694758 -0.1608540368834098 0 -0.33257623388039348 -0.1722415466365341 0 -0.31431134103694758 -0.1608540368834098 0 -0.31782016283822762 -0.18320654552211699 0 -0.3033484477886505 -0.19731904965529631 0 -0.31782016283822762 -0.18320654552211699 0 -0.31940316373044642 -0.19904741628721001 0 -0.31782016283822762 -0.18320654552211699 0 -0.31940316373044642 -0.19904741628721001 0 -0.33546752203486863 -0.1974110949699848 0 -0.31940316373044642 -0.19904741628721001 0 -0.31956455289222879 -0.2151940911376099 0 -0.33546752203486863 -0.1974110949699848 0 -0.3033484477886505 -0.19731904965529631 0 -0.31940316373044642 -0.19904741628721001 0 -0.31956455289222879 -0.2151940911376099 0 -0.31956455289222879 -0.2151940911376099 0 -0.33546752203486863 -0.1974110949699848 0 -0.30759354751214252 -0.21602605986408741 0 -0.31956455289222879 -0.2151940911376099 0 -0.31453151858161649 -0.22082212380587221 0 -0.31956455289222879 -0.2151940911376099 0 -0.31453151858161649 -0.22082212380587221 0 -0.31956455289222879 -0.2151940911376099 0 -0.33868919473484249 -0.21407099791807099 0 -0.33546752203486863 -0.1974110949699848 0 -0.33868919473484249 -0.21407099791807099 0 -0.33546752203486863 -0.1974110949699848 0 -0.35350524784176057 -0.1975395157807481 0 -0.3513704911775084 -0.1796280988023598 0 -0.33546752203486863 -0.1974110949699848 0 -0.3513704911775084 -0.1796280988023598 0 -0.33546752203486863 -0.1974110949699848 0 -0.35350524784176057 -0.1975395157807481 0 -0.3696776321477096 -0.17999745207401299 0 -0.35350524784176057 -0.1975395157807481 0 -0.37137665280705701 -0.2012293954453869 0 -0.35350524784176057 -0.1975395157807481 0 -0.37137665280705701 -0.2012293954453869 0 -0.36029624382322512 -0.21296972506745421 0 -0.37137665280705701 -0.2012293954453869 0 -0.36029624382322512 -0.21296972506745421 0 -0.37637949030183698 -0.22628948000103929 0 -0.33868919473484249 -0.21407099791807099 0 -0.35350524784176057 -0.1975395157807481 0 -0.36029624382322512 -0.21296972506745421 0 -0.37658973850392058 -0.25863578741241072 0 -0.36271053573838469 -0.24435841446020501 0 -0.37637949030183698 -0.22628948000103929 0 -0.33868919473484249 -0.21407099791807099 0 -0.36029624382322512 -0.21296972506745421 0 -0.35104526112142448 -0.23224631167347859 0 -0.36029624382322512 -0.21296972506745421 0 -0.35104526112142448 -0.23224631167347859 0 -0.37637949030183698 -0.22628948000103929 0 -0.35104526112142448 -0.23224631167347859 0 -0.36271053573838469 -0.24435841446020501 0 -0.37637949030183698 -0.22628948000103929 0 -0.34729545866209061 -0.2528103326161848 0 -0.35104526112142448 -0.23224631167347859 0 -0.36271053573838469 -0.24435841446020501 0 -0.34729545866209061 -0.2528103326161848 0 -0.35104526112142448 -0.23224631167347859 0 -0.33763681920221261 -0.24252883681685239 0 -0.35104526112142448 -0.23224631167347859 0 -0.33763681920221261 -0.24252883681685239 0 -0.33391410061088389 -0.23101162309642759 0 -0.33093606398148351 -0.25433796163322481 0 -0.34729545866209061 -0.2528103326161848 0 -0.33763681920221261 -0.24252883681685239 0 -0.33093606398148351 -0.25433796163322481 0 -0.33763681920221261 -0.24252883681685239 0 -0.32499321163518008 -0.24223795506494611 0 -0.33763681920221261 -0.24252883681685239 0 -0.33391410061088389 -0.23101162309642759 0 -0.32499321163518008 -0.24223795506494611 0 -0.31956455289222879 -0.2151940911376099 0 -0.33868919473484249 -0.21407099791807099 0 -0.33391410061088389 -0.23101162309642759 0 -0.33868919473484249 -0.21407099791807099 0 -0.35104526112142448 -0.23224631167347859 0 -0.33391410061088389 -0.23101162309642759 0 -0.33391410061088389 -0.23101162309642759 0 -0.31973635951610052 -0.22960609676291879 0 -0.32499321163518008 -0.24223795506494611 0 -0.31956455289222879 -0.2151940911376099 0 -0.33391410061088389 -0.23101162309642759 0 -0.31973635951610052 -0.22960609676291879 0 -0.31956455289222879 -0.2151940911376099 0 -0.33391410061088389 -0.23101162309642759 0 -0.31453151858161649 -0.22082212380587221 0 -0.31973635951610052 -0.22960609676291879 0 -0.31261898273915312 -0.22921423392787879 0 -0.31956455289222879 -0.2151940911376099 0 -0.31453151858161649 -0.22082212380587221 0 -0.31973635951610052 -0.22960609676291879 0 -0.31179059662622982 -0.23890118582432129 0 -0.31973635951610052 -0.22960609676291879 0 -0.31261898273915312 -0.22921423392787879 0 -0.31179059662622982 -0.23890118582432129 0 -0.31973635951610052 -0.22960609676291879 0 -0.32499321163518008 -0.24223795506494611 0 -0.31417662199612612 -0.2555997343155551 0 -0.31179059662622982 -0.23890118582432129 0 -0.32499321163518008 -0.24223795506494611 0 -0.44401585412563632 -0.25504528077001382 0 -0.42468642852513172 -0.25112260078431481 0 -0.44233198192756962 -0.22560109796178179 0 -0.42468642852513172 -0.25112260078431481 0 -0.42181729650382199 -0.23160895956182789 0 -0.44233198192756962 -0.22560109796178179 0 -0.42181729650382199 -0.23160895956182789 0 -0.42593499095452508 -0.21528656503981891 0 -0.44233198192756962 -0.22560109796178179 0 -0.42593499095452508 -0.21528656503981891 0 -0.44233198192756962 -0.22560109796178179 0 -0.42181729650382199 -0.23160895956182789 0 -0.41231647534259191 -0.21569760199405641 0 -0.42593499095452508 -0.21528656503981891 0 -0.42181729650382199 -0.23160895956182789 0 -0.41231647534259191 -0.21569760199405641 0 -0.42181729650382199 -0.23160895956182789 0 -0.41012880246891148 -0.22779607562245349 0 -0.41231647534259191 -0.21569760199405641 0 -0.41012880246891148 -0.22779607562245349 0 -0.39861435990530941 -0.22348601887238689 0 -0.41231647534259191 -0.21569760199405641 0 -0.42468642852513172 -0.25112260078431481 0 -0.42181729650382199 -0.23160895956182789 0 -0.40506898858945029 -0.24908050316530889 0 -0.42181729650382199 -0.23160895956182789 0 -0.41012880246891148 -0.22779607562245349 0 -0.40506898858945029 -0.24908050316530889 0 -0.40506898858945029 -0.24908050316530889 0 -0.39861435990530941 -0.22348601887238689 0 -0.39417293906223849 -0.24854036291131251 0 -0.39861435990530941 -0.22348601887238689 0 -0.40506898858945029 -0.24908050316530889 0 -0.39417293906223849 -0.24854036291131251 0 -0.39861435990530941 -0.22348601887238689 0 -0.37658973850392058 -0.25863578741241072 0 -0.39417293906223849 -0.24854036291131251 0 -0.37637949030183698 -0.22628948000103929 0 -0.39417293906223849 -0.24854036291131251 0 -0.37637949030183698 -0.22628948000103929 0 -0.39861435990530941 -0.22348601887238689 0 -0.41012880246891148 -0.22779607562245349 0 -0.40506898858945029 -0.24908050316530889 0 -0.39861435990530941 -0.22348601887238689 0 -0.39861435990530941 -0.22348601887238689 0 -0.39190511072406192 -0.19688189008515139 0 -0.40281565418136311 -0.19978624442628409 0 -0.39861435990530941 -0.22348601887238689 0 -0.39190511072406192 -0.19688189008515139 0 -0.39861435990530941 -0.22348601887238689 0 -0.40281565418136311 -0.19978624442628409 0 -0.39861435990530941 -0.22348601887238689 0 -0.40281565418136311 -0.19978624442628409 0 -0.41231647534259191 -0.21569760199405641 0 -0.37137665280705701 -0.2012293954453869 0 -0.37637949030183698 -0.22628948000103929 0 -0.39190511072406192 -0.19688189008515139 0 -0.37637949030183698 -0.22628948000103929 0 -0.39861435990530941 -0.22348601887238689 0 -0.39190511072406192 -0.19688189008515139 0 -0.3696776321477096 -0.17999745207401299 0 -0.37137665280705701 -0.2012293954453869 0 -0.39190511072406192 -0.19688189008515139 0 -0.39190511072406192 -0.19688189008515139 0 -0.40281565418136311 -0.19978624442628409 0 -0.39400575786209058 -0.1850320028620995 0 -0.40281565418136311 -0.19978624442628409 0 -0.39400575786209058 -0.1850320028620995 0 -0.40281565418136311 -0.19978624442628409 0 -0.40495647192569079 -0.18770975219865479 0 -0.40281565418136311 -0.19978624442628409 0 -0.40495647192569079 -0.18770975219865479 0 -0.39400575786209058 -0.1850320028620995 0 -0.40281565418136311 -0.19978624442628409 0 -0.40495647192569079 -0.18770975219865479 0 -0.41295484867209892 -0.19320955383990079 0 -0.41295484867209892 -0.19320955383990079 0 -0.42132153864990041 -0.19683881101154779 0 -0.42277354290912489 -0.18661146152507099 0 -0.41295484867209892 -0.19320955383990079 0 -0.42132153864990041 -0.19683881101154779 0 -0.41701303979926818 -0.20458165175545021 0 -0.40281565418136311 -0.19978624442628409 0 -0.41295484867209892 -0.19320955383990079 0 -0.41701303979926818 -0.20458165175545021 0 -0.40281565418136311 -0.19978624442628409 0 -0.41231647534259191 -0.21569760199405641 0 -0.41701303979926818 -0.20458165175545021 0 -0.40281565418136311 -0.19978624442628409 0 -0.41231647534259191 -0.21569760199405641 0 -0.41231647534259191 -0.21569760199405641 0 -0.41701303979926818 -0.20458165175545021 0 -0.42593499095452508 -0.21528656503981891 0 -0.41701303979926818 -0.20458165175545021 0 -0.42785898912165898 -0.2037736983082169 0 -0.42593499095452508 -0.21528656503981891 0 -0.42593499095452508 -0.21528656503981891 0 -0.4412287690973975 -0.20631032263734231 0 -0.44233198192756962 -0.22560109796178179 0 -0.42785898912165898 -0.2037736983082169 0 -0.42593499095452508 -0.21528656503981891 0 -0.4412287690973975 -0.20631032263734231 0 -0.42785898912165898 -0.2037736983082169 0 -0.43379660710720358 -0.19585114109692531 0 -0.4412287690973975 -0.20631032263734231 0 -0.43379660710720358 -0.19585114109692531 0 -0.42277354290912489 -0.18661146152507099 0 -0.43375101856661852 -0.18281514698615839 0 -0.42132153864990041 -0.19683881101154779 0 -0.43379660710720358 -0.19585114109692531 0 -0.42277354290912489 -0.18661146152507099 0 -0.42132153864990041 -0.19683881101154779 0 -0.42785898912165898 -0.2037736983082169 0 -0.43379660710720358 -0.19585114109692531 0 -0.42132153864990041 -0.19683881101154779 0 -0.41701303979926818 -0.20458165175545021 0 -0.42785898912165898 -0.2037736983082169 0 -0.43375101856661852 -0.18281514698615839 0 -0.43641095618616471 -0.16452540239313659 0 -0.42203041951329762 -0.170908552888903 0 -0.42277354290912489 -0.18661146152507099 0 -0.43375101856661852 -0.18281514698615839 0 -0.42203041951329762 -0.170908552888903 0 -0.43641095618616471 -0.16452540239313659 0 -0.42203041951329762 -0.170908552888903 0 -0.42979829310466372 -0.14796856446424461 0 -0.42203041951329762 -0.170908552888903 0 -0.42979829310466372 -0.14796856446424461 0 -0.42203041951329762 -0.170908552888903 0 -0.4208840511815044 -0.1543580775718752 0 -0.42979829310466372 -0.14796856446424461 0 -0.42203041951329762 -0.170908552888903 0 -0.41149789351796778 -0.16504186309256 0 -0.41325529985322729 -0.17200586070241661 0 -0.42203041951329762 -0.170908552888903 0 -0.41617501327555428 -0.16008841220354711 0 -0.41149789351796778 -0.16504186309256 0 -0.42203041951329762 -0.170908552888903 0 -0.41617501327555428 -0.16008841220354711 0 -0.4208840511815044 -0.1543580775718752 0 -0.41617501327555428 -0.16008841220354711 0 -0.41079986004928859 -0.15760525274914611 0 -0.41566284211571303 -0.15252831471525141 0 -0.41617501327555428 -0.16008841220354711 0 -0.41079986004928859 -0.15760525274914611 0 -0.41149789351796778 -0.16504186309256 0 -0.41079986004928859 -0.15760525274914611 0 -0.41149789351796778 -0.16504186309256 0 -0.40557122665528739 -0.16134988382399651 0 -0.41079986004928859 -0.15760525274914611 0 -0.40557122665528739 -0.16134988382399651 0 -0.40530383562870093 -0.15539988462514959 0 -0.41149789351796778 -0.16504186309256 0 -0.40670606143601279 -0.17202746350121281 0 -0.41325529985322729 -0.17200586070241661 0 -0.41149789351796778 -0.16504186309256 0 -0.40428822310527779 -0.16672751418595119 0 -0.40557122665528739 -0.16134988382399651 0 -0.41149789351796778 -0.16504186309256 0 -0.40670606143601279 -0.17202746350121281 0 -0.40428822310527779 -0.16672751418595119 0 -0.40670606143601279 -0.17202746350121281 0 -0.41278682494563101 -0.18004556332699059 0 -0.40330244238658491 -0.17932316298188211 0 -0.40670606143601279 -0.17202746350121281 0 -0.41325529985322729 -0.17200586070241661 0 -0.41278682494563101 -0.18004556332699059 0 -0.42277354290912489 -0.18661146152507099 0 -0.42203041951329762 -0.170908552888903 0 -0.41278682494563101 -0.18004556332699059 0 -0.42203041951329762 -0.170908552888903 0 -0.41325529985322729 -0.17200586070241661 0 -0.41278682494563101 -0.18004556332699059 0 -0.41295484867209892 -0.19320955383990079 0 -0.42277354290912489 -0.18661146152507099 0 -0.41278682494563101 -0.18004556332699059 0 -0.40495647192569079 -0.18770975219865479 0 -0.41278682494563101 -0.18004556332699059 0 -0.40330244238658491 -0.17932316298188211 0 -0.40495647192569079 -0.18770975219865479 0 -0.41295484867209892 -0.19320955383990079 0 -0.41278682494563101 -0.18004556332699059 0 -0.40495647192569079 -0.18770975219865479 0 -0.40330244238658491 -0.17932316298188211 0 -0.39400575786209058 -0.1850320028620995 0 -0.40330244238658491 -0.17932316298188211 0 -0.39400575786209058 -0.1850320028620995 0 -0.39805709576349901 -0.17180103302045291 0 -0.40670606143601279 -0.17202746350121281 0 -0.40330244238658491 -0.17932316298188211 0 -0.39805709576349901 -0.17180103302045291 0 -0.39400575786209058 -0.1850320028620995 0 -0.39244766600701508 -0.17185116245324619 0 -0.39805709576349901 -0.17180103302045291 0 -0.39190511072406192 -0.19688189008515139 0 -0.38519586154281771 -0.17027776129791511 0 -0.39190511072406192 -0.19688189008515139 0 -0.39400575786209058 -0.1850320028620995 0 -0.38519586154281771 -0.17027776129791511 0 -0.3696776321477096 -0.17999745207401299 0 -0.39190511072406192 -0.19688189008515139 0 -0.38519586154281771 -0.17027776129791511 0 -0.39400575786209058 -0.1850320028620995 0 -0.38519586154281771 -0.17027776129791511 0 -0.39400575786209058 -0.1850320028620995 0 -0.38519586154281771 -0.17027776129791511 0 -0.39244766600701508 -0.17185116245324619 0 -0.37419651749692329 -0.1518567750320772 0 -0.38519586154281771 -0.17027776129791511 0 -0.37419651749692329 -0.1518567750320772 0 -0.36727346032014813 -0.16184510263473481 0 -0.38519586154281771 -0.17027776129791511 0 -0.37419651749692329 -0.1518567750320772 0 -0.38519586154281771 -0.17027776129791511 0 -0.38134686692841319 -0.15501537564839049 0 -0.38519586154281771 -0.17027776129791511 0 -0.39005473702083959 -0.16574789349606439 0 -0.39244766600701508 -0.17185116245324619 0 -0.38519586154281771 -0.17027776129791511 0 -0.39005473702083959 -0.16574789349606439 0 -0.38134686692841319 -0.15501537564839049 0 -0.38519586154281771 -0.17027776129791511 0 -0.38134686692841319 -0.15501537564839049 0 -0.39005473702083959 -0.16574789349606439 0 -0.39567685218785231 -0.1607050404557413 0 -0.38970774341613118 -0.15204031703207971 0 -0.39567685218785231 -0.1607050404557413 0 -0.39492487784583069 -0.16639712158969841 0 -0.39960883815362158 -0.1634173274915339 0 -0.39567685218785231 -0.1607050404557413 0 -0.40065434702500741 -0.15811420354913941 0 -0.39669195995378681 -0.15458323902847329 0 -0.39492487784583069 -0.16639712158969841 0 -0.39805709576349901 -0.17180103302045291 0 -0.39960883815362158 -0.1634173274915339 0 -0.39005473702083959 -0.16574789349606439 0 -0.39244766600701508 -0.17185116245324619 0 -0.39492487784583069 -0.16639712158969841 0 -0.39005473702083959 -0.16574789349606439 0 -0.39567685218785231 -0.1607050404557413 0 -0.39492487784583069 -0.16639712158969841 0 -0.39244766600701508 -0.17185116245324619 0 -0.39492487784583069 -0.16639712158969841 0 -0.39805709576349901 -0.17180103302045291 0 -0.40670606143601279 -0.17202746350121281 0 -0.39805709576349901 -0.17180103302045291 0 -0.40428822310527779 -0.16672751418595119 0 -0.39805709576349901 -0.17180103302045291 0 -0.40428822310527779 -0.16672751418595119 0 -0.39960883815362158 -0.1634173274915339 0 -0.40065434702500741 -0.15811420354913941 0 -0.39960883815362158 -0.1634173274915339 0 -0.40557122665528739 -0.16134988382399651 0 -0.39567685218785231 -0.1607050404557413 0 -0.40065434702500741 -0.15811420354913941 0 -0.39960883815362158 -0.1634173274915339 0 -0.40428822310527779 -0.16672751418595119 0 -0.39960883815362158 -0.1634173274915339 0 -0.40557122665528739 -0.16134988382399651 0 -0.40065434702500741 -0.15811420354913941 0 -0.40557122665528739 -0.16134988382399651 0 -0.40530383562870093 -0.15539988462514959 0 -0.40065434702500741 -0.15811420354913941 0 -0.40530383562870093 -0.15539988462514959 0 -0.40126958270208241 -0.1532222432566398 0 -0.40530383562870093 -0.15539988462514959 0 -0.40466616754718743 -0.14978115232942071 0 -0.40126958270208241 -0.1532222432566398 0 -0.40126958270208241 -0.1532222432566398 0 -0.39903160335572913 -0.14823273675101609 0 -0.39669195995378681 -0.15458323902847329 0 -0.40466616754718743 -0.14978115232942071 0 -0.40126958270208241 -0.1532222432566398 0 -0.39903160335572913 -0.14823273675101609 0 -0.40065434702500741 -0.15811420354913941 0 -0.40126958270208241 -0.1532222432566398 0 -0.39669195995378681 -0.15458323902847329 0 -0.40320097794827342 -0.14346522291075089 0 -0.39903160335572913 -0.14823273675101609 0 -0.39319222715243551 -0.1406674590688437 0 -0.40466616754718743 -0.14978115232942071 0 -0.40320097794827342 -0.14346522291075089 0 -0.40938769415871601 -0.1457916879074764 0 -0.40466616754718743 -0.14978115232942071 0 -0.40320097794827342 -0.14346522291075089 0 -0.39903160335572913 -0.14823273675101609 0 -0.39903160335572913 -0.14823273675101609 0 -0.39319222715243551 -0.1406674590688437 0 -0.3931423713322526 -0.14845567199658671 0 -0.39319222715243551 -0.1406674590688437 0 -0.3931423713322526 -0.14845567199658671 0 -0.38799297189490128 -0.14260666456947391 0 -0.39567685218785231 -0.1607050404557413 0 -0.39669195995378681 -0.15458323902847329 0 -0.38970774341613118 -0.15204031703207971 0 -0.39903160335572913 -0.14823273675101609 0 -0.39669195995378681 -0.15458323902847329 0 -0.3931423713322526 -0.14845567199658671 0 -0.39669195995378681 -0.15458323902847329 0 -0.3931423713322526 -0.14845567199658671 0 -0.38970774341613118 -0.15204031703207971 0 -0.39005473702083959 -0.16574789349606439 0 -0.38970774341613118 -0.15204031703207971 0 -0.37749787231401322 -0.13975298999886479 0 -0.39005473702083959 -0.16574789349606439 0 -0.38134686692841319 -0.15501537564839049 0 -0.37749787231401322 -0.13975298999886479 0 -0.39005473702083959 -0.16574789349606439 0 -0.37749787231401322 -0.13975298999886479 0 -0.38970774341613118 -0.15204031703207971 0 -0.38799297189490128 -0.14260666456947391 0 -0.37749787231401322 -0.13975298999886479 0 -0.3931423713322526 -0.14845567199658671 0 -0.38970774341613118 -0.15204031703207971 0 -0.38799297189490128 -0.14260666456947391 0 -0.38134686692841319 -0.15501537564839049 0 -0.37749787231401322 -0.13975298999886479 0 -0.37419651749692329 -0.1518567750320772 0 -0.38134686692841319 -0.15501537564839049 0 -0.37749787231401322 -0.13975298999886479 0 -0.37396262712923661 -0.12573471229752711 0 -0.37986650309706438 -0.12995936888049811 0 -0.37749787231401322 -0.13975298999886479 0 -0.37986650309706438 -0.12995936888049811 0 -0.38642464525967662 -0.13211688475099409 0 -0.38158086768533389 -0.1222328884746057 0 -0.37396262712923661 -0.12573471229752711 0 -0.37749787231401322 -0.13975298999886479 0 -0.37396262712923661 -0.12573471229752711 0 -0.37986650309706438 -0.12995936888049811 0 -0.38158086768533389 -0.1222328884746057 0 -0.37986650309706438 -0.12995936888049811 0 -0.37749787231401322 -0.13975298999886479 0 -0.38642464525967662 -0.13211688475099409 0 -0.38799297189490128 -0.14260666456947391 0 -0.37749787231401322 -0.13975298999886479 0 -0.38642464525967662 -0.13211688475099409 0 -0.39319222715243551 -0.1406674590688437 0 -0.38799297189490128 -0.14260666456947391 0 -0.38642464525967662 -0.13211688475099409 0 -0.38642464525967662 -0.13211688475099409 0 -0.40198737586959221 -0.13727207751532489 0 -0.38925439143056317 -0.1188539252329056 0 -0.40198737586959221 -0.13727207751532489 0 -0.38925439143056317 -0.1188539252329056 0 -0.40198737586959221 -0.13727207751532489 0 -0.41033359074405651 -0.12964962005109029 0 -0.38925439143056317 -0.1188539252329056 0 -0.39319222715243551 -0.1406674590688437 0 -0.38642464525967662 -0.13211688475099409 0 -0.40198737586959221 -0.13727207751532489 0 -0.40320097794827342 -0.14346522291075089 0 -0.39319222715243551 -0.1406674590688437 0 -0.40198737586959221 -0.13727207751532489 0 -0.40320097794827342 -0.14346522291075089 0 -0.40198737586959221 -0.13727207751532489 0 -0.40778104346973792 -0.13933399879054131 0 -0.41033359074405651 -0.12964962005109029 0 -0.43220790384886631 -0.140852531752094 0 -0.41033359074405651 -0.12964962005109029 0 -0.41819438399909559 -0.1396029060175408 0 -0.43220790384886631 -0.140852531752094 0 -0.41819438399909559 -0.1396029060175408 0 -0.41296996710410638 -0.1379339397483926 0 -0.41525340887576789 -0.14308850962680719 0 -0.41033359074405651 -0.12964962005109029 0 -0.41296996710410638 -0.1379339397483926 0 -0.40778104346973792 -0.13933399879054131 0 -0.41033359074405651 -0.12964962005109029 0 -0.41819438399909559 -0.1396029060175408 0 -0.41296996710410638 -0.1379339397483926 0 -0.41296996710410638 -0.1379339397483926 0 -0.40778104346973792 -0.13933399879054131 0 -0.41525340887576789 -0.14308850962680719 0 -0.40198737586959221 -0.13727207751532489 0 -0.41033359074405651 -0.12964962005109029 0 -0.40778104346973792 -0.13933399879054131 0 -0.40320097794827342 -0.14346522291075089 0 -0.40778104346973792 -0.13933399879054131 0 -0.40938769415871601 -0.1457916879074764 0 -0.40938769415871601 -0.1457916879074764 0 -0.41009195571064527 -0.15140419782959369 0 -0.41475101944485332 -0.14760344474123141 0 -0.40938769415871601 -0.1457916879074764 0 -0.41525340887576789 -0.14308850962680719 0 -0.41475101944485332 -0.14760344474123141 0 -0.40778104346973792 -0.13933399879054131 0 -0.40938769415871601 -0.1457916879074764 0 -0.41525340887576789 -0.14308850962680719 0 -0.41079986004928859 -0.15760525274914611 0 -0.40530383562870093 -0.15539988462514959 0 -0.41009195571064527 -0.15140419782959369 0 -0.40466616754718743 -0.14978115232942071 0 -0.40938769415871601 -0.1457916879074764 0 -0.41009195571064527 -0.15140419782959369 0 -0.40530383562870093 -0.15539988462514959 0 -0.40466616754718743 -0.14978115232942071 0 -0.41009195571064527 -0.15140419782959369 0 -0.41009195571064527 -0.15140419782959369 0 -0.41566284211571303 -0.15252831471525141 0 -0.41475101944485332 -0.14760344474123141 0 -0.41079986004928859 -0.15760525274914611 0 -0.41009195571064527 -0.15140419782959369 0 -0.41566284211571303 -0.15252831471525141 0 -0.41617501327555428 -0.16008841220354711 0 -0.41566284211571303 -0.15252831471525141 0 -0.4208840511815044 -0.1543580775718752 0 -0.41566284211571303 -0.15252831471525141 0 -0.41848379906761612 -0.14856410963110461 0 -0.41475101944485332 -0.14760344474123141 0 -0.41848379906761612 -0.14856410963110461 0 -0.4208840511815044 -0.1543580775718752 0 -0.42233415298077709 -0.1476495484190147 0 -0.41566284211571303 -0.15252831471525141 0 -0.41848379906761612 -0.14856410963110461 0 -0.4208840511815044 -0.1543580775718752 0 -0.41525340887576789 -0.14308850962680719 0 -0.41709072987310292 -0.14584323329500221 0 -0.41987469210417427 -0.14411686918086561 0 -0.41819438399909559 -0.1396029060175408 0 -0.41525340887576789 -0.14308850962680719 0 -0.41987469210417427 -0.14411686918086561 0 -0.41525340887576789 -0.14308850962680719 0 -0.41475101944485332 -0.14760344474123141 0 -0.41709072987310292 -0.14584323329500221 0 -0.41848379906761612 -0.14856410963110461 0 -0.41475101944485332 -0.14760344474123141 0 -0.41709072987310292 -0.14584323329500221 0 -0.41848379906761612 -0.14856410963110461 0 -0.41709072987310292 -0.14584323329500221 0 -0.41987469210417427 -0.14411686918086561 0 -0.41987469210417427 -0.14411686918086561 0 -0.42262992944592759 -0.14324012124698299 0 -0.42233415298077709 -0.1476495484190147 0 -0.41848379906761612 -0.14856410963110461 0 -0.41987469210417427 -0.14411686918086561 0 -0.42233415298077709 -0.1476495484190147 0 -0.41987469210417427 -0.14411686918086561 0 -0.42262992944592759 -0.14324012124698299 0 -0.41819438399909559 -0.1396029060175408 0 -0.41987469210417427 -0.14411686918086561 0 -0.42262992944592759 -0.14324012124698299 0 -0.42262992944592759 -0.14324012124698299 0 -0.43220790384886631 -0.140852531752094 0 -0.42979829310466372 -0.14796856446424461 0 -0.41819438399909559 -0.1396029060175408 0 -0.42262992944592759 -0.14324012124698299 0 -0.43220790384886631 -0.140852531752094 0 -0.42262992944592759 -0.14324012124698299 0 -0.43220790384886631 -0.140852531752094 0 -0.42262992944592759 -0.14324012124698299 0 -0.42233415298077709 -0.1476495484190147 0 -0.42979829310466372 -0.14796856446424461 0 -0.42262992944592759 -0.14324012124698299 0 -0.42979829310466372 -0.14796856446424461 0 -0.4208840511815044 -0.1543580775718752 0 -0.42233415298077709 -0.1476495484190147 0 -0.42979829310466372 -0.14796856446424461 0 -0.43220790384886631 -0.140852531752094 0 -0.42979829310466372 -0.14796856446424461 0 -0.43220790384886631 -0.140852531752094 0 -0.44076215208616298 -0.1155902314279386 0 -0.41033359074405651 -0.12964962005109029 0 -0.43220790384886631 -0.140852531752094 0 -0.42645264300250563 -0.12629524516628099 0 -0.43220790384886631 -0.140852531752094 0 -0.42645264300250563 -0.12629524516628099 0 -0.44076215208616298 -0.1155902314279386 0 -0.43220790384886631 -0.140852531752094 0 -0.45802511390415412 -0.13197697002116909 0 -0.44076215208616298 -0.1155902314279386 0 -0.43220790384886631 -0.140852531752094 0 -0.45802511390415412 -0.13197697002116909 0 -0.42979829310466372 -0.14796856446424461 0 -0.45087395150718401 -0.15041233290886261 0 -0.45269286403443371 -0.16307043202826549 0 -0.42979829310466372 -0.14796856446424461 0 -0.45269286403443371 -0.16307043202826549 0 -0.43220790384886631 -0.140852531752094 0 -0.45087395150718401 -0.15041233290886261 0 -0.43220790384886631 -0.140852531752094 0 -0.45087395150718401 -0.15041233290886261 0 -0.45802511390415412 -0.13197697002116909 0 -0.43220790384886631 -0.140852531752094 0 -0.42979829310466372 -0.14796856446424461 0 -0.45087395150718401 -0.15041233290886261 0 -0.45087395150718401 -0.15041233290886261 0 -0.46461610196374359 -0.14815778747737501 0 -0.46953999916550182 -0.15997213406563079 0 -0.45087395150718401 -0.15041233290886261 0 -0.46953999916550182 -0.15997213406563079 0 -0.45087395150718401 -0.15041233290886261 0 -0.46461610196374359 -0.14815778747737501 0 -0.45802511390415412 -0.13197697002116909 0 -0.46461610196374359 -0.14815778747737501 0 -0.45802511390415412 -0.13197697002116909 0 -0.47366758325312031 -0.14157070074465811 0 -0.45802511390415412 -0.13197697002116909 0 -0.48359175959321521 -0.1238413718842989 0 -0.45802511390415412 -0.13197697002116909 0 -0.47805953040868232 -0.13382158726572321 0 -0.48359175959321521 -0.1238413718842989 0 -0.45802511390415412 -0.13197697002116909 0 -0.47805953040868232 -0.13382158726572321 0 -0.47366758325312031 -0.14157070074465811 0 -0.47805953040868232 -0.13382158726572321 0 -0.48686593485167873 -0.14276626626525721 0 -0.47366758325312031 -0.14157070074465811 0 -0.47805953040868232 -0.13382158726572321 0 -0.48814726044124462 -0.12895262741323621 0 -0.48686593485167873 -0.14276626626525721 0 -0.47805953040868232 -0.13382158726572321 0 -0.48814726044124462 -0.12895262741323621 0 -0.48359175959321521 -0.1238413718842989 0 -0.48814726044124462 -0.12895262741323621 0 -0.5 -0.14727150316749599 0 -0.50000000000000244 -0.1186200827208132 0 -0.48814726044124462 -0.12895262741323621 0 -0.48359175959321521 -0.1238413718842989 0 -0.48814726044124462 -0.12895262741323621 0 -0.5 -0.14727150316749599 0 -0.48686593485167873 -0.14276626626525721 0 -0.5 -0.14727150316749599 0 -0.48686593485167873 -0.14276626626525721 0 -0.48809542776790849 -0.16159721339083749 0 -0.48686593485167873 -0.14276626626525721 0 -0.47765862130226072 -0.15119708001532139 0 -0.48809542776790849 -0.16159721339083749 0 -0.48686593485167873 -0.14276626626525721 0 -0.47765862130226072 -0.15119708001532139 0 -0.47366758325312031 -0.14157070074465811 0 -0.46461610196374359 -0.14815778747737501 0 -0.47765862130226072 -0.15119708001532139 0 -0.47366758325312031 -0.14157070074465811 0 -0.46461610196374359 -0.14815778747737501 0 -0.47765862130226072 -0.15119708001532139 0 -0.46953999916550182 -0.15997213406563079 0 -0.46953999916550182 -0.15997213406563079 0 -0.48809542776790849 -0.16159721339083749 0 -0.47558743496420391 -0.17817229959228639 0 -0.47765862130226072 -0.15119708001532139 0 -0.46953999916550182 -0.15997213406563079 0 -0.48809542776790849 -0.16159721339083749 0 -0.5 -0.14727150316749599 0 -0.48809542776790849 -0.16159721339083749 0 -0.5 -0.1759229236141788 0 -0.47558743496420391 -0.17817229959228639 0 -0.49848200589397412 -0.1932741671563073 0 -0.5 -0.1759229236141788 0 -0.47558743496420391 -0.17817229959228639 0 -0.49848200589397412 -0.1932741671563073 0 -0.48809542776790849 -0.16159721339083749 0 -0.5 -0.1759229236141788 0 -0.47558743496420391 -0.17817229959228639 0 -0.47558743496420391 -0.17817229959228639 0 -0.46624344642866788 -0.18820899142481209 0 -0.48023475587743042 -0.19603204253898421 0 -0.47558743496420391 -0.17817229959228639 0 -0.45429616576480802 -0.18023176704117941 0 -0.46624344642866788 -0.18820899142481209 0 -0.47558743496420391 -0.17817229959228639 0 -0.45429616576480802 -0.18023176704117941 0 -0.45269286403443371 -0.16307043202826549 0 -0.47558743496420391 -0.17817229959228639 0 -0.45269286403443371 -0.16307043202826549 0 -0.46953999916550182 -0.15997213406563079 0 -0.47558743496420391 -0.17817229959228639 0 -0.45269286403443371 -0.16307043202826549 0 -0.45087395150718401 -0.15041233290886261 0 -0.46953999916550182 -0.15997213406563079 0 -0.45269286403443371 -0.16307043202826549 0 -0.43641095618616471 -0.16452540239313659 0 -0.42979829310466372 -0.14796856446424461 0 -0.45269286403443371 -0.16307043202826549 0 -0.45429616576480802 -0.18023176704117941 0 -0.45269286403443371 -0.16307043202826549 0 -0.44433682403447788 -0.1723168331484374 0 -0.43641095618616471 -0.16452540239313659 0 -0.45269286403443371 -0.16307043202826549 0 -0.44433682403447788 -0.1723168331484374 0 -0.43375101856661852 -0.18281514698615839 0 -0.45429616576480802 -0.18023176704117941 0 -0.4548554291082294 -0.1983998565267987 0 -0.43375101856661852 -0.18281514698615839 0 -0.43641095618616471 -0.16452540239313659 0 -0.44433682403447788 -0.1723168331484374 0 -0.43375101856661852 -0.18281514698615839 0 -0.45429616576480802 -0.18023176704117941 0 -0.44433682403447788 -0.1723168331484374 0 -0.43379660710720358 -0.19585114109692531 0 -0.43375101856661852 -0.18281514698615839 0 -0.4548554291082294 -0.1983998565267987 0 -0.43375101856661852 -0.18281514698615839 0 -0.4548554291082294 -0.1983998565267987 0 -0.43379660710720358 -0.19585114109692531 0 -0.4412287690973975 -0.20631032263734231 0 -0.4548554291082294 -0.1983998565267987 0 -0.4412287690973975 -0.20631032263734231 0 -0.45527082585647283 -0.2160475962085229 0 -0.4548554291082294 -0.1983998565267987 0 -0.4412287690973975 -0.20631032263734231 0 -0.44233198192756962 -0.22560109796178179 0 -0.4412287690973975 -0.20631032263734231 0 -0.45527082585647283 -0.2160475962085229 0 -0.44233198192756962 -0.22560109796178179 0 -0.4548554291082294 -0.1983998565267987 0 -0.4759598396498404 -0.2139845660674389 0 -0.45527082585647283 -0.2160475962085229 0 -0.4548554291082294 -0.1983998565267987 0 -0.4759598396498404 -0.2139845660674389 0 -0.46624344642866788 -0.18820899142481209 0 -0.4548554291082294 -0.1983998565267987 0 -0.48023475587743042 -0.19603204253898421 0 -0.45429616576480802 -0.18023176704117941 0 -0.46624344642866788 -0.18820899142481209 0 -0.4548554291082294 -0.1983998565267987 0 -0.4548554291082294 -0.1983998565267987 0 -0.48023475587743042 -0.19603204253898421 0 -0.4759598396498404 -0.2139845660674389 0 -0.48023475587743042 -0.19603204253898421 0 -0.49848200589397412 -0.1932741671563073 0 -0.5 -0.2045743440608617 0 -0.5 -0.1759229236141788 0 -0.49848200589397412 -0.1932741671563073 0 -0.5 -0.2045743440608617 0 -0.47558743496420391 -0.17817229959228639 0 -0.48023475587743042 -0.19603204253898421 0 -0.49848200589397412 -0.1932741671563073 0 -0.5 -0.2045743440608617 0 -0.4759598396498404 -0.2139845660674389 0 -0.49706425019145151 -0.2295692756080793 0 -0.48023475587743042 -0.19603204253898421 0 -0.5 -0.2045743440608617 0 -0.4759598396498404 -0.2139845660674389 0 -0.4759598396498404 -0.2139845660674389 0 -0.47958386334654152 -0.23235987428971519 0 -0.4615546546183813 -0.2376931269592632 0 -0.4759598396498404 -0.2139845660674389 0 -0.47958386334654152 -0.23235987428971519 0 -0.49706425019145151 -0.2295692756080793 0 -0.4759598396498404 -0.2139845660674389 0 -0.49706425019145151 -0.2295692756080793 0 -0.5 -0.2045743440608617 0 -0.49706425019145151 -0.2295692756080793 0 -0.5 -0.23322576450754459 0 -0.47958386334654152 -0.23235987428971519 0 -0.49706425019145151 -0.2295692756080793 0 -0.48973231596818317 -0.2395841734584927 0 -0.49706425019145151 -0.2295692756080793 0 -0.5 -0.23322576450754459 0 -0.48973231596818317 -0.2395841734584927 0 -0.50000000000000355 -0.26187718495422752 0 -0.5 -0.23322576450754459 0 -0.48973231596818317 -0.2395841734584927 0 -0.47958386334654152 -0.23235987428971519 0 -0.48077732730919293 -0.24978515595674461 0 -0.4615546546183813 -0.2376931269592632 0 -0.47958386334654152 -0.23235987428971519 0 -0.48973231596818317 -0.2395841734584927 0 -0.48077732730919293 -0.24978515595674461 0 -0.48077732730919293 -0.24978515595674461 0 -0.4615546546183813 -0.2376931269592632 0 -0.44401585412563632 -0.25504528077001382 0 -0.46341534933156142 -0.25589798353851029 0 -0.4615546546183813 -0.2376931269592632 0 -0.46341534933156142 -0.25589798353851029 0 -0.48077732730919293 -0.24978515595674461 0 -0.4615546546183813 -0.2376931269592632 0 -0.45527082585647283 -0.2160475962085229 0 -0.4759598396498404 -0.2139845660674389 0 -0.4615546546183813 -0.2376931269592632 0 -0.45527082585647283 -0.2160475962085229 0 -0.4615546546183813 -0.2376931269592632 0 -0.44233198192756962 -0.22560109796178179 0 -0.4615546546183813 -0.2376931269592632 0 -0.44233198192756962 -0.22560109796178179 0 -0.44401585412563632 -0.25504528077001382 0 -0.44233198192756962 -0.22560109796178179 0 -0.44401585412563632 -0.25504528077001382 0 -0.4615546546183813 -0.2376931269592632 0 -0.44233198192756962 -0.22560109796178179 0 -0.41159359493363062 -0.043059690689213427 0 -0.43043862325427418 -0.042779864474004878 0 -0.41159359493363062 -0.043059690689213427 0 -0.41196010540451627 -0.029919228423246898 0 -0.39711706461675039 -0.026817075861484109 0 -0.41159359493363062 -0.043059690689213427 0 -0.42411132403495699 -0.031200789905762739 0 -0.41196010540451627 -0.029919228423246898 0 -0.40693976231707413 -0.039226586712115118 0 -0.41159359493363062 -0.043059690689213427 0 -0.4100728789001748 -0.043082271510254462 0 -0.40693976231707413 -0.039226586712115118 0 -0.4100728789001748 -0.043082271510254462 0 -0.41159359493363062 -0.043059690689213427 0 -0.4100728789001748 -0.043082271510254462 0 -0.41159359493363062 -0.043059690689213427 0 -0.4100728789001748 -0.043082271510254462 0 -0.42307053125252742 -0.059077479239448158 0 -0.4100728789001748 -0.043082271510254462 0 -0.42307053125252742 -0.059077479239448158 0 -0.41159359493363062 -0.043059690689213427 0 -0.42307053125252742 -0.059077479239448158 0 -0.42959313609852567 -0.06325511098798578 0 -0.4100728789001748 -0.043082271510254462 0 -0.42307053125252742 -0.059077479239448158 0 -0.3983823617471447 -0.065653987559016636 0 -0.41159359493363062 -0.043059690689213427 0 -0.42959313609852567 -0.06325511098798578 0 -0.41159359493363062 -0.043059690689213427 0 -0.43043862325427418 -0.042779864474004878 0 -0.42959313609852567 -0.06325511098798578 0 -0.43043862325427418 -0.042779864474004878 0 -0.42959313609852567 -0.06325511098798578 0 -0.44991249590189869 -0.062814445069798483 0 -0.43043862325427418 -0.042779864474004878 0 -0.42411132403495699 -0.031200789905762739 0 -0.44029292802813852 -0.030224245303183291 0 -0.41159359493363062 -0.043059690689213427 0 -0.43043862325427418 -0.042779864474004878 0 -0.42411132403495699 -0.031200789905762739 0 -0.43174415246019221 -0.019013502176893699 0 -0.42411132403495699 -0.031200789905762739 0 -0.44029292802813852 -0.030224245303183291 0 -0.43174415246019221 -0.019013502176893699 0 -0.42384120644325313 -0.01403307884920341 0 -0.41863854012899132 -0.022208208368033371 0 -0.43174415246019221 -0.019013502176893699 0 -0.42411132403495699 -0.031200789905762739 0 -0.41863854012899132 -0.022208208368033371 0 -0.43530596058451149 -0.0087017017945707955 0 -0.42462672731104739 -0.0051878504911164114 0 -0.43780403089108239 0.0033720655422943249 0 -0.43174415246019221 -0.019013502176893699 0 -0.43530596058451149 -0.0087017017945707955 0 -0.42384120644325313 -0.01403307884920341 0 -0.43530596058451149 -0.0087017017945707955 0 -0.42384120644325313 -0.01403307884920341 0 -0.42462672731104739 -0.0051878504911164114 0 -0.42462672731104739 -0.0051878504911164114 0 -0.41596179556270541 -0.0003485385111070502 0 -0.42600405479521342 0.0054989024380500207 0 -0.41596179556270541 -0.0003485385111070502 0 -0.4160428224792872 -0.011290768521961529 0 -0.41132111192682719 -0.006531837088049627 0 -0.42462672731104739 -0.0051878504911164114 0 -0.41596179556270541 -0.0003485385111070502 0 -0.4160428224792872 -0.011290768521961529 0 -0.42384120644325313 -0.01403307884920341 0 -0.42462672731104739 -0.0051878504911164114 0 -0.4160428224792872 -0.011290768521961529 0 -0.4160428224792872 -0.011290768521961529 0 -0.40723429455236992 -0.01079063786104905 0 -0.41076457858637261 -0.01962343626710971 0 -0.4160428224792872 -0.011290768521961529 0 -0.40723429455236992 -0.01079063786104905 0 -0.41132111192682719 -0.006531837088049627 0 -0.41596179556270541 -0.0003485385111070502 0 -0.41132111192682719 -0.006531837088049627 0 -0.40561133060690729 -0.0033277243516399171 0 -0.40723429455236992 -0.01079063786104905 0 -0.41132111192682719 -0.006531837088049627 0 -0.40561133060690729 -0.0033277243516399171 0 -0.42411132403495699 -0.031200789905762739 0 -0.41863854012899132 -0.022208208368033371 0 -0.41196010540451627 -0.029919228423246898 0 -0.42384120644325313 -0.01403307884920341 0 -0.4160428224792872 -0.011290768521961529 0 -0.41863854012899132 -0.022208208368033371 0 -0.4160428224792872 -0.011290768521961529 0 -0.41863854012899132 -0.022208208368033371 0 -0.41076457858637261 -0.01962343626710971 0 -0.40723429455236992 -0.01079063786104905 0 -0.41076457858637261 -0.01962343626710971 0 -0.40414839851198792 -0.017758404193071842 0 -0.41076457858637261 -0.01962343626710971 0 -0.40447095173867281 -0.024081920629093732 0 -0.40414839851198792 -0.017758404193071842 0 -0.41863854012899132 -0.022208208368033371 0 -0.41076457858637261 -0.01962343626710971 0 -0.41196010540451627 -0.029919228423246898 0 -0.41076457858637261 -0.01962343626710971 0 -0.41196010540451627 -0.029919228423246898 0 -0.40447095173867281 -0.024081920629093732 0 -0.41196010540451627 -0.029919228423246898 0 -0.40447095173867281 -0.024081920629093732 0 -0.39711706461675039 -0.026817075861484109 0 -0.40447095173867281 -0.024081920629093732 0 -0.39981770655800852 -0.02117200724722651 0 -0.39711706461675039 -0.026817075861484109 0 -0.40447095173867281 -0.024081920629093732 0 -0.40414839851198792 -0.017758404193071842 0 -0.39981770655800852 -0.02117200724722651 0 -0.40414839851198792 -0.017758404193071842 0 -0.39921242970415682 -0.016912623189336159 0 -0.39981770655800852 -0.02117200724722651 0 -0.39921242970415682 -0.016912623189336159 0 -0.39981770655800852 -0.02117200724722651 0 -0.39707921109339611 -0.019939791676494002 0 -0.40414839851198792 -0.017758404193071842 0 -0.39921242970415682 -0.016912623189336159 0 -0.40139161130271689 -0.01248780066690402 0 -0.39981770655800852 -0.02117200724722651 0 -0.39605490795812581 -0.021918882990220781 0 -0.39711706461675039 -0.026817075861484109 0 -0.39605490795812581 -0.021918882990220781 0 -0.39150606369981389 -0.01724543915177941 0 -0.39711706461675039 -0.026817075861484109 0 -0.39981770655800852 -0.02117200724722651 0 -0.39707921109339611 -0.019939791676494002 0 -0.39605490795812581 -0.021918882990220781 0 -0.39707921109339611 -0.019939791676494002 0 -0.39605490795812581 -0.021918882990220781 0 -0.39495668344854817 -0.01924845733478673 0 -0.39921242970415682 -0.016912623189336159 0 -0.3954453481762375 -0.016554177398400479 0 -0.39739230258259411 -0.013563557953920131 0 -0.39921242970415682 -0.016912623189336159 0 -0.39707921109339611 -0.019939791676494002 0 -0.3954453481762375 -0.016554177398400479 0 -0.39707921109339611 -0.019939791676494002 0 -0.39495668344854817 -0.01924845733478673 0 -0.3954453481762375 -0.016554177398400479 0 -0.39605490795812581 -0.021918882990220781 0 -0.39495668344854817 -0.01924845733478673 0 -0.39150606369981389 -0.01724543915177941 0 -0.39495668344854817 -0.01924845733478673 0 -0.3954453481762375 -0.016554177398400479 0 -0.39150606369981389 -0.01724543915177941 0 -0.3954453481762375 -0.016554177398400479 0 -0.39150606369981389 -0.01724543915177941 0 -0.39318431243164909 -0.01310064465052628 0 -0.39137303177846272 -0.025371404107179401 0 -0.39711706461675039 -0.026817075861484109 0 -0.38814440941477141 -0.019909920448498489 0 -0.39323151483999319 -0.029868082598853051 0 -0.39711706461675039 -0.026817075861484109 0 -0.39787767698899468 -0.03470901744021114 0 -0.39137303177846272 -0.025371404107179401 0 -0.39323151483999319 -0.029868082598853051 0 -0.39711706461675039 -0.026817075861484109 0 -0.40561133060690729 -0.0033277243516399171 0 -0.39827164132335602 -0.0040174725897624101 0 -0.39875103659503908 0.0020815023364603568 0 -0.40723429455236992 -0.01079063786104905 0 -0.40561133060690729 -0.0033277243516399171 0 -0.40148561258497378 -0.0076383049307607361 0 -0.40561133060690729 -0.0033277243516399171 0 -0.40148561258497378 -0.0076383049307607361 0 -0.39827164132335602 -0.0040174725897624101 0 -0.40148561258497378 -0.0076383049307607361 0 -0.39696229937544869 -0.0095075997413988627 0 -0.39827164132335602 -0.0040174725897624101 0 -0.40148561258497378 -0.0076383049307607361 0 -0.40139161130271689 -0.01248780066690402 0 -0.39696229937544869 -0.0095075997413988627 0 -0.40723429455236992 -0.01079063786104905 0 -0.40148561258497378 -0.0076383049307607361 0 -0.40139161130271689 -0.01248780066690402 0 -0.40723429455236992 -0.01079063786104905 0 -0.40414839851198792 -0.017758404193071842 0 -0.40139161130271689 -0.01248780066690402 0 -0.40139161130271689 -0.01248780066690402 0 -0.39739230258259411 -0.013563557953920131 0 -0.39696229937544869 -0.0095075997413988627 0 -0.39921242970415682 -0.016912623189336159 0 -0.40139161130271689 -0.01248780066690402 0 -0.39739230258259411 -0.013563557953920131 0 -0.3954453481762375 -0.016554177398400479 0 -0.39739230258259411 -0.013563557953920131 0 -0.39318431243164909 -0.01310064465052628 0 -0.39739230258259411 -0.013563557953920131 0 -0.39318431243164909 -0.01310064465052628 0 -0.39696229937544869 -0.0095075997413988627 0 -0.39150606369981389 -0.01724543915177941 0 -0.39318431243164909 -0.01310064465052628 0 -0.39037900378866319 -0.01348503184706569 0 -0.39318431243164909 -0.01310064465052628 0 -0.38938004519694391 -0.010646597547908631 0 -0.39037900378866319 -0.01348503184706569 0 -0.39271453470675938 -0.0093690700042051763 0 -0.39047578891573398 -0.0065105896178811462 0 -0.38938004519694391 -0.010646597547908631 0 -0.39318431243164909 -0.01310064465052628 0 -0.39271453470675938 -0.0093690700042051763 0 -0.39696229937544869 -0.0095075997413988627 0 -0.39318431243164909 -0.01310064465052628 0 -0.39271453470675938 -0.0093690700042051763 0 -0.38938004519694391 -0.010646597547908631 0 -0.39271453470675938 -0.0093690700042051763 0 -0.39696229937544869 -0.0095075997413988627 0 -0.39429608069609168 -0.0063763473937132904 0 -0.39696229937544869 -0.0095075997413988627 0 -0.39827164132335602 -0.0040174725897624101 0 -0.39429608069609168 -0.0063763473937132904 0 -0.39827164132335602 -0.0040174725897624101 0 -0.39429608069609168 -0.0063763473937132904 0 -0.39317799748842419 -0.001920059668073722 0 -0.39429608069609168 -0.0063763473937132904 0 -0.39317799748842419 -0.001920059668073722 0 -0.39047578891573398 -0.0065105896178811462 0 -0.39271453470675938 -0.0093690700042051763 0 -0.39429608069609168 -0.0063763473937132904 0 -0.39047578891573398 -0.0065105896178811462 0 -0.39827164132335602 -0.0040174725897624101 0 -0.39317799748842419 -0.001920059668073722 0 -0.39875103659503908 0.0020815023364603568 0 -0.38264053429987122 -0.010574461033753851 0 -0.36816400398299193 0.0056681537939764493 0 -0.38639005374315832 -0.002316148754504658 0 -0.38264053429987122 -0.010574461033753851 0 -0.37962163360978141 0.0070281146825582922 0 -0.38083309878301741 -0.01256581249675404 0 -0.38264053429987122 -0.010574461033753851 0 -0.36816400398299193 0.0056681537939764493 0 -0.38639005374315832 -0.002316148754504658 0 -0.38694452818533132 -0.0081850298312412043 0 -0.38264053429987122 -0.010574461033753851 0 -0.39317799748842419 -0.001920059668073722 0 -0.38639005374315832 -0.002316148754504658 0 -0.39047578891573398 -0.0065105896178811462 0 -0.38639005374315832 -0.002316148754504658 0 -0.39047578891573398 -0.0065105896178811462 0 -0.38694452818533132 -0.0081850298312412043 0 -0.38083309878301741 -0.01256581249675404 0 -0.38264053429987122 -0.010574461033753851 0 -0.38814440941477141 -0.019909920448498489 0 -0.39150606369981389 -0.01724543915177941 0 -0.38798141424273891 -0.012500155927073681 0 -0.38264053429987122 -0.010574461033753851 0 -0.38600142422840228 -0.01054925005486085 0 -0.38798141424273891 -0.012500155927073681 0 -0.38264053429987122 -0.010574461033753851 0 -0.38600142422840228 -0.01054925005486085 0 -0.38694452818533132 -0.0081850298312412043 0 -0.38264053429987122 -0.010574461033753851 0 -0.39047578891573398 -0.0065105896178811462 0 -0.38694452818533132 -0.0081850298312412043 0 -0.38938004519694391 -0.010646597547908631 0 -0.38600142422840228 -0.01054925005486085 0 -0.38938004519694391 -0.010646597547908631 0 -0.38798141424273891 -0.012500155927073681 0 -0.38600142422840228 -0.01054925005486085 0 -0.38694452818533132 -0.0081850298312412043 0 -0.38938004519694391 -0.010646597547908631 0 -0.39150606369981389 -0.01724543915177941 0 -0.38798141424273891 -0.012500155927073681 0 -0.39037900378866319 -0.01348503184706569 0 -0.38938004519694391 -0.010646597547908631 0 -0.38798141424273891 -0.012500155927073681 0 -0.39037900378866319 -0.01348503184706569 0 -0.39150606369981389 -0.01724543915177941 0 -0.39711706461675039 -0.026817075861484109 0 -0.38264053429987122 -0.010574461033753851 0 -0.39711706461675039 -0.026817075861484109 0 -0.38264053429987122 -0.010574461033753851 0 -0.38814440941477141 -0.019909920448498489 0 -0.39711706461675039 -0.026817075861484109 0 -0.38264053429987122 -0.010574461033753851 0 -0.39323151483999319 -0.029868082598853051 0 -0.38297293864733689 -0.028051985138907259 0 -0.38699913824233562 -0.02489053751988194 0 -0.39137303177846272 -0.025371404107179401 0 -0.39323151483999319 -0.029868082598853051 0 -0.38699913824233562 -0.02489053751988194 0 -0.39137303177846272 -0.025371404107179401 0 -0.38699913824233562 -0.02489053751988194 0 -0.38814440941477141 -0.019909920448498489 0 -0.38083309878301741 -0.01256581249675404 0 -0.38297293864733689 -0.028051985138907259 0 -0.38699913824233562 -0.02489053751988194 0 -0.38083309878301741 -0.01256581249675404 0 -0.38699913824233562 -0.02489053751988194 0 -0.38814440941477141 -0.019909920448498489 0 -0.3731545506364613 -0.02816157726383367 0 -0.38083309878301741 -0.01256581249675404 0 -0.38297293864733689 -0.028051985138907259 0 -0.3731545506364613 -0.02816157726383367 0 -0.38083309878301741 -0.01256581249675404 0 -0.3731545506364613 -0.02816157726383367 0 -0.38297293864733689 -0.028051985138907259 0 -0.38581390480755567 -0.043442488369028427 0 -0.36545064736328559 -0.043744858477626977 0 -0.38581390480755567 -0.043442488369028427 0 -0.39323151483999319 -0.029868082598853051 0 -0.38581390480755567 -0.043442488369028427 0 -0.39323151483999319 -0.029868082598853051 0 -0.38297293864733689 -0.028051985138907259 0 -0.38581390480755567 -0.043442488369028427 0 -0.40693976231707413 -0.039226586712115118 0 -0.4100728789001748 -0.043082271510254462 0 -0.38581390480755567 -0.043442488369028427 0 -0.39323151483999319 -0.029868082598853051 0 -0.38581390480755567 -0.043442488369028427 0 -0.39787767698899468 -0.03470901744021114 0 -0.40693976231707413 -0.039226586712115118 0 -0.38581390480755567 -0.043442488369028427 0 -0.39787767698899468 -0.03470901744021114 0 -0.4100728789001748 -0.043082271510254462 0 -0.38581390480755567 -0.043442488369028427 0 -0.40693976231707413 -0.039226586712115118 0 -0.41159359493363062 -0.043059690689213427 0 -0.39711706461675039 -0.026817075861484109 0 -0.41159359493363062 -0.043059690689213427 0 -0.39711706461675039 -0.026817075861484109 0 -0.40693976231707413 -0.039226586712115118 0 -0.39711706461675039 -0.026817075861484109 0 -0.39787767698899468 -0.03470901744021114 0 -0.4100728789001748 -0.043082271510254462 0 -0.38581390480755567 -0.043442488369028427 0 -0.3983823617471447 -0.065653987559016636 0 -0.38581390480755567 -0.043442488369028427 0 -0.37506547387842742 -0.063112376943205178 0 -0.3983823617471447 -0.065653987559016636 0 -0.36545064736328559 -0.043744858477626977 0 -0.38581390480755567 -0.043442488369028427 0 -0.37506547387842742 -0.063112376943205178 0 -0.38581390480755567 -0.043442488369028427 0 -0.37506547387842742 -0.063112376943205178 0 -0.37506547387842742 -0.063112376943205178 0 -0.3821870053603057 -0.079775508001927647 0 -0.3983823617471447 -0.065653987559016636 0 -0.3821870053603057 -0.079775508001927647 0 -0.39654910334603 -0.090825679438425566 0 -0.3771805720070675 -0.101389249466024 0 -0.3821870053603057 -0.079775508001927647 0 -0.39654910334603 -0.090825679438425566 0 -0.3983823617471447 -0.065653987559016636 0 -0.39654910334603 -0.090825679438425566 0 -0.41591763468499188 -0.080262109410826038 0 -0.39654910334603 -0.090825679438425566 0 -0.3983823617471447 -0.065653987559016636 0 -0.41591763468499188 -0.080262109410826038 0 -0.38925439143056317 -0.1188539252329056 0 -0.3771805720070675 -0.101389249466024 0 -0.38925439143056317 -0.1188539252329056 0 -0.37983823747089002 -0.1140314496256568 0 -0.3771805720070675 -0.101389249466024 0 -0.38925439143056317 -0.1188539252329056 0 -0.38158086768533389 -0.1222328884746057 0 -0.37983823747089002 -0.1140314496256568 0 -0.38642464525967662 -0.13211688475099409 0 -0.38925439143056317 -0.1188539252329056 0 -0.38158086768533389 -0.1222328884746057 0 -0.37403702289685531 -0.118678940056357 0 -0.38158086768533389 -0.1222328884746057 0 -0.37983823747089002 -0.1140314496256568 0 -0.37403702289685531 -0.118678940056357 0 -0.37396262712923661 -0.12573471229752711 0 -0.38158086768533389 -0.1222328884746057 0 -0.38925439143056317 -0.1188539252329056 0 -0.37983823747089002 -0.1140314496256568 0 -0.38925439143056317 -0.1188539252329056 0 -0.3771805720070675 -0.101389249466024 0 -0.4006030750341586 -0.1068441720331173 0 -0.39654910334603 -0.090825679438425566 0 -0.3771805720070675 -0.101389249466024 0 -0.39654910334603 -0.090825679438425566 0 -0.3771805720070675 -0.101389249466024 0 -0.4006030750341586 -0.1068441720331173 0 -0.39654910334603 -0.090825679438425566 0 -0.4006030750341586 -0.1068441720331173 0 -0.41729621390966493 -0.1056784913250597 0 -0.41033359074405651 -0.12964962005109029 0 -0.38925439143056317 -0.1188539252329056 0 -0.4006030750341586 -0.1068441720331173 0 -0.41033359074405651 -0.12964962005109029 0 -0.38925439143056317 -0.1188539252329056 0 -0.41033359074405651 -0.12964962005109029 0 -0.4006030750341586 -0.1068441720331173 0 -0.41729621390966493 -0.1056784913250597 0 -0.41033359074405651 -0.12964962005109029 0 -0.42645264300250563 -0.12629524516628099 0 -0.41729621390966493 -0.1056784913250597 0 -0.41729621390966493 -0.1056784913250597 0 -0.43062071164816951 -0.092777812777165306 0 -0.44076215208616298 -0.1155902314279386 0 -0.42645264300250563 -0.12629524516628099 0 -0.41729621390966493 -0.1056784913250597 0 -0.44076215208616298 -0.1155902314279386 0 -0.42307053125252742 -0.059077479239448158 0 -0.3983823617471447 -0.065653987559016636 0 -0.41591763468499188 -0.080262109410826038 0 -0.39654910334603 -0.090825679438425566 0 -0.41729621390966493 -0.1056784913250597 0 -0.41591763468499188 -0.080262109410826038 0 -0.41729621390966493 -0.1056784913250597 0 -0.41591763468499188 -0.080262109410826038 0 -0.43062071164816951 -0.092777812777165306 0 -0.41591763468499188 -0.080262109410826038 0 -0.43062071164816951 -0.092777812777165306 0 -0.43606818360488042 -0.075072686968641611 0 -0.42307053125252742 -0.059077479239448158 0 -0.43606818360488042 -0.075072686968641611 0 -0.42307053125252742 -0.059077479239448158 0 -0.43606818360488042 -0.075072686968641611 0 -0.42959313609852567 -0.06325511098798578 0 -0.42307053125252742 -0.059077479239448158 0 -0.41591763468499188 -0.080262109410826038 0 -0.43606818360488042 -0.075072686968641611 0 -0.42959313609852567 -0.06325511098798578 0 -0.44991249590189869 -0.062814445069798483 0 -0.44759267726342172 -0.083450531286757168 0 -0.43606818360488042 -0.075072686968641611 0 -0.42959313609852567 -0.06325511098798578 0 -0.44759267726342172 -0.083450531286757168 0 -0.42959313609852567 -0.06325511098798578 0 -0.44759267726342172 -0.083450531286757168 0 -0.43606818360488042 -0.075072686968641611 0 -0.44906583595723287 -0.091067894697835466 0 -0.43606818360488042 -0.075072686968641611 0 -0.44906583595723287 -0.091067894697835466 0 -0.44759267726342172 -0.083450531286757168 0 -0.43062071164816951 -0.092777812777165306 0 -0.43606818360488042 -0.075072686968641611 0 -0.44906583595723287 -0.091067894697835466 0 -0.44906583595723287 -0.091067894697835466 0 -0.45065976674881392 -0.086891794632527219 0 -0.45513113252817011 -0.098531987132476545 0 -0.44906583595723287 -0.091067894697835466 0 -0.45065976674881392 -0.086891794632527219 0 -0.44759267726342172 -0.083450531286757168 0 -0.44906583595723287 -0.091067894697835466 0 -0.45065976674881392 -0.086891794632527219 0 -0.45065976674881392 -0.086891794632527219 0 -0.44759267726342172 -0.083450531286757168 0 -0.45065976674881392 -0.086891794632527219 0 -0.44759267726342172 -0.083450531286757168 0 -0.47841719546071482 -0.085435327317501933 0 -0.45065976674881392 -0.086891794632527219 0 -0.46559221842831788 -0.1036459515855286 0 -0.47841719546071482 -0.085435327317501933 0 -0.44759267726342172 -0.083450531286757168 0 -0.47020898180823711 -0.063874270113932471 0 -0.47841719546071482 -0.085435327317501933 0 -0.44991249590189869 -0.062814445069798483 0 -0.44759267726342172 -0.083450531286757168 0 -0.47020898180823711 -0.063874270113932471 0 -0.45802511390415412 -0.13197697002116909 0 -0.44076215208616298 -0.1155902314279386 0 -0.45467252750227638 -0.11272664619888249 0 -0.44076215208616298 -0.1155902314279386 0 -0.45513113252817011 -0.098531987132476545 0 -0.45467252750227638 -0.11272664619888249 0 -0.43062071164816951 -0.092777812777165306 0 -0.44906583595723287 -0.091067894697835466 0 -0.44076215208616298 -0.1155902314279386 0 -0.44906583595723287 -0.091067894697835466 0 -0.44076215208616298 -0.1155902314279386 0 -0.45513113252817011 -0.098531987132476545 0 -0.44906583595723287 -0.091067894697835466 0 -0.44076215208616298 -0.1155902314279386 0 -0.44906583595723287 -0.091067894697835466 0 -0.45513113252817011 -0.098531987132476545 0 -0.45065976674881392 -0.086891794632527219 0 -0.45513113252817011 -0.098531987132476545 0 -0.46559221842831788 -0.1036459515855286 0 -0.45065976674881392 -0.086891794632527219 0 -0.46559221842831788 -0.1036459515855286 0 -0.45513113252817011 -0.098531987132476545 0 -0.46559221842831788 -0.1036459515855286 0 -0.45467252750227638 -0.11272664619888249 0 -0.45802511390415412 -0.13197697002116909 0 -0.45467252750227638 -0.11272664619888249 0 -0.48359175959321521 -0.1238413718842989 0 -0.46559221842831788 -0.1036459515855286 0 -0.45467252750227638 -0.11272664619888249 0 -0.48359175959321521 -0.1238413718842989 0 -0.46559221842831788 -0.1036459515855286 0 -0.48359175959321521 -0.1238413718842989 0 -0.48564247012474698 -0.10464686990177791 0 -0.46559221842831788 -0.1036459515855286 0 -0.48359175959321521 -0.1238413718842989 0 -0.46559221842831788 -0.1036459515855286 0 -0.48564247012474698 -0.10464686990177791 0 -0.47841719546071482 -0.085435327317501933 0 -0.48564247012474698 -0.10464686990177791 0 -0.47841719546071482 -0.085435327317501933 0 -0.5 -0.092590908893401713 0 -0.48564247012474698 -0.10464686990177791 0 -0.50000000000000244 -0.1186200827208132 0 -0.5 -0.092590908893401713 0 -0.48359175959321521 -0.1238413718842989 0 -0.50000000000000244 -0.1186200827208132 0 -0.48814726044124462 -0.12895262741323621 0 -0.48359175959321521 -0.1238413718842989 0 -0.50000000000000244 -0.1186200827208132 0 -0.48359175959321521 -0.1238413718842989 0 -0.48564247012474698 -0.10464686990177791 0 -0.50000000000000244 -0.1186200827208132 0 -0.47020898180823711 -0.063874270113932471 0 -0.47841719546071482 -0.085435327317501933 0 -0.5 -0.066561735065990058 0 -0.47841719546071482 -0.085435327317501933 0 -0.5 -0.092590908893401713 0 -0.5 -0.066561735065990058 0 -0.5 -0.066561735065990058 0 -0.48591609704159239 -0.05268363731057657 0 -0.5 -0.040532561238578513 0 -0.47020898180823711 -0.063874270113932471 0 -0.5 -0.066561735065990058 0 -0.48591609704159239 -0.05268363731057657 0 -0.48591609704159239 -0.05268363731057657 0 -0.5 -0.040532561238578513 0 -0.47345540635813288 -0.039765982823805293 0 -0.5 -0.040532561238578513 0 -0.47345540635813288 -0.039765982823805293 0 -0.4770801895567065 -0.015711674785850421 0 -0.47020898180823711 -0.063874270113932471 0 -0.48591609704159239 -0.05268363731057657 0 -0.47345540635813288 -0.039765982823805293 0 -0.44991249590189869 -0.062814445069798483 0 -0.47020898180823711 -0.063874270113932471 0 -0.44928365157491779 -0.042500038258798341 0 -0.47020898180823711 -0.063874270113932471 0 -0.47345540635813288 -0.039765982823805293 0 -0.44928365157491779 -0.042500038258798341 0 -0.47345540635813288 -0.039765982823805293 0 -0.44928365157491779 -0.042500038258798341 0 -0.45785846170134842 -0.025737344840933599 0 -0.43043862325427418 -0.042779864474004878 0 -0.44928365157491779 -0.042500038258798341 0 -0.44928365157491779 -0.042500038258798341 0 -0.44029292802813852 -0.030224245303183291 0 -0.45785846170134842 -0.025737344840933599 0 -0.43043862325427418 -0.042779864474004878 0 -0.44928365157491779 -0.042500038258798341 0 -0.44029292802813852 -0.030224245303183291 0 -0.43043862325427418 -0.042779864474004878 0 -0.44991249590189869 -0.062814445069798483 0 -0.44928365157491779 -0.042500038258798341 0 -0.44810283000260098 -0.004530752737835513 0 -0.44640904077817273 -0.016434960485036551 0 -0.46062955391202198 -0.0097871673889277054 0 -0.43530596058451149 -0.0087017017945707955 0 -0.44810283000260098 -0.004530752737835513 0 -0.43780403089108239 0.0033720655422943249 0 -0.43174415246019221 -0.019013502176893699 0 -0.43530596058451149 -0.0087017017945707955 0 -0.44640904077817273 -0.016434960485036551 0 -0.43530596058451149 -0.0087017017945707955 0 -0.44810283000260098 -0.004530752737835513 0 -0.44640904077817273 -0.016434960485036551 0 -0.44029292802813852 -0.030224245303183291 0 -0.44640904077817273 -0.016434960485036551 0 -0.45785846170134842 -0.025737344840933599 0 -0.43174415246019221 -0.019013502176893699 0 -0.44029292802813852 -0.030224245303183291 0 -0.44640904077817273 -0.016434960485036551 0 -0.44640904077817273 -0.016434960485036551 0 -0.45785846170134842 -0.025737344840933599 0 -0.46062955391202198 -0.0097871673889277054 0 -0.45785846170134842 -0.025737344840933599 0 -0.46062955391202198 -0.0097871673889277054 0 -0.4770801895567065 -0.015711674785850421 0 -0.44810283000260098 -0.004530752737835513 0 -0.46062955391202198 -0.0097871673889277054 0 -0.45687262192910277 0.0058948170421766937 0 -0.46062955391202198 -0.0097871673889277054 0 -0.47191731279000521 0.003753952473660011 0 -0.45687262192910277 0.0058948170421766937 0 -0.4770801895567065 -0.015711674785850421 0 -0.4885400947783527 0.01092164272890302 0 -0.46062955391202198 -0.0097871673889277054 0 -0.4770801895567065 -0.015711674785850421 0 -0.47191731279000521 0.003753952473660011 0 -0.4770801895567065 -0.015711674785850421 0 -0.4885400947783527 0.01092164272890302 0 -0.47191731279000521 0.003753952473660011 0 -0.47345540635813288 -0.039765982823805293 0 -0.45785846170134842 -0.025737344840933599 0 -0.4770801895567065 -0.015711674785850421 0 -0.5 -0.040532561238578513 0 -0.4770801895567065 -0.015711674785850421 0 -0.5 -0.014503387411166861 0 -0.4770801895567065 -0.015711674785850421 0 -0.5 -0.014503387411166861 0 -0.4885400947783527 0.01092164272890302 0 -0.5 -0.014503387411166861 0 -0.4885400947783527 0.01092164272890302 0 -0.5 0.011525786416244689 0 -0.4885400947783527 0.01092164272890302 0 -0.4823714138770937 0.026721912602168468 0 -0.49999999999999928 0.037554960243656219 0 -0.4885400947783527 0.01092164272890302 0 -0.49999999999999928 0.037554960243656219 0 -0.4885400947783527 0.01092164272890302 0 -0.5 0.011525786416244689 0 -0.49999999999999928 0.037554960243656219 0 -0.4885400947783527 0.01092164272890302 0 -0.4774491328226324 0.016534449847754911 0 -0.4823714138770937 0.026721912602168468 0 -0.4774491328226324 0.016534449847754911 0 -0.4823714138770937 0.026721912602168468 0 -0.47027461231663492 0.02618846567558893 0 -0.4774491328226324 0.016534449847754911 0 -0.47027461231663492 0.02618846567558893 0 -0.46772233713135442 0.01425701903735299 0 -0.4774491328226324 0.016534449847754911 0 -0.47191731279000521 0.003753952473660011 0 -0.46772233713135442 0.01425701903735299 0 -0.4885400947783527 0.01092164272890302 0 -0.4774491328226324 0.016534449847754911 0 -0.47191731279000521 0.003753952473660011 0 -0.48738181605445569 0.051227318237591211 0 -0.47656822927391917 0.066812641838423781 0 -0.5 0.065813397240782501 0 -0.48738181605445569 0.051227318237591211 0 -0.49999999999999928 0.037554960243656219 0 -0.5 0.065813397240782501 0 -0.4823714138770937 0.026721912602168468 0 -0.48738181605445569 0.051227318237591211 0 -0.49999999999999928 0.037554960243656219 0 -0.4823714138770937 0.026721912602168468 0 -0.48738181605445569 0.051227318237591211 0 -0.47352056371469459 0.041191314923354767 0 -0.4823714138770937 0.026721912602168468 0 -0.47027461231663492 0.02618846567558893 0 -0.47352056371469459 0.041191314923354767 0 -0.48738181605445569 0.051227318237591211 0 -0.47352056371469459 0.041191314923354767 0 -0.47656822927391917 0.066812641838423781 0 -0.47352056371469459 0.041191314923354767 0 -0.46190778652063458 0.0582670711889621 0 -0.47656822927391917 0.066812641838423781 0 -0.47352056371469459 0.041191314923354767 0 -0.47656822927391917 0.066812641838423781 0 -0.47352056371469459 0.041191314923354767 0 -0.46190778652063458 0.0582670711889621 0 -0.45902333987905602 0.047078213129615881 0 -0.45408281082256291 0.057220284521394008 0 -0.46190778652063458 0.0582670711889621 0 -0.45902333987905602 0.047078213129615881 0 -0.45408281082256291 0.057220284521394008 0 -0.45902333987905602 0.047078213129615881 0 -0.45077654029588038 0.048145776359934098 0 -0.45902333987905602 0.047078213129615881 0 -0.45334026759383578 0.042093259774638472 0 -0.45077654029588038 0.048145776359934098 0 -0.45902333987905602 0.047078213129615881 0 -0.45334026759383578 0.042093259774638472 0 -0.46080018979463899 0.035473788684290658 0 -0.47352056371469459 0.041191314923354767 0 -0.45902333987905602 0.047078213129615881 0 -0.46080018979463899 0.035473788684290658 0 -0.47027461231663492 0.02618846567558893 0 -0.47352056371469459 0.041191314923354767 0 -0.46080018979463899 0.035473788684290658 0 -0.45334026759383578 0.042093259774638472 0 -0.46080018979463899 0.035473788684290658 0 -0.45101035034859899 0.033652327973832163 0 -0.45101035034859899 0.033652327973832163 0 -0.44161699174843128 0.034586415682231642 0 -0.44595989351205029 0.042135550252441062 0 -0.44595989351205029 0.042135550252441062 0 -0.44187836618318699 0.050825300364081193 0 -0.43713684490236809 0.043510221359928859 0 -0.44161699174843128 0.034586415682231642 0 -0.44595989351205029 0.042135550252441062 0 -0.43713684490236809 0.043510221359928859 0 -0.45334026759383578 0.042093259774638472 0 -0.45101035034859899 0.033652327973832163 0 -0.44595989351205029 0.042135550252441062 0 -0.45334026759383578 0.042093259774638472 0 -0.44595989351205029 0.042135550252441062 0 -0.45077654029588038 0.048145776359934098 0 -0.46190778652063458 0.0582670711889621 0 -0.43916454451844977 0.063155047234118106 0 -0.45408281082256291 0.057220284521394008 0 -0.46190778652063458 0.0582670711889621 0 -0.43916454451844977 0.063155047234118106 0 -0.45408281082256291 0.057220284521394008 0 -0.43111284597390093 0.061126089810909993 0 -0.45408281082256291 0.057220284521394008 0 -0.44187836618318699 0.050825300364081193 0 -0.43111284597390093 0.061126089810909993 0 -0.45408281082256291 0.057220284521394008 0 -0.43111284597390093 0.061126089810909993 0 -0.43916454451844977 0.063155047234118106 0 -0.45408281082256291 0.057220284521394008 0 -0.45077654029588038 0.048145776359934098 0 -0.44187836618318699 0.050825300364081193 0 -0.44595989351205029 0.042135550252441062 0 -0.45077654029588038 0.048145776359934098 0 -0.44187836618318699 0.050825300364081193 0 -0.45687262192910277 0.0058948170421766937 0 -0.46772233713135442 0.01425701903735299 0 -0.45763200491501371 0.022639150628713769 0 -0.45687262192910277 0.0058948170421766937 0 -0.45763200491501371 0.022639150628713769 0 -0.44531353509300231 0.014926696809476451 0 -0.47191731279000521 0.003753952473660011 0 -0.45687262192910277 0.0058948170421766937 0 -0.46772233713135442 0.01425701903735299 0 -0.47027461231663492 0.02618846567558893 0 -0.46772233713135442 0.01425701903735299 0 -0.45763200491501371 0.022639150628713769 0 -0.47027461231663492 0.02618846567558893 0 -0.46080018979463899 0.035473788684290658 0 -0.45763200491501371 0.022639150628713769 0 -0.46080018979463899 0.035473788684290658 0 -0.45101035034859899 0.033652327973832163 0 -0.45763200491501371 0.022639150628713769 0 -0.45763200491501371 0.022639150628713769 0 -0.44686355510248937 0.025221282770570289 0 -0.44531353509300231 0.014926696809476451 0 -0.45101035034859899 0.033652327973832163 0 -0.45763200491501371 0.022639150628713769 0 -0.44686355510248937 0.025221282770570289 0 -0.45101035034859899 0.033652327973832163 0 -0.44161699174843128 0.034586415682231642 0 -0.44686355510248937 0.025221282770570289 0 -0.44161699174843128 0.034586415682231642 0 -0.44686355510248937 0.025221282770570289 0 -0.43548848105758031 0.02800068849127034 0 -0.44686355510248937 0.025221282770570289 0 -0.43899687484449962 0.02006029801029937 0 -0.43548848105758031 0.02800068849127034 0 -0.43899687484449962 0.02006029801029937 0 -0.44531353509300231 0.014926696809476451 0 -0.43371212287582578 0.012372566862804279 0 -0.44686355510248937 0.025221282770570289 0 -0.43899687484449962 0.02006029801029937 0 -0.44531353509300231 0.014926696809476451 0 -0.44810283000260098 -0.004530752737835513 0 -0.45687262192910277 0.0058948170421766937 0 -0.43780403089108239 0.0033720655422943249 0 -0.45687262192910277 0.0058948170421766937 0 -0.44531353509300231 0.014926696809476451 0 -0.43780403089108239 0.0033720655422943249 0 -0.44531353509300231 0.014926696809476451 0 -0.43780403089108239 0.0033720655422943249 0 -0.43371212287582578 0.012372566862804279 0 -0.43780403089108239 0.0033720655422943249 0 -0.43371212287582578 0.012372566862804279 0 -0.42600405479521342 0.0054989024380500207 0 -0.42468656157016638 0.01366963769872814 0 -0.42600405479521342 0.0054989024380500207 0 -0.41923309056045338 0.0091155335266968444 0 -0.43371212287582578 0.012372566862804279 0 -0.42468656157016638 0.01366963769872814 0 -0.43038451234815689 0.020615741242956152 0 -0.43371212287582578 0.012372566862804279 0 -0.42468656157016638 0.01366963769872814 0 -0.42600405479521342 0.0054989024380500207 0 -0.42462672731104739 -0.0051878504911164114 0 -0.43780403089108239 0.0033720655422943249 0 -0.42600405479521342 0.0054989024380500207 0 -0.41596179556270541 -0.0003485385111070502 0 -0.42600405479521342 0.0054989024380500207 0 -0.41923309056045338 0.0091155335266968444 0 -0.41596179556270541 -0.0003485385111070502 0 -0.41923309056045338 0.0091155335266968444 0 -0.41214740316642229 0.0088139062112615324 0 -0.42468656157016638 0.01366963769872814 0 -0.41923309056045338 0.0091155335266968444 0 -0.41694051806189042 0.016443290269711839 0 -0.41923309056045338 0.0091155335266968444 0 -0.41214740316642229 0.0088139062112615324 0 -0.41694051806189042 0.016443290269711839 0 -0.41214740316642229 0.0088139062112615324 0 -0.40928641323794479 0.01760998583578554 0 -0.41694051806189042 0.016443290269711839 0 -0.41214740316642229 0.0088139062112615324 0 -0.40928641323794479 0.01760998583578554 0 -0.40578264528933078 0.011332908116714859 0 -0.41214740316642229 0.0088139062112615324 0 -0.40622345707147101 0.004272367355377147 0 -0.40578264528933078 0.011332908116714859 0 -0.41596179556270541 -0.0003485385111070502 0 -0.40561133060690729 -0.0033277243516399171 0 -0.40622345707147101 0.004272367355377147 0 -0.41596179556270541 -0.0003485385111070502 0 -0.41214740316642229 0.0088139062112615324 0 -0.40622345707147101 0.004272367355377147 0 -0.41379313179058491 0.024346688245985661 0 -0.41012823011237309 0.032480582024674388 0 -0.40490087231845417 0.026201348753373079 0 -0.41379313179058491 0.024346688245985661 0 -0.40928641323794479 0.01760998583578554 0 -0.40490087231845417 0.026201348753373079 0 -0.41379313179058491 0.024346688245985661 0 -0.40928641323794479 0.01760998583578554 0 -0.41694051806189042 0.016443290269711839 0 -0.42468656157016638 0.01366963769872814 0 -0.41694051806189042 0.016443290269711839 0 -0.42187642833997502 0.022637920637620951 0 -0.41379313179058491 0.024346688245985661 0 -0.41694051806189042 0.016443290269711839 0 -0.42187642833997502 0.022637920637620951 0 -0.41379313179058491 0.024346688245985661 0 -0.41856995655480872 0.03103562760632916 0 -0.42187642833997502 0.022637920637620951 0 -0.41379313179058491 0.024346688245985661 0 -0.41856995655480872 0.03103562760632916 0 -0.41012823011237309 0.032480582024674388 0 -0.42716838779453092 0.02901292597042553 0 -0.42187642833997502 0.022637920637620951 0 -0.43038451234815689 0.020615741242956152 0 -0.41856995655480872 0.03103562760632916 0 -0.42716838779453092 0.02901292597042553 0 -0.42187642833997502 0.022637920637620951 0 -0.42468656157016638 0.01366963769872814 0 -0.42187642833997502 0.022637920637620951 0 -0.43038451234815689 0.020615741242956152 0 -0.43899687484449962 0.02006029801029937 0 -0.43038451234815689 0.020615741242956152 0 -0.43548848105758031 0.02800068849127034 0 -0.43899687484449962 0.02006029801029937 0 -0.43371212287582578 0.012372566862804279 0 -0.43038451234815689 0.020615741242956152 0 -0.42716838779453092 0.02901292597042553 0 -0.43038451234815689 0.020615741242956152 0 -0.43548848105758031 0.02800068849127034 0 -0.42716838779453092 0.02901292597042553 0 -0.43548848105758031 0.02800068849127034 0 -0.43248781091414551 0.035854270796335568 0 -0.44161699174843128 0.034586415682231642 0 -0.43548848105758031 0.02800068849127034 0 -0.43248781091414551 0.035854270796335568 0 -0.44161699174843128 0.034586415682231642 0 -0.43248781091414551 0.035854270796335568 0 -0.43713684490236809 0.043510221359928859 0 -0.43248781091414551 0.035854270796335568 0 -0.43713684490236809 0.043510221359928859 0 -0.42875952166534431 0.044523715076574308 0 -0.43713684490236809 0.043510221359928859 0 -0.42875952166534431 0.044523715076574308 0 -0.43252046190234023 0.051759802230409463 0 -0.42875952166534431 0.044523715076574308 0 -0.42368325912357341 0.037519703088939482 0 -0.42012542708368072 0.046222581469542653 0 -0.43248781091414551 0.035854270796335568 0 -0.42875952166534431 0.044523715076574308 0 -0.42368325912357341 0.037519703088939482 0 -0.41856995655480872 0.03103562760632916 0 -0.42716838779453092 0.02901292597042553 0 -0.42368325912357341 0.037519703088939482 0 -0.42716838779453092 0.02901292597042553 0 -0.43248781091414551 0.035854270796335568 0 -0.42368325912357341 0.037519703088939482 0 -0.44187836618318699 0.050825300364081193 0 -0.43713684490236809 0.043510221359928859 0 -0.43252046190234023 0.051759802230409463 0 -0.44187836618318699 0.050825300364081193 0 -0.43111284597390093 0.061126089810909993 0 -0.43252046190234023 0.051759802230409463 0 -0.42875952166534431 0.044523715076574308 0 -0.42405477145598441 0.054744371036713202 0 -0.42012542708368072 0.046222581469542653 0 -0.42875952166534431 0.044523715076574308 0 -0.43252046190234023 0.051759802230409463 0 -0.42405477145598441 0.054744371036713202 0 -0.43111284597390093 0.061126089810909993 0 -0.43252046190234023 0.051759802230409463 0 -0.42405477145598441 0.054744371036713202 0 -0.43111284597390093 0.061126089810909993 0 -0.42405477145598441 0.054744371036713202 0 -0.40814288112523889 0.065031895100425979 0 -0.42405477145598441 0.054744371036713202 0 -0.41571501428256669 0.053746065041691389 0 -0.40814288112523889 0.065031895100425979 0 -0.41571501428256669 0.053746065041691389 0 -0.41170626009764622 0.047222957260682798 0 -0.42012542708368072 0.046222581469542653 0 -0.42405477145598441 0.054744371036713202 0 -0.41571501428256669 0.053746065041691389 0 -0.42012542708368072 0.046222581469542653 0 -0.41571501428256669 0.053746065041691389 0 -0.41170626009764622 0.047222957260682798 0 -0.40822689663888773 0.055147683491348673 0 -0.41170626009764622 0.047222957260682798 0 -0.40822689663888773 0.055147683491348673 0 -0.40264506938065042 0.049934086616577833 0 -0.41571501428256669 0.053746065041691389 0 -0.40822689663888773 0.055147683491348673 0 -0.40814288112523889 0.065031895100425979 0 -0.41856995655480872 0.03103562760632916 0 -0.42368325912357341 0.037519703088939482 0 -0.41545309756050508 0.038527274970514877 0 -0.41856995655480872 0.03103562760632916 0 -0.41545309756050508 0.038527274970514877 0 -0.41012823011237309 0.032480582024674388 0 -0.41170626009764622 0.047222957260682798 0 -0.41545309756050508 0.038527274970514877 0 -0.42012542708368072 0.046222581469542653 0 -0.42368325912357341 0.037519703088939482 0 -0.41545309756050508 0.038527274970514877 0 -0.42012542708368072 0.046222581469542653 0 -0.41170626009764622 0.047222957260682798 0 -0.41545309756050508 0.038527274970514877 0 -0.40638265735124129 0.040604302834755288 0 -0.41170626009764622 0.047222957260682798 0 -0.40638265735124129 0.040604302834755288 0 -0.40264506938065042 0.049934086616577833 0 -0.41545309756050508 0.038527274970514877 0 -0.40638265735124129 0.040604302834755288 0 -0.41012823011237309 0.032480582024674388 0 -0.40638265735124129 0.040604302834755288 0 -0.41012823011237309 0.032480582024674388 0 -0.40043619707242822 0.033199738991198817 0 -0.40638265735124129 0.040604302834755288 0 -0.40043619707242822 0.033199738991198817 0 -0.39636596082422398 0.042082391350369619 0 -0.40638265735124129 0.040604302834755288 0 -0.39636596082422398 0.042082391350369619 0 -0.40264506938065042 0.049934086616577833 0 -0.39636596082422398 0.042082391350369619 0 -0.39388301231642109 0.053196159841426068 0 -0.38698110740016961 0.043178244939545932 0 -0.40043619707242822 0.033199738991198817 0 -0.39636596082422398 0.042082391350369619 0 -0.38829600691482757 0.032676203566900007 0 -0.40171716529496321 0.056918094685959278 0 -0.39568796701361791 0.061280648380017851 0 -0.40814288112523889 0.065031895100425979 0 -0.40822689663888773 0.055147683491348673 0 -0.40171716529496321 0.056918094685959278 0 -0.40814288112523889 0.065031895100425979 0 -0.40171716529496321 0.056918094685959278 0 -0.40264506938065042 0.049934086616577833 0 -0.39388301231642109 0.053196159841426068 0 -0.40822689663888773 0.055147683491348673 0 -0.40171716529496321 0.056918094685959278 0 -0.40264506938065042 0.049934086616577833 0 -0.39636596082422398 0.042082391350369619 0 -0.40264506938065042 0.049934086616577833 0 -0.39388301231642109 0.053196159841426068 0 -0.40171716529496321 0.056918094685959278 0 -0.39388301231642109 0.053196159841426068 0 -0.39568796701361791 0.061280648380017851 0 -0.39388301231642109 0.053196159841426068 0 -0.39568796701361791 0.061280648380017851 0 -0.38775628700136738 0.059582395490402063 0 -0.39388301231642109 0.053196159841426068 0 -0.38775628700136738 0.059582395490402063 0 -0.38334084238733962 0.054131784700467818 0 -0.38775628700136738 0.059582395490402063 0 -0.38334084238733962 0.054131784700467818 0 -0.38069669701288139 0.060365684140156577 0 -0.39388301231642109 0.053196159841426068 0 -0.38334084238733962 0.054131784700467818 0 -0.38698110740016961 0.043178244939545932 0 -0.38334084238733962 0.054131784700467818 0 -0.37535096121134331 0.055065439952669173 0 -0.37513243858445372 0.046652380892278911 0 -0.38334084238733962 0.054131784700467818 0 -0.38698110740016961 0.043178244939545932 0 -0.37513243858445372 0.046652380892278911 0 -0.37535096121134331 0.055065439952669173 0 -0.38069669701288139 0.060365684140156577 0 -0.37221443001157078 0.061861291939602693 0 -0.38334084238733962 0.054131784700467818 0 -0.37535096121134331 0.055065439952669173 0 -0.38069669701288139 0.060365684140156577 0 -0.38829600691482757 0.032676203566900007 0 -0.38698110740016961 0.043178244939545932 0 -0.37554717599428261 0.03436746997365428 0 -0.39636596082422398 0.042082391350369619 0 -0.38829600691482757 0.032676203566900007 0 -0.38698110740016961 0.043178244939545932 0 -0.38698110740016961 0.043178244939545932 0 -0.37513243858445372 0.046652380892278911 0 -0.37554717599428261 0.03436746997365428 0 -0.38829600691482757 0.032676203566900007 0 -0.37554717599428261 0.03436746997365428 0 -0.38302011899774141 0.022659407623516651 0 -0.37554717599428261 0.03436746997365428 0 -0.38302011899774141 0.022659407623516651 0 -0.37000877116417769 0.019164673627885691 0 -0.38302011899774141 0.022659407623516651 0 -0.37962163360978141 0.0070281146825582922 0 -0.37000877116417769 0.019164673627885691 0 -0.38829600691482757 0.032676203566900007 0 -0.38302011899774141 0.022659407623516651 0 -0.39472757749714482 0.025589177901215249 0 -0.38302011899774141 0.022659407623516651 0 -0.39118184407847051 0.014998617414397231 0 -0.39472757749714482 0.025589177901215249 0 -0.38302011899774141 0.022659407623516651 0 -0.37962163360978141 0.0070281146825582922 0 -0.39118184407847051 0.014998617414397231 0 -0.38264053429987122 -0.010574461033753851 0 -0.37962163360978141 0.0070281146825582922 0 -0.36816400398299193 0.0056681537939764493 0 -0.38639005374315832 -0.002316148754504658 0 -0.37962163360978141 0.0070281146825582922 0 -0.39105304560234372 0.0054629980289381784 0 -0.39317799748842419 -0.001920059668073722 0 -0.38639005374315832 -0.002316148754504658 0 -0.39105304560234372 0.0054629980289381784 0 -0.37962163360978141 0.0070281146825582922 0 -0.39118184407847051 0.014998617414397231 0 -0.39105304560234372 0.0054629980289381784 0 -0.39118184407847051 0.014998617414397231 0 -0.39894664485338688 0.0099617632329498766 0 -0.40215390880098623 0.018521773417666299 0 -0.39118184407847051 0.014998617414397231 0 -0.39105304560234372 0.0054629980289381784 0 -0.39894664485338688 0.0099617632329498766 0 -0.39105304560234372 0.0054629980289381784 0 -0.39875103659503908 0.0020815023364603568 0 -0.39894664485338688 0.0099617632329498766 0 -0.39317799748842419 -0.001920059668073722 0 -0.39105304560234372 0.0054629980289381784 0 -0.39875103659503908 0.0020815023364603568 0 -0.39875103659503908 0.0020815023364603568 0 -0.40622345707147101 0.004272367355377147 0 -0.39894664485338688 0.0099617632329498766 0 -0.40561133060690729 -0.0033277243516399171 0 -0.39875103659503908 0.0020815023364603568 0 -0.40622345707147101 0.004272367355377147 0 -0.39894664485338688 0.0099617632329498766 0 -0.40578264528933078 0.011332908116714859 0 -0.40215390880098623 0.018521773417666299 0 -0.40622345707147101 0.004272367355377147 0 -0.39894664485338688 0.0099617632329498766 0 -0.40578264528933078 0.011332908116714859 0 -0.40928641323794479 0.01760998583578554 0 -0.40215390880098623 0.018521773417666299 0 -0.40490087231845417 0.026201348753373079 0 -0.40215390880098623 0.018521773417666299 0 -0.40490087231845417 0.026201348753373079 0 -0.39472757749714482 0.025589177901215249 0 -0.40928641323794479 0.01760998583578554 0 -0.40578264528933078 0.011332908116714859 0 -0.40215390880098623 0.018521773417666299 0 -0.40043619707242822 0.033199738991198817 0 -0.40490087231845417 0.026201348753373079 0 -0.39472757749714482 0.025589177901215249 0 -0.41012823011237309 0.032480582024674388 0 -0.40043619707242822 0.033199738991198817 0 -0.40490087231845417 0.026201348753373079 0 -0.40043619707242822 0.033199738991198817 0 -0.38829600691482757 0.032676203566900007 0 -0.39472757749714482 0.025589177901215249 0 -0.39118184407847051 0.014998617414397231 0 -0.40215390880098623 0.018521773417666299 0 -0.39472757749714482 0.025589177901215249 0 -0.40025231186625132 0.11130361377406391 0 -0.3845783915596801 0.10915494494096591 0 -0.39334630749388089 0.090589174808954259 0 -0.39334630749388089 0.090589174808954259 0 -0.41575779647586669 0.10335937424832251 0 -0.40025231186625132 0.11130361377406391 0 -0.39334630749388089 0.090589174808954259 0 -0.41575779647586669 0.10335937424832251 0 -0.40025231186625132 0.11130361377406391 0 -0.38869727230111362 0.1240378486016399 0 -0.41394929812887737 0.1298652090183029 0 -0.40025231186625132 0.11130361377406391 0 -0.38869727230111362 0.1240378486016399 0 -0.3845783915596801 0.10915494494096591 0 -0.38869727230111362 0.1240378486016399 0 -0.3845783915596801 0.10915494494096591 0 -0.37415242258487802 0.11756488204243069 0 -0.3845783915596801 0.10915494494096591 0 -0.36854655565954142 0.1010336040288158 0 -0.37415242258487802 0.11756488204243069 0 -0.3845783915596801 0.10915494494096591 0 -0.39334630749388089 0.090589174808954259 0 -0.36854655565954142 0.1010336040288158 0 -0.39334630749388089 0.090589174808954259 0 -0.37093481851189508 0.077818975369586069 0 -0.39334630749388089 0.090589174808954259 0 -0.37093481851189508 0.077818975369586069 0 -0.37005017994723077 0.087897290851935581 0 -0.39334630749388089 0.090589174808954259 0 -0.37005017994723077 0.087897290851935581 0 -0.36854655565954142 0.1010336040288158 0 -0.39367806051408 0.072930999324430146 0 -0.39334630749388089 0.090589174808954259 0 -0.37093481851189508 0.077818975369586069 0 -0.38517291627657702 0.068937700389941958 0 -0.37221443001157078 0.061861291939602693 0 -0.36899102151055901 0.066400584855085862 0 -0.38517291627657702 0.068937700389941958 0 -0.39367806051408 0.072930999324430146 0 -0.37093481851189508 0.077818975369586069 0 -0.39367806051408 0.072930999324430146 0 -0.37093481851189508 0.077818975369586069 0 -0.38069669701288139 0.060365684140156577 0 -0.38517291627657702 0.068937700389941958 0 -0.37221443001157078 0.061861291939602693 0 -0.38775628700136738 0.059582395490402063 0 -0.38069669701288139 0.060365684140156577 0 -0.38517291627657702 0.068937700389941958 0 -0.39568796701361791 0.061280648380017851 0 -0.38775628700136738 0.059582395490402063 0 -0.38517291627657702 0.068937700389941958 0 -0.38517291627657702 0.068937700389941958 0 -0.39367806051408 0.072930999324430146 0 -0.40814288112523889 0.065031895100425979 0 -0.39568796701361791 0.061280648380017851 0 -0.38517291627657702 0.068937700389941958 0 -0.40814288112523889 0.065031895100425979 0 -0.38517291627657702 0.068937700389941958 0 -0.40814288112523889 0.065031895100425979 0 -0.39367806051408 0.072930999324430146 0 -0.4077615477551027 0.082961651982566401 0 -0.41642130251626502 0.068043023279274112 0 -0.39367806051408 0.072930999324430146 0 -0.40814288112523889 0.065031895100425979 0 -0.41642130251626502 0.068043023279274112 0 -0.39367806051408 0.072930999324430146 0 -0.41642130251626502 0.068043023279274112 0 -0.39334630749388089 0.090589174808954259 0 -0.4077615477551027 0.082961651982566401 0 -0.41575779647586669 0.10335937424832251 0 -0.39367806051408 0.072930999324430146 0 -0.39334630749388089 0.090589174808954259 0 -0.4077615477551027 0.082961651982566401 0 -0.4077615477551027 0.082961651982566401 0 -0.41987596759613399 0.080968341213765532 0 -0.41575779647586669 0.10335937424832251 0 -0.43111284597390093 0.061126089810909993 0 -0.40814288112523889 0.065031895100425979 0 -0.43111284597390093 0.061126089810909993 0 -0.40814288112523889 0.065031895100425979 0 -0.41642130251626502 0.068043023279274112 0 -0.4077615477551027 0.082961651982566401 0 -0.41987596759613399 0.080968341213765532 0 -0.41642130251626502 0.068043023279274112 0 -0.43111284597390093 0.061126089810909993 0 -0.41642130251626502 0.068043023279274112 0 -0.43916454451844977 0.063155047234118106 0 -0.41642130251626502 0.068043023279274112 0 -0.42974214240816477 0.074436076707211515 0 -0.43916454451844977 0.063155047234118106 0 -0.42974214240816477 0.074436076707211515 0 -0.43916454451844977 0.063155047234118106 0 -0.44233268441367862 0.079164592253895424 0 -0.41642130251626502 0.068043023279274112 0 -0.43916454451844977 0.063155047234118106 0 -0.41987596759613399 0.080968341213765532 0 -0.41642130251626502 0.068043023279274112 0 -0.42974214240816477 0.074436076707211515 0 -0.41987596759613399 0.080968341213765532 0 -0.43206623638188851 0.085482313679347596 0 -0.41575779647586669 0.10335937424832251 0 -0.41987596759613399 0.080968341213765532 0 -0.42974214240816477 0.074436076707211515 0 -0.43206623638188851 0.085482313679347596 0 -0.42974214240816477 0.074436076707211515 0 -0.43206623638188851 0.085482313679347596 0 -0.44233268441367862 0.079164592253895424 0 -0.43206623638188851 0.085482313679347596 0 -0.41575779647586669 0.10335937424832251 0 -0.44497568614042488 0.097805805903839513 0 -0.41575779647586669 0.10335937424832251 0 -0.43816928545785239 0.1161295736876907 0 -0.44497568614042488 0.097805805903839513 0 -0.40025231186625132 0.11130361377406391 0 -0.41575779647586669 0.10335937424832251 0 -0.41394929812887737 0.1298652090183029 0 -0.41575779647586669 0.10335937424832251 0 -0.43816928545785239 0.1161295736876907 0 -0.41575779647586669 0.10335937424832251 0 -0.43816928545785239 0.1161295736876907 0 -0.41394929812887737 0.1298652090183029 0 -0.43816928545785239 0.1161295736876907 0 -0.46186538245561309 0.106012906435205 0 -0.45446097674775848 0.1239163363139147 0 -0.43816928545785239 0.1161295736876907 0 -0.45446097674775848 0.1239163363139147 0 -0.4394157643603171 0.1344580108076813 0 -0.43816928545785239 0.1161295736876907 0 -0.44497568614042488 0.097805805903839513 0 -0.46186538245561309 0.106012906435205 0 -0.44497568614042488 0.097805805903839513 0 -0.46186538245561309 0.106012906435205 0 -0.45550384620744899 0.083859828369495015 0 -0.46186538245561309 0.106012906435205 0 -0.45446097674775848 0.1239163363139147 0 -0.47034016687607477 0.13251309140822479 0 -0.43916454451844977 0.063155047234118106 0 -0.4525436508256947 0.07024848162936087 0 -0.44233268441367862 0.079164592253895424 0 -0.46190778652063458 0.0582670711889621 0 -0.43916454451844977 0.063155047234118106 0 -0.4525436508256947 0.07024848162936087 0 -0.4525436508256947 0.07024848162936087 0 -0.44233268441367862 0.079164592253895424 0 -0.45550384620744899 0.083859828369495015 0 -0.43206623638188851 0.085482313679347596 0 -0.44497568614042488 0.097805805903839513 0 -0.44233268441367862 0.079164592253895424 0 -0.44497568614042488 0.097805805903839513 0 -0.44233268441367862 0.079164592253895424 0 -0.45550384620744899 0.083859828369495015 0 -0.46186538245561309 0.106012906435205 0 -0.46834773180260569 0.083727035965528537 0 -0.45550384620744899 0.083859828369495015 0 -0.46834773180260569 0.083727035965528537 0 -0.45550384620744899 0.083859828369495015 0 -0.46412493254420689 0.071136720458742836 0 -0.4525436508256947 0.07024848162936087 0 -0.45550384620744899 0.083859828369495015 0 -0.46412493254420689 0.071136720458742836 0 -0.46190778652063458 0.0582670711889621 0 -0.46412493254420689 0.071136720458742836 0 -0.47656822927391917 0.066812641838423781 0 -0.46190778652063458 0.0582670711889621 0 -0.4525436508256947 0.07024848162936087 0 -0.46412493254420689 0.071136720458742836 0 -0.46834773180260569 0.083727035965528537 0 -0.46412493254420689 0.071136720458742836 0 -0.47656822927391917 0.066812641838423781 0 -0.46834773180260569 0.083727035965528537 0 -0.47656822927391917 0.066812641838423781 0 -0.47961589483314371 0.092433968753492787 0 -0.47656822927391917 0.066812641838423781 0 -0.47961589483314371 0.092433968753492787 0 -0.48904603102676569 0.079782960517651963 0 -0.47656822927391917 0.066812641838423781 0 -0.47961589483314371 0.092433968753492787 0 -0.48904603102676569 0.079782960517651963 0 -0.5 0.065813397240782501 0 -0.5 0.094071834237908769 0 -0.47961589483314371 0.092433968753492787 0 -0.48904603102676569 0.079782960517651963 0 -0.5 0.094071834237908769 0 -0.47656822927391917 0.066812641838423781 0 -0.48904603102676569 0.079782960517651963 0 -0.5 0.065813397240782501 0 -0.46186538245561309 0.106012906435205 0 -0.48266356039236818 0.11805529566856179 0 -0.47034016687607477 0.13251309140822479 0 -0.47961589483314371 0.092433968753492787 0 -0.48266356039236818 0.11805529566856179 0 -0.48891875976679983 0.1043193136879642 0 -0.46186538245561309 0.106012906435205 0 -0.47961589483314371 0.092433968753492787 0 -0.48266356039236818 0.11805529566856179 0 -0.46186538245561309 0.106012906435205 0 -0.46834773180260569 0.083727035965528537 0 -0.47961589483314371 0.092433968753492787 0 -0.47961589483314371 0.092433968753492787 0 -0.48266356039236818 0.11805529566856179 0 -0.48891875976679983 0.1043193136879642 0 -0.5 0.094071834237908769 0 -0.5 0.122330271235035 0 -0.47961589483314371 0.092433968753492787 0 -0.48891875976679983 0.1043193136879642 0 -0.5 0.094071834237908769 0 -0.48266356039236818 0.11805529566856179 0 -0.48891875976679983 0.1043193136879642 0 -0.5 0.122330271235035 0 -0.48266356039236818 0.11805529566856179 0 -0.5 0.122330271235035 0 -0.49182597928301808 0.1428920417927993 0 -0.48266356039236818 0.11805529566856179 0 -0.48571122595158989 0.1436766225836312 0 -0.49182597928301808 0.1428920417927993 0 -0.5 0.122330271235035 0 -0.49182597928301808 0.1428920417927993 0 -0.5 0.15058870823216131 0 -0.48266356039236818 0.11805529566856179 0 -0.48571122595158989 0.1436766225836312 0 -0.48266356039236818 0.11805529566856179 0 -0.47034016687607477 0.13251309140822479 0 -0.48571122595158989 0.1436766225836312 0 -0.48571122595158989 0.1436766225836312 0 -0.45828540161450249 0.14719561571079681 0 -0.47034016687607477 0.13251309140822479 0 -0.48571122595158989 0.1436766225836312 0 -0.45828540161450249 0.14719561571079681 0 -0.48571122595158989 0.1436766225836312 0 -0.47112431468600802 0.16355828748508319 0 -0.45828540161450249 0.14719561571079681 0 -0.48571122595158989 0.1436766225836312 0 -0.5 0.15058870823216131 0 -0.48913157935370771 0.17243108759223669 0 -0.48571122595158989 0.1436766225836312 0 -0.49182597928301808 0.1428920417927993 0 -0.48571122595158989 0.1436766225836312 0 -0.49182597928301808 0.1428920417927993 0 -0.5 0.15058870823216131 0 -0.5 0.15058870823216131 0 -0.5 0.17884714522928749 0 -0.48913157935370771 0.17243108759223669 0 -0.48571122595158989 0.1436766225836312 0 -0.48913157935370771 0.17243108759223669 0 -0.5 0.17884714522928749 0 -0.48913157935370771 0.17243108759223669 0 -0.48777472966426438 0.18714276881326181 0 -0.48913157935370771 0.17243108759223669 0 -0.48777472966426438 0.18714276881326181 0 -0.47721383916040733 0.17875033277146199 0 -0.47721383916040733 0.17875033277146199 0 -0.46156891822808321 0.18233139046808911 0 -0.48200507988482683 0.20074371535574281 0 -0.47721383916040733 0.17875033277146199 0 -0.47112431468600802 0.16355828748508319 0 -0.46156891822808321 0.18233139046808911 0 -0.48571122595158989 0.1436766225836312 0 -0.48913157935370771 0.17243108759223669 0 -0.47112431468600802 0.16355828748508319 0 -0.48913157935370771 0.17243108759223669 0 -0.47721383916040733 0.17875033277146199 0 -0.47112431468600802 0.16355828748508319 0 -0.47112431468600802 0.16355828748508319 0 -0.44734131969638569 0.16639378703204841 0 -0.45828540161450249 0.14719561571079681 0 -0.47112431468600802 0.16355828748508319 0 -0.46156891822808321 0.18233139046808911 0 -0.44734131969638569 0.16639378703204841 0 -0.46156891822808321 0.18233139046808911 0 -0.43830303843998503 0.18667729312404549 0 -0.44734131969638569 0.16639378703204841 0 -0.4394157643603171 0.1344580108076813 0 -0.45828540161450249 0.14719561571079681 0 -0.43085957727741508 0.15071460883796239 0 -0.45828540161450249 0.14719561571079681 0 -0.43085957727741508 0.15071460883796239 0 -0.44734131969638569 0.16639378703204841 0 -0.45828540161450249 0.14719561571079681 0 -0.43085957727741508 0.15071460883796239 0 -0.45446097674775848 0.1239163363139147 0 -0.4394157643603171 0.1344580108076813 0 -0.45828540161450249 0.14719561571079681 0 -0.45446097674775848 0.1239163363139147 0 -0.47034016687607477 0.13251309140822479 0 -0.45828540161450249 0.14719561571079681 0 -0.48249667464115348 0.22438412783395659 0 -0.46569919087746431 0.23679285379309789 0 -0.47796070139457819 0.25332514117943361 0 -0.5 0.23536401922354011 0 -0.48249667464115348 0.22438412783395659 0 -0.47796070139457819 0.25332514117943361 0 -0.5 0.23536401922354011 0 -0.48249667464115348 0.22438412783395659 0 -0.5 0.20710558222641379 0 -0.48249667464115348 0.22438412783395659 0 -0.46697498512268187 0.21848659629882419 0 -0.46569919087746431 0.23679285379309789 0 -0.48249667464115348 0.22438412783395659 0 -0.48200507988482683 0.20074371535574281 0 -0.46697498512268187 0.21848659629882419 0 -0.48249667464115348 0.22438412783395659 0 -0.5 0.20710558222641379 0 -0.48200507988482683 0.20074371535574281 0 -0.48777472966426438 0.18714276881326181 0 -0.5 0.20710558222641379 0 -0.48200507988482683 0.20074371535574281 0 -0.5 0.17884714522928749 0 -0.48777472966426438 0.18714276881326181 0 -0.5 0.20710558222641379 0 -0.48777472966426438 0.18714276881326181 0 -0.47721383916040733 0.17875033277146199 0 -0.48200507988482683 0.20074371535574281 0 -0.46156891822808321 0.18233139046808911 0 -0.48200507988482683 0.20074371535574281 0 -0.45331210153767398 0.20559053154826901 0 -0.43830303843998503 0.18667729312404549 0 -0.45331210153767398 0.20559053154826901 0 -0.42461912319052131 0.21043734774079509 0 -0.46156891822808321 0.18233139046808911 0 -0.43830303843998503 0.18667729312404549 0 -0.45331210153767398 0.20559053154826901 0 -0.45331210153767398 0.20559053154826901 0 -0.42461912319052131 0.21043734774079509 0 -0.45331210153767398 0.20559053154826901 0 -0.45063631918537489 0.22500157487959699 0 -0.42461912319052131 0.21043734774079509 0 -0.46697498512268187 0.21848659629882419 0 -0.45331210153767398 0.20559053154826901 0 -0.45063631918537489 0.22500157487959699 0 -0.48200507988482683 0.20074371535574281 0 -0.45331210153767398 0.20559053154826901 0 -0.48200507988482683 0.20074371535574281 0 -0.46697498512268187 0.21848659629882419 0 -0.45331210153767398 0.20559053154826901 0 -0.46697498512268187 0.21848659629882419 0 -0.45063631918537489 0.22500157487959699 0 -0.46569919087746431 0.23679285379309789 0 -0.45063631918537489 0.22500157487959699 0 -0.44727390015106799 0.24734178314887889 0 -0.43356811520471727 0.23272126849599559 0 -0.44727390015106799 0.24734178314887889 0 -0.46569919087746431 0.23679285379309789 0 -0.47796070139457819 0.25332514117943361 0 -0.45063631918537489 0.22500157487959699 0 -0.44727390015106799 0.24734178314887889 0 -0.46569919087746431 0.23679285379309789 0 -0.40903431346496538 0.24711338688654449 0 -0.41871265829025589 0.2312150129217217 0 -0.40811526902464901 0.23119766489894761 0 -0.40903431346496538 0.24711338688654449 0 -0.42586458440754649 0.24499996518788711 0 -0.41871265829025589 0.2312150129217217 0 -0.44727390015106799 0.24734178314887889 0 -0.42586458440754649 0.24499996518788711 0 -0.43356811520471727 0.23272126849599559 0 -0.42586458440754649 0.24499996518788711 0 -0.43356811520471727 0.23272126849599559 0 -0.41871265829025589 0.2312150129217217 0 -0.45063631918537489 0.22500157487959699 0 -0.43356811520471727 0.23272126849599559 0 -0.42461912319052131 0.21043734774079509 0 -0.43356811520471727 0.23272126849599559 0 -0.41871265829025589 0.2312150129217217 0 -0.42461912319052131 0.21043734774079509 0 -0.41871265829025589 0.2312150129217217 0 -0.41151416895847692 0.22152556669140969 0 -0.42461912319052131 0.21043734774079509 0 -0.41871265829025589 0.2312150129217217 0 -0.40811526902464901 0.23119766489894761 0 -0.41151416895847692 0.22152556669140969 0 -0.40811526902464901 0.23119766489894761 0 -0.41151416895847692 0.22152556669140969 0 -0.40185811768412338 0.22291132482137499 0 -0.41151416895847692 0.22152556669140969 0 -0.42461912319052131 0.21043734774079509 0 -0.39592614484336841 0.21528416393332131 0 -0.42461912319052131 0.21043734774079509 0 -0.40841208473475898 0.20184637069287151 0 -0.39592614484336841 0.21528416393332131 0 -0.42461912319052131 0.21043734774079509 0 -0.39592614484336841 0.21528416393332131 0 -0.43830303843998503 0.18667729312404549 0 -0.42461912319052131 0.21043734774079509 0 -0.41805767584044529 0.18752521631672439 0 -0.41805767584044529 0.18752521631672439 0 -0.40841208473475898 0.20184637069287151 0 -0.39606772083063002 0.19067519972933031 0 -0.42461912319052131 0.21043734774079509 0 -0.41805767584044529 0.18752521631672439 0 -0.40841208473475898 0.20184637069287151 0 -0.40841208473475898 0.20184637069287151 0 -0.39621948337484397 0.20295956712824631 0 -0.39606772083063002 0.19067519972933031 0 -0.39621948337484397 0.20295956712824631 0 -0.39606772083063002 0.19067519972933031 0 -0.3851640527503265 0.2028019153646764 0 -0.39606772083063002 0.19067519972933031 0 -0.37928350059450672 0.1892501103418483 0 -0.3851640527503265 0.2028019153646764 0 -0.37928350059450672 0.1892501103418483 0 -0.3851640527503265 0.2028019153646764 0 -0.3692944717392127 0.1953932319429714 0 -0.3851640527503265 0.2028019153646764 0 -0.3756970399759576 0.21791881407640229 0 -0.3692944717392127 0.1953932319429714 0 -0.3851640527503265 0.2028019153646764 0 -0.3756970399759576 0.21791881407640229 0 -0.39592614484336841 0.21528416393332131 0 -0.3756970399759576 0.21791881407640229 0 -0.39592614484336841 0.21528416393332131 0 -0.40185811768412338 0.22291132482137499 0 -0.39621948337484397 0.20295956712824631 0 -0.3851640527503265 0.2028019153646764 0 -0.39592614484336841 0.21528416393332131 0 -0.40841208473475898 0.20184637069287151 0 -0.39621948337484397 0.20295956712824631 0 -0.39592614484336841 0.21528416393332131 0 -0.41151416895847692 0.22152556669140969 0 -0.39592614484336841 0.21528416393332131 0 -0.40185811768412338 0.22291132482137499 0 -0.40811526902464901 0.23119766489894761 0 -0.40185811768412338 0.22291132482137499 0 -0.39844172687568541 0.23833781985762811 0 -0.40185811768412338 0.22291132482137499 0 -0.38631979205465228 0.23194602373914591 0 -0.39844172687568541 0.23833781985762811 0 -0.3756970399759576 0.21791881407640229 0 -0.40185811768412338 0.22291132482137499 0 -0.3756970399759576 0.21791881407640229 0 -0.40185811768412338 0.22291132482137499 0 -0.38631979205465228 0.23194602373914591 0 -0.3756970399759576 0.21791881407640229 0 -0.38631979205465228 0.23194602373914591 0 -0.36977947705148911 0.2333428532847126 0 -0.38631979205465228 0.23194602373914591 0 -0.38379799893057909 0.24650838869412239 0 -0.39844172687568541 0.23833781985762811 0 -0.38631979205465228 0.23194602373914591 0 -0.38379799893057909 0.24650838869412239 0 -0.36977947705148911 0.2333428532847126 0 -0.38379799893057909 0.24650838869412239 0 -0.39844172687568541 0.23833781985762811 0 -0.39670237511777262 0.25870318207235887 0 -0.40903431346496538 0.24711338688654449 0 -0.39844172687568541 0.23833781985762811 0 -0.39670237511777262 0.25870318207235887 0 -0.40903431346496538 0.24711338688654449 0 -0.40811526902464901 0.23119766489894761 0 -0.39844172687568541 0.23833781985762811 0 -0.41394929812887737 0.1298652090183029 0 -0.43085957727741508 0.15071460883796239 0 -0.40343375294032768 0.154233601965128 0 -0.43085957727741508 0.15071460883796239 0 -0.40343375294032768 0.154233601965128 0 -0.4394157643603171 0.1344580108076813 0 -0.41394929812887737 0.1298652090183029 0 -0.43085957727741508 0.15071460883796239 0 -0.43816928545785239 0.1161295736876907 0 -0.4394157643603171 0.1344580108076813 0 -0.41394929812887737 0.1298652090183029 0 -0.44734131969638569 0.16639378703204841 0 -0.43085957727741508 0.15071460883796239 0 -0.42410471356461887 0.17002056354010869 0 -0.43830303843998503 0.18667729312404549 0 -0.44734131969638569 0.16639378703204841 0 -0.42410471356461887 0.17002056354010869 0 -0.43830303843998503 0.18667729312404549 0 -0.41805767584044529 0.18752521631672439 0 -0.42410471356461887 0.17002056354010869 0 -0.41805767584044529 0.18752521631672439 0 -0.42410471356461887 0.17002056354010869 0 -0.40663291719315481 0.1745788739647437 0 -0.41805767584044529 0.18752521631672439 0 -0.39606772083063002 0.19067519972933031 0 -0.40663291719315481 0.1745788739647437 0 -0.43085957727741508 0.15071460883796239 0 -0.42410471356461887 0.17002056354010869 0 -0.40343375294032768 0.154233601965128 0 -0.42410471356461887 0.17002056354010869 0 -0.40663291719315481 0.1745788739647437 0 -0.40343375294032768 0.154233601965128 0 -0.40663291719315481 0.1745788739647437 0 -0.39111453361214599 0.16468469248270609 0 -0.40343375294032768 0.154233601965128 0 -0.40663291719315481 0.1745788739647437 0 -0.39111453361214599 0.16468469248270609 0 -0.37907847636516478 0.1741172364561443 0 -0.40663291719315481 0.1745788739647437 0 -0.37907847636516478 0.1741172364561443 0 -0.39606772083063002 0.19067519972933031 0 -0.40663291719315481 0.1745788739647437 0 -0.37907847636516478 0.1741172364561443 0 -0.39606772083063002 0.19067519972933031 0 -0.37928350059450672 0.1892501103418483 0 -0.37907847636516478 0.1741172364561443 0 -0.37928350059450672 0.1892501103418483 0 -0.37907847636516478 0.1741172364561443 0 -0.36681278128719907 0.18326296821611909 0 -0.39111453361214599 0.16468469248270609 0 -0.37600792860324039 0.15775259509229361 0 -0.40343375294032768 0.154233601965128 0 -0.39111453361214599 0.16468469248270609 0 -0.37907847636516478 0.1741172364561443 0 -0.37600792860324039 0.15775259509229361 0 -0.37600792860324039 0.15775259509229361 0 -0.40343375294032768 0.154233601965128 0 -0.37600792860324039 0.15775259509229361 0 -0.38805748559255071 0.14302947930374421 0 -0.40343375294032768 0.154233601965128 0 -0.37600792860324039 0.15775259509229361 0 -0.38805748559255071 0.14302947930374421 0 -0.37397773792926731 0.13493586287057369 0 -0.41394929812887737 0.1298652090183029 0 -0.38805748559255071 0.14302947930374421 0 -0.40343375294032768 0.154233601965128 0 -0.38869727230111362 0.1240378486016399 0 -0.41394929812887737 0.1298652090183029 0 -0.38805748559255071 0.14302947930374421 0 -0.38869727230111362 0.1240378486016399 0 -0.38805748559255071 0.14302947930374421 0 -0.37397773792926731 0.13493586287057369 0 -0.38869727230111362 0.1240378486016399 0 -0.37397773792926731 0.13493586287057369 0 -0.37415242258487802 0.11756488204243069 0 -0.37397773792926731 0.13493586287057369 0 -0.35865853401946252 0.1403273295354856 0 -0.35496215547478782 0.1186621497701582 0 -0.35865853401946252 0.1403273295354856 0 -0.33451305398194608 0.13132551882225579 0 -0.35496215547478782 0.1186621497701582 0 -0.35865853401946252 0.1403273295354856 0 -0.35496215547478782 0.1186621497701582 0 -0.35865853401946252 0.1403273295354856 0 -0.33451305398194608 0.13132551882225579 0 -0.340754108058753 0.14770443525165211 0 -0.35865853401946252 0.1403273295354856 0 -0.34858210426615299 0.16127158821945919 0 -0.340754108058753 0.14770443525165211 0 -0.37600792860324039 0.15775259509229361 0 -0.35865853401946252 0.1403273295354856 0 -0.34858210426615299 0.16127158821945919 0 -0.37600792860324039 0.15775259509229361 0 -0.37397773792926731 0.13493586287057369 0 -0.35865853401946252 0.1403273295354856 0 -0.37600792860324039 0.15775259509229361 0 -0.34858210426615299 0.16127158821945919 0 -0.37907847636516478 0.1741172364561443 0 -0.37600792860324039 0.15775259509229361 0 -0.35152403553717482 0.1736555989475449 0 -0.37907847636516478 0.1741172364561443 0 -0.36681278128719907 0.18326296821611909 0 -0.35152403553717482 0.1736555989475449 0 -0.37907847636516478 0.1741172364561443 0 -0.35152403553717482 0.1736555989475449 0 -0.36681278128719907 0.18326296821611909 0 -0.35427512092043528 0.18683000867167279 0 -0.35152403553717482 0.1736555989475449 0 -0.35427512092043528 0.18683000867167279 0 -0.35152403553717482 0.1736555989475449 0 -0.3388396942572155 0.18624780450716741 0 -0.35152403553717482 0.1736555989475449 0 -0.34858210426615299 0.16127158821945919 0 -0.33561352642139808 0.16097851270920721 0 -0.37600792860324039 0.15775259509229361 0 -0.35152403553717482 0.1736555989475449 0 -0.34858210426615299 0.16127158821945919 0 -0.35152403553717482 0.1736555989475449 0 -0.33561352642139808 0.16097851270920721 0 -0.3239695947091849 0.1731939614389455 0 -0.34858210426615299 0.16127158821945919 0 -0.33561352642139808 0.16097851270920721 0 -0.340754108058753 0.14770443525165211 0 -0.35152403553717482 0.1736555989475449 0 -0.3388396942572155 0.18624780450716741 0 -0.3239695947091849 0.1731939614389455 0 -0.35152403553717482 0.1736555989475449 0 -0.3239695947091849 0.1731939614389455 0 -0.3388396942572155 0.18624780450716741 0 -0.3239695947091849 0.1731939614389455 0 -0.32367223963440428 0.19056387701270119 0 -0.3239695947091849 0.1731939614389455 0 -0.32367223963440428 0.19056387701270119 0 -0.31001181929703819 0.18388161013166979 0 -0.3239695947091849 0.1731939614389455 0 -0.32367223963440428 0.19056387701270119 0 -0.33561352642139808 0.16097851270920721 0 -0.3239695947091849 0.1731939614389455 0 -0.32439006552450927 0.14863227346758701 0 -0.3239695947091849 0.1731939614389455 0 -0.32439006552450927 0.14863227346758701 0 -0.31032112339418938 0.1599488094136961 0 -0.3239695947091849 0.1731939614389455 0 -0.32439006552450927 0.14863227346758701 0 -0.32439006552450927 0.14863227346758701 0 -0.31126205310505822 0.14700864849631221 0 -0.31032112339418938 0.1599488094136961 0 -0.32439006552450927 0.14863227346758701 0 -0.31738936349282371 0.13629496765227031 0 -0.31126205310505822 0.14700864849631221 0 -0.32439006552450927 0.14863227346758701 0 -0.31738936349282371 0.13629496765227031 0 -0.33451305398194608 0.13132551882225579 0 -0.31738936349282371 0.13629496765227031 0 -0.31960969299681008 0.12504159845959281 0 -0.33451305398194608 0.13132551882225579 0 -0.31738936349282371 0.13629496765227031 0 -0.31960969299681008 0.12504159845959281 0 -0.30869212196180978 0.12731106783944571 0 -0.33561352642139808 0.16097851270920721 0 -0.32439006552450927 0.14863227346758701 0 -0.340754108058753 0.14770443525165211 0 -0.32439006552450927 0.14863227346758701 0 -0.33451305398194608 0.13132551882225579 0 -0.340754108058753 0.14770443525165211 0 -0.35444629378037229 0.23971076081483711 0 -0.36977947705148911 0.2333428532847126 0 -0.36900824068294868 0.25067681521255369 0 -0.38379799893057909 0.24650838869412239 0 -0.36977947705148911 0.2333428532847126 0 -0.36900824068294868 0.25067681521255369 0 -0.3756970399759576 0.21791881407640229 0 -0.36977947705148911 0.2333428532847126 0 -0.3495359622677916 0.21292630333142959 0 -0.35444629378037229 0.23971076081483711 0 -0.36977947705148911 0.2333428532847126 0 -0.3495359622677916 0.21292630333142959 0 -0.35444629378037229 0.23971076081483711 0 -0.3495359622677916 0.21292630333142959 0 -0.33976720082437301 0.23180485841266241 0 -0.3495359622677916 0.21292630333142959 0 -0.35887813954210113 0.20177407748126541 0 -0.34558810280710822 0.19580202938385069 0 -0.3756970399759576 0.21791881407640229 0 -0.3495359622677916 0.21292630333142959 0 -0.3756970399759576 0.21791881407640229 0 -0.3495359622677916 0.21292630333142959 0 -0.35887813954210113 0.20177407748126541 0 -0.3756970399759576 0.21791881407640229 0 -0.3692944717392127 0.1953932319429714 0 -0.35887813954210113 0.20177407748126541 0 -0.37928350059450672 0.1892501103418483 0 -0.36681278128719907 0.18326296821611909 0 -0.3692944717392127 0.1953932319429714 0 -0.36681278128719907 0.18326296821611909 0 -0.35427512092043528 0.18683000867167279 0 -0.3692944717392127 0.1953932319429714 0 -0.35427512092043528 0.18683000867167279 0 -0.3692944717392127 0.1953932319429714 0 -0.35887813954210113 0.20177407748126541 0 -0.35427512092043528 0.18683000867167279 0 -0.35887813954210113 0.20177407748126541 0 -0.34558810280710822 0.19580202938385069 0 -0.35427512092043528 0.18683000867167279 0 -0.3388396942572155 0.18624780450716741 0 -0.34558810280710822 0.19580202938385069 0 -0.3495359622677916 0.21292630333142959 0 -0.34558810280710822 0.19580202938385069 0 -0.33426624045241882 0.19861974139395491 0 -0.3388396942572155 0.18624780450716741 0 -0.34558810280710822 0.19580202938385069 0 -0.33426624045241882 0.19861974139395491 0 -0.3388396942572155 0.18624780450716741 0 -0.33426624045241882 0.19861974139395491 0 -0.32367223963440428 0.19056387701270119 0 -0.32367223963440428 0.19056387701270119 0 -0.31600794556639161 0.20652790547081271 0 -0.30969384339403833 0.19566354885112319 0 -0.32367223963440428 0.19056387701270119 0 -0.3233748845596256 0.20793379258645711 0 -0.31600794556639161 0.20652790547081271 0 -0.32367223963440428 0.19056387701270119 0 -0.3233748845596256 0.20793379258645711 0 -0.33426624045241882 0.19861974139395491 0 -0.32367223963440428 0.19056387701270119 0 -0.3233748845596256 0.20793379258645711 0 -0.32367223963440428 0.19056387701270119 0 -0.30969384339403833 0.19566354885112319 0 -0.31001181929703819 0.18388161013166979 0 -0.3233748845596256 0.20793379258645711 0 -0.32306354135764642 0.2261208207945366 0 -0.3233748845596256 0.20793379258645711 0 -0.31790933771355961 0.21656904906512381 0 -0.32306354135764642 0.2261208207945366 0 -0.3233748845596256 0.20793379258645711 0 -0.31600794556639161 0.20652790547081271 0 -0.31790933771355961 0.21656904906512381 0 -0.3233748845596256 0.20793379258645711 0 -0.31600794556639161 0.20652790547081271 0 -0.31600794556639161 0.20652790547081271 0 -0.31790933771355961 0.21656904906512381 0 -0.30840763724241183 0.22033170038241129 0 -0.3495359622677916 0.21292630333142959 0 -0.3233748845596256 0.20793379258645711 0 -0.32306354135764642 0.2261208207945366 0 -0.3495359622677916 0.21292630333142959 0 -0.33426624045241882 0.19861974139395491 0 -0.3233748845596256 0.20793379258645711 0 -0.3495359622677916 0.21292630333142959 0 -0.3233748845596256 0.20793379258645711 0 -0.3495359622677916 0.21292630333142959 0 -0.33976720082437301 0.23180485841266241 0 -0.32306354135764642 0.2261208207945366 0 -0.32306354135764642 0.2261208207945366 0 -0.31272196361514459 0.2411208714275736 0 -0.30840763724241183 0.22033170038241129 0 -0.31790933771355961 0.21656904906512381 0 -0.32306354135764642 0.2261208207945366 0 -0.30840763724241183 0.22033170038241129 0 -0.32306354135764642 0.2261208207945366 0 -0.31272196361514459 0.2411208714275736 0 -0.33202300589168171 0.24846154870984599 0 -0.35444629378037229 0.23971076081483711 0 -0.33976720082437301 0.23180485841266241 0 -0.33202300589168171 0.24846154870984599 0 -0.33976720082437301 0.23180485841266241 0 -0.32306354135764642 0.2261208207945366 0 -0.33202300589168171 0.24846154870984599 0 -0.2820648556851344 0.24475616044829701 0 -0.2935406847295729 0.23334178849997059 0 -0.30001096413420081 0.25400905032456172 0 -0.31272196361514459 0.2411208714275736 0 -0.2935406847295729 0.23334178849997059 0 -0.30001096413420081 0.25400905032456172 0 -0.31272196361514459 0.2411208714275736 0 -0.30840763724241183 0.22033170038241129 0 -0.2935406847295729 0.23334178849997059 0 -0.30840763724241183 0.22033170038241129 0 -0.2935406847295729 0.23334178849997059 0 -0.29438827281895408 0.21313678122071619 0 -0.2935406847295729 0.23334178849997059 0 -0.29438827281895408 0.21313678122071619 0 -0.27519693843672199 0.22489879306703259 0 -0.2935406847295729 0.23334178849997059 0 -0.29438827281895408 0.21313678122071619 0 -0.2820648556851344 0.24475616044829701 0 -0.2935406847295729 0.23334178849997059 0 -0.27519693843672199 0.22489879306703259 0 -0.29438827281895408 0.21313678122071619 0 -0.2952358609083352 0.1929317739414618 0 -0.27599455566222503 0.20539046092792279 0 -0.29438827281895408 0.21313678122071619 0 -0.27599455566222503 0.20539046092792279 0 -0.27519693843672199 0.22489879306703259 0 -0.30840763724241183 0.22033170038241129 0 -0.29438827281895408 0.21313678122071619 0 -0.30474671198602621 0.20571834197330499 0 -0.29438827281895408 0.21313678122071619 0 -0.30474671198602621 0.20571834197330499 0 -0.2952358609083352 0.1929317739414618 0 -0.31600794556639161 0.20652790547081271 0 -0.30840763724241183 0.22033170038241129 0 -0.30474671198602621 0.20571834197330499 0 -0.30474671198602621 0.20571834197330499 0 -0.30969384339403833 0.19566354885112319 0 -0.2952358609083352 0.1929317739414618 0 -0.31600794556639161 0.20652790547081271 0 -0.30474671198602621 0.20571834197330499 0 -0.30969384339403833 0.19566354885112319 0 -0.30969384339403833 0.19566354885112319 0 -0.2952358609083352 0.1929317739414618 0 -0.31001181929703819 0.18388161013166979 0 -0.2952358609083352 0.1929317739414618 0 -0.27355737770104638 0.1928220794907555 0 -0.27599455566222503 0.20539046092792279 0 -0.2952358609083352 0.1929317739414618 0 -0.27355737770104638 0.1928220794907555 0 -0.28032322635636098 0.18363160928098071 0 -0.29438827281895408 0.21313678122071619 0 -0.2952358609083352 0.1929317739414618 0 -0.27355737770104638 0.1928220794907555 0 -0.26215529763350881 0.19730899300989149 0 -0.27599455566222503 0.20539046092792279 0 -0.26215529763350881 0.19730899300989149 0 -0.26095363900987939 0.18395274514435969 0 -0.24579479033373661 0.1931074787104361 0 -0.26215529763350881 0.19730899300989149 0 -0.25447612546065629 0.21127220077598349 0 -0.24579479033373661 0.1931074787104361 0 -0.27355737770104638 0.1928220794907555 0 -0.26215529763350881 0.19730899300989149 0 -0.26095363900987939 0.18395274514435969 0 -0.26215529763350881 0.19730899300989149 0 -0.25447612546065629 0.21127220077598349 0 -0.27599455566222503 0.20539046092792279 0 -0.25447612546065629 0.21127220077598349 0 -0.27599455566222503 0.20539046092792279 0 -0.27519693843672199 0.22489879306703259 0 -0.27519693843672199 0.22489879306703259 0 -0.25828402274854528 0.22932601424169691 0 -0.26721173472484988 0.23997202347216651 0 -0.25447612546065629 0.21127220077598349 0 -0.27519693843672199 0.22489879306703259 0 -0.25828402274854528 0.22932601424169691 0 -0.25447612546065629 0.21127220077598349 0 -0.25828402274854528 0.22932601424169691 0 -0.24249599570668121 0.22914751995652369 0 -0.25828402274854528 0.22932601424169691 0 -0.25184776955068922 0.24631017592718801 0 -0.26721173472484988 0.23997202347216651 0 -0.25184776955068922 0.24631017592718801 0 -0.26721173472484988 0.23997202347216651 0 -0.26848796233705841 0.25512828882703059 0 -0.25828402274854528 0.22932601424169691 0 -0.25184776955068922 0.24631017592718801 0 -0.24249599570668121 0.22914751995652369 0 -0.2820648556851344 0.24475616044829701 0 -0.26721173472484988 0.23997202347216651 0 -0.26848796233705841 0.25512828882703059 0 -0.2820648556851344 0.24475616044829701 0 -0.27519693843672199 0.22489879306703259 0 -0.26721173472484988 0.23997202347216651 0 -0.28663922767552491 0.13349468086710969 0 -0.2971542582244302 0.14720056060586201 0 -0.2768382965776901 0.1448445870032681 0 -0.2971542582244302 0.14720056060586201 0 -0.28437356675262287 0.15750915004379029 0 -0.2768382965776901 0.1448445870032681 0 -0.28663922767552491 0.13349468086710969 0 -0.2971542582244302 0.14720056060586201 0 -0.29822506745114541 0.1216743545495165 0 -0.28663922767552491 0.13349468086710969 0 -0.27455345514873231 0.12921348976981481 0 -0.28424638461474572 0.1201356541097367 0 -0.28663922767552491 0.13349468086710969 0 -0.28424638461474572 0.1201356541097367 0 -0.29822506745114541 0.1216743545495165 0 -0.2971542582244302 0.14720056060586201 0 -0.29822506745114541 0.1216743545495165 0 -0.30045019035311699 0.1269869288396982 0 -0.2971542582244302 0.14720056060586201 0 -0.29822506745114541 0.1216743545495165 0 -0.30045019035311699 0.1269869288396982 0 -0.30699107405215392 0.13709510277316231 0 -0.2971542582244302 0.14720056060586201 0 -0.30045019035311699 0.1269869288396982 0 -0.30869212196180978 0.12731106783944571 0 -0.29822506745114541 0.1216743545495165 0 -0.30045019035311699 0.1269869288396982 0 -0.30869212196180978 0.12731106783944571 0 -0.30699107405215392 0.13709510277316231 0 -0.31738936349282371 0.13629496765227031 0 -0.30699107405215392 0.13709510277316231 0 -0.31126205310505822 0.14700864849631221 0 -0.31738936349282371 0.13629496765227031 0 -0.30869212196180978 0.12731106783944571 0 -0.30699107405215392 0.13709510277316231 0 -0.30699107405215392 0.13709510277316231 0 -0.31126205310505822 0.14700864849631221 0 -0.2971542582244302 0.14720056060586201 0 -0.31126205310505822 0.14700864849631221 0 -0.2971542582244302 0.14720056060586201 0 -0.31032112339418938 0.1599488094136961 0 -0.3239695947091849 0.1731939614389455 0 -0.31032112339418938 0.1599488094136961 0 -0.29608344899771638 0.1727267666622074 0 -0.2971542582244302 0.14720056060586201 0 -0.31032112339418938 0.1599488094136961 0 -0.29608344899771638 0.1727267666622074 0 -0.3239695947091849 0.1731939614389455 0 -0.31001181929703819 0.18388161013166979 0 -0.29608344899771638 0.1727267666622074 0 -0.3239695947091849 0.1731939614389455 0 -0.29608344899771638 0.1727267666622074 0 -0.2952358609083352 0.1929317739414618 0 -0.31001181929703819 0.18388161013166979 0 -0.29608344899771638 0.1727267666622074 0 -0.2952358609083352 0.1929317739414618 0 -0.29608344899771638 0.1727267666622074 0 -0.2952358609083352 0.1929317739414618 0 -0.29608344899771638 0.1727267666622074 0 -0.28850967040437048 0.17955729945455759 0 -0.29608344899771638 0.1727267666622074 0 -0.29075677512268938 0.17263752542258121 0 -0.29608344899771638 0.1727267666622074 0 -0.29075677512268938 0.17263752542258121 0 -0.28850967040437048 0.17955729945455759 0 -0.29075677512268938 0.17263752542258121 0 -0.28195066252385043 0.17477753090213269 0 -0.28850967040437048 0.17955729945455759 0 -0.28195066252385043 0.17477753090213269 0 -0.28850967040437048 0.17955729945455759 0 -0.28032322635636098 0.18363160928098071 0 -0.2952358609083352 0.1929317739414618 0 -0.28850967040437048 0.17955729945455759 0 -0.28032322635636098 0.18363160928098071 0 -0.2971542582244302 0.14720056060586201 0 -0.29608344899771638 0.1727267666622074 0 -0.2971542582244302 0.14720056060586201 0 -0.29608344899771638 0.1727267666622074 0 -0.28437356675262287 0.15750915004379029 0 -0.29608344899771638 0.1727267666622074 0 -0.29075677512268938 0.17263752542258121 0 -0.28471832423860077 0.1662745252515222 0 -0.29075677512268938 0.17263752542258121 0 -0.28195066252385043 0.17477753090213269 0 -0.28471832423860077 0.1662745252515222 0 -0.29608344899771638 0.1727267666622074 0 -0.28471832423860077 0.1662745252515222 0 -0.28437356675262287 0.15750915004379029 0 -0.28471832423860077 0.1662745252515222 0 -0.28437356675262287 0.15750915004379029 0 -0.27381815966043671 0.15937925120072119 0 -0.28471832423860077 0.1662745252515222 0 -0.27381815966043671 0.15937925120072119 0 -0.27508700445971751 0.16942669319306489 0 -0.28195066252385043 0.17477753090213269 0 -0.28471832423860077 0.1662745252515222 0 -0.27508700445971751 0.16942669319306489 0 -0.27381815966043671 0.15937925120072119 0 -0.27508700445971751 0.16942669319306489 0 -0.26313645523417323 0.16785195129424901 0 -0.27381815966043671 0.15937925120072119 0 -0.26313645523417323 0.16785195129424901 0 -0.26136150597467128 0.15237147540920459 0 -0.27355737770104638 0.1928220794907555 0 -0.28032322635636098 0.18363160928098071 0 -0.2725013942141713 0.17874376821759039 0 -0.28195066252385043 0.17477753090213269 0 -0.28032322635636098 0.18363160928098071 0 -0.2725013942141713 0.17874376821759039 0 -0.28195066252385043 0.17477753090213269 0 -0.27508700445971751 0.16942669319306489 0 -0.2725013942141713 0.17874376821759039 0 -0.27508700445971751 0.16942669319306489 0 -0.2725013942141713 0.17874376821759039 0 -0.26313645523417323 0.16785195129424901 0 -0.27355737770104638 0.1928220794907555 0 -0.2725013942141713 0.17874376821759039 0 -0.26095363900987939 0.18395274514435969 0 -0.26095363900987939 0.18395274514435969 0 -0.26313645523417323 0.16785195129424901 0 -0.247977347910708 0.17381395201700811 0 -0.26095363900987939 0.18395274514435969 0 -0.247977347910708 0.17381395201700811 0 -0.24579479033373661 0.1931074787104361 0 -0.2725013942141713 0.17874376821759039 0 -0.26095363900987939 0.18395274514435969 0 -0.26313645523417323 0.16785195129424901 0 -0.26313645523417323 0.16785195129424901 0 -0.24762251711130989 0.15780097984971159 0 -0.247977347910708 0.17381395201700811 0 -0.26313645523417323 0.16785195129424901 0 -0.26136150597467128 0.15237147540920459 0 -0.24762251711130989 0.15780097984971159 0 -0.25067899134314953 0.14316715857932191 0 -0.26136150597467128 0.15237147540920459 0 -0.26148743284687792 0.13482927731898689 0 -0.25067899134314953 0.14316715857932191 0 -0.26136150597467128 0.15237147540920459 0 -0.24762251711130989 0.15780097984971159 0 -0.27381815966043671 0.15937925120072119 0 -0.26136150597467128 0.15237147540920459 0 -0.2768382965776901 0.1448445870032681 0 -0.26136150597467128 0.15237147540920459 0 -0.2768382965776901 0.1448445870032681 0 -0.26148743284687792 0.13482927731898689 0 -0.28437356675262287 0.15750915004379029 0 -0.27381815966043671 0.15937925120072119 0 -0.2768382965776901 0.1448445870032681 0 -0.28663922767552491 0.13349468086710969 0 -0.2768382965776901 0.1448445870032681 0 -0.27455345514873231 0.12921348976981481 0 -0.2768382965776901 0.1448445870032681 0 -0.27455345514873231 0.12921348976981481 0 -0.26148743284687792 0.13482927731898689 0 -0.25067899134314953 0.14316715857932191 0 -0.26148743284687792 0.13482927731898689 0 -0.24928655479220371 0.12736228417046699 0 -0.26148743284687792 0.13482927731898689 0 -0.26737156958793112 0.1092756748281086 0 -0.24928655479220371 0.12736228417046699 0 -0.26737156958793112 0.1092756748281086 0 -0.24928655479220371 0.12736228417046699 0 -0.25221335592051047 0.1122038124009291 0 -0.26737156958793112 0.1092756748281086 0 -0.24928655479220371 0.12736228417046699 0 -0.25221335592051047 0.1122038124009291 0 -0.26737156958793112 0.1092756748281086 0 -0.26949780520767208 0.093316708129240242 0 -0.25221335592051047 0.1122038124009291 0 -0.26949780520767208 0.093316708129240242 0 -0.24266985285847051 0.09430305010786505 0 -0.26737156958793112 0.1092756748281086 0 -0.28545658438365817 0.091189065485749718 0 -0.26949780520767208 0.093316708129240242 0 -0.26737156958793112 0.1092756748281086 0 -0.28545658438365817 0.091189065485749718 0 -0.26737156958793112 0.1092756748281086 0 -0.28424638461474572 0.1201356541097367 0 -0.29184082591740179 0.1064317100176331 0 -0.27455345514873231 0.12921348976981481 0 -0.26148743284687792 0.13482927731898689 0 -0.26737156958793112 0.1092756748281086 0 -0.27455345514873231 0.12921348976981481 0 -0.26737156958793112 0.1092756748281086 0 -0.28424638461474572 0.1201356541097367 0 -0.29184082591740179 0.1064317100176331 0 -0.29822506745114541 0.1216743545495165 0 -0.28424638461474572 0.1201356541097367 0 -0.29184082591740179 0.1064317100176331 0 -0.29822506745114541 0.1216743545495165 0 -0.26737156958793112 0.1092756748281086 0 -0.29184082591740179 0.1064317100176331 0 -0.28545658438365817 0.091189065485749718 0 -0.29184082591740179 0.1064317100176331 0 -0.29917205520467471 0.099099834339564985 0 -0.29822506745114541 0.1216743545495165 0 -0.29184082591740179 0.1064317100176331 0 -0.28545658438365817 0.091189065485749718 0 -0.29184082591740179 0.1064317100176331 0 -0.29917205520467471 0.099099834339564985 0 -0.28545658438365817 0.091189065485749718 0 -0.29917205520467471 0.099099834339564985 0 -0.3153567736276453 0.10269482917387029 0 -0.3127667348206174 0.08697553401587689 0 -0.29917205520467471 0.099099834339564985 0 -0.31159122660440319 0.1162730880362603 0 -0.3153567736276453 0.10269482917387029 0 -0.29917205520467471 0.099099834339564985 0 -0.31159122660440319 0.1162730880362603 0 -0.29822506745114541 0.1216743545495165 0 -0.29917205520467471 0.099099834339564985 0 -0.29822506745114541 0.1216743545495165 0 -0.30869212196180978 0.12731106783944571 0 -0.31159122660440319 0.1162730880362603 0 -0.29822506745114541 0.1216743545495165 0 -0.30045019035311699 0.1269869288396982 0 -0.29822506745114541 0.1216743545495165 0 -0.30011904295821001 0.07652531412961372 0 -0.30862959795619088 0.068014008760301087 0 -0.30136333652160779 0.046863547027204452 0 -0.30011904295821001 0.07652531412961372 0 -0.30862959795619088 0.068014008760301087 0 -0.3127667348206174 0.08697553401587689 0 -0.30011904295821001 0.07652531412961372 0 -0.30862959795619088 0.068014008760301087 0 -0.29917205520467471 0.099099834339564985 0 -0.30011904295821001 0.07652531412961372 0 -0.29917205520467471 0.099099834339564985 0 -0.30011904295821001 0.07652531412961372 0 -0.3127667348206174 0.08697553401587689 0 -0.29917205520467471 0.099099834339564985 0 -0.30011904295821001 0.07652531412961372 0 -0.28545658438365817 0.091189065485749718 0 -0.30011904295821001 0.07652531412961372 0 -0.28545658438365817 0.091189065485749718 0 -0.27560967654396462 0.067679159861843835 0 -0.30011904295821001 0.07652531412961372 0 -0.28545658438365817 0.091189065485749718 0 -0.30011904295821001 0.07652531412961372 0 -0.27560967654396462 0.067679159861843835 0 -0.28848650653278768 0.057271353444525941 0 -0.27560967654396462 0.067679159861843835 0 -0.25913976470121758 0.080991104984854567 0 -0.27560967654396462 0.067679159861843835 0 -0.25913976470121758 0.080991104984854567 0 -0.26213006566801228 0.063151471761448794 0 -0.27560967654396462 0.067679159861843835 0 -0.26949780520767208 0.093316708129240242 0 -0.25913976470121758 0.080991104984854567 0 -0.28545658438365817 0.091189065485749718 0 -0.27560967654396462 0.067679159861843835 0 -0.28545658438365817 0.091189065485749718 0 -0.27560967654396462 0.067679159861843835 0 -0.26949780520767208 0.093316708129240242 0 -0.25913976470121758 0.080991104984854567 0 -0.24266985285847051 0.09430305010786505 0 -0.26949780520767208 0.093316708129240242 0 -0.25913976470121758 0.080991104984854567 0 -0.24266985285847051 0.09430305010786505 0 -0.25913976470121758 0.080991104984854567 0 -0.26213006566801228 0.063151471761448794 0 -0.24813832050515441 0.06523053509607378 0 -0.26213006566801228 0.063151471761448794 0 -0.25894163756212202 0.050385818540284767 0 -0.24813832050515441 0.06523053509607378 0 -0.2536067881518359 0.03615802008428208 0 -0.24813832050515441 0.06523053509607378 0 -0.25894163756212202 0.050385818540284767 0 -0.2536067881518359 0.03615802008428208 0 -0.24813832050515441 0.06523053509607378 0 -0.26213006566801228 0.063151471761448794 0 -0.25894163756212202 0.050385818540284767 0 -0.26882092902760418 0.051470740324188087 0 -0.26203218151123858 0.035262320786534587 0 -0.26882092902760418 0.051470740324188087 0 -0.25894163756212202 0.050385818540284767 0 -0.26203218151123858 0.035262320786534587 0 -0.26882092902760418 0.051470740324188087 0 -0.2536067881518359 0.03615802008428208 0 -0.26203218151123858 0.035262320786534587 0 -0.25894163756212202 0.050385818540284767 0 -0.2536067881518359 0.03615802008428208 0 -0.26203218151123858 0.035262320786534587 0 -0.26203218151123858 0.035262320786534587 0 -0.26882092902760418 0.051470740324188087 0 -0.28203027520570251 0.033136333581656158 0 -0.26882092902760418 0.051470740324188087 0 -0.28203027520570251 0.033136333581656158 0 -0.28864510263739879 0.044297882186454487 0 -0.26203218151123858 0.035262320786534587 0 -0.28203027520570251 0.033136333581656158 0 -0.27560967654396462 0.067679159861843835 0 -0.26213006566801228 0.063151471761448794 0 -0.26882092902760418 0.051470740324188087 0 -0.27560967654396462 0.067679159861843835 0 -0.26882092902760418 0.051470740324188087 0 -0.27560967654396462 0.067679159861843835 0 -0.26882092902760418 0.051470740324188087 0 -0.28848650653278768 0.057271353444525941 0 -0.26105000904448772 -0.0034130563339460351 0 -0.25633418442573502 0.021658113668284851 0 -0.2753534564772171 0.013581806102525389 0 -0.26105000904448772 -0.0034130563339460351 0 -0.25633418442573502 0.021658113668284851 0 -0.25633418442573502 0.021658113668284851 0 -0.2479964616934921 0.001751450810798965 0 -0.26105000904448772 -0.0034130563339460351 0 -0.25234564295639661 0.0033151651931428612 0 -0.25633418442573502 0.021658113668284851 0 -0.25234564295639661 0.0033151651931428612 0 -0.25633418442573502 0.021658113668284851 0 -0.2479964616934921 0.001751450810798965 0 -0.25280093984145469 -0.0047812359067542958 0 -0.25234564295639661 0.0033151651931428612 0 -0.2479964616934921 0.001751450810798965 0 -0.25234564295639661 0.0033151651931428612 0 -0.2479964616934921 0.001751450810798965 0 -0.2536067881518359 0.03615802008428208 0 -0.25633418442573502 0.021658113668284851 0 -0.2536067881518359 0.03615802008428208 0 -0.25633418442573502 0.021658113668284851 0 -0.24498279436372289 0.02620963615352211 0 -0.2536067881518359 0.03615802008428208 0 -0.26203218151123858 0.035262320786534587 0 -0.25633418442573502 0.021658113668284851 0 -0.26203218151123858 0.035262320786534587 0 -0.25633418442573502 0.021658113668284851 0 -0.26203218151123858 0.035262320786534587 0 -0.25633418442573502 0.021658113668284851 0 -0.26881590792879723 0.02498502032698215 0 -0.26203218151123858 0.035262320786534587 0 -0.26881590792879723 0.02498502032698215 0 -0.28203027520570251 0.033136333581656158 0 -0.25633418442573502 0.021658113668284851 0 -0.26881590792879723 0.02498502032698215 0 -0.2753534564772171 0.013581806102525389 0 -0.26881590792879723 0.02498502032698215 0 -0.2753534564772171 0.013581806102525389 0 -0.28203027520570251 0.033136333581656158 0 -0.26105000904448772 -0.0034130563339460351 0 -0.2753534564772171 0.013581806102525389 0 -0.28360401817538239 0.00097631935184466052 0 -0.2753534564772171 0.013581806102525389 0 -0.28360401817538239 0.00097631935184466052 0 -0.28967980428650908 0.018550003109992799 0 -0.29359687102034132 -0.0088652826219001151 0 -0.28360401817538239 0.00097631935184466052 0 -0.30291762531807659 0.0098120395317106771 0 -0.28360401817538239 0.00097631935184466052 0 -0.28967980428650908 0.018550003109992799 0 -0.30291762531807659 0.0098120395317106771 0 -0.2753534564772171 0.013581806102525389 0 -0.28967980428650908 0.018550003109992799 0 -0.28203027520570251 0.033136333581656158 0 -0.28967980428650908 0.018550003109992799 0 -0.30202836890016771 0.03101034637679019 0 -0.28203027520570251 0.033136333581656158 0 -0.28967980428650908 0.018550003109992799 0 -0.30202836890016771 0.03101034637679019 0 -0.30291762531807659 0.0098120395317106771 0 -0.30202836890016771 0.03101034637679019 0 -0.30291762531807659 0.0098120395317106771 0 -0.30202836890016771 0.03101034637679019 0 -0.32017709162702301 0.029080964862134899 0 -0.30202836890016771 0.03101034637679019 0 -0.31269867827957248 0.019440017249148241 0 -0.32017709162702301 0.029080964862134899 0 -0.30202836890016771 0.03101034637679019 0 -0.30291762531807659 0.0098120395317106771 0 -0.31269867827957248 0.019440017249148241 0 -0.30291762531807659 0.0098120395317106771 0 -0.3170416445055787 0.0083731275878341366 0 -0.31269867827957248 0.019440017249148241 0 -0.3163223612136904 -0.0047133062924637663 0 -0.30291762531807659 0.0098120395317106771 0 -0.3170416445055787 0.0083731275878341366 0 -0.26882092902760418 0.051470740324188087 0 -0.28848650653278768 0.057271353444525941 0 -0.28864510263739879 0.044297882186454487 0 -0.30011904295821001 0.07652531412961372 0 -0.28848650653278768 0.057271353444525941 0 -0.30136333652160779 0.046863547027204452 0 -0.28848650653278768 0.057271353444525941 0 -0.30136333652160779 0.046863547027204452 0 -0.28848650653278768 0.057271353444525941 0 -0.28864510263739879 0.044297882186454487 0 -0.30136333652160779 0.046863547027204452 0 -0.27560967654396462 0.067679159861843835 0 -0.28848650653278768 0.057271353444525941 0 -0.30202836890016771 0.03101034637679019 0 -0.28203027520570251 0.033136333581656158 0 -0.28864510263739879 0.044297882186454487 0 -0.30202836890016771 0.03101034637679019 0 -0.28203027520570251 0.033136333581656158 0 -0.30202836890016771 0.03101034637679019 0 -0.28864510263739879 0.044297882186454487 0 -0.30136333652160779 0.046863547027204452 0 -0.30202836890016771 0.03101034637679019 0 -0.30136333652160779 0.046863547027204452 0 -0.31223316652798982 0.038077915268949172 0 -0.30202836890016771 0.03101034637679019 0 -0.30136333652160779 0.046863547027204452 0 -0.30202836890016771 0.03101034637679019 0 -0.31223316652798982 0.038077915268949172 0 -0.32017709162702301 0.029080964862134899 0 -0.30136333652160779 0.046863547027204452 0 -0.31223316652798982 0.038077915268949172 0 -0.31662126815817981 0.047342778880839792 0 -0.30136333652160779 0.046863547027204452 0 -0.31223316652798982 0.038077915268949172 0 -0.30136333652160779 0.046863547027204452 0 -0.31433680675404679 0.056739422832139848 0 -0.31662126815817981 0.047342778880839792 0 -0.30011904295821001 0.07652531412961372 0 -0.30136333652160779 0.046863547027204452 0 -0.30862959795619088 0.068014008760301087 0 -0.30136333652160779 0.046863547027204452 0 -0.31433680675404679 0.056739422832139848 0 -0.31433680675404679 0.056739422832139848 0 -0.32366875503140358 0.054639415768720882 0 -0.32116041660487948 0.065508805769189632 0 -0.32366875503140358 0.054639415768720882 0 -0.32116041660487948 0.065508805769189632 0 -0.33491894650640802 0.06579428555928872 0 -0.32366875503140358 0.054639415768720882 0 -0.31662126815817981 0.047342778880839792 0 -0.32892943367172689 0.043108816117795462 0 -0.31433680675404679 0.056739422832139848 0 -0.32366875503140358 0.054639415768720882 0 -0.31662126815817981 0.047342778880839792 0 -0.31223316652798982 0.038077915268949172 0 -0.31662126815817981 0.047342778880839792 0 -0.32892943367172689 0.043108816117795462 0 -0.31223316652798982 0.038077915268949172 0 -0.32892943367172689 0.043108816117795462 0 -0.32017709162702301 0.029080964862134899 0 -0.32892943367172689 0.043108816117795462 0 -0.32017709162702301 0.029080964862134899 0 -0.33832581435387971 0.02715158334749233 0 -0.32892943367172689 0.043108816117795462 0 -0.34289143247314219 0.039739700269837669 0 -0.33832581435387971 0.02715158334749233 0 -0.34289143247314219 0.039739700269837669 0 -0.33832581435387971 0.02715158334749233 0 -0.34984255571260497 0.031084234242446499 0 -0.32892943367172689 0.043108816117795462 0 -0.34289143247314219 0.039739700269837669 0 -0.34369133961111842 0.052601747991208272 0 -0.34369133961111842 0.052601747991208272 0 -0.33333033854794769 0.054797636642642658 0 -0.33491894650640802 0.06579428555928872 0 -0.32366875503140358 0.054639415768720882 0 -0.33333033854794769 0.054797636642642658 0 -0.33491894650640802 0.06579428555928872 0 -0.32892943367172689 0.043108816117795462 0 -0.34369133961111842 0.052601747991208272 0 -0.33333033854794769 0.054797636642642658 0 -0.32366875503140358 0.054639415768720882 0 -0.32892943367172689 0.043108816117795462 0 -0.33333033854794769 0.054797636642642658 0 -0.3163223612136904 -0.0047133062924637663 0 -0.3170416445055787 0.0083731275878341366 0 -0.32841165485387902 0.00074677658014647198 0 -0.3170416445055787 0.0083731275878341366 0 -0.3270414966139375 0.016021312148152951 0 -0.31269867827957248 0.019440017249148241 0 -0.3170416445055787 0.0083731275878341366 0 -0.3270414966139375 0.016021312148152951 0 -0.32841165485387902 0.00074677658014647198 0 -0.3270414966139375 0.016021312148152951 0 -0.31269867827957248 0.019440017249148241 0 -0.32017709162702301 0.029080964862134899 0 -0.32017709162702301 0.029080964862134899 0 -0.33832581435387971 0.02715158334749233 0 -0.3270414966139375 0.016021312148152951 0 -0.33832581435387971 0.02715158334749233 0 -0.3396507374462937 0.0085495496487234379 0 -0.33832581435387971 0.02715158334749233 0 -0.3396507374462937 0.0085495496487234379 0 -0.35236329566664959 0.01626255453911149 0 -0.3270414966139375 0.016021312148152951 0 -0.32017709162702301 0.029080964862134899 0 -0.33832581435387971 0.02715158334749233 0 -0.34020042749406948 -0.0073900965852247494 0 -0.3396507374462937 0.0085495496487234379 0 -0.32841165485387902 0.00074677658014647198 0 -0.3270414966139375 0.016021312148152951 0 -0.3396507374462937 0.0085495496487234379 0 -0.32841165485387902 0.00074677658014647198 0 -0.3515617356953476 -0.0014948321373378769 0 -0.35236329566664959 0.01626255453911149 0 -0.36816400398299193 0.0056681537939764493 0 -0.3515617356953476 -0.0014948321373378769 0 -0.3396507374462937 0.0085495496487234379 0 -0.35236329566664959 0.01626255453911149 0 -0.33832581435387971 0.02715158334749233 0 -0.35236329566664959 0.01626255453911149 0 -0.34984255571260497 0.031084234242446499 0 -0.35236329566664959 0.01626255453911149 0 -0.34984255571260497 0.031084234242446499 0 -0.36133639873361922 0.029002341154496999 0 -0.35236329566664959 0.01626255453911149 0 -0.36133639873361922 0.029002341154496999 0 -0.37000877116417769 0.019164673627885691 0 -0.37554717599428261 0.03436746997365428 0 -0.36133639873361922 0.029002341154496999 0 -0.37000877116417769 0.019164673627885691 0 -0.35236329566664959 0.01626255453911149 0 -0.37000877116417769 0.019164673627885691 0 -0.36816400398299193 0.0056681537939764493 0 -0.37962163360978141 0.0070281146825582922 0 -0.37000877116417769 0.019164673627885691 0 -0.36816400398299193 0.0056681537939764493 0 -0.35434568491634572 0.055625559190482898 0 -0.35429583733573428 0.043264991901293987 0 -0.36537039806047061 0.052316058090839841 0 -0.35434568491634572 0.055625559190482898 0 -0.36114329407920831 0.061427831100293998 0 -0.35078225615181291 0.066335925726636616 0 -0.34369133961111842 0.052601747991208272 0 -0.35434568491634572 0.055625559190482898 0 -0.35078225615181291 0.066335925726636616 0 -0.34369133961111842 0.052601747991208272 0 -0.35434568491634572 0.055625559190482898 0 -0.35429583733573428 0.043264991901293987 0 -0.34289143247314219 0.039739700269837669 0 -0.34369133961111842 0.052601747991208272 0 -0.35429583733573428 0.043264991901293987 0 -0.34289143247314219 0.039739700269837669 0 -0.34984255571260497 0.031084234242446499 0 -0.35429583733573428 0.043264991901293987 0 -0.34984255571260497 0.031084234242446499 0 -0.36133639873361922 0.029002341154496999 0 -0.35429583733573428 0.043264991901293987 0 -0.35429583733573428 0.043264991901293987 0 -0.36588690116059602 0.041013075366576043 0 -0.36537039806047061 0.052316058090839841 0 -0.36133639873361922 0.029002341154496999 0 -0.35429583733573428 0.043264991901293987 0 -0.36588690116059602 0.041013075366576043 0 -0.37554717599428261 0.03436746997365428 0 -0.36133639873361922 0.029002341154496999 0 -0.36588690116059602 0.041013075366576043 0 -0.37513243858445372 0.046652380892278911 0 -0.36588690116059602 0.041013075366576043 0 -0.36537039806047061 0.052316058090839841 0 -0.37513243858445372 0.046652380892278911 0 -0.37554717599428261 0.03436746997365428 0 -0.36588690116059602 0.041013075366576043 0 -0.37535096121134331 0.055065439952669173 0 -0.37513243858445372 0.046652380892278911 0 -0.36537039806047061 0.052316058090839841 0 -0.35434568491634572 0.055625559190482898 0 -0.36537039806047061 0.052316058090839841 0 -0.36114329407920831 0.061427831100293998 0 -0.36537039806047061 0.052316058090839841 0 -0.36114329407920831 0.061427831100293998 0 -0.37221443001157078 0.061861291939602693 0 -0.37535096121134331 0.055065439952669173 0 -0.36537039806047061 0.052316058090839841 0 -0.37221443001157078 0.061861291939602693 0 -0.36114329407920831 0.061427831100293998 0 -0.37221443001157078 0.061861291939602693 0 -0.36899102151055901 0.066400584855085862 0 -0.38517291627657702 0.068937700389941958 0 -0.36899102151055901 0.066400584855085862 0 -0.3622029514279152 0.072843505679458465 0 -0.38517291627657702 0.068937700389941958 0 -0.37093481851189508 0.077818975369586069 0 -0.3622029514279152 0.072843505679458465 0 -0.38517291627657702 0.068937700389941958 0 -0.3622029514279152 0.072843505679458465 0 -0.37093481851189508 0.077818975369586069 0 -0.3622029514279152 0.072843505679458465 0 -0.37093481851189508 0.077818975369586069 0 -0.3622029514279152 0.072843505679458465 0 -0.35962784900464517 0.080249068497445314 0 -0.36114329407920831 0.061427831100293998 0 -0.36899102151055901 0.066400584855085862 0 -0.3622029514279152 0.072843505679458465 0 -0.34369133961111842 0.052601747991208272 0 -0.34756939838543838 0.075331790239503635 0 -0.35078225615181291 0.066335925726636616 0 -0.34369133961111842 0.052601747991208272 0 -0.34756939838543838 0.075331790239503635 0 -0.36114329407920831 0.061427831100293998 0 -0.3622029514279152 0.072843505679458465 0 -0.35078225615181291 0.066335925726636616 0 -0.3622029514279152 0.072843505679458465 0 -0.35078225615181291 0.066335925726636616 0 -0.3622029514279152 0.072843505679458465 0 -0.34756939838543838 0.075331790239503635 0 -0.35962784900464517 0.080249068497445314 0 -0.3622029514279152 0.072843505679458465 0 -0.34756939838543838 0.075331790239503635 0 -0.3622029514279152 0.072843505679458465 0 -0.34756939838543838 0.075331790239503635 0 -0.35078225615181291 0.066335925726636616 0 -0.34756939838543838 0.075331790239503635 0 -0.35126577693011313 0.096996970004830915 0 -0.34756939838543838 0.075331790239503635 0 -0.35862015626986621 0.089033444396524303 0 -0.35126577693011313 0.096996970004830915 0 -0.34756939838543838 0.075331790239503635 0 -0.35126577693011313 0.096996970004830915 0 -0.33769467895948307 0.085860698696192395 0 -0.34756939838543838 0.075331790239503635 0 -0.35862015626986621 0.089033444396524303 0 -0.35962784900464517 0.080249068497445314 0 -0.35862015626986621 0.089033444396524303 0 -0.37005017994723077 0.087897290851935581 0 -0.36854655565954142 0.1010336040288158 0 -0.37093481851189508 0.077818975369586069 0 -0.35962784900464517 0.080249068497445314 0 -0.35862015626986621 0.089033444396524303 0 -0.35962784900464517 0.080249068497445314 0 -0.37005017994723077 0.087897290851935581 0 -0.37093481851189508 0.077818975369586069 0 -0.35962784900464517 0.080249068497445314 0 -0.37005017994723077 0.087897290851935581 0 -0.35862015626986621 0.089033444396524303 0 -0.36854655565954142 0.1010336040288158 0 -0.35126577693011313 0.096996970004830915 0 -0.36854655565954142 0.1010336040288158 0 -0.37415242258487802 0.11756488204243069 0 -0.35496215547478782 0.1186621497701582 0 -0.37397773792926731 0.13493586287057369 0 -0.37415242258487802 0.11756488204243069 0 -0.35496215547478782 0.1186621497701582 0 -0.35496215547478782 0.1186621497701582 0 -0.35126577693011313 0.096996970004830915 0 -0.34063994643386231 0.1094903406268342 0 -0.36854655565954142 0.1010336040288158 0 -0.35496215547478782 0.1186621497701582 0 -0.35126577693011313 0.096996970004830915 0 -0.35496215547478782 0.1186621497701582 0 -0.35126577693011313 0.096996970004830915 0 -0.35126577693011313 0.096996970004830915 0 -0.32919383175074141 0.096201648065308246 0 -0.34063994643386231 0.1094903406268342 0 -0.32919383175074141 0.096201648065308246 0 -0.34063994643386231 0.1094903406268342 0 -0.3258626989430673 0.1140033499477317 0 -0.33451305398194608 0.13132551882225579 0 -0.35496215547478782 0.1186621497701582 0 -0.34063994643386231 0.1094903406268342 0 -0.33451305398194608 0.13132551882225579 0 -0.34063994643386231 0.1094903406268342 0 -0.3258626989430673 0.1140033499477317 0 -0.31960969299681008 0.12504159845959281 0 -0.33451305398194608 0.13132551882225579 0 -0.3258626989430673 0.1140033499477317 0 -0.31159122660440319 0.1162730880362603 0 -0.3258626989430673 0.1140033499477317 0 -0.3153567736276453 0.10269482917387029 0 -0.31960969299681008 0.12504159845959281 0 -0.30869212196180978 0.12731106783944571 0 -0.31159122660440319 0.1162730880362603 0 -0.31960969299681008 0.12504159845959281 0 -0.31159122660440319 0.1162730880362603 0 -0.3258626989430673 0.1140033499477317 0 -0.32919383175074141 0.096201648065308246 0 -0.3153567736276453 0.10269482917387029 0 -0.3127667348206174 0.08697553401587689 0 -0.32919383175074141 0.096201648065308246 0 -0.3258626989430673 0.1140033499477317 0 -0.3153567736276453 0.10269482917387029 0 -0.32919383175074141 0.096201648065308246 0 -0.3127667348206174 0.08697553401587689 0 -0.3241291074262474 0.079317569626603343 0 -0.30862959795619088 0.068014008760301087 0 -0.3241291074262474 0.079317569626603343 0 -0.32116041660487948 0.065508805769189632 0 -0.30862959795619088 0.068014008760301087 0 -0.3127667348206174 0.08697553401587689 0 -0.3241291074262474 0.079317569626603343 0 -0.30862959795619088 0.068014008760301087 0 -0.31433680675404679 0.056739422832139848 0 -0.32116041660487948 0.065508805769189632 0 -0.3241291074262474 0.079317569626603343 0 -0.32116041660487948 0.065508805769189632 0 -0.33491894650640802 0.06579428555928872 0 -0.34756939838543838 0.075331790239503635 0 -0.3241291074262474 0.079317569626603343 0 -0.34369133961111842 0.052601747991208272 0 -0.34756939838543838 0.075331790239503635 0 -0.33491894650640802 0.06579428555928872 0 -0.34756939838543838 0.075331790239503635 0 -0.3241291074262474 0.079317569626603343 0 -0.33491894650640802 0.06579428555928872 0 -0.35126577693011313 0.096996970004830915 0 -0.32919383175074141 0.096201648065308246 0 -0.33769467895948307 0.085860698696192395 0 -0.32919383175074141 0.096201648065308246 0 -0.3241291074262474 0.079317569626603343 0 -0.33769467895948307 0.085860698696192395 0 -0.34756939838543838 0.075331790239503635 0 -0.3241291074262474 0.079317569626603343 0 -0.33769467895948307 0.085860698696192395 0 -0.40261608109891178 0.47287246553184498 0 -0.4066174938894524 0.49224095934206669 0 -0.40261608109891178 0.47287246553184498 0 -0.38935645100253002 0.48437805726230271 0 -0.38712095085933163 0.46837939260834338 0 -0.40261608109891178 0.47287246553184498 0 -0.39926567069983909 0.4863558181159956 0 -0.4066174938894524 0.49224095934206669 0 -0.40261608109891178 0.47287246553184498 0 -0.39926567069983909 0.4863558181159956 0 -0.38935645100253002 0.48437805726230271 0 -0.40328853518404911 0.49505951136368448 0 -0.38935645100253002 0.48437805726230271 0 -0.38134699805860361 0.5 0 -0.39926567069983909 0.4863558181159956 0 -0.40328853518404911 0.49505951136368448 0 -0.4066174938894524 0.49224095934206669 0 -0.40328853518404911 0.49505951136368448 0 -0.38134699805860361 0.5 0 -0.40822046440616688 0.4999999999999975 0 -0.40328853518404911 0.49505951136368448 0 -0.40822046440616688 0.4999999999999975 0 -0.4066174938894524 0.49224095934206669 0 -0.40328853518404911 0.49505951136368448 0 -0.4066174938894524 0.49224095934206669 0 -0.39926567069983909 0.4863558181159956 0 -0.40328853518404911 0.49505951136368448 0 -0.38935645100253002 0.48437805726230271 0 -0.38935645100253002 0.48437805726230271 0 -0.38134699805860361 0.5 0 -0.37254821432271701 0.4773643366350912 0 -0.38935645100253002 0.48437805726230271 0 -0.38712095085933163 0.46837939260834338 0 -0.37254821432271701 0.4773643366350912 0 -0.38712095085933163 0.46837939260834338 0 -0.39861466830837028 0.45350397172162349 0 -0.37246933956412792 0.45377813189085492 0 -0.39861466830837028 0.45350397172162349 0 -0.37246933956412792 0.45377813189085492 0 -0.38712095085933163 0.46837939260834338 0 -0.37246933956412792 0.45377813189085492 0 -0.37254821432271701 0.4773643366350912 0 -0.38413752924977651 0.44257706686193538 0 -0.37198128017799892 0.42988277280885612 0 -0.37246933956412792 0.45377813189085492 0 -0.393895286387827 0.44910189840837378 0 -0.39861466830837028 0.45350397172162349 0 -0.37246933956412792 0.45377813189085492 0 -0.38413752924977651 0.44257706686193538 0 -0.393895286387827 0.44910189840837378 0 -0.37246933956412792 0.45377813189085492 0 -0.38413752924977651 0.44257706686193538 0 -0.3929320951528531 0.44370031640422669 0 -0.393895286387827 0.44910189840837378 0 -0.39548736956120278 0.43836655161579469 0 -0.3973129355831414 0.44720304663566152 0 -0.39548736956120278 0.43836655161579469 0 -0.3929320951528531 0.44370031640422669 0 -0.3973129355831414 0.44720304663566152 0 -0.38413752924977651 0.44257706686193538 0 -0.39548736956120278 0.43836655161579469 0 -0.3929320951528531 0.44370031640422669 0 -0.3929320951528531 0.44370031640422669 0 -0.3973129355831414 0.44720304663566152 0 -0.393895286387827 0.44910189840837378 0 -0.3973129355831414 0.44720304663566152 0 -0.393895286387827 0.44910189840837378 0 -0.3973129355831414 0.44720304663566152 0 -0.393895286387827 0.44910189840837378 0 -0.39861466830837028 0.45350397172162349 0 -0.3973129355831414 0.44720304663566152 0 -0.39861466830837028 0.45350397172162349 0 -0.3973129355831414 0.44720304663566152 0 -0.40490919798804742 0.44906473623482351 0 -0.40623539685092969 0.44224571180490468 0 -0.3973129355831414 0.44720304663566152 0 -0.40490919798804742 0.44906473623482351 0 -0.39861466830837028 0.45350397172162349 0 -0.40002746947857581 0.43773230822357317 0 -0.40623539685092969 0.44224571180490468 0 -0.4087732484132699 0.43265262197173471 0 -0.39548736956120278 0.43836655161579469 0 -0.40623539685092969 0.44224571180490468 0 -0.39548736956120278 0.43836655161579469 0 -0.3973129355831414 0.44720304663566152 0 -0.40623539685092969 0.44224571180490468 0 -0.3973129355831414 0.44720304663566152 0 -0.40623539685092969 0.44224571180490468 0 -0.39548736956120278 0.43836655161579469 0 -0.40002746947857581 0.43773230822357317 0 -0.40623539685092969 0.44224571180490468 0 -0.40261608109891178 0.47287246553184498 0 -0.39861466830837028 0.45350397172162349 0 -0.40261608109891178 0.47287246553184498 0 -0.39861466830837028 0.45350397172162349 0 -0.41747379120974831 0.45330621477710359 0 -0.40261608109891178 0.47287246553184498 0 -0.38712095085933163 0.46837939260834338 0 -0.39861466830837028 0.45350397172162349 0 -0.39861466830837028 0.45350397172162349 0 -0.41747379120974831 0.45330621477710359 0 -0.40261608109891178 0.47287246553184498 0 -0.41747379120974831 0.45330621477710359 0 -0.42726072977033092 0.47476281095580769 0 -0.40623539685092969 0.44224571180490468 0 -0.42128415548102782 0.4476770848187418 0 -0.42681925895155792 0.43664679872325091 0 -0.40490919798804742 0.44906473623482351 0 -0.39861466830837028 0.45350397172162349 0 -0.41747379120974831 0.45330621477710359 0 -0.40623539685092969 0.44224571180490468 0 -0.42128415548102782 0.4476770848187418 0 -0.40490919798804742 0.44906473623482351 0 -0.40623539685092969 0.44224571180490468 0 -0.41747379120974831 0.45330621477710359 0 -0.40623539685092969 0.44224571180490468 0 -0.41747379120974831 0.45330621477710359 0 -0.42128415548102782 0.4476770848187418 0 -0.41747379120974831 0.45330621477710359 0 -0.42128415548102782 0.4476770848187418 0 -0.43633291411112618 0.45310845783257808 0 -0.42128415548102782 0.4476770848187418 0 -0.42994054047802938 0.44507950914599009 0 -0.42681925895155792 0.43664679872325091 0 -0.42128415548102782 0.4476770848187418 0 -0.43633291411112618 0.45310845783257808 0 -0.42994054047802938 0.44507950914599009 0 -0.42128415548102782 0.4476770848187418 0 -0.43633291411112618 0.45310845783257808 0 -0.43633291411112618 0.45310845783257808 0 -0.43532583336840602 0.44288569520939031 0 -0.42994054047802938 0.44507950914599009 0 -0.43532583336840602 0.44288569520939031 0 -0.43931246322049872 0.43646829742796128 0 -0.42681925895155792 0.43664679872325091 0 -0.43532583336840602 0.44288569520939031 0 -0.42994054047802938 0.44507950914599009 0 -0.42681925895155792 0.43664679872325091 0 -0.41747379120974831 0.45330621477710359 0 -0.43633291411112618 0.45310845783257808 0 -0.41747379120974831 0.45330621477710359 0 -0.43633291411112618 0.45310845783257808 0 -0.42726072977033092 0.47476281095580769 0 -0.43633291411112618 0.45310845783257808 0 -0.42726072977033092 0.47476281095580769 0 -0.44790396565120888 0.45728466256954831 0 -0.42726072977033092 0.47476281095580769 0 -0.4066174938894524 0.49224095934206669 0 -0.40261608109891178 0.47287246553184498 0 -0.42726072977033092 0.47476281095580769 0 -0.4066174938894524 0.49224095934206669 0 -0.40822046440616688 0.4999999999999975 0 -0.4066174938894524 0.49224095934206669 0 -0.43781395954548769 0.5 0 -0.40822046440616688 0.4999999999999975 0 -0.4066174938894524 0.49224095934206669 0 -0.42726072977033092 0.47476281095580769 0 -0.4066174938894524 0.49224095934206669 0 -0.43781395954548769 0.5 0 -0.42726072977033092 0.47476281095580769 0 -0.43781395954548769 0.5 0 -0.45206762670418948 0.48302326741219531 0 -0.43781395954548769 0.5 0 -0.45206762670418948 0.48302326741219531 0 -0.4674074546848086 0.5 0 -0.42726072977033092 0.47476281095580769 0 -0.45206762670418948 0.48302326741219531 0 -0.44840748291301391 0.46985190331764198 0 -0.45206762670418948 0.48302326741219531 0 -0.45898457064584031 0.47004587018085059 0 -0.47029484130046401 0.47829856546592459 0 -0.45206762670418948 0.48302326741219531 0 -0.44840748291301391 0.46985190331764198 0 -0.45898457064584031 0.47004587018085059 0 -0.45898457064584031 0.47004587018085059 0 -0.47029484130046401 0.47829856546592459 0 -0.46733255911762223 0.46667796429276992 0 -0.45206762670418948 0.48302326741219531 0 -0.4674074546848086 0.5 0 -0.47029484130046401 0.47829856546592459 0 -0.4674074546848086 0.5 0 -0.48301970392107602 0.48581971856258771 0 -0.49700094982412929 0.500000000000004 0 -0.4674074546848086 0.5 0 -0.48301970392107602 0.48581971856258771 0 -0.47029484130046401 0.47829856546592459 0 -0.49558426924384491 0.47915264917086281 0 -0.5 0.5 0 -0.5 0.45316110024199707 0 -0.47029484130046401 0.47829856546592459 0 -0.47610582280541569 0.46627615752418639 0 -0.46733255911762223 0.46667796429276992 0 -0.47029484130046401 0.47829856546592459 0 -0.48481100455213361 0.47164737817615149 0 -0.47610582280541569 0.46627615752418639 0 -0.48301970392107602 0.48581971856258771 0 -0.47029484130046401 0.47829856546592459 0 -0.48481100455213361 0.47164737817615149 0 -0.48301970392107602 0.48581971856258771 0 -0.48481100455213361 0.47164737817615149 0 -0.49558426924384491 0.47915264917086281 0 -0.48481100455213361 0.47164737817615149 0 -0.49558426924384491 0.47915264917086281 0 -0.49416758866356059 0.45830529834172129 0 -0.49558426924384491 0.47915264917086281 0 -0.49700094982412929 0.500000000000004 0 -0.48301970392107602 0.48581971856258771 0 -0.49558426924384491 0.47915264917086281 0 -0.49700094982412929 0.500000000000004 0 -0.49558426924384491 0.47915264917086281 0 -0.49700094982412929 0.500000000000004 0 -0.5 0.5 0 -0.49416758866356059 0.45830529834172129 0 -0.49275090808327637 0.43745794751257988 0 -0.48567264752022687 0.4490051656120535 0 -0.49416758866356059 0.45830529834172129 0 -0.49275090808327637 0.43745794751257988 0 -0.5 0.45316110024199707 0 -0.49416758866356059 0.45830529834172129 0 -0.49275090808327637 0.43745794751257988 0 -0.48567264752022687 0.4490051656120535 0 -0.47937577659909619 0.44233678987768837 0 -0.49275090808327637 0.43745794751257988 0 -0.49558426924384491 0.47915264917086281 0 -0.5 0.45316110024199707 0 -0.49416758866356059 0.45830529834172129 0 -0.49558426924384491 0.47915264917086281 0 -0.49416758866356059 0.45830529834172129 0 -0.48481100455213361 0.47164737817615149 0 -0.49416758866356059 0.45830529834172129 0 -0.48339248344530411 0.45883273707123179 0 -0.48567264752022687 0.4490051656120535 0 -0.49416758866356059 0.45830529834172129 0 -0.48339248344530411 0.45883273707123179 0 -0.48567264752022687 0.4490051656120535 0 -0.48339248344530411 0.45883273707123179 0 -0.4796734327702421 0.45183228958109062 0 -0.48339248344530411 0.45883273707123179 0 -0.47610582280541569 0.46627615752418639 0 -0.47603126845044141 0.45720759116595278 0 -0.48339248344530411 0.45883273707123179 0 -0.47603126845044141 0.45720759116595278 0 -0.4796734327702421 0.45183228958109062 0 -0.48481100455213361 0.47164737817615149 0 -0.48339248344530411 0.45883273707123179 0 -0.47610582280541569 0.46627615752418639 0 -0.47610582280541569 0.46627615752418639 0 -0.46956103372722519 0.45896013952318548 0 -0.46733255911762223 0.46667796429276992 0 -0.47603126845044141 0.45720759116595278 0 -0.46956103372722519 0.45896013952318548 0 -0.47276305809069008 0.44955572519856829 0 -0.46956103372722519 0.45896013952318548 0 -0.47276305809069008 0.44955572519856829 0 -0.46487482156342702 0.45291069120049082 0 -0.47610582280541569 0.46627615752418639 0 -0.47603126845044141 0.45720759116595278 0 -0.46956103372722519 0.45896013952318548 0 -0.47603126845044141 0.45720759116595278 0 -0.47276305809069008 0.44955572519856829 0 -0.4796734327702421 0.45183228958109062 0 -0.47276305809069008 0.44955572519856829 0 -0.4796734327702421 0.45183228958109062 0 -0.47937577659909619 0.44233678987768837 0 -0.48567264752022687 0.4490051656120535 0 -0.4796734327702421 0.45183228958109062 0 -0.47937577659909619 0.44233678987768837 0 -0.47937577659909619 0.44233678987768837 0 -0.46808525303643289 0.44019763524591948 0 -0.47982676356250398 0.43157848694781331 0 -0.47276305809069008 0.44955572519856829 0 -0.47937577659909619 0.44233678987768837 0 -0.46808525303643289 0.44019763524591948 0 -0.46808525303643289 0.44019763524591948 0 -0.46487482156342702 0.45291069120049082 0 -0.45515448828291921 0.45291109462439239 0 -0.47276305809069008 0.44955572519856829 0 -0.46808525303643289 0.44019763524591948 0 -0.46487482156342702 0.45291069120049082 0 -0.46808525303643289 0.44019763524591948 0 -0.45515448828291921 0.45291109462439239 0 -0.45304338965792362 0.45293323162492288 0 -0.46808525303643289 0.44019763524591948 0 -0.45304338965792362 0.45293323162492288 0 -0.45515448828291921 0.45291109462439239 0 -0.45304338965792362 0.45293323162492288 0 -0.46808525303643289 0.44019763524591948 0 -0.45441309339377728 0.43897175067181388 0 -0.45304338965792362 0.45293323162492288 0 -0.45898457064584031 0.47004587018085059 0 -0.46733255911762223 0.46667796429276992 0 -0.46353515830940939 0.4610368837222642 0 -0.46956103372722519 0.45896013952318548 0 -0.46733255911762223 0.46667796429276992 0 -0.46353515830940939 0.4610368837222642 0 -0.46956103372722519 0.45896013952318548 0 -0.46487482156342702 0.45291069120049082 0 -0.46353515830940939 0.4610368837222642 0 -0.46487482156342702 0.45291069120049082 0 -0.46353515830940939 0.4610368837222642 0 -0.46019740937178533 0.45684343874956052 0 -0.46487482156342702 0.45291069120049082 0 -0.45515448828291921 0.45291109462439239 0 -0.46019740937178533 0.45684343874956052 0 -0.45515448828291921 0.45291109462439239 0 -0.46019740937178533 0.45684343874956052 0 -0.45682095080147511 0.46050296606556301 0 -0.45515448828291921 0.45291109462439239 0 -0.45682095080147511 0.46050296606556301 0 -0.45304338965792362 0.45293323162492288 0 -0.46353515830940939 0.4610368837222642 0 -0.46019740937178533 0.45684343874956052 0 -0.45682095080147511 0.46050296606556301 0 -0.45898457064584031 0.47004587018085059 0 -0.46353515830940939 0.4610368837222642 0 -0.45682095080147511 0.46050296606556301 0 -0.44840748291301391 0.46985190331764198 0 -0.45898457064584031 0.47004587018085059 0 -0.45682095080147511 0.46050296606556301 0 -0.42726072977033092 0.47476281095580769 0 -0.44840748291301391 0.46985190331764198 0 -0.44790396565120888 0.45728466256954831 0 -0.43633291411112618 0.45310845783257808 0 -0.44790396565120888 0.45728466256954831 0 -0.45304338965792362 0.45293323162492288 0 -0.42726072977033092 0.47476281095580769 0 -0.44790396565120888 0.45728466256954831 0 -0.44840748291301391 0.46985190331764198 0 -0.45682095080147511 0.46050296606556301 0 -0.44790396565120888 0.45728466256954831 0 -0.45682095080147511 0.46050296606556301 0 -0.44790396565120888 0.45728466256954831 0 -0.45682095080147511 0.46050296606556301 0 -0.44790396565120888 0.45728466256954831 0 -0.45304338965792362 0.45293323162492288 0 -0.44790396565120888 0.45728466256954831 0 -0.45304338965792362 0.45293323162492288 0 -0.43633291411112618 0.45310845783257808 0 -0.44790396565120888 0.45728466256954831 0 -0.43633291411112618 0.45310845783257808 0 -0.45304338965792362 0.45293323162492288 0 -0.43633291411112618 0.45310845783257808 0 -0.45304338965792362 0.45293323162492288 0 -0.44395528360577768 0.44560717532034838 0 -0.45441309339377728 0.43897175067181388 0 -0.44395528360577768 0.44560717532034838 0 -0.43931246322049872 0.43646829742796128 0 -0.45441309339377728 0.43897175067181388 0 -0.45304338965792362 0.45293323162492288 0 -0.44395528360577768 0.44560717532034838 0 -0.43633291411112618 0.45310845783257808 0 -0.43532583336840602 0.44288569520939031 0 -0.44395528360577768 0.44560717532034838 0 -0.43532583336840602 0.44288569520939031 0 -0.44395528360577768 0.44560717532034838 0 -0.43931246322049872 0.43646829742796128 0 -0.45441309339377728 0.43897175067181388 0 -0.43931246322049872 0.43646829742796128 0 -0.44747602625460642 0.41933234715702788 0 -0.5 0.45316110024199707 0 -0.49275090808327637 0.43745794751257988 0 -0.49999999999999839 0.39014993698080691 0 -0.44747602625460642 0.41933234715702788 0 -0.4450374960208261 0.41180060683975428 0 -0.42312124699122577 0.42238024574437821 0 -0.44747602625460642 0.41933234715702788 0 -0.4646811345647423 0.424639375401627 0 -0.46945544371564402 0.40712054500185257 0 -0.4450374960208261 0.41180060683975428 0 -0.46695374505042742 0.40122096793513229 0 -0.44747602625460642 0.41933234715702788 0 -0.4450374960208261 0.41180060683975428 0 -0.46945544371564402 0.40712054500185257 0 -0.4450374960208261 0.41180060683975428 0 -0.46945544371564402 0.40712054500185257 0 -0.46695374505042742 0.40122096793513229 0 -0.44747602625460642 0.41933234715702788 0 -0.46945544371564402 0.40712054500185257 0 -0.45441309339377728 0.43897175067181388 0 -0.44747602625460642 0.41933234715702788 0 -0.4646811345647423 0.424639375401627 0 -0.46808525303643289 0.44019763524591948 0 -0.45441309339377728 0.43897175067181388 0 -0.4646811345647423 0.424639375401627 0 -0.48535216744384863 0.41298843148687597 0 -0.49275090808327637 0.43745794751257988 0 -0.49999999999999839 0.39014993698080691 0 -0.46808525303643289 0.44019763524591948 0 -0.4646811345647423 0.424639375401627 0 -0.47982676356250398 0.43157848694781331 0 -0.47937577659909619 0.44233678987768837 0 -0.47982676356250398 0.43157848694781331 0 -0.49275090808327637 0.43745794751257988 0 -0.4646811345647423 0.424639375401627 0 -0.47982676356250398 0.43157848694781331 0 -0.46945544371564402 0.40712054500185257 0 -0.47982676356250398 0.43157848694781331 0 -0.46945544371564402 0.40712054500185257 0 -0.47982676356250398 0.43157848694781331 0 -0.46945544371564402 0.40712054500185257 0 -0.48535216744384863 0.41298843148687597 0 -0.47982676356250398 0.43157848694781331 0 -0.48535216744384863 0.41298843148687597 0 -0.49275090808327637 0.43745794751257988 0 -0.499999999999999 0.38526853720465049 0 -0.48664492920656022 0.37814552349462632 0 -0.49999999999999922 0.36326869149470897 0 -0.499999999999999 0.38526853720465049 0 -0.48347687252521249 0.39324475256989 0 -0.499999999999999 0.38526853720465049 0 -0.48664492920656022 0.37814552349462632 0 -0.48347687252521249 0.39324475256989 0 -0.499999999999999 0.38526853720465049 0 -0.49999999999999839 0.39014993698080691 0 -0.48347687252521249 0.39324475256989 0 -0.49999999999999839 0.39014993698080691 0 -0.48472772185782081 0.39863524099132902 0 -0.48535216744384863 0.41298843148687597 0 -0.49999999999999839 0.39014993698080691 0 -0.48472772185782081 0.39863524099132902 0 -0.49999999999999839 0.39014993698080691 0 -0.48472772185782081 0.39863524099132902 0 -0.48347687252521249 0.39324475256989 0 -0.48347687252521249 0.39324475256989 0 -0.47476884205155961 0.38465138621319039 0 -0.46695374505042742 0.40122096793513229 0 -0.46945544371564402 0.40712054500185257 0 -0.48472772185782081 0.39863524099132902 0 -0.46695374505042742 0.40122096793513229 0 -0.48472772185782081 0.39863524099132902 0 -0.48347687252521249 0.39324475256989 0 -0.46695374505042742 0.40122096793513229 0 -0.46945544371564402 0.40712054500185257 0 -0.48535216744384863 0.41298843148687597 0 -0.48472772185782081 0.39863524099132902 0 -0.48347687252521249 0.39324475256989 0 -0.46695374505042742 0.40122096793513229 0 -0.46945544371564402 0.40712054500185257 0 -0.48472772185782081 0.39863524099132902 0 -0.48664492920656022 0.37814552349462632 0 -0.47476884205155961 0.38465138621319039 0 -0.4767322165742307 0.36573728870290689 0 -0.47476884205155961 0.38465138621319039 0 -0.4600364469013668 0.3849083983633963 0 -0.4767322165742307 0.36573728870290689 0 -0.48664492920656022 0.37814552349462632 0 -0.48347687252521249 0.39324475256989 0 -0.47476884205155961 0.38465138621319039 0 -0.47476884205155961 0.38465138621319039 0 -0.4600364469013668 0.3849083983633963 0 -0.46695374505042742 0.40122096793513229 0 -0.4600364469013668 0.3849083983633963 0 -0.45346443314846252 0.36820588591110592 0 -0.4450374960208261 0.41180060683975428 0 -0.46695374505042742 0.40122096793513229 0 -0.44891038522860938 0.39444189456520973 0 -0.4600364469013668 0.3849083983633963 0 -0.46695374505042742 0.40122096793513229 0 -0.44891038522860938 0.39444189456520973 0 -0.4600364469013668 0.3849083983633963 0 -0.46695374505042742 0.40122096793513229 0 -0.46945544371564402 0.40712054500185257 0 -0.46695374505042742 0.40122096793513229 0 -0.44891038522860938 0.39444189456520973 0 -0.44254722899891352 0.38053510229331827 0 -0.43396471359189093 0.39695061724247632 0 -0.4450374960208261 0.41180060683975428 0 -0.44891038522860938 0.39444189456520973 0 -0.43396471359189093 0.39695061724247632 0 -0.4600364469013668 0.3849083983633963 0 -0.44254722899891352 0.38053510229331827 0 -0.45346443314846252 0.36820588591110592 0 -0.4600364469013668 0.3849083983633963 0 -0.44891038522860938 0.39444189456520973 0 -0.44254722899891352 0.38053510229331827 0 -0.44254722899891352 0.38053510229331827 0 -0.43396471359189093 0.39695061724247632 0 -0.42371979518246239 0.37136164548210038 0 -0.41571173152224611 0.39379509076928781 0 -0.43396471359189093 0.39695061724247632 0 -0.42371979518246239 0.37136164548210038 0 -0.41571173152224611 0.39379509076928781 0 -0.41509395686495359 0.372276804438127 0 -0.42371979518246239 0.37136164548210038 0 -0.41571173152224611 0.39379509076928781 0 -0.40989877548963172 0.37136929926492118 0 -0.41571173152224611 0.39379509076928781 0 -0.42371979518246239 0.37136164548210038 0 -0.40641132433850991 0.38319010299454959 0 -0.41571173152224611 0.39379509076928781 0 -0.40989877548963172 0.37136929926492118 0 -0.40641132433850991 0.38319010299454959 0 -0.41571173152224611 0.39379509076928781 0 -0.39959103258348361 0.3931906783202116 0 -0.41571173152224611 0.39379509076928781 0 -0.40989877548963172 0.37136929926492118 0 -0.41509395686495359 0.372276804438127 0 -0.40641132433850991 0.38319010299454959 0 -0.40386624265721321 0.37668300208905331 0 -0.40989877548963172 0.37136929926492118 0 -0.41571173152224611 0.39379509076928781 0 -0.40786960050041121 0.41576369949643072 0 -0.40333104412520471 0.40382242827069548 0 -0.41571173152224611 0.39379509076928781 0 -0.40786960050041121 0.41576369949643072 0 -0.41571173152224611 0.39379509076928781 0 -0.43396471359189093 0.39695061724247632 0 -0.42312124699122577 0.42238024574437821 0 -0.4450374960208261 0.41180060683975428 0 -0.42312124699122577 0.42238024574437821 0 -0.4450374960208261 0.41180060683975428 0 -0.43396471359189093 0.39695061724247632 0 -0.42312124699122577 0.42238024574437821 0 -0.44747602625460642 0.41933234715702788 0 -0.42312124699122577 0.42238024574437821 0 -0.42549660879356987 0.43154414931220558 0 -0.44747602625460642 0.41933234715702788 0 -0.42549660879356987 0.43154414931220558 0 -0.43931246322049872 0.43646829742796128 0 -0.44747602625460642 0.41933234715702788 0 -0.42549660879356987 0.43154414931220558 0 -0.43931246322049872 0.43646829742796128 0 -0.42549660879356987 0.43154414931220558 0 -0.42681925895155792 0.43664679872325091 0 -0.42312124699122577 0.42238024574437821 0 -0.42549660879356987 0.43154414931220558 0 -0.42549660879356987 0.43154414931220558 0 -0.42681925895155792 0.43664679872325091 0 -0.41339455193295788 0.42707561680504202 0 -0.4087732484132699 0.43265262197173471 0 -0.40786960050041121 0.41576369949643072 0 -0.40623539685092969 0.44224571180490468 0 -0.42549660879356987 0.43154414931220558 0 -0.42549660879356987 0.43154414931220558 0 -0.41339455193295788 0.42707561680504202 0 -0.4087732484132699 0.43265262197173471 0 -0.40623539685092969 0.44224571180490468 0 -0.42549660879356987 0.43154414931220558 0 -0.4087732484132699 0.43265262197173471 0 -0.40623539685092969 0.44224571180490468 0 -0.42549660879356987 0.43154414931220558 0 -0.42681925895155792 0.43664679872325091 0 -0.42312124699122577 0.42238024574437821 0 -0.42549660879356987 0.43154414931220558 0 -0.41339455193295788 0.42707561680504202 0 -0.42312124699122577 0.42238024574437821 0 -0.41339455193295788 0.42707561680504202 0 -0.41571173152224611 0.39379509076928781 0 -0.42312124699122577 0.42238024574437821 0 -0.41571173152224611 0.39379509076928781 0 -0.42312124699122577 0.42238024574437821 0 -0.40786960050041121 0.41576369949643072 0 -0.42312124699122577 0.42238024574437821 0 -0.41339455193295788 0.42707561680504202 0 -0.40786960050041121 0.41576369949643072 0 -0.40786960050041121 0.41576369949643072 0 -0.39015181189467851 0.41254024449685173 0 -0.40333104412520471 0.40382242827069548 0 -0.40002746947857581 0.43773230822357317 0 -0.40786960050041121 0.41576369949643072 0 -0.39015181189467851 0.41254024449685173 0 -0.39548736956120278 0.43836655161579469 0 -0.39015181189467851 0.41254024449685173 0 -0.40002746947857581 0.43773230822357317 0 -0.4087732484132699 0.43265262197173471 0 -0.40786960050041121 0.41576369949643072 0 -0.39548736956120278 0.43836655161579469 0 -0.40002746947857581 0.43773230822357317 0 -0.39015181189467851 0.41254024449685173 0 -0.40002746947857581 0.43773230822357317 0 -0.40786960050041121 0.41576369949643072 0 -0.39548736956120278 0.43836655161579469 0 -0.39015181189467851 0.41254024449685173 0 -0.37198128017799892 0.42988277280885612 0 -0.38413752924977651 0.44257706686193538 0 -0.39548736956120278 0.43836655161579469 0 -0.37198128017799892 0.42988277280885612 0 -0.39548736956120278 0.43836655161579469 0 -0.37198128017799892 0.42988277280885612 0 -0.39015181189467851 0.41254024449685173 0 -0.37460475820660311 0.40677235115409738 0 -0.37198128017799892 0.42988277280885612 0 -0.38481625422815391 0.38671393737790871 0 -0.37124843066259122 0.39109587056364631 0 -0.37460475820660311 0.40677235115409738 0 -0.39015181189467851 0.41254024449685173 0 -0.38481625422815391 0.38671393737790871 0 -0.39015181189467851 0.41254024449685173 0 -0.38481625422815391 0.38671393737790871 0 -0.37460475820660311 0.40677235115409738 0 -0.38481625422815391 0.38671393737790871 0 -0.37409608587387821 0.37840132064443738 0 -0.37124843066259122 0.39109587056364631 0 -0.38481625422815391 0.38671393737790871 0 -0.37948069656162781 0.36088763025896597 0 -0.37409608587387821 0.37840132064443738 0 -0.38481625422815391 0.38671393737790871 0 -0.39845531662117017 0.37998405053220058 0 -0.39959103258348361 0.3931906783202116 0 -0.38481625422815391 0.38671393737790871 0 -0.39845531662117017 0.37998405053220058 0 -0.39214744911769028 0.37262469612961557 0 -0.40641132433850991 0.38319010299454959 0 -0.39845531662117017 0.37998405053220058 0 -0.40386624265721321 0.37668300208905331 0 -0.39845531662117017 0.37998405053220058 0 -0.40386624265721321 0.37668300208905331 0 -0.40069955417954078 0.37218855556454211 0 -0.40641132433850991 0.38319010299454959 0 -0.39845531662117017 0.37998405053220058 0 -0.39959103258348361 0.3931906783202116 0 -0.41571173152224611 0.39379509076928781 0 -0.40333104412520471 0.40382242827069548 0 -0.39959103258348361 0.3931906783202116 0 -0.39015181189467851 0.41254024449685173 0 -0.38481625422815391 0.38671393737790871 0 -0.39959103258348361 0.3931906783202116 0 -0.39015181189467851 0.41254024449685173 0 -0.40333104412520471 0.40382242827069548 0 -0.39959103258348361 0.3931906783202116 0 -0.40408581945701788 0.34894350776055461 0 -0.39879702992278782 0.35589180412883742 0 -0.40989877548963172 0.37136929926492118 0 -0.39733888047701432 0.34745671469642042 0 -0.39879702992278782 0.35589180412883742 0 -0.37948069656162781 0.36088763025896597 0 -0.39733888047701432 0.34745671469642042 0 -0.40408581945701788 0.34894350776055461 0 -0.39879702992278782 0.35589180412883742 0 -0.39879702992278782 0.35589180412883742 0 -0.39728542399795902 0.36334930691446038 0 -0.37948069656162781 0.36088763025896597 0 -0.39879702992278782 0.35589180412883742 0 -0.39728542399795902 0.36334930691446038 0 -0.40989877548963172 0.37136929926492118 0 -0.40386624265721321 0.37668300208905331 0 -0.40069955417954078 0.37218855556454211 0 -0.40989877548963172 0.37136929926492118 0 -0.40069955417954078 0.37218855556454211 0 -0.39728542399795902 0.36334930691446038 0 -0.40989877548963172 0.37136929926492118 0 -0.39845531662117017 0.37998405053220058 0 -0.40069955417954078 0.37218855556454211 0 -0.39214744911769028 0.37262469612961557 0 -0.40069955417954078 0.37218855556454211 0 -0.39214744911769028 0.37262469612961557 0 -0.39728542399795902 0.36334930691446038 0 -0.39214744911769028 0.37262469612961557 0 -0.39728542399795902 0.36334930691446038 0 -0.37948069656162781 0.36088763025896597 0 -0.38481625422815391 0.38671393737790871 0 -0.37948069656162781 0.36088763025896597 0 -0.38481625422815391 0.38671393737790871 0 -0.39214744911769028 0.37262469612961557 0 -0.37948069656162781 0.36088763025896597 0 -0.37948069656162781 0.36088763025896597 0 -0.37400454740840761 0.33438080216345789 0 -0.39733888047701432 0.34745671469642042 0 -0.37948069656162781 0.36088763025896597 0 -0.37948069656162781 0.36088763025896597 0 -0.38648267768971301 0.34270360172564651 0 -0.37400454740840761 0.33438080216345789 0 -0.39733888047701432 0.34745671469642042 0 -0.37948069656162781 0.36088763025896597 0 -0.38648267768971301 0.34270360172564651 0 -0.39510658631180251 0.3280892597837417 0 -0.37400454740840761 0.33438080216345789 0 -0.38648267768971301 0.34270360172564651 0 -0.39510658631180251 0.3280892597837417 0 -0.37400454740840761 0.33438080216345789 0 -0.38611855898268571 0.31420370245827878 0 -0.39510658631180251 0.3280892597837417 0 -0.37400454740840761 0.33438080216345789 0 -0.38611855898268571 0.31420370245827878 0 -0.36911498400139908 0.3107132918263027 0 -0.37400454740840761 0.33438080216345789 0 -0.39510658631180251 0.3280892597837417 0 -0.415197064392403 0.33402579913387759 0 -0.40741538358832319 0.31715378091543339 0 -0.38611855898268571 0.31420370245827878 0 -0.39510658631180251 0.3280892597837417 0 -0.40741538358832319 0.31715378091543339 0 -0.39733888047701432 0.34745671469642042 0 -0.38648267768971301 0.34270360172564651 0 -0.39510658631180251 0.3280892597837417 0 -0.39733888047701432 0.34745671469642042 0 -0.40408581945701788 0.34894350776055461 0 -0.415197064392403 0.33402579913387759 0 -0.39733888047701432 0.34745671469642042 0 -0.39510658631180251 0.3280892597837417 0 -0.415197064392403 0.33402579913387759 0 -0.40408581945701788 0.34894350776055461 0 -0.415197064392403 0.33402579913387759 0 -0.41552108742814953 0.34573038747152851 0 -0.39733888047701432 0.34745671469642042 0 -0.415197064392403 0.33402579913387759 0 -0.415197064392403 0.33402579913387759 0 -0.4248467719715458 0.34063622708533969 0 -0.41552108742814953 0.34573038747152851 0 -0.40741538358832319 0.31715378091543339 0 -0.42514421761602073 0.31911592604846217 0 -0.42179529167970731 0.30187146599966269 0 -0.415197064392403 0.33402579913387759 0 -0.40741538358832319 0.31715378091543339 0 -0.42514421761602073 0.31911592604846217 0 -0.415197064392403 0.33402579913387759 0 -0.42514421761602073 0.31911592604846217 0 -0.42934095822937701 0.329318944544571 0 -0.42934095822937701 0.329318944544571 0 -0.44058499504256832 0.32711420596038271 0 -0.43867017453014828 0.32096064531687568 0 -0.42514421761602073 0.31911592604846217 0 -0.42934095822937701 0.329318944544571 0 -0.43867017453014828 0.32096064531687568 0 -0.42514421761602073 0.31911592604846217 0 -0.43867017453014828 0.32096064531687568 0 -0.43994811397397482 0.3078509778346411 0 -0.43079053532227768 0.3515539780113045 0 -0.43786127546209402 0.33174631054050913 0 -0.43070988524632359 0.33831386504543109 0 -0.43079053532227768 0.3515539780113045 0 -0.43786127546209402 0.33174631054050913 0 -0.43079053532227768 0.3515539780113045 0 -0.43786127546209402 0.33174631054050913 0 -0.43818772776193632 0.33338412640994941 0 -0.4248467719715458 0.34063622708533969 0 -0.42934095822937701 0.329318944544571 0 -0.43070988524632359 0.33831386504543109 0 -0.4248467719715458 0.34063622708533969 0 -0.43070988524632359 0.33831386504543109 0 -0.43079053532227768 0.3515539780113045 0 -0.415197064392403 0.33402579913387759 0 -0.4248467719715458 0.34063622708533969 0 -0.42934095822937701 0.329318944544571 0 -0.42934095822937701 0.329318944544571 0 -0.43070988524632359 0.33831386504543109 0 -0.43786127546209402 0.33174631054050913 0 -0.42934095822937701 0.329318944544571 0 -0.43786127546209402 0.33174631054050913 0 -0.44058499504256832 0.32711420596038271 0 -0.43079053532227768 0.3515539780113045 0 -0.42191814634050517 0.35259231196914809 0 -0.42371979518246239 0.37136164548210038 0 -0.4248467719715458 0.34063622708533969 0 -0.43079053532227768 0.3515539780113045 0 -0.42191814634050517 0.35259231196914809 0 -0.4248467719715458 0.34063622708533969 0 -0.42191814634050517 0.35259231196914809 0 -0.41552108742814953 0.34573038747152851 0 -0.42191814634050517 0.35259231196914809 0 -0.41552108742814953 0.34573038747152851 0 -0.41435208602917412 0.35388951916661748 0 -0.41435208602917412 0.35388951916661748 0 -0.41343138535595642 0.36255623842799739 0 -0.41680399156424103 0.35962515020385888 0 -0.42191814634050517 0.35259231196914809 0 -0.41435208602917412 0.35388951916661748 0 -0.41680399156424103 0.35962515020385888 0 -0.40408581945701788 0.34894350776055461 0 -0.41435208602917412 0.35388951916661748 0 -0.41343138535595642 0.36255623842799739 0 -0.40408581945701788 0.34894350776055461 0 -0.41552108742814953 0.34573038747152851 0 -0.41435208602917412 0.35388951916661748 0 -0.40408581945701788 0.34894350776055461 0 -0.40989877548963172 0.37136929926492118 0 -0.40408581945701788 0.34894350776055461 0 -0.40989877548963172 0.37136929926492118 0 -0.41343138535595642 0.36255623842799739 0 -0.42191814634050517 0.35259231196914809 0 -0.41680399156424103 0.35962515020385888 0 -0.42371979518246239 0.37136164548210038 0 -0.40989877548963172 0.37136929926492118 0 -0.41343138535595642 0.36255623842799739 0 -0.41509395686495359 0.372276804438127 0 -0.41343138535595642 0.36255623842799739 0 -0.41680399156424103 0.35962515020385888 0 -0.42371979518246239 0.37136164548210038 0 -0.41343138535595642 0.36255623842799739 0 -0.41509395686495359 0.372276804438127 0 -0.42371979518246239 0.37136164548210038 0 -0.41509395686495359 0.372276804438127 0 -0.42371979518246239 0.37136164548210038 0 -0.43079053532227768 0.3515539780113045 0 -0.42371979518246239 0.37136164548210038 0 -0.43079053532227768 0.3515539780113045 0 -0.42371979518246239 0.37136164548210038 0 -0.45346443314846252 0.36820588591110592 0 -0.44254722899891352 0.38053510229331827 0 -0.42371979518246239 0.37136164548210038 0 -0.45346443314846252 0.36820588591110592 0 -0.44558175329009492 0.35082092806922982 0 -0.45346443314846252 0.36820588591110592 0 -0.42371979518246239 0.37136164548210038 0 -0.45346443314846252 0.36820588591110592 0 -0.44254722899891352 0.38053510229331827 0 -0.45346443314846252 0.36820588591110592 0 -0.44558175329009492 0.35082092806922982 0 -0.45640876383664492 0.34912044020081701 0 -0.45346443314846252 0.36820588591110592 0 -0.43079053532227768 0.3515539780113045 0 -0.44558175329009492 0.35082092806922982 0 -0.43818772776193632 0.33338412640994941 0 -0.43079053532227768 0.3515539780113045 0 -0.44558175329009492 0.35082092806922982 0 -0.45346443314846252 0.36820588591110592 0 -0.44558175329009492 0.35082092806922982 0 -0.45640876383664492 0.34912044020081701 0 -0.44892548165365981 0.33839407332570842 0 -0.45640876383664492 0.34912044020081701 0 -0.45346443314846252 0.36820588591110592 0 -0.46897628876564013 0.35068775381666378 0 -0.45640876383664492 0.34912044020081701 0 -0.46897628876564013 0.35068775381666378 0 -0.45759778415896052 0.33915529220741653 0 -0.45346443314846252 0.36820588591110592 0 -0.46897628876564013 0.35068775381666378 0 -0.45346443314846252 0.36820588591110592 0 -0.4767322165742307 0.36573728870290689 0 -0.46897628876564013 0.35068775381666378 0 -0.45346443314846252 0.36820588591110592 0 -0.4767322165742307 0.36573728870290689 0 -0.4600364469013668 0.3849083983633963 0 -0.45346443314846252 0.36820588591110592 0 -0.4767322165742307 0.36573728870290689 0 -0.46897628876564013 0.35068775381666378 0 -0.48666686531004272 0.35109405365965851 0 -0.48448814438281712 0.33316962172222109 0 -0.4767322165742307 0.36573728870290689 0 -0.46897628876564013 0.35068775381666378 0 -0.48666686531004272 0.35109405365965851 0 -0.48666686531004272 0.35109405365965851 0 -0.49999999999999922 0.36326869149470897 0 -0.5 0.33946009056124471 0 -0.4767322165742307 0.36573728870290689 0 -0.48666686531004272 0.35109405365965851 0 -0.49999999999999922 0.36326869149470897 0 -0.48664492920656022 0.37814552349462632 0 -0.4767322165742307 0.36573728870290689 0 -0.49999999999999922 0.36326869149470897 0 -0.4767322165742307 0.36573728870290689 0 -0.49999999999999922 0.36326869149470897 0 -0.49999999999999623 0.31565148962778039 0 -0.48448814438281712 0.33316962172222109 0 -0.48909348024890281 0.31069534684717048 0 -0.49999999999999623 0.31565148962778039 0 -0.48448814438281712 0.33316962172222109 0 -0.49999999999999623 0.31565148962778039 0 -0.48448814438281712 0.33316962172222109 0 -0.5 0.33946009056124471 0 -0.48666686531004272 0.35109405365965851 0 -0.48448814438281712 0.33316962172222109 0 -0.5 0.33946009056124471 0 -0.46897628876564013 0.35068775381666378 0 -0.48448814438281712 0.33316962172222109 0 -0.47405961857693107 0.32542680998369072 0 -0.46897628876564013 0.35068775381666378 0 -0.48448814438281712 0.33316962172222109 0 -0.48448814438281712 0.33316962172222109 0 -0.47636618721142859 0.31139887079422379 0 -0.48909348024890281 0.31069534684717048 0 -0.48448814438281712 0.33316962172222109 0 -0.47405961857693107 0.32542680998369072 0 -0.47636618721142859 0.31139887079422379 0 -0.47405961857693107 0.32542680998369072 0 -0.46456295396655101 0.31542493327014731 0 -0.47636618721142859 0.31139887079422379 0 -0.47405961857693107 0.32542680998369072 0 -0.46456295396655101 0.31542493327014731 0 -0.46131313350261882 0.32792328797331988 0 -0.46131313350261882 0.32792328797331988 0 -0.45150538168688081 0.32984147135429343 0 -0.45168918466983088 0.31749196706050498 0 -0.46456295396655101 0.31542493327014731 0 -0.46131313350261882 0.32792328797331988 0 -0.45168918466983088 0.31749196706050498 0 -0.46897628876564013 0.35068775381666378 0 -0.46131313350261882 0.32792328797331988 0 -0.45759778415896052 0.33915529220741653 0 -0.46897628876564013 0.35068775381666378 0 -0.47405961857693107 0.32542680998369072 0 -0.46131313350261882 0.32792328797331988 0 -0.46131313350261882 0.32792328797331988 0 -0.45759778415896052 0.33915529220741653 0 -0.45150538168688081 0.32984147135429343 0 -0.45640876383664492 0.34912044020081701 0 -0.45759778415896052 0.33915529220741653 0 -0.44892548165365981 0.33839407332570842 0 -0.44558175329009492 0.35082092806922982 0 -0.43818772776193632 0.33338412640994941 0 -0.44558175329009492 0.35082092806922982 0 -0.44892548165365981 0.33839407332570842 0 -0.43818772776193632 0.33338412640994941 0 -0.44892548165365981 0.33839407332570842 0 -0.45150538168688081 0.32984147135429343 0 -0.4441089340886698 0.331195323765201 0 -0.45759778415896052 0.33915529220741653 0 -0.44892548165365981 0.33839407332570842 0 -0.45150538168688081 0.32984147135429343 0 -0.45150538168688081 0.32984147135429343 0 -0.4441089340886698 0.331195323765201 0 -0.445615337871683 0.32522457842674751 0 -0.44892548165365981 0.33839407332570842 0 -0.4441089340886698 0.331195323765201 0 -0.43818772776193632 0.33338412640994941 0 -0.4441089340886698 0.331195323765201 0 -0.44047002863165718 0.33060411489929659 0 -0.44058499504256832 0.32711420596038271 0 -0.43786127546209402 0.33174631054050913 0 -0.44047002863165718 0.33060411489929659 0 -0.44058499504256832 0.32711420596038271 0 -0.4441089340886698 0.331195323765201 0 -0.44047002863165718 0.33060411489929659 0 -0.43818772776193632 0.33338412640994941 0 -0.43786127546209402 0.33174631054050913 0 -0.44047002863165718 0.33060411489929659 0 -0.43818772776193632 0.33338412640994941 0 -0.45168918466983088 0.31749196706050498 0 -0.445615337871683 0.32522457842674751 0 -0.43867017453014828 0.32096064531687568 0 -0.45150538168688081 0.32984147135429343 0 -0.45168918466983088 0.31749196706050498 0 -0.445615337871683 0.32522457842674751 0 -0.445615337871683 0.32522457842674751 0 -0.44058499504256832 0.32711420596038271 0 -0.43867017453014828 0.32096064531687568 0 -0.4441089340886698 0.331195323765201 0 -0.445615337871683 0.32522457842674751 0 -0.44058499504256832 0.32711420596038271 0 -0.45168918466983088 0.31749196706050498 0 -0.43867017453014828 0.32096064531687568 0 -0.43994811397397482 0.3078509778346411 0 -0.45168918466983088 0.31749196706050498 0 -0.43994811397397482 0.3078509778346411 0 -0.45938664587194511 0.29488373053899669 0 -0.43994811397397482 0.3078509778346411 0 -0.44040382846074883 0.29207376908219468 0 -0.45938664587194511 0.29488373053899669 0 -0.44040382846074883 0.29207376908219468 0 -0.45355186861492502 0.27203002041078772 0 -0.42572891301139187 0.28438539596522638 0 -0.44040382846074883 0.29207376908219468 0 -0.45938664587194511 0.29488373053899669 0 -0.45355186861492502 0.27203002041078772 0 -0.45938664587194511 0.29488373053899669 0 -0.48201574838466599 0.27746545528408051 0 -0.45355186861492502 0.27203002041078772 0 -0.46456295396655101 0.31542493327014731 0 -0.45938664587194511 0.29488373053899669 0 -0.47636618721142859 0.31139887079422379 0 -0.46456295396655101 0.31542493327014731 0 -0.45168918466983088 0.31749196706050498 0 -0.45938664587194511 0.29488373053899669 0 -0.45938664587194511 0.29488373053899669 0 -0.47636618721142859 0.31139887079422379 0 -0.48461306965027401 0.29498115201306419 0 -0.47636618721142859 0.31139887079422379 0 -0.48461306965027401 0.29498115201306419 0 -0.48909348024890281 0.31069534684717048 0 -0.45938664587194511 0.29488373053899669 0 -0.48461306965027401 0.29498115201306419 0 -0.48201574838466599 0.27746545528408051 0 -0.45938664587194511 0.29488373053899669 0 -0.48201574838466599 0.27746545528408051 0 -0.48461306965027401 0.29498115201306419 0 -0.5 0.29827560007856502 0 -0.4999999999999975 0.28089971052934948 0 -0.48461306965027401 0.29498115201306419 0 -0.4999999999999975 0.28089971052934948 0 -0.48201574838466599 0.27746545528408051 0 -0.49999999999999623 0.31565148962778039 0 -0.5 0.29827560007856502 0 -0.48909348024890281 0.31069534684717048 0 -0.48461306965027401 0.29498115201306419 0 -0.5 0.29827560007856502 0 -0.48909348024890281 0.31069534684717048 0 -0.50000000000000022 0.26362245622066638 0 -0.48201574838466599 0.27746545528408051 0 -0.47796070139457819 0.25332514117943361 0 -0.5 0.23536401922354011 0 -0.50000000000000022 0.26362245622066638 0 -0.47796070139457819 0.25332514117943361 0 -0.50000000000000022 0.26362245622066638 0 -0.4999999999999975 0.28089971052934948 0 -0.48201574838466599 0.27746545528408051 0 -0.50000000000000022 0.26362245622066638 0 -0.48201574838466599 0.27746545528408051 0 -0.4999999999999975 0.28089971052934948 0 -0.48201574838466599 0.27746545528408051 0 -0.48201574838466599 0.27746545528408051 0 -0.47796070139457819 0.25332514117943361 0 -0.45355186861492502 0.27203002041078772 0 -0.44727390015106799 0.24734178314887889 0 -0.47796070139457819 0.25332514117943361 0 -0.45355186861492502 0.27203002041078772 0 -0.48201574838466599 0.27746545528408051 0 -0.45355186861492502 0.27203002041078772 0 -0.45355186861492502 0.27203002041078772 0 -0.42508798884518367 0.26659458553749682 0 -0.44727390015106799 0.24734178314887889 0 -0.45355186861492502 0.27203002041078772 0 -0.42508798884518367 0.26659458553749682 0 -0.44727390015106799 0.24734178314887889 0 -0.42586458440754649 0.24499996518788711 0 -0.42508798884518367 0.26659458553749682 0 -0.40903431346496538 0.24711338688654449 0 -0.42586458440754649 0.24499996518788711 0 -0.42508798884518367 0.26659458553749682 0 -0.40903431346496538 0.24711338688654449 0 -0.42508798884518367 0.26659458553749682 0 -0.39670237511777262 0.25870318207235887 0 -0.42508798884518367 0.26659458553749682 0 -0.42572891301139187 0.28438539596522638 0 -0.4109355104359157 0.28740993855919522 0 -0.42508798884518367 0.26659458553749682 0 -0.4109355104359157 0.28740993855919522 0 -0.3954750116978748 0.27747720374081769 0 -0.45355186861492502 0.27203002041078772 0 -0.42508798884518367 0.26659458553749682 0 -0.42572891301139187 0.28438539596522638 0 -0.44040382846074883 0.29207376908219468 0 -0.42572891301139187 0.28438539596522638 0 -0.42179529167970731 0.30187146599966269 0 -0.43994811397397482 0.3078509778346411 0 -0.44040382846074883 0.29207376908219468 0 -0.42179529167970731 0.30187146599966269 0 -0.42514421761602073 0.31911592604846217 0 -0.43994811397397482 0.3078509778346411 0 -0.42179529167970731 0.30187146599966269 0 -0.40741538358832319 0.31715378091543339 0 -0.42179529167970731 0.30187146599966269 0 -0.39851578426742262 0.30131026550722728 0 -0.42572891301139187 0.28438539596522638 0 -0.42179529167970731 0.30187146599966269 0 -0.4109355104359157 0.28740993855919522 0 -0.42179529167970731 0.30187146599966269 0 -0.4109355104359157 0.28740993855919522 0 -0.39851578426742262 0.30131026550722728 0 -0.39851578426742262 0.30131026550722728 0 -0.38186695775171731 0.29323960690694778 0 -0.3954750116978748 0.27747720374081769 0 -0.4109355104359157 0.28740993855919522 0 -0.39851578426742262 0.30131026550722728 0 -0.3954750116978748 0.27747720374081769 0 -0.38611855898268571 0.31420370245827878 0 -0.40741538358832319 0.31715378091543339 0 -0.39851578426742262 0.30131026550722728 0 -0.38611855898268571 0.31420370245827878 0 -0.38186695775171731 0.29323960690694778 0 -0.36911498400139908 0.3107132918263027 0 -0.38611855898268571 0.31420370245827878 0 -0.39851578426742262 0.30131026550722728 0 -0.38186695775171731 0.29323960690694778 0 -0.38186695775171731 0.29323960690694778 0 -0.37829821030508248 0.26866773568613822 0 -0.3954750116978748 0.27747720374081769 0 -0.37829821030508248 0.26866773568613822 0 -0.39670237511777262 0.25870318207235887 0 -0.3954750116978748 0.27747720374081769 0 -0.38379799893057909 0.24650838869412239 0 -0.37829821030508248 0.26866773568613822 0 -0.36900824068294868 0.25067681521255369 0 -0.38379799893057909 0.24650838869412239 0 -0.37829821030508248 0.26866773568613822 0 -0.39670237511777262 0.25870318207235887 0 -0.42508798884518367 0.26659458553749682 0 -0.39670237511777262 0.25870318207235887 0 -0.3954750116978748 0.27747720374081769 0 -0.35933585718738131 0.2633782711519923 0 -0.34859475532740669 0.28554663033400302 0 -0.33542519091958162 0.27377721607654432 0 -0.35933585718738131 0.2633782711519923 0 -0.36422542059439023 0.28704578148914761 0 -0.34859475532740669 0.28554663033400302 0 -0.35444629378037229 0.23971076081483711 0 -0.33202300589168171 0.24846154870984599 0 -0.35933585718738131 0.2633782711519923 0 -0.35444629378037229 0.23971076081483711 0 -0.35933585718738131 0.2633782711519923 0 -0.37829821030508248 0.26866773568613822 0 -0.35933585718738131 0.2633782711519923 0 -0.36900824068294868 0.25067681521255369 0 -0.35444629378037229 0.23971076081483711 0 -0.35933585718738131 0.2633782711519923 0 -0.36900824068294868 0.25067681521255369 0 -0.37829821030508248 0.26866773568613822 0 -0.35933585718738131 0.2633782711519923 0 -0.36422542059439023 0.28704578148914761 0 -0.35933585718738131 0.2633782711519923 0 -0.36422542059439023 0.28704578148914761 0 -0.38186695775171731 0.29323960690694778 0 -0.37829821030508248 0.26866773568613822 0 -0.36422542059439023 0.28704578148914761 0 -0.36422542059439023 0.28704578148914761 0 -0.36911498400139908 0.3107132918263027 0 -0.34990658465725288 0.30685887105665899 0 -0.36422542059439023 0.28704578148914761 0 -0.36911498400139908 0.3107132918263027 0 -0.38186695775171731 0.29323960690694778 0 -0.36422542059439023 0.28704578148914761 0 -0.36911498400139908 0.3107132918263027 0 -0.36422542059439023 0.28704578148914761 0 -0.34990658465725288 0.30685887105665899 0 -0.34859475532740669 0.28554663033400302 0 -0.34990658465725288 0.30685887105665899 0 -0.34859475532740669 0.28554663033400302 0 -0.3340807232784278 0.29667301189567202 0 -0.34859475532740669 0.28554663033400302 0 -0.3340807232784278 0.29667301189567202 0 -0.33542519091958162 0.27377721607654432 0 -0.3340807232784278 0.29667301189567202 0 -0.32061781952217872 0.28362754477353819 0 -0.33542519091958162 0.27377721607654432 0 -0.34990658465725288 0.30685887105665899 0 -0.3340807232784278 0.29667301189567202 0 -0.33048536261040667 0.32365308342329319 0 -0.31835967382920782 0.30074564087717048 0 -0.30779702556816652 0.3124657574567441 0 -0.33048536261040667 0.32365308342329319 0 -0.3340807232784278 0.29667301189567202 0 -0.31835967382920782 0.30074564087717048 0 -0.33048536261040667 0.32365308342329319 0 -0.3340807232784278 0.29667301189567202 0 -0.31835967382920782 0.30074564087717048 0 -0.32061781952217872 0.28362754477353819 0 -0.31835967382920782 0.30074564087717048 0 -0.32061781952217872 0.28362754477353819 0 -0.30368774826558098 0.2916384784131355 0 -0.32061781952217872 0.28362754477353819 0 -0.33542519091958162 0.27377721607654432 0 -0.31768807523276271 0.26276534780560429 0 -0.33202300589168171 0.24846154870984599 0 -0.33542519091958162 0.27377721607654432 0 -0.31768807523276271 0.26276534780560429 0 -0.33202300589168171 0.24846154870984599 0 -0.35933585718738131 0.2633782711519923 0 -0.33542519091958162 0.27377721607654432 0 -0.31272196361514459 0.2411208714275736 0 -0.33202300589168171 0.24846154870984599 0 -0.31768807523276271 0.26276534780560429 0 -0.31768807523276271 0.26276534780560429 0 -0.30001096413420081 0.25400905032456172 0 -0.29850347982585301 0.27281504831599168 0 -0.31272196361514459 0.2411208714275736 0 -0.31768807523276271 0.26276534780560429 0 -0.30001096413420081 0.25400905032456172 0 -0.32061781952217872 0.28362754477353819 0 -0.31768807523276271 0.26276534780560429 0 -0.29850347982585301 0.27281504831599168 0 -0.29850347982585301 0.27281504831599168 0 -0.27593161089096763 0.27022997216748129 0 -0.28271107982757399 0.28605140987296163 0 -0.29850347982585301 0.27281504831599168 0 -0.2863429766458116 0.25949204645050927 0 -0.27593161089096763 0.27022997216748129 0 -0.2820648556851344 0.24475616044829701 0 -0.30001096413420081 0.25400905032456172 0 -0.2863429766458116 0.25949204645050927 0 -0.30001096413420081 0.25400905032456172 0 -0.29850347982585301 0.27281504831599168 0 -0.2863429766458116 0.25949204645050927 0 -0.26848796233705841 0.25512828882703059 0 -0.27593161089096763 0.27022997216748129 0 -0.25541430208287691 0.26569991437095047 0 -0.2820648556851344 0.24475616044829701 0 -0.2863429766458116 0.25949204645050927 0 -0.26848796233705841 0.25512828882703059 0 -0.2863429766458116 0.25949204645050927 0 -0.26848796233705841 0.25512828882703059 0 -0.27593161089096763 0.27022997216748129 0 -0.27593161089096763 0.27022997216748129 0 -0.26149186012242331 0.28138736996149599 0 -0.28271107982757399 0.28605140987296163 0 -0.25541430208287691 0.26569991437095047 0 -0.26149186012242331 0.28138736996149599 0 -0.24045132181340539 0.27645039150723821 0 -0.27593161089096763 0.27022997216748129 0 -0.25541430208287691 0.26569991437095047 0 -0.26149186012242331 0.28138736996149599 0 -0.25184776955068922 0.24631017592718801 0 -0.26848796233705841 0.25512828882703059 0 -0.25541430208287691 0.26569991437095047 0 -0.26704990588043442 0.29956708119126862 0 -0.25377531595147601 0.31773220833136251 0 -0.24739294023928149 0.29032545065907611 0 -0.26149186012242331 0.28138736996149599 0 -0.26704990588043442 0.29956708119126862 0 -0.24739294023928149 0.29032545065907611 0 -0.26149186012242331 0.28138736996149599 0 -0.26704990588043442 0.29956708119126862 0 -0.28271107982757399 0.28605140987296163 0 -0.26704990588043442 0.29956708119126862 0 -0.29092859119130487 0.30337496469900721 0 -0.28271107982757399 0.28605140987296163 0 -0.26704990588043442 0.29956708119126862 0 -0.27744816122260102 0.31567879531348098 0 -0.25377531595147601 0.31773220833136251 0 -0.26704990588043442 0.29956708119126862 0 -0.29092859119130487 0.30337496469900721 0 -0.27744816122260102 0.31567879531348098 0 -0.29092859119130487 0.30337496469900721 0 -0.28271107982757399 0.28605140987296163 0 -0.30368774826558098 0.2916384784131355 0 -0.29850347982585301 0.27281504831599168 0 -0.28271107982757399 0.28605140987296163 0 -0.30368774826558098 0.2916384784131355 0 -0.32061781952217872 0.28362754477353819 0 -0.29850347982585301 0.27281504831599168 0 -0.30368774826558098 0.2916384784131355 0 -0.29092859119130487 0.30337496469900721 0 -0.30779702556816652 0.3124657574567441 0 -0.29541874069866658 0.32026356283794011 0 -0.31835967382920782 0.30074564087717048 0 -0.30368774826558098 0.2916384784131355 0 -0.30779702556816652 0.3124657574567441 0 -0.29092859119130487 0.30337496469900721 0 -0.30368774826558098 0.2916384784131355 0 -0.30779702556816652 0.3124657574567441 0 -0.31217600724986738 0.32628334244237972 0 -0.29902969123859302 0.33454542265974307 0 -0.29541874069866658 0.32026356283794011 0 -0.30779702556816652 0.3124657574567441 0 -0.31217600724986738 0.32628334244237972 0 -0.29541874069866658 0.32026356283794011 0 -0.29902969123859302 0.33454542265974307 0 -0.30139815998075531 0.34344918084623027 0 -0.31366566060492912 0.33935454498972167 0 -0.31217600724986738 0.32628334244237972 0 -0.29902969123859302 0.33454542265974307 0 -0.31366566060492912 0.33935454498972167 0 -0.29902969123859302 0.33454542265974307 0 -0.30139815998075531 0.34344918084623027 0 -0.2844888494587608 0.34679957804154271 0 -0.29902969123859302 0.33454542265974307 0 -0.28513296772146679 0.32923309445628562 0 -0.2844888494587608 0.34679957804154271 0 -0.28513296772146679 0.32923309445628562 0 -0.29541874069866658 0.32026356283794011 0 -0.27744816122260102 0.31567879531348098 0 -0.29092859119130487 0.30337496469900721 0 -0.29541874069866658 0.32026356283794011 0 -0.27744816122260102 0.31567879531348098 0 -0.29902969123859302 0.33454542265974307 0 -0.28513296772146679 0.32923309445628562 0 -0.29541874069866658 0.32026356283794011 0 -0.27744816122260102 0.31567879531348098 0 -0.27155803874230761 0.3295898425090269 0 -0.25377531595147601 0.31773220833136251 0 -0.28513296772146679 0.32923309445628562 0 -0.27744816122260102 0.31567879531348098 0 -0.27155803874230761 0.3295898425090269 0 -0.26056926029678329 0.34050197838917151 0 -0.2844888494587608 0.34679957804154271 0 -0.27155803874230761 0.3295898425090269 0 -0.26056926029678329 0.34050197838917151 0 -0.2844888494587608 0.34679957804154271 0 -0.28513296772146679 0.32923309445628562 0 -0.27155803874230761 0.3295898425090269 0 -0.2844888494587608 0.34679957804154271 0 -0.27155803874230761 0.3295898425090269 0 -0.26056926029678329 0.34050197838917151 0 -0.25377531595147601 0.31773220833136251 0 -0.26056926029678329 0.34050197838917151 0 -0.25377531595147601 0.31773220833136251 0 -0.23664967113480551 0.33420437873680198 0 -0.26124968907457041 0.35711566317170562 0 -0.25963242396411929 0.37727622901940577 0 -0.24756924973357089 0.36598025727603489 0 -0.26124968907457041 0.35711566317170562 0 -0.2757604081754898 0.36367215018778037 0 -0.25963242396411929 0.37727622901940577 0 -0.26056926029678329 0.34050197838917151 0 -0.26124968907457041 0.35711566317170562 0 -0.240880986077846 0.35039392822675808 0 -0.26056926029678329 0.34050197838917151 0 -0.26124968907457041 0.35711566317170562 0 -0.2844888494587608 0.34679957804154271 0 -0.26124968907457041 0.35711566317170562 0 -0.2757604081754898 0.36367215018778037 0 -0.2844888494587608 0.34679957804154271 0 -0.2757604081754898 0.36367215018778037 0 -0.29067612458819991 0.37129091735776187 0 -0.27672383066267681 0.38599555906808097 0 -0.2757604081754898 0.36367215018778037 0 -0.29067612458819991 0.37129091735776187 0 -0.3003214429837191 0.35634931318169882 0 -0.2757604081754898 0.36367215018778037 0 -0.3003214429837191 0.35634931318169882 0 -0.2844888494587608 0.34679957804154271 0 -0.30863871455042358 0.35386953069314148 0 -0.2757604081754898 0.36367215018778037 0 -0.2844888494587608 0.34679957804154271 0 -0.3003214429837191 0.35634931318169882 0 -0.2844888494587608 0.34679957804154271 0 -0.3003214429837191 0.35634931318169882 0 -0.30863871455042358 0.35386953069314148 0 -0.30139815998075531 0.34344918084623027 0 -0.2844888494587608 0.34679957804154271 0 -0.30863871455042358 0.35386953069314148 0 -0.3003214429837191 0.35634931318169882 0 -0.30863871455042358 0.35386953069314148 0 -0.3003214429837191 0.35634931318169882 0 -0.30863871455042358 0.35386953069314148 0 -0.31528556382640122 0.36230658815398192 0 -0.30139815998075531 0.34344918084623027 0 -0.30863871455042358 0.35386953069314148 0 -0.31366566060492912 0.33935454498972167 0 -0.29067612458819991 0.37129091735776187 0 -0.3003214429837191 0.35634931318169882 0 -0.30525996039997838 0.36990070793511998 0 -0.3003214429837191 0.35634931318169882 0 -0.30525996039997838 0.36990070793511998 0 -0.31528556382640122 0.36230658815398192 0 -0.30525996039997838 0.36990070793511998 0 -0.31862750216658492 0.37417776804905689 0 -0.31528556382640122 0.36230658815398192 0 -0.31862750216658492 0.37417776804905689 0 -0.31528556382640122 0.36230658815398192 0 -0.32685317282918902 0.36561746228519842 0 -0.31862750216658492 0.37417776804905689 0 -0.32685317282918902 0.36561746228519842 0 -0.33099576806603143 0.37734162067197802 0 -0.32685317282918902 0.36561746228519842 0 -0.34268919730432268 0.36442474369340128 0 -0.32488247779194818 0.34902647617561722 0 -0.32685317282918902 0.36561746228519842 0 -0.34268919730432268 0.36442474369340128 0 -0.33099576806603143 0.37734162067197802 0 -0.32488247779194818 0.34902647617561722 0 -0.34944351260017731 0.34170363916953561 0 -0.34268919730432268 0.36442474369340128 0 -0.32488247779194818 0.34902647617561722 0 -0.34944351260017731 0.34170363916953561 0 -0.31528556382640122 0.36230658815398192 0 -0.32685317282918902 0.36561746228519842 0 -0.32488247779194818 0.34902647617561722 0 -0.30863871455042358 0.35386953069314148 0 -0.32488247779194818 0.34902647617561722 0 -0.31366566060492912 0.33935454498972167 0 -0.30863871455042358 0.35386953069314148 0 -0.31528556382640122 0.36230658815398192 0 -0.32488247779194818 0.34902647617561722 0 -0.30863871455042358 0.35386953069314148 0 -0.32488247779194818 0.34902647617561722 0 -0.32488247779194818 0.34902647617561722 0 -0.31366566060492912 0.33935454498972167 0 -0.33048536261040667 0.32365308342329319 0 -0.31217600724986738 0.32628334244237972 0 -0.31366566060492912 0.33935454498972167 0 -0.33048536261040667 0.32365308342329319 0 -0.30779702556816652 0.3124657574567441 0 -0.31217600724986738 0.32628334244237972 0 -0.33048536261040667 0.32365308342329319 0 -0.32488247779194818 0.34902647617561722 0 -0.33048536261040667 0.32365308342329319 0 -0.34944351260017731 0.34170363916953561 0 -0.33048536261040667 0.32365308342329319 0 -0.34944351260017731 0.34170363916953561 0 -0.35662688102087847 0.32431027700337628 0 -0.36911498400139908 0.3107132918263027 0 -0.34990658465725288 0.30685887105665899 0 -0.35662688102087847 0.32431027700337628 0 -0.34990658465725288 0.30685887105665899 0 -0.33048536261040667 0.32365308342329319 0 -0.35662688102087847 0.32431027700337628 0 -0.36911498400139908 0.3107132918263027 0 -0.35662688102087847 0.32431027700337628 0 -0.37400454740840761 0.33438080216345789 0 -0.36911498400139908 0.3107132918263027 0 -0.37400454740840761 0.33438080216345789 0 -0.34944351260017731 0.34170363916953561 0 -0.37400454740840761 0.33438080216345789 0 -0.34944351260017731 0.34170363916953561 0 -0.35662688102087847 0.32431027700337628 0 -0.37400454740840761 0.33438080216345789 0 -0.34944351260017731 0.34170363916953561 0 -0.37400454740840761 0.33438080216345789 0 -0.36131746929308978 0.35570950903671311 0 -0.37948069656162781 0.36088763025896597 0 -0.37400454740840761 0.33438080216345789 0 -0.36131746929308978 0.35570950903671311 0 -0.37948069656162781 0.36088763025896597 0 -0.36083896204313992 0.37490784437722868 0 -0.37409608587387821 0.37840132064443738 0 -0.37948069656162781 0.36088763025896597 0 -0.36083896204313992 0.37490784437722868 0 -0.37948069656162781 0.36088763025896597 0 -0.36131746929308978 0.35570950903671311 0 -0.36083896204313992 0.37490784437722868 0 -0.34268919730432268 0.36442474369340128 0 -0.36131746929308978 0.35570950903671311 0 -0.36083896204313992 0.37490784437722868 0 -0.34268919730432268 0.36442474369340128 0 -0.34944351260017731 0.34170363916953561 0 -0.36131746929308978 0.35570950903671311 0 -0.35657995219141969 0.39192668120201402 0 -0.34622770181631829 0.40711946760891071 0 -0.34219722752465431 0.38892805849549428 0 -0.35657995219141969 0.39192668120201402 0 -0.35986181072869311 0.40624743228278271 0 -0.34622770181631829 0.40711946760891071 0 -0.36083896204313992 0.37490784437722868 0 -0.35657995219141969 0.39192668120201402 0 -0.34219722752465431 0.38892805849549428 0 -0.36083896204313992 0.37490784437722868 0 -0.34219722752465431 0.38892805849549428 0 -0.34268919730432268 0.36442474369340128 0 -0.36083896204313992 0.37490784437722868 0 -0.34219722752465431 0.38892805849549428 0 -0.36083896204313992 0.37490784437722868 0 -0.35657995219141969 0.39192668120201402 0 -0.37124843066259122 0.39109587056364631 0 -0.36083896204313992 0.37490784437722868 0 -0.37409608587387821 0.37840132064443738 0 -0.37124843066259122 0.39109587056364631 0 -0.37124843066259122 0.39109587056364631 0 -0.35986181072869311 0.40624743228278271 0 -0.37460475820660311 0.40677235115409738 0 -0.35657995219141969 0.39192668120201402 0 -0.37124843066259122 0.39109587056364631 0 -0.35986181072869311 0.40624743228278271 0 -0.37124843066259122 0.39109587056364631 0 -0.35986181072869311 0.40624743228278271 0 -0.37460475820660311 0.40677235115409738 0 -0.36350717894984208 0.41708497742405531 0 -0.37198128017799892 0.42988277280885612 0 -0.35986181072869311 0.40624743228278271 0 -0.37460475820660311 0.40677235115409738 0 -0.36350717894984208 0.41708497742405531 0 -0.36350717894984208 0.41708497742405531 0 -0.37198128017799892 0.42988277280885612 0 -0.34847519079479439 0.42139899400191883 0 -0.37198128017799892 0.42988277280885612 0 -0.34847519079479439 0.42139899400191883 0 -0.34847519079479439 0.42139899400191883 0 -0.33331421951736723 0.44157288171974313 0 -0.35326895171602879 0.44541809186596187 0 -0.37198128017799892 0.42988277280885612 0 -0.34847519079479439 0.42139899400191883 0 -0.35326895171602879 0.44541809186596187 0 -0.35986181072869311 0.40624743228278271 0 -0.34847519079479439 0.42139899400191883 0 -0.35986181072869311 0.40624743228278271 0 -0.36350717894984208 0.41708497742405531 0 -0.34847519079479439 0.42139899400191883 0 -0.34847519079479439 0.42139899400191883 0 -0.34652308549665217 0.42069444339431461 0 -0.34622770181631829 0.40711946760891071 0 -0.34847519079479439 0.42139899400191883 0 -0.34652308549665217 0.42069444339431461 0 -0.35986181072869311 0.40624743228278271 0 -0.34847519079479439 0.42139899400191883 0 -0.34622770181631829 0.40711946760891071 0 -0.34652308549665217 0.42069444339431461 0 -0.34622770181631829 0.40711946760891071 0 -0.33840202136131381 0.41396555072374902 0 -0.34622770181631829 0.40711946760891071 0 -0.33840202136131381 0.41396555072374902 0 -0.33139674181266437 0.40657657271488951 0 -0.34652308549665217 0.42069444339431461 0 -0.33840202136131381 0.41396555072374902 0 -0.32946055631962029 0.42147171917688148 0 -0.33840202136131381 0.41396555072374902 0 -0.32946055631962029 0.42147171917688148 0 -0.33139674181266437 0.40657657271488951 0 -0.34652308549665217 0.42069444339431461 0 -0.32946055631962029 0.42147171917688148 0 -0.33331421951736723 0.44157288171974313 0 -0.34847519079479439 0.42139899400191883 0 -0.33331421951736723 0.44157288171974313 0 -0.34847519079479439 0.42139899400191883 0 -0.34652308549665217 0.42069444339431461 0 -0.33331421951736723 0.44157288171974313 0 -0.32946055631962029 0.42147171917688148 0 -0.31516025745948151 0.43426046148133179 0 -0.33331421951736723 0.44157288171974313 0 -0.32946055631962029 0.42147171917688148 0 -0.31516025745948151 0.43426046148133179 0 -0.31462526127850149 0.41305195869936329 0 -0.32946055631962029 0.42147171917688148 0 -0.33139674181266437 0.40657657271488951 0 -0.31462526127850149 0.41305195869936329 0 -0.33139674181266437 0.40657657271488951 0 -0.31462526127850149 0.41305195869936329 0 -0.32104103052409239 0.39193984147282568 0 -0.34622770181631829 0.40711946760891071 0 -0.33139674181266437 0.40657657271488951 0 -0.34219722752465431 0.38892805849549428 0 -0.33139674181266437 0.40657657271488951 0 -0.32104103052409239 0.39193984147282568 0 -0.34219722752465431 0.38892805849549428 0 -0.34268919730432268 0.36442474369340128 0 -0.34219722752465431 0.38892805849549428 0 -0.33099576806603143 0.37734162067197802 0 -0.32104103052409239 0.39193984147282568 0 -0.34219722752465431 0.38892805849549428 0 -0.33099576806603143 0.37734162067197802 0 -0.31862750216658492 0.37417776804905689 0 -0.32104103052409239 0.39193984147282568 0 -0.30821783240227429 0.38392415123740647 0 -0.31862750216658492 0.37417776804905689 0 -0.32104103052409239 0.39193984147282568 0 -0.33099576806603143 0.37734162067197802 0 -0.30525996039997838 0.36990070793511998 0 -0.31862750216658492 0.37417776804905689 0 -0.30821783240227429 0.38392415123740647 0 -0.30821783240227429 0.38392415123740647 0 -0.30118325654933881 0.39931451356171488 0 -0.29497741237137731 0.38428792516831511 0 -0.30525996039997838 0.36990070793511998 0 -0.30821783240227429 0.38392415123740647 0 -0.29497741237137731 0.38428792516831511 0 -0.29067612458819991 0.37129091735776187 0 -0.30525996039997838 0.36990070793511998 0 -0.29497741237137731 0.38428792516831511 0 -0.32104103052409239 0.39193984147282568 0 -0.30821783240227429 0.38392415123740647 0 -0.30118325654933881 0.39931451356171488 0 -0.31462526127850149 0.41305195869936329 0 -0.32104103052409239 0.39193984147282568 0 -0.30118325654933881 0.39931451356171488 0 -0.30118325654933881 0.39931451356171488 0 -0.28664270077895843 0.39502431659755782 0 -0.28616187592775172 0.40742230810612118 0 -0.30118325654933881 0.39931451356171488 0 -0.28664270077895843 0.39502431659755782 0 -0.29497741237137731 0.38428792516831511 0 -0.28664270077895843 0.39502431659755782 0 -0.27440070714303139 0.40447529832093682 0 -0.28616187592775172 0.40742230810612118 0 -0.29067612458819991 0.37129091735776187 0 -0.29497741237137731 0.38428792516831511 0 -0.27672383066267681 0.38599555906808097 0 -0.28664270077895843 0.39502431659755782 0 -0.29497741237137731 0.38428792516831511 0 -0.27672383066267681 0.38599555906808097 0 -0.27672383066267681 0.38599555906808097 0 -0.26241552557014808 0.397060561712692 0 -0.25963242396411929 0.37727622901940577 0 -0.2757604081754898 0.36367215018778037 0 -0.27672383066267681 0.38599555906808097 0 -0.25963242396411929 0.37727622901940577 0 -0.28664270077895843 0.39502431659755782 0 -0.27672383066267681 0.38599555906808097 0 -0.27440070714303139 0.40447529832093682 0 -0.27672383066267681 0.38599555906808097 0 -0.27440070714303139 0.40447529832093682 0 -0.26241552557014808 0.397060561712692 0 -0.27440070714303139 0.40447529832093682 0 -0.26241552557014808 0.397060561712692 0 -0.26012010042176931 0.40982199886045129 0 -0.26241552557014808 0.397060561712692 0 -0.25230699108832699 0.4026191535729341 0 -0.26012010042176931 0.40982199886045129 0 -0.26241552557014808 0.397060561712692 0 -0.25230699108832699 0.4026191535729341 0 -0.25074605683935891 0.39025963196937857 0 -0.26241552557014808 0.397060561712692 0 -0.25963242396411929 0.37727622901940577 0 -0.25074605683935891 0.39025963196937857 0 -0.25404549454522068 0.43096924023269378 0 -0.25865246927565982 0.4214408159921233 0 -0.26585966868169281 0.43377222641760688 0 -0.25865246927565982 0.4214408159921233 0 -0.26929964060437211 0.41854408328612169 0 -0.26585966868169281 0.43377222641760688 0 -0.25404549454522068 0.43096924023269378 0 -0.26585966868169281 0.43377222641760688 0 -0.25671173586964652 0.44391461565791202 0 -0.25404549454522068 0.43096924023269378 0 -0.25865246927565982 0.4214408159921233 0 -0.24832935763120639 0.41647626704002783 0 -0.26012010042176931 0.40982199886045129 0 -0.25865246927565982 0.4214408159921233 0 -0.24832935763120639 0.41647626704002783 0 -0.25230699108832699 0.4026191535729341 0 -0.26012010042176931 0.40982199886045129 0 -0.24832935763120639 0.41647626704002783 0 -0.26012010042176931 0.40982199886045129 0 -0.25865246927565982 0.4214408159921233 0 -0.26929964060437211 0.41854408328612169 0 -0.27440070714303139 0.40447529832093682 0 -0.26012010042176931 0.40982199886045129 0 -0.26929964060437211 0.41854408328612169 0 -0.27440070714303139 0.40447529832093682 0 -0.28105110109883202 0.41814663489506021 0 -0.28616187592775172 0.40742230810612118 0 -0.27440070714303139 0.40447529832093682 0 -0.26929964060437211 0.41854408328612169 0 -0.28105110109883202 0.41814663489506021 0 -0.26929964060437211 0.41854408328612169 0 -0.28105110109883202 0.41814663489506021 0 -0.28043139564952591 0.43103921603081558 0 -0.26929964060437211 0.41854408328612169 0 -0.26585966868169281 0.43377222641760688 0 -0.28043139564952591 0.43103921603081558 0 -0.26585966868169281 0.43377222641760688 0 -0.28043139564952591 0.43103921603081558 0 -0.27730608386954753 0.4433993810184319 0 -0.28105110109883202 0.41814663489506021 0 -0.28043139564952591 0.43103921603081558 0 -0.29611593745672687 0.42132644712024558 0 -0.28043139564952591 0.43103921603081558 0 -0.29611593745672687 0.42132644712024558 0 -0.29929232194473371 0.44639299273419031 0 -0.30118325654933881 0.39931451356171488 0 -0.28616187592775172 0.40742230810612118 0 -0.29611593745672687 0.42132644712024558 0 -0.28105110109883202 0.41814663489506021 0 -0.28616187592775172 0.40742230810612118 0 -0.29611593745672687 0.42132644712024558 0 -0.31462526127850149 0.41305195869936329 0 -0.30118325654933881 0.39931451356171488 0 -0.29611593745672687 0.42132644712024558 0 -0.31516025745948151 0.43426046148133179 0 -0.31462526127850149 0.41305195869936329 0 -0.29611593745672687 0.42132644712024558 0 -0.31516025745948151 0.43426046148133179 0 -0.29611593745672687 0.42132644712024558 0 -0.29929232194473371 0.44639299273419031 0 -0.31516025745948151 0.43426046148133179 0 -0.29929232194473371 0.44639299273419031 0 -0.31815324823993968 0.4617467694375671 0 -0.29929232194473371 0.44639299273419031 0 -0.31815324823993968 0.4617467694375671 0 -0.29929232194473371 0.44639299273419031 0 -0.30066501621546438 0.46543204271909638 0 -0.31815324823993968 0.4617467694375671 0 -0.30066501621546438 0.46543204271909638 0 -0.2865248112058541 0.45434622099901878 0 -0.28499947257698632 0.4665727263088657 0 -0.29929232194473371 0.44639299273419031 0 -0.30066501621546438 0.46543204271909638 0 -0.2865248112058541 0.45434622099901878 0 -0.2865248112058541 0.45434622099901878 0 -0.28499947257698632 0.4665727263088657 0 -0.27570531101917312 0.45921290664631947 0 -0.28043139564952591 0.43103921603081558 0 -0.29929232194473371 0.44639299273419031 0 -0.27730608386954753 0.4433993810184319 0 -0.28043139564952591 0.43103921603081558 0 -0.29929232194473371 0.44639299273419031 0 -0.29929232194473371 0.44639299273419031 0 -0.2865248112058541 0.45434622099901878 0 -0.27730608386954753 0.4433993810184319 0 -0.27730608386954753 0.4433993810184319 0 -0.26667539088125602 0.45748072756981151 0 -0.2609517296811717 0.45709779292477959 0 -0.27730608386954753 0.4433993810184319 0 -0.2609517296811717 0.45709779292477959 0 -0.26513492426841451 0.44445959016569492 0 -0.2865248112058541 0.45434622099901878 0 -0.27730608386954753 0.4433993810184319 0 -0.27570531101917312 0.45921290664631947 0 -0.27730608386954753 0.4433993810184319 0 -0.2609517296811717 0.45709779292477959 0 -0.26585966868169281 0.43377222641760688 0 -0.27730608386954753 0.4433993810184319 0 -0.26513492426841451 0.44445959016569492 0 -0.27730608386954753 0.4433993810184319 0 -0.27570531101917312 0.45921290664631947 0 -0.26667539088125602 0.45748072756981151 0 -0.28499947257698632 0.4665727263088657 0 -0.27570531101917312 0.45921290664631947 0 -0.27340747661636522 0.47090132695025028 0 -0.27570531101917312 0.45921290664631947 0 -0.26783388056144852 0.46434621592898878 0 -0.27340747661636522 0.47090132695025028 0 -0.26783388056144852 0.46434621592898878 0 -0.26667539088125602 0.45748072756981151 0 -0.26319881545845542 0.46163475462421122 0 -0.27570531101917312 0.45921290664631947 0 -0.26783388056144852 0.46434621592898878 0 -0.26667539088125602 0.45748072756981151 0 -0.26667539088125602 0.45748072756981151 0 -0.26319881545845542 0.46163475462421122 0 -0.25735120147609392 0.46011359641450922 0 -0.25735120147609392 0.46011359641450922 0 -0.25570875743256172 0.45805806738667881 0 -0.2372762584224431 0.47692837465508542 0 -0.26667539088125602 0.45748072756981151 0 -0.2609517296811717 0.45709779292477959 0 -0.25735120147609392 0.46011359641450922 0 -0.2609517296811717 0.45709779292477959 0 -0.25735120147609392 0.46011359641450922 0 -0.25570875743256172 0.45805806738667881 0 -0.2609517296811717 0.45709779292477959 0 -0.25570875743256172 0.45805806738667881 0 -0.2609517296811717 0.45709779292477959 0 -0.25735120147609392 0.46011359641450922 0 -0.26783388056144852 0.46434621592898878 0 -0.26093478891502331 0.46459847858353548 0 -0.26508266728741903 0.47275394962046319 0 -0.26093478891502331 0.46459847858353548 0 -0.25735120147609392 0.46011359641450922 0 -0.25788205664377922 0.47089498520339479 0 -0.26783388056144852 0.46434621592898878 0 -0.26319881545845542 0.46163475462421122 0 -0.26093478891502331 0.46459847858353548 0 -0.26319881545845542 0.46163475462421122 0 -0.26093478891502331 0.46459847858353548 0 -0.25735120147609392 0.46011359641450922 0 -0.26093478891502331 0.46459847858353548 0 -0.25735120147609392 0.46011359641450922 0 -0.25735120147609392 0.46011359641450922 0 -0.25076271441078912 0.47396788578294868 0 -0.25788205664377922 0.47089498520339479 0 -0.25735120147609392 0.46011359641450922 0 -0.25570875743256172 0.45805806738667881 0 -0.25570875743256172 0.45805806738667881 0 -0.25671173586964652 0.44391461565791202 0 -0.24067424126789799 0.43924227605579907 0 -0.2609517296811717 0.45709779292477959 0 -0.25570875743256172 0.45805806738667881 0 -0.25671173586964652 0.44391461565791202 0 -0.25404549454522068 0.43096924023269378 0 -0.25671173586964652 0.44391461565791202 0 -0.24067424126789799 0.43924227605579907 0 -0.26585966868169281 0.43377222641760688 0 -0.25671173586964652 0.44391461565791202 0 -0.26513492426841451 0.44445959016569492 0 -0.2609517296811717 0.45709779292477959 0 -0.25671173586964652 0.44391461565791202 0 -0.26513492426841451 0.44445959016569492 0 -0.25865824502194679 0.48367225319284879 0 -0.2450937842319563 0.48506806858536478 0 -0.24697966632078749 0.5 0 -0.25865824502194679 0.48367225319284879 0 -0.27385313266835082 0.5 0 -0.24697966632078749 0.5 0 -0.25076271441078912 0.47396788578294868 0 -0.25865824502194679 0.48367225319284879 0 -0.2450937842319563 0.48506806858536478 0 -0.25076271441078912 0.47396788578294868 0 -0.25788205664377922 0.47089498520339479 0 -0.25865824502194679 0.48367225319284879 0 -0.26508266728741903 0.47275394962046319 0 -0.25788205664377922 0.47089498520339479 0 -0.25865824502194679 0.48367225319284879 0 -0.26093478891502331 0.46459847858353548 0 -0.26508266728741903 0.47275394962046319 0 -0.25788205664377922 0.47089498520339479 0 -0.26508266728741903 0.47275394962046319 0 -0.25865824502194679 0.48367225319284879 0 -0.27248358386019639 0.48224194569237189 0 -0.26783388056144852 0.46434621592898878 0 -0.26508266728741903 0.47275394962046319 0 -0.27340747661636522 0.47090132695025028 0 -0.26508266728741903 0.47275394962046319 0 -0.27248358386019639 0.48224194569237189 0 -0.27340747661636522 0.47090132695025028 0 -0.27248358386019639 0.48224194569237189 0 -0.27340747661636522 0.47090132695025028 0 -0.2859230346680191 0.48241943877638338 0 -0.27248358386019639 0.48224194569237189 0 -0.27385313266835082 0.5 0 -0.2859230346680191 0.48241943877638338 0 -0.25865824502194679 0.48367225319284879 0 -0.27248358386019639 0.48224194569237189 0 -0.27385313266835082 0.5 0 -0.27385313266835082 0.5 0 -0.2859230346680191 0.48241943877638338 0 -0.30072659901591392 0.5 0 -0.2859230346680191 0.48241943877638338 0 -0.30243932117597738 0.48265644563136278 0 -0.30072659901591392 0.5 0 -0.29353995705304781 0.47448723589678682 0 -0.2859230346680191 0.48241943877638338 0 -0.30243932117597738 0.48265644563136278 0 -0.28499947257698632 0.4665727263088657 0 -0.29353995705304781 0.47448723589678682 0 -0.2859230346680191 0.48241943877638338 0 -0.30066501621546438 0.46543204271909638 0 -0.28499947257698632 0.4665727263088657 0 -0.29353995705304781 0.47448723589678682 0 -0.28499947257698632 0.4665727263088657 0 -0.27340747661636522 0.47090132695025028 0 -0.2859230346680191 0.48241943877638338 0 -0.30243932117597738 0.48265644563136278 0 -0.31815324823993968 0.4617467694375671 0 -0.30066501621546438 0.46543204271909638 0 -0.29353995705304781 0.47448723589678682 0 -0.30243932117597738 0.48265644563136278 0 -0.30066501621546438 0.46543204271909638 0 -0.30243932117597738 0.48265644563136278 0 -0.31815324823993968 0.4617467694375671 0 -0.30243932117597738 0.48265644563136278 0 -0.30072659901591392 0.5 0 -0.31953559728852632 0.48289567101635322 0 -0.30072659901591392 0.5 0 -0.32760006536347719 0.5 0 -0.31953559728852632 0.48289567101635322 0 -0.32760006536347719 0.5 0 -0.33739672619179611 0.48926661394044441 0 -0.35447353171104051 0.5 0 -0.32760006536347719 0.5 0 -0.33739672619179611 0.48926661394044441 0 -0.31953559728852632 0.48289567101635322 0 -0.33739672619179611 0.48926661394044441 0 -0.33450922827862589 0.47506138937447778 0 -0.3508652083173105 0.48837600931139069 0 -0.33450922827862589 0.47506138937447778 0 -0.3508652083173105 0.48837600931139069 0 -0.33739672619179611 0.48926661394044441 0 -0.33450922827862589 0.47506138937447778 0 -0.31953559728852632 0.48289567101635322 0 -0.30243932117597738 0.48265644563136278 0 -0.31953559728852632 0.48289567101635322 0 -0.31815324823993968 0.4617467694375671 0 -0.33450922827862589 0.47506138937447778 0 -0.31953559728852632 0.48289567101635322 0 -0.31815324823993968 0.4617467694375671 0 -0.33450922827862589 0.47506138937447778 0 -0.31815324823993968 0.4617467694375671 0 -0.31516025745948151 0.43426046148133179 0 -0.31815324823993968 0.4617467694375671 0 -0.33331421951736723 0.44157288171974313 0 -0.31815324823993968 0.4617467694375671 0 -0.33331421951736723 0.44157288171974313 0 -0.33331421951736723 0.44157288171974313 0 -0.33866057919616188 0.45831012600256388 0 -0.35326895171602879 0.44541809186596187 0 -0.31815324823993968 0.4617467694375671 0 -0.33331421951736723 0.44157288171974313 0 -0.33866057919616188 0.45831012600256388 0 -0.33450922827862589 0.47506138937447778 0 -0.33866057919616188 0.45831012600256388 0 -0.35405724822884799 0.46775149761507012 0 -0.33450922827862589 0.47506138937447778 0 -0.31815324823993968 0.4617467694375671 0 -0.33866057919616188 0.45831012600256388 0 -0.33866057919616188 0.45831012600256388 0 -0.35405724822884799 0.46775149761507012 0 -0.35326895171602879 0.44541809186596187 0 -0.37198128017799892 0.42988277280885612 0 -0.35326895171602879 0.44541809186596187 0 -0.37246933956412792 0.45377813189085492 0 -0.35405724822884799 0.46775149761507012 0 -0.35326895171602879 0.44541809186596187 0 -0.37246933956412792 0.45377813189085492 0 -0.35405724822884799 0.46775149761507012 0 -0.37246933956412792 0.45377813189085492 0 -0.37254821432271701 0.4773643366350912 0 -0.35405724822884799 0.46775149761507012 0 -0.36029928866701699 0.48061684941444732 0 -0.37254821432271701 0.4773643366350912 0 -0.36029928866701699 0.48061684941444732 0 -0.37254821432271701 0.4773643366350912 0 -0.36372648379919242 0.48897555409623727 0 -0.38134699805860361 0.5 0 -0.37254821432271701 0.4773643366350912 0 -0.36372648379919242 0.48897555409623727 0 -0.38134699805860361 0.5 0 -0.36372648379919242 0.48897555409623727 0 -0.35447353171104051 0.5 0 -0.36029928866701699 0.48061684941444732 0 -0.36372648379919242 0.48897555409623727 0 -0.3508652083173105 0.48837600931139069 0 -0.33739672619179611 0.48926661394044441 0 -0.35447353171104051 0.5 0 -0.3508652083173105 0.48837600931139069 0 -0.36372648379919242 0.48897555409623727 0 -0.35447353171104051 0.5 0 -0.3508652083173105 0.48837600931139069 0 -0.33450922827862589 0.47506138937447778 0 -0.35405724822884799 0.46775149761507012 0 -0.3508652083173105 0.48837600931139069 0 -0.35405724822884799 0.46775149761507012 0 -0.36029928866701699 0.48061684941444732 0 -0.3508652083173105 0.48837600931139069 0 -0.15097494409204271 0.48314740409142909 0 -0.14536611412384901 0.46636699133450188 0 -0.17160907689378771 0.47208995668946369 0 -0.15097494409204271 0.48314740409142909 0 -0.13293933748483619 0.4720456825956364 0 -0.14536611412384901 0.46636699133450188 0 -0.15097494409204271 0.48314740409142909 0 -0.13709577279281929 0.5 0 -0.16635926727809791 0.49999999999999423 0 -0.15097494409204271 0.48314740409142909 0 -0.13709577279281929 0.5 0 -0.13293933748483619 0.4720456825956364 0 -0.13709577279281929 0.5 0 -0.13293933748483619 0.4720456825956364 0 -0.11494632252728711 0.47650727730266318 0 -0.13293933748483619 0.4720456825956364 0 -0.1341420266950375 0.45514891774332372 0 -0.1220603667470337 0.45301455460532869 0 -0.13293933748483619 0.4720456825956364 0 -0.1341420266950375 0.45514891774332372 0 -0.14536611412384901 0.46636699133450188 0 -0.12974186454792591 0.44451914813230581 0 -0.12543055554419991 0.4418851732852449 0 -0.13554763656691371 0.43864941345778841 0 -0.12974186454792591 0.44451914813230581 0 -0.12543055554419991 0.4418851732852449 0 -0.1220603667470337 0.45301455460532869 0 -0.1341420266950375 0.45514891774332372 0 -0.12974186454792591 0.44451914813230581 0 -0.1220603667470337 0.45301455460532869 0 -0.12974186454792591 0.44451914813230581 0 -0.1220603667470337 0.45301455460532869 0 -0.1341420266950375 0.45514891774332372 0 -0.13921686325922361 0.44548712449987371 0 -0.14551778166835469 0.45395118777800242 0 -0.1341420266950375 0.45514891774332372 0 -0.12974186454792591 0.44451914813230581 0 -0.13921686325922361 0.44548712449987371 0 -0.13921686325922361 0.44548712449987371 0 -0.13554763656691371 0.43864941345778841 0 -0.14337108733032641 0.4366682374816353 0 -0.12974186454792591 0.44451914813230581 0 -0.13921686325922361 0.44548712449987371 0 -0.13554763656691371 0.43864941345778841 0 -0.13921686325922361 0.44548712449987371 0 -0.15189614494802331 0.44477701923797042 0 -0.14337108733032641 0.4366682374816353 0 -0.13921686325922361 0.44548712449987371 0 -0.15189614494802331 0.44477701923797042 0 -0.14551778166835469 0.45395118777800242 0 -0.15189614494802331 0.44477701923797042 0 -0.14551778166835469 0.45395118777800242 0 -0.15977952017142391 0.45818518924555379 0 -0.15189614494802331 0.44477701923797042 0 -0.15544911619522461 0.43112094251756777 0 -0.14337108733032641 0.4366682374816353 0 -0.1341420266950375 0.45514891774332372 0 -0.14536611412384901 0.46636699133450188 0 -0.14551778166835469 0.45395118777800242 0 -0.14536611412384901 0.46636699133450188 0 -0.14551778166835469 0.45395118777800242 0 -0.15977952017142391 0.45818518924555379 0 -0.14536611412384901 0.46636699133450188 0 -0.15977952017142391 0.45818518924555379 0 -0.17160907689378771 0.47208995668946369 0 -0.15977952017142391 0.45818518924555379 0 -0.1768588865094779 0.44417991337893348 0 -0.17160907689378771 0.47208995668946369 0 -0.15189614494802331 0.44477701923797042 0 -0.1768588865094779 0.44417991337893348 0 -0.15544911619522461 0.43112094251756777 0 -0.15189614494802331 0.44477701923797042 0 -0.15977952017142391 0.45818518924555379 0 -0.1768588865094779 0.44417991337893348 0 -0.1768588865094779 0.44417991337893348 0 -0.19153927599921211 0.44612006175288388 0 -0.1938388938311521 0.42973659382961688 0 -0.1768588865094779 0.44417991337893348 0 -0.18247951117797881 0.45783324546471699 0 -0.1768588865094779 0.44417991337893348 0 -0.18247951117797881 0.45783324546471699 0 -0.19153927599921211 0.44612006175288388 0 -0.1768588865094779 0.44417991337893348 0 -0.17160907689378771 0.47208995668946369 0 -0.1768588865094779 0.44417991337893348 0 -0.18247951117797881 0.45783324546471699 0 -0.17160907689378771 0.47208995668946369 0 -0.18247951117797881 0.45783324546471699 0 -0.18559933892246219 0.46803980931552053 0 -0.17160907689378771 0.47208995668946369 0 -0.18559933892246219 0.46803980931552053 0 -0.1755853844004982 0.47918182480297988 0 -0.17160907689378771 0.47208995668946369 0 -0.1755853844004982 0.47918182480297988 0 -0.17160907689378771 0.47208995668946369 0 -0.16635926727809791 0.49999999999999423 0 -0.17160907689378771 0.47208995668946369 0 -0.16635926727809791 0.49999999999999423 0 -0.15097494409204271 0.48314740409142909 0 -0.17160907689378771 0.47208995668946369 0 -0.16635926727809791 0.49999999999999423 0 -0.16635926727809791 0.49999999999999423 0 -0.1932327336256611 0.5 0 -0.19040951593215949 0.48481280396383908 0 -0.1755853844004982 0.47918182480297988 0 -0.16635926727809791 0.49999999999999423 0 -0.19040951593215949 0.48481280396383908 0 -0.1932327336256611 0.5 0 -0.19040951593215949 0.48481280396383908 0 -0.20457630235877899 0.48560110127262418 0 -0.1755853844004982 0.47918182480297988 0 -0.2022931754111861 0.47214057233087908 0 -0.1755853844004982 0.47918182480297988 0 -0.19040951593215949 0.48481280396383908 0 -0.2022931754111861 0.47214057233087908 0 -0.18559933892246219 0.46803980931552053 0 -0.1755853844004982 0.47918182480297988 0 -0.2022931754111861 0.47214057233087908 0 -0.19040951593215949 0.48481280396383908 0 -0.2022931754111861 0.47214057233087908 0 -0.20457630235877899 0.48560110127262418 0 -0.2022931754111861 0.47214057233087908 0 -0.21904089219183831 0.478214064348085 0 -0.2290009664218737 0.46509931985877839 0 -0.2022931754111861 0.47214057233087908 0 -0.20457630235877899 0.48560110127262418 0 -0.21904089219183831 0.478214064348085 0 -0.1932327336256611 0.5 0 -0.20457630235877899 0.48560110127262418 0 -0.2172013153687925 0.49374315289566162 0 -0.1932327336256611 0.5 0 -0.2172013153687925 0.49374315289566162 0 -0.22010619997322431 0.5 0 -0.20457630235877899 0.48560110127262418 0 -0.2172013153687925 0.49374315289566162 0 -0.21904089219183831 0.478214064348085 0 -0.2172013153687925 0.49374315289566162 0 -0.22010619997322431 0.5 0 -0.2317920369838152 0.49077182929594138 0 -0.2172013153687925 0.49374315289566162 0 -0.2372762584224431 0.47692837465508542 0 -0.2172013153687925 0.49374315289566162 0 -0.2317920369838152 0.49077182929594138 0 -0.2372762584224431 0.47692837465508542 0 -0.22010619997322431 0.5 0 -0.2317920369838152 0.49077182929594138 0 -0.24697966632078749 0.5 0 -0.2172013153687925 0.49374315289566162 0 -0.21904089219183831 0.478214064348085 0 -0.2372762584224431 0.47692837465508542 0 -0.21904089219183831 0.478214064348085 0 -0.2372762584224431 0.47692837465508542 0 -0.2290009664218737 0.46509931985877839 0 -0.25735120147609392 0.46011359641450922 0 -0.25076271441078912 0.47396788578294868 0 -0.2372762584224431 0.47692837465508542 0 -0.2317920369838152 0.49077182929594138 0 -0.2372762584224431 0.47692837465508542 0 -0.2450937842319563 0.48506806858536478 0 -0.25076271441078912 0.47396788578294868 0 -0.2372762584224431 0.47692837465508542 0 -0.2450937842319563 0.48506806858536478 0 -0.2317920369838152 0.49077182929594138 0 -0.2450937842319563 0.48506806858536478 0 -0.24697966632078749 0.5 0 -0.25570875743256172 0.45805806738667881 0 -0.24067424126789799 0.43924227605579907 0 -0.25570875743256172 0.45805806738667881 0 -0.24067424126789799 0.43924227605579907 0 -0.238876469465478 0.45428154890057793 0 -0.24067424126789799 0.43924227605579907 0 -0.238876469465478 0.45428154890057793 0 -0.2295064018114252 0.45345011511857719 0 -0.25570875743256172 0.45805806738667881 0 -0.2290009664218737 0.46509931985877839 0 -0.25570875743256172 0.45805806738667881 0 -0.2372762584224431 0.47692837465508542 0 -0.2290009664218737 0.46509931985877839 0 -0.25570875743256172 0.45805806738667881 0 -0.238876469465478 0.45428154890057793 0 -0.2290009664218737 0.46509931985877839 0 -0.25735120147609392 0.46011359641450922 0 -0.2372762584224431 0.47692837465508542 0 -0.238876469465478 0.45428154890057793 0 -0.2295064018114252 0.45345011511857719 0 -0.2290009664218737 0.46509931985877839 0 -0.2295064018114252 0.45345011511857719 0 -0.2290009664218737 0.46509931985877839 0 -0.21411079018234461 0.45646667316605333 0 -0.24067424126789799 0.43924227605579907 0 -0.2295064018114252 0.45345011511857719 0 -0.2219150892643951 0.44603395513578392 0 -0.2295064018114252 0.45345011511857719 0 -0.2219150892643951 0.44603395513578392 0 -0.21411079018234461 0.45646667316605333 0 -0.24067424126789799 0.43924227605579907 0 -0.2219150892643951 0.44603395513578392 0 -0.21803140046968919 0.43309548300826251 0 -0.20530405052817341 0.44184621208026048 0 -0.21411079018234461 0.45646667316605333 0 -0.1960295467288605 0.4589534472895625 0 -0.2219150892643951 0.44603395513578392 0 -0.20530405052817341 0.44184621208026048 0 -0.21803140046968919 0.43309548300826251 0 -0.2219150892643951 0.44603395513578392 0 -0.20530405052817341 0.44184621208026048 0 -0.21411079018234461 0.45646667316605333 0 -0.2022931754111861 0.47214057233087908 0 -0.2290009664218737 0.46509931985877839 0 -0.21411079018234461 0.45646667316605333 0 -0.2022931754111861 0.47214057233087908 0 -0.2290009664218737 0.46509931985877839 0 -0.2022931754111861 0.47214057233087908 0 -0.21411079018234461 0.45646667316605333 0 -0.1960295467288605 0.4589534472895625 0 -0.18559933892246219 0.46803980931552053 0 -0.2022931754111861 0.47214057233087908 0 -0.1960295467288605 0.4589534472895625 0 -0.18247951117797881 0.45783324546471699 0 -0.1960295467288605 0.4589534472895625 0 -0.19153927599921211 0.44612006175288388 0 -0.18247951117797881 0.45783324546471699 0 -0.18559933892246219 0.46803980931552053 0 -0.1960295467288605 0.4589534472895625 0 -0.20530405052817341 0.44184621208026048 0 -0.19153927599921211 0.44612006175288388 0 -0.1938388938311521 0.42973659382961688 0 -0.20530405052817341 0.44184621208026048 0 -0.1960295467288605 0.4589534472895625 0 -0.19153927599921211 0.44612006175288388 0 -0.20530405052817341 0.44184621208026048 0 -0.1938388938311521 0.42973659382961688 0 -0.2069622786283489 0.42148385881334532 0 -0.19880350836458291 0.41190234354558658 0 -0.19771742157019909 0.39649405011038069 0 -0.1822369870595934 0.41558782523282961 0 -0.1938388938311521 0.42973659382961688 0 -0.19880350836458291 0.41190234354558658 0 -0.1822369870595934 0.41558782523282961 0 -0.1938388938311521 0.42973659382961688 0 -0.19880350836458291 0.41190234354558658 0 -0.2069622786283489 0.42148385881334532 0 -0.22563972510323629 0.42042648472491773 0 -0.21060520893857451 0.40161069339403632 0 -0.19880350836458291 0.41190234354558658 0 -0.2069622786283489 0.42148385881334532 0 -0.21060520893857451 0.40161069339403632 0 -0.2069622786283489 0.42148385881334532 0 -0.22563972510323629 0.42042648472491773 0 -0.21060520893857451 0.40161069339403632 0 -0.2069622786283489 0.42148385881334532 0 -0.21803140046968919 0.43309548300826251 0 -0.22563972510323629 0.42042648472491773 0 -0.20530405052817341 0.44184621208026048 0 -0.2069622786283489 0.42148385881334532 0 -0.21803140046968919 0.43309548300826251 0 -0.24067424126789799 0.43924227605579907 0 -0.22563972510323629 0.42042648472491773 0 -0.24067424126789799 0.43924227605579907 0 -0.22563972510323629 0.42042648472491773 0 -0.23594889991765389 0.41461011574421019 0 -0.24067424126789799 0.43924227605579907 0 -0.21803140046968919 0.43309548300826251 0 -0.22563972510323629 0.42042648472491773 0 -0.22563972510323629 0.42042648472491773 0 -0.22661095704568929 0.40733604835423548 0 -0.21060520893857451 0.40161069339403632 0 -0.22661095704568929 0.40733604835423548 0 -0.23594889991765389 0.41461011574421019 0 -0.2399239149791528 0.39947730828212102 0 -0.22563972510323629 0.42042648472491773 0 -0.22661095704568929 0.40733604835423548 0 -0.23594889991765389 0.41461011574421019 0 -0.23594889991765389 0.41461011574421019 0 -0.24832935763120639 0.41647626704002783 0 -0.2399239149791528 0.39947730828212102 0 -0.24067424126789799 0.43924227605579907 0 -0.23594889991765389 0.41461011574421019 0 -0.24832935763120639 0.41647626704002783 0 -0.25404549454522068 0.43096924023269378 0 -0.24067424126789799 0.43924227605579907 0 -0.24832935763120639 0.41647626704002783 0 -0.25074605683935891 0.39025963196937857 0 -0.2380843279317898 0.37873447349200662 0 -0.2399239149791528 0.39947730828212102 0 -0.2380843279317898 0.37873447349200662 0 -0.2399239149791528 0.39947730828212102 0 -0.227199662249505 0.38913345404969613 0 -0.25963242396411929 0.37727622901940577 0 -0.25074605683935891 0.39025963196937857 0 -0.2380843279317898 0.37873447349200662 0 -0.25230699108832699 0.4026191535729341 0 -0.25074605683935891 0.39025963196937857 0 -0.2399239149791528 0.39947730828212102 0 -0.25230699108832699 0.4026191535729341 0 -0.24832935763120639 0.41647626704002783 0 -0.2399239149791528 0.39947730828212102 0 -0.22661095704568929 0.40733604835423548 0 -0.227199662249505 0.38913345404969613 0 -0.20980207260275821 0.38286984864742779 0 -0.22661095704568929 0.40733604835423548 0 -0.2399239149791528 0.39947730828212102 0 -0.227199662249505 0.38913345404969613 0 -0.227199662249505 0.38913345404969613 0 -0.22138730006762589 0.37860178181899112 0 -0.20980207260275821 0.38286984864742779 0 -0.2380843279317898 0.37873447349200662 0 -0.227199662249505 0.38913345404969613 0 -0.22138730006762589 0.37860178181899112 0 -0.20980207260275821 0.38286984864742779 0 -0.21060520893857451 0.40161069339403632 0 -0.1955706927739127 0.38279490206315492 0 -0.22138730006762589 0.37860178181899112 0 -0.20980207260275821 0.38286984864742779 0 -0.21186066757003749 0.36708443823166648 0 -0.22661095704568929 0.40733604835423548 0 -0.20980207260275821 0.38286984864742779 0 -0.21060520893857451 0.40161069339403632 0 -0.22661095704568929 0.40733604835423548 0 -0.20980207260275821 0.38286984864742779 0 -0.19771742157019909 0.39649405011038069 0 -0.18761508760970841 0.38699573708672541 0 -0.1822369870595934 0.41558782523282961 0 -0.21060520893857451 0.40161069339403632 0 -0.1955706927739127 0.38279490206315492 0 -0.21060520893857451 0.40161069339403632 0 -0.19771742157019909 0.39649405011038069 0 -0.1955706927739127 0.38279490206315492 0 -0.19880350836458291 0.41190234354558658 0 -0.21060520893857451 0.40161069339403632 0 -0.19771742157019909 0.39649405011038069 0 -0.1955706927739127 0.38279490206315492 0 -0.18761508760970841 0.38699573708672541 0 -0.19299318815982511 0.3584036489406216 0 -0.19771742157019909 0.39649405011038069 0 -0.1955706927739127 0.38279490206315492 0 -0.18761508760970841 0.38699573708672541 0 -0.18761508760970841 0.38699573708672541 0 -0.16784626737036021 0.38367774067199678 0 -0.1693635991047929 0.39488889509463349 0 -0.18761508760970841 0.38699573708672541 0 -0.16784626737036021 0.38367774067199678 0 -0.17209258985668821 0.37287519816867881 0 -0.18761508760970841 0.38699573708672541 0 -0.17209258985668821 0.37287519816867881 0 -0.1820175651140804 0.36962084513555271 0 -0.16784626737036021 0.38367774067199678 0 -0.1586485160828463 0.37519192368121562 0 -0.17209258985668821 0.37287519816867881 0 -0.16784626737036021 0.38367774067199678 0 -0.1586485160828463 0.37519192368121562 0 -0.15498310706512461 0.39104039615357161 0 -0.16784626737036021 0.38367774067199678 0 -0.1693635991047929 0.39488889509463349 0 -0.15498310706512461 0.39104039615357161 0 -0.17289484165915331 0.40704536193159557 0 -0.16592099678730041 0.41761015476625279 0 -0.15498310706512461 0.39104039615357161 0 -0.16592099678730041 0.41761015476625279 0 -0.15498310706512461 0.39104039615357161 0 -0.16592099678730041 0.41761015476625279 0 -0.1545250687615847 0.40748959449452038 0 -0.15498310706512461 0.39104039615357161 0 -0.1693635991047929 0.39488889509463349 0 -0.17289484165915331 0.40704536193159557 0 -0.15498310706512461 0.39104039615357161 0 -0.1693635991047929 0.39488889509463349 0 -0.15498310706512461 0.39104039615357161 0 -0.18761508760970841 0.38699573708672541 0 -0.1822369870595934 0.41558782523282961 0 -0.18761508760970841 0.38699573708672541 0 -0.1693635991047929 0.39488889509463349 0 -0.17289484165915331 0.40704536193159557 0 -0.18761508760970841 0.38699573708672541 0 -0.1822369870595934 0.41558782523282961 0 -0.17289484165915331 0.40704536193159557 0 -0.1822369870595934 0.41558782523282961 0 -0.17289484165915331 0.40704536193159557 0 -0.16592099678730041 0.41761015476625279 0 -0.1768588865094779 0.44417991337893348 0 -0.1822369870595934 0.41558782523282961 0 -0.1768588865094779 0.44417991337893348 0 -0.1938388938311521 0.42973659382961688 0 -0.1822369870595934 0.41558782523282961 0 -0.1768588865094779 0.44417991337893348 0 -0.1822369870595934 0.41558782523282961 0 -0.16592099678730041 0.41761015476625279 0 -0.1768588865094779 0.44417991337893348 0 -0.16592099678730041 0.41761015476625279 0 -0.1768588865094779 0.44417991337893348 0 -0.16592099678730041 0.41761015476625279 0 -0.15544911619522461 0.43112094251756777 0 -0.16592099678730041 0.41761015476625279 0 -0.15396824847425039 0.42022701891705577 0 -0.15544911619522461 0.43112094251756777 0 -0.16592099678730041 0.41761015476625279 0 -0.1545250687615847 0.40748959449452038 0 -0.15396824847425039 0.42022701891705577 0 -0.1545250687615847 0.40748959449452038 0 -0.13481333604998941 0.41354275360105008 0 -0.1397202057038307 0.40023656879284331 0 -0.1545250687615847 0.40748959449452038 0 -0.15396824847425039 0.42022701891705577 0 -0.13997781215289179 0.42468738388988231 0 -0.1545250687615847 0.40748959449452038 0 -0.13997781215289179 0.42468738388988231 0 -0.13481333604998941 0.41354275360105008 0 -0.1545250687615847 0.40748959449452038 0 -0.13997781215289179 0.42468738388988231 0 -0.15396824847425039 0.42022701891705577 0 -0.15544911619522461 0.43112094251756777 0 -0.13997781215289179 0.42468738388988231 0 -0.15544911619522461 0.43112094251756777 0 -0.14337108733032641 0.4366682374816353 0 -0.13997781215289179 0.42468738388988231 0 -0.12543055554419991 0.4418851732852449 0 -0.13997781215289179 0.42468738388988231 0 -0.12543055554419991 0.4418851732852449 0 -0.13554763656691371 0.43864941345778841 0 -0.13997781215289179 0.42468738388988231 0 -0.12543055554419991 0.4418851732852449 0 -0.13052740083170131 0.42505385072499302 0 -0.12543055554419991 0.4418851732852449 0 -0.13997781215289179 0.42468738388988231 0 -0.13052740083170131 0.42505385072499302 0 -0.12543055554419991 0.4418851732852449 0 -0.13052740083170131 0.42505385072499302 0 -0.1231996008834208 0.42639881085791081 0 -0.13554763656691371 0.43864941345778841 0 -0.14337108733032641 0.4366682374816353 0 -0.13997781215289179 0.42468738388988231 0 -0.13481333604998941 0.41354275360105008 0 -0.12582637250862541 0.40516963685766161 0 -0.1231996008834208 0.42639881085791081 0 -0.13481333604998941 0.41354275360105008 0 -0.12582637250862541 0.40516963685766161 0 -0.1397202057038307 0.40023656879284331 0 -0.13997781215289179 0.42468738388988231 0 -0.13052740083170131 0.42505385072499302 0 -0.13481333604998941 0.41354275360105008 0 -0.13052740083170131 0.42505385072499302 0 -0.13481333604998941 0.41354275360105008 0 -0.1231996008834208 0.42639881085791081 0 -0.12582637250862541 0.40516963685766161 0 -0.1284531441338306 0.38394046285741251 0 -0.12582637250862541 0.40516963685766161 0 -0.1397202057038307 0.40023656879284331 0 -0.1284531441338306 0.38394046285741251 0 -0.1284531441338306 0.38394046285741251 0 -0.13029579966624269 0.36904839742441409 0 -0.1284531441338306 0.38394046285741251 0 -0.15498310706512461 0.39104039615357161 0 -0.14354357663251049 0.36325207775238411 0 -0.15498310706512461 0.39104039615357161 0 -0.14354357663251049 0.36325207775238411 0 -0.1284531441338306 0.38394046285741251 0 -0.15498310706512461 0.39104039615357161 0 -0.1586485160828463 0.37519192368121562 0 -0.15498310706512461 0.39104039615357161 0 -0.14354357663251049 0.36325207775238411 0 -0.1545250687615847 0.40748959449452038 0 -0.1397202057038307 0.40023656879284331 0 -0.15498310706512461 0.39104039615357161 0 -0.1397202057038307 0.40023656879284331 0 -0.1284531441338306 0.38394046285741251 0 -0.15498310706512461 0.39104039615357161 0 -0.14969657978653139 0.34521550510542781 0 -0.14354357663251049 0.36325207775238411 0 -0.13776740220958669 0.34922089221111302 0 -0.14969657978653139 0.34521550510542781 0 -0.14354357663251049 0.36325207775238411 0 -0.15896404764819971 0.35650513600299027 0 -0.14354357663251049 0.36325207775238411 0 -0.13776740220958669 0.34922089221111302 0 -0.15349844210609759 0.36314919049554839 0 -0.15896404764819971 0.35650513600299027 0 -0.14354357663251049 0.36325207775238411 0 -0.15896404764819971 0.35650513600299027 0 -0.15349844210609759 0.36314919049554839 0 -0.14354357663251049 0.36325207775238411 0 -0.15896404764819971 0.35650513600299027 0 -0.1586485160828463 0.37519192368121562 0 -0.15349844210609759 0.36314919049554839 0 -0.14354357663251049 0.36325207775238411 0 -0.1284531441338306 0.38394046285741251 0 -0.14354357663251049 0.36325207775238411 0 -0.13029579966624269 0.36904839742441409 0 -0.14354357663251049 0.36325207775238411 0 -0.13029579966624269 0.36904839742441409 0 -0.13776740220958669 0.34922089221111302 0 -0.14354357663251049 0.36325207775238411 0 -0.13029579966624269 0.36904839742441409 0 -0.13029579966624269 0.36904839742441409 0 -0.13312730013659771 0.34616463562715738 0 -0.13029579966624269 0.36904839742441409 0 -0.13312730013659771 0.34616463562715738 0 -0.12365021453331169 0.35636852945536851 0 -0.13312730013659771 0.34616463562715738 0 -0.131991227786662 0.33518970666984238 0 -0.12365021453331169 0.35636852945536851 0 -0.13029579966624269 0.36904839742441409 0 -0.13776740220958669 0.34922089221111302 0 -0.13312730013659771 0.34616463562715738 0 -0.13776740220958669 0.34922089221111302 0 -0.131991227786662 0.33518970666984238 0 -0.14596361555013879 0.33306356421282818 0 -0.13776740220958669 0.34922089221111302 0 -0.131991227786662 0.33518970666984238 0 -0.13776740220958669 0.34922089221111302 0 -0.13312730013659771 0.34616463562715738 0 -0.131991227786662 0.33518970666984238 0 -0.131991227786662 0.33518970666984238 0 -0.13571420934911421 0.3187241401356995 0 -0.14994963927078289 0.31950407615247328 0 -0.131991227786662 0.33518970666984238 0 -0.1237041471641563 0.3150591570540977 0 -0.131991227786662 0.33518970666984238 0 -0.13571420934911421 0.3187241401356995 0 -0.1237041471641563 0.3150591570540977 0 -0.13571420934911421 0.3187241401356995 0 -0.13721182317485489 0.30514362066638512 0 -0.1237041471641563 0.3150591570540977 0 -0.131991227786662 0.33518970666984238 0 -0.14994963927078289 0.31950407615247328 0 -0.14994963927078289 0.31950407615247328 0 -0.15689513735818569 0.32410533154557492 0 -0.15468904744803719 0.29434557536231798 0 -0.13571420934911421 0.3187241401356995 0 -0.14994963927078289 0.31950407615247328 0 -0.13721182317485489 0.30514362066638512 0 -0.15197541214350799 0.32743209169767451 0 -0.14994963927078289 0.31950407615247328 0 -0.15689513735818569 0.32410533154557492 0 -0.15197541214350799 0.32743209169767451 0 -0.14994963927078289 0.31950407615247328 0 -0.14596361555013879 0.33306356421282818 0 -0.14969657978653139 0.34521550510542781 0 -0.13776740220958669 0.34922089221111302 0 -0.14596361555013879 0.33306356421282818 0 -0.131991227786662 0.33518970666984238 0 -0.14994963927078289 0.31950407615247328 0 -0.14596361555013879 0.33306356421282818 0 -0.15197541214350799 0.32743209169767451 0 -0.14596361555013879 0.33306356421282818 0 -0.15509325639492441 0.3330553948798215 0 -0.15197541214350799 0.32743209169767451 0 -0.15509325639492441 0.3330553948798215 0 -0.15689513735818569 0.32410533154557492 0 -0.14969657978653139 0.34521550510542781 0 -0.14596361555013879 0.33306356421282818 0 -0.15509325639492441 0.3330553948798215 0 -0.14969657978653139 0.34521550510542781 0 -0.15509325639492441 0.3330553948798215 0 -0.1610502868310596 0.34004595027855378 0 -0.1610502868310596 0.34004595027855378 0 -0.1632389568775843 0.32897738811225269 0 -0.17679622456605809 0.33482813164353231 0 -0.15509325639492441 0.3330553948798215 0 -0.1610502868310596 0.34004595027855378 0 -0.1632389568775843 0.32897738811225269 0 -0.15509325639492441 0.3330553948798215 0 -0.1632389568775843 0.32897738811225269 0 -0.15689513735818569 0.32410533154557492 0 -0.1683120899940074 0.31621231690321822 0 -0.17679622456605809 0.33482813164353231 0 -0.1599724888422103 0.31034031513008797 0 -0.1632389568775843 0.32897738811225269 0 -0.15689513735818569 0.32410533154557492 0 -0.1599724888422103 0.31034031513008797 0 -0.1632389568775843 0.32897738811225269 0 -0.17679622456605809 0.33482813164353231 0 -0.1599724888422103 0.31034031513008797 0 -0.17679622456605809 0.33482813164353231 0 -0.1599724888422103 0.31034031513008797 0 -0.1683120899940074 0.31621231690321822 0 -0.18787348587883981 0.32136248227980552 0 -0.1683120899940074 0.31621231690321822 0 -0.17971340992624471 0.31263194127036947 0 -0.18787348587883981 0.32136248227980552 0 -0.1683120899940074 0.31621231690321822 0 -0.17679622456605809 0.33482813164353231 0 -0.18787348587883981 0.32136248227980552 0 -0.17679622456605809 0.33482813164353231 0 -0.18787348587883981 0.32136248227980552 0 -0.17971340992624471 0.31263194127036947 0 -0.18787348587883981 0.32136248227980552 0 -0.1898534355719429 0.31895563210516797 0 -0.17679622456605809 0.33482813164353231 0 -0.1871685534965358 0.33214747615677059 0 -0.18787348587883981 0.32136248227980552 0 -0.1871685534965358 0.33214747615677059 0 -0.18412546694698961 0.34549622258081608 0 -0.1911624765847669 0.33687242201873019 0 -0.17679622456605809 0.33482813164353231 0 -0.1871685534965358 0.33214747615677059 0 -0.18412546694698961 0.34549622258081608 0 -0.17679622456605809 0.33482813164353231 0 -0.18412546694698961 0.34549622258081608 0 -0.17679622456605809 0.33482813164353231 0 -0.18412546694698961 0.34549622258081608 0 -0.15896404764819971 0.35650513600299027 0 -0.18412546694698961 0.34549622258081608 0 -0.1753693948301018 0.36020879634618558 0 -0.19299318815982511 0.3584036489406216 0 -0.18412546694698961 0.34549622258081608 0 -0.15896404764819971 0.35650513600299027 0 -0.1753693948301018 0.36020879634618558 0 -0.1610502868310596 0.34004595027855378 0 -0.17679622456605809 0.33482813164353231 0 -0.15896404764819971 0.35650513600299027 0 -0.18412546694698961 0.34549622258081608 0 -0.15896404764819971 0.35650513600299027 0 -0.14969657978653139 0.34521550510542781 0 -0.1610502868310596 0.34004595027855378 0 -0.15896404764819971 0.35650513600299027 0 -0.17679622456605809 0.33482813164353231 0 -0.15896404764819971 0.35650513600299027 0 -0.15896404764819971 0.35650513600299027 0 -0.16320222614617591 0.36706048872763908 0 -0.1753693948301018 0.36020879634618558 0 -0.1586485160828463 0.37519192368121562 0 -0.15349844210609759 0.36314919049554839 0 -0.16320222614617591 0.36706048872763908 0 -0.15349844210609759 0.36314919049554839 0 -0.15896404764819971 0.35650513600299027 0 -0.16320222614617591 0.36706048872763908 0 -0.16320222614617591 0.36706048872763908 0 -0.17209258985668821 0.37287519816867881 0 -0.1753693948301018 0.36020879634618558 0 -0.1586485160828463 0.37519192368121562 0 -0.16320222614617591 0.36706048872763908 0 -0.17209258985668821 0.37287519816867881 0 -0.17209258985668821 0.37287519816867881 0 -0.1753693948301018 0.36020879634618558 0 -0.1820175651140804 0.36962084513555271 0 -0.1753693948301018 0.36020879634618558 0 -0.1820175651140804 0.36962084513555271 0 -0.19299318815982511 0.3584036489406216 0 -0.18761508760970841 0.38699573708672541 0 -0.19299318815982511 0.3584036489406216 0 -0.20980207260275821 0.38286984864742779 0 -0.19299318815982511 0.3584036489406216 0 -0.18761508760970841 0.38699573708672541 0 -0.1820175651140804 0.36962084513555271 0 -0.19299318815982511 0.3584036489406216 0 -0.20980207260275821 0.38286984864742779 0 -0.1955706927739127 0.38279490206315492 0 -0.19299318815982511 0.3584036489406216 0 -0.2062535097921751 0.356236930732516 0 -0.19643401933983931 0.34011084324127261 0 -0.1987197037640811 0.33911078431621589 0 -0.18412546694698961 0.34549622258081608 0 -0.19299318815982511 0.3584036489406216 0 -0.19643401933983931 0.34011084324127261 0 -0.2062535097921751 0.356236930732516 0 -0.1987197037640811 0.33911078431621589 0 -0.19299318815982511 0.3584036489406216 0 -0.2062535097921751 0.356236930732516 0 -0.19643401933983931 0.34011084324127261 0 -0.19299318815982511 0.3584036489406216 0 -0.19643401933983931 0.34011084324127261 0 -0.18412546694698961 0.34549622258081608 0 -0.19299318815982511 0.3584036489406216 0 -0.2062535097921751 0.356236930732516 0 -0.20632137740801779 0.34327246976741999 0 -0.1987197037640811 0.33911078431621589 0 -0.2062535097921751 0.356236930732516 0 -0.21599314107502601 0.34538766054860093 0 -0.20632137740801779 0.34327246976741999 0 -0.2062535097921751 0.356236930732516 0 -0.21695061706958951 0.35796456727662102 0 -0.21599314107502601 0.34538766054860093 0 -0.20980207260275821 0.38286984864742779 0 -0.19299318815982511 0.3584036489406216 0 -0.21186066757003749 0.36708443823166648 0 -0.19299318815982511 0.3584036489406216 0 -0.2062535097921751 0.356236930732516 0 -0.21186066757003749 0.36708443823166648 0 -0.21695061706958951 0.35796456727662102 0 -0.21186066757003749 0.36708443823166648 0 -0.2240469261320345 0.36720438552579088 0 -0.2062535097921751 0.356236930732516 0 -0.21695061706958951 0.35796456727662102 0 -0.21186066757003749 0.36708443823166648 0 -0.22138730006762589 0.37860178181899112 0 -0.21186066757003749 0.36708443823166648 0 -0.2240469261320345 0.36720438552579088 0 -0.2380843279317898 0.37873447349200662 0 -0.22138730006762589 0.37860178181899112 0 -0.2240469261320345 0.36720438552579088 0 -0.2380843279317898 0.37873447349200662 0 -0.2240469261320345 0.36720438552579088 0 -0.23543606613078319 0.36324449317302421 0 -0.2240469261320345 0.36720438552579088 0 -0.22659884077867459 0.35390942134453041 0 -0.23543606613078319 0.36324449317302421 0 -0.21695061706958951 0.35796456727662102 0 -0.2240469261320345 0.36720438552579088 0 -0.22659884077867459 0.35390942134453041 0 -0.21695061706958951 0.35796456727662102 0 -0.21599314107502601 0.34538766054860093 0 -0.22659884077867459 0.35390942134453041 0 -0.21599314107502601 0.34538766054860093 0 -0.22659884077867459 0.35390942134453041 0 -0.22762851497159939 0.3426389783520567 0 -0.22659884077867459 0.35390942134453041 0 -0.240880986077846 0.35039392822675808 0 -0.22762851497159939 0.3426389783520567 0 -0.22659884077867459 0.35390942134453041 0 -0.240880986077846 0.35039392822675808 0 -0.23543606613078319 0.36324449317302421 0 -0.26124968907457041 0.35711566317170562 0 -0.240880986077846 0.35039392822675808 0 -0.24756924973357089 0.36598025727603489 0 -0.25963242396411929 0.37727622901940577 0 -0.2380843279317898 0.37873447349200662 0 -0.24756924973357089 0.36598025727603489 0 -0.2380843279317898 0.37873447349200662 0 -0.24756924973357089 0.36598025727603489 0 -0.23543606613078319 0.36324449317302421 0 -0.240880986077846 0.35039392822675808 0 -0.24756924973357089 0.36598025727603489 0 -0.23543606613078319 0.36324449317302421 0 -0.25377531595147601 0.31773220833136251 0 -0.23664967113480551 0.33420437873680198 0 -0.2294959091892419 0.30683317507645502 0 -0.26056926029678329 0.34050197838917151 0 -0.240880986077846 0.35039392822675808 0 -0.23664967113480551 0.33420437873680198 0 -0.240880986077846 0.35039392822675808 0 -0.23664967113480551 0.33420437873680198 0 -0.240880986077846 0.35039392822675808 0 -0.23664967113480551 0.33420437873680198 0 -0.22762851497159939 0.3426389783520567 0 -0.26056926029678329 0.34050197838917151 0 -0.23664967113480551 0.33420437873680198 0 -0.23664967113480551 0.33420437873680198 0 -0.22762851497159939 0.3426389783520567 0 -0.2180199357916458 0.32929950290359222 0 -0.21599314107502601 0.34538766054860093 0 -0.22762851497159939 0.3426389783520567 0 -0.2180199357916458 0.32929950290359222 0 -0.23664967113480551 0.33420437873680198 0 -0.2180199357916458 0.32929950290359222 0 -0.21218918434011391 0.31550349560216562 0 -0.2180199357916458 0.32929950290359222 0 -0.2294959091892419 0.30683317507645502 0 -0.23664967113480551 0.33420437873680198 0 -0.2180199357916458 0.32929950290359222 0 -0.2294959091892419 0.30683317507645502 0 -0.23664967113480551 0.33420437873680198 0 -0.2294959091892419 0.30683317507645502 0 -0.2180199357916458 0.32929950290359222 0 -0.19939020044848879 0.32439462707037259 0 -0.21218918434011391 0.31550349560216562 0 -0.2180199357916458 0.32929950290359222 0 -0.19939020044848879 0.32439462707037259 0 -0.21218918434011391 0.31550349560216562 0 -0.19939020044848879 0.32439462707037259 0 -0.20354355659255341 0.30231375969597452 0 -0.2180199357916458 0.32929950290359222 0 -0.20449027540477521 0.33217990964778549 0 -0.19939020044848879 0.32439462707037259 0 -0.21599314107502601 0.34538766054860093 0 -0.2180199357916458 0.32929950290359222 0 -0.2093835204290288 0.33762634118246032 0 -0.2180199357916458 0.32929950290359222 0 -0.20449027540477521 0.33217990964778549 0 -0.2093835204290288 0.33762634118246032 0 -0.20449027540477521 0.33217990964778549 0 -0.2093835204290288 0.33762634118246032 0 -0.20125701197977791 0.3380006320573069 0 -0.2093835204290288 0.33762634118246032 0 -0.20632137740801779 0.34327246976741999 0 -0.20125701197977791 0.3380006320573069 0 -0.21599314107502601 0.34538766054860093 0 -0.2093835204290288 0.33762634118246032 0 -0.20632137740801779 0.34327246976741999 0 -0.20632137740801779 0.34327246976741999 0 -0.20125701197977791 0.3380006320573069 0 -0.1987197037640811 0.33911078431621589 0 -0.20125701197977791 0.3380006320573069 0 -0.1987197037640811 0.33911078431621589 0 -0.20125701197977791 0.3380006320573069 0 -0.1987197037640811 0.33911078431621589 0 -0.19725039199577771 0.3357706865779243 0 -0.19643401933983931 0.34011084324127261 0 -0.1987197037640811 0.33911078431621589 0 -0.19725039199577771 0.3357706865779243 0 -0.19643401933983931 0.34011084324127261 0 -0.19725039199577771 0.3357706865779243 0 -0.1987197037640811 0.33911078431621589 0 -0.19725039199577771 0.3357706865779243 0 -0.19643401933983931 0.34011084324127261 0 -0.1987197037640811 0.33911078431621589 0 -0.20449027540477521 0.33217990964778549 0 -0.19725039199577771 0.3357706865779243 0 -0.19939020044848879 0.32439462707037259 0 -0.19725039199577771 0.3357706865779243 0 -0.19939020044848879 0.32439462707037259 0 -0.20449027540477521 0.33217990964778549 0 -0.20125701197977791 0.3380006320573069 0 -0.19725039199577771 0.3357706865779243 0 -0.1871685534965358 0.33214747615677059 0 -0.19725039199577771 0.3357706865779243 0 -0.19131025017838929 0.32226732079988107 0 -0.1871685534965358 0.33214747615677059 0 -0.19725039199577771 0.3357706865779243 0 -0.1911624765847669 0.33687242201873019 0 -0.19725039199577771 0.3357706865779243 0 -0.19131025017838929 0.32226732079988107 0 -0.18412546694698961 0.34549622258081608 0 -0.19643401933983931 0.34011084324127261 0 -0.18412546694698961 0.34549622258081608 0 -0.19643401933983931 0.34011084324127261 0 -0.1911624765847669 0.33687242201873019 0 -0.19643401933983931 0.34011084324127261 0 -0.19725039199577771 0.3357706865779243 0 -0.1911624765847669 0.33687242201873019 0 -0.19939020044848879 0.32439462707037259 0 -0.1898534355719429 0.31895563210516797 0 -0.20354355659255341 0.30231375969597452 0 -0.19939020044848879 0.32439462707037259 0 -0.20354355659255341 0.30231375969597452 0 -0.19939020044848879 0.32439462707037259 0 -0.19131025017838929 0.32226732079988107 0 -0.19725039199577771 0.3357706865779243 0 -0.19939020044848879 0.32439462707037259 0 -0.19131025017838929 0.32226732079988107 0 -0.19939020044848879 0.32439462707037259 0 -0.19131025017838929 0.32226732079988107 0 -0.1898534355719429 0.31895563210516797 0 -0.1871685534965358 0.33214747615677059 0 -0.19131025017838929 0.32226732079988107 0 -0.18787348587883981 0.32136248227980552 0 -0.19131025017838929 0.32226732079988107 0 -0.1898534355719429 0.31895563210516797 0 -0.19131025017838929 0.32226732079988107 0 -0.18787348587883981 0.32136248227980552 0 -0.19131025017838929 0.32226732079988107 0 -0.18787348587883981 0.32136248227980552 0 -0.1898534355719429 0.31895563210516797 0 -0.18787348587883981 0.32136248227980552 0 -0.1898534355719429 0.31895563210516797 0 -0.1898534355719429 0.31895563210516797 0 -0.20354355659255341 0.30231375969597452 0 -0.181836286286642 0.30073073064242939 0 -0.1898534355719429 0.31895563210516797 0 -0.20354355659255341 0.30231375969597452 0 -0.1912617800180853 0.28627851795556941 0 -0.20354355659255341 0.30231375969597452 0 -0.20872689779234641 0.27475708850792557 0 -0.1912617800180853 0.28627851795556941 0 -0.20354355659255341 0.30231375969597452 0 -0.181836286286642 0.30073073064242939 0 -0.20354355659255341 0.30231375969597452 0 -0.2294959091892419 0.30683317507645502 0 -0.22234214724367901 0.27946197141610779 0 -0.20354355659255341 0.30231375969597452 0 -0.20872689779234641 0.27475708850792557 0 -0.20354355659255341 0.30231375969597452 0 -0.20872689779234641 0.27475708850792557 0 -0.21000099714937939 0.27763267687147503 0 -0.20354355659255341 0.30231375969597452 0 -0.22234214724367901 0.27946197141610779 0 -0.20354355659255341 0.30231375969597452 0 -0.22234214724367901 0.27946197141610779 0 -0.21000099714937939 0.27763267687147503 0 -0.21218918434011391 0.31550349560216562 0 -0.20354355659255341 0.30231375969597452 0 -0.2294959091892419 0.30683317507645502 0 -0.2294959091892419 0.30683317507645502 0 -0.23321397310055861 0.28552306488950963 0 -0.22234214724367901 0.27946197141610779 0 -0.2294959091892419 0.30683317507645502 0 -0.22234214724367901 0.27946197141610779 0 -0.26149186012242331 0.28138736996149599 0 -0.24739294023928149 0.29032545065907611 0 -0.24045132181340539 0.27645039150723821 0 -0.2294959091892419 0.30683317507645502 0 -0.23321397310055861 0.28552306488950963 0 -0.24739294023928149 0.29032545065907611 0 -0.23321397310055861 0.28552306488950963 0 -0.24739294023928149 0.29032545065907611 0 -0.24045132181340539 0.27645039150723821 0 -0.25377531595147601 0.31773220833136251 0 -0.2294959091892419 0.30683317507645502 0 -0.24739294023928149 0.29032545065907611 0 -0.25184776955068922 0.24631017592718801 0 -0.25541430208287691 0.26569991437095047 0 -0.24091014833661389 0.26008264408294751 0 -0.25184776955068922 0.24631017592718801 0 -0.24091014833661389 0.26008264408294751 0 -0.23051586595270601 0.24702283913706391 0 -0.24091014833661389 0.26008264408294751 0 -0.24045132181340539 0.27645039150723821 0 -0.23136012386372751 0.26459967376670468 0 -0.25541430208287691 0.26569991437095047 0 -0.24091014833661389 0.26008264408294751 0 -0.24045132181340539 0.27645039150723821 0 -0.24045132181340539 0.27645039150723821 0 -0.22638754701718511 0.27454433578867082 0 -0.23136012386372751 0.26459967376670468 0 -0.23321397310055861 0.28552306488950963 0 -0.22638754701718511 0.27454433578867082 0 -0.22234214724367901 0.27946197141610779 0 -0.23321397310055861 0.28552306488950963 0 -0.24045132181340539 0.27645039150723821 0 -0.22638754701718511 0.27454433578867082 0 -0.22638754701718511 0.27454433578867082 0 -0.22234214724367901 0.27946197141610779 0 -0.22234214724367901 0.27946197141610779 0 -0.21853573619872879 0.26489815831760283 0 -0.22638754701718511 0.27454433578867082 0 -0.23136012386372751 0.26459967376670468 0 -0.21853573619872879 0.26489815831760283 0 -0.22638754701718511 0.27454433578867082 0 -0.22234214724367901 0.27946197141610779 0 -0.21853573619872879 0.26489815831760283 0 -0.21853573619872879 0.26489815831760283 0 -0.23051586595270601 0.24702283913706391 0 -0.23136012386372751 0.26459967376670468 0 -0.21853573619872879 0.26489815831760283 0 -0.23051586595270601 0.24702283913706391 0 -0.21853573619872879 0.26489815831760283 0 -0.23051586595270601 0.24702283913706391 0 -0.2139102389921374 0.24720041731987641 0 -0.24091014833661389 0.26008264408294751 0 -0.23136012386372751 0.26459967376670468 0 -0.23051586595270601 0.24702283913706391 0 -0.20872689779234641 0.27475708850792557 0 -0.2139102389921374 0.24720041731987641 0 -0.21853573619872879 0.26489815831760283 0 -0.20872689779234641 0.27475708850792557 0 -0.2139102389921374 0.24720041731987641 0 -0.21853573619872879 0.26489815831760283 0 -0.2139102389921374 0.24720041731987641 0 -0.20872689779234641 0.27475708850792557 0 -0.19883530747484129 0.2584162776348467 0 -0.2139102389921374 0.24720041731987641 0 -0.22234214724367901 0.27946197141610779 0 -0.21853573619872879 0.26489815831760283 0 -0.21000099714937939 0.27763267687147503 0 -0.21853573619872879 0.26489815831760283 0 -0.20872689779234641 0.27475708850792557 0 -0.21000099714937939 0.27763267687147503 0 -0.21853573619872879 0.26489815831760283 0 -0.21000099714937939 0.27763267687147503 0 -0.20872689779234641 0.27475708850792557 0 -0.18838302241754251 0.2710851817518265 0 -0.19883530747484129 0.2584162776348467 0 -0.1912617800180853 0.28627851795556941 0 -0.20872689779234641 0.27475708850792557 0 -0.18838302241754251 0.2710851817518265 0 -0.18838302241754251 0.2710851817518265 0 -0.19883530747484129 0.2584162776348467 0 -0.18499936284267901 0.25575901019454228 0 -0.19883530747484129 0.2584162776348467 0 -0.18499936284267901 0.25575901019454228 0 -0.19815701532950039 0.24327969040006259 0 -0.18499936284267901 0.25575901019454228 0 -0.1641376444911597 0.25348716799195747 0 -0.1736537184321294 0.26646623278499182 0 -0.18838302241754251 0.2710851817518265 0 -0.18499936284267901 0.25575901019454228 0 -0.1736537184321294 0.26646623278499182 0 -0.1641376444911597 0.25348716799195747 0 -0.16295596946611621 0.26679113438051821 0 -0.1736537184321294 0.26646623278499182 0 -0.1641376444911597 0.25348716799195747 0 -0.16295596946611621 0.26679113438051821 0 -0.15248295753788721 0.26458581917906132 0 -0.1619615230134199 0.27744751604782569 0 -0.1736537184321294 0.26646623278499182 0 -0.17381913700134111 0.28250582917969091 0 -0.1619615230134199 0.27744751604782569 0 -0.15468904744803719 0.29434557536231798 0 -0.15248295753788721 0.26458581917906132 0 -0.1619615230134199 0.27744751604782569 0 -0.15248295753788721 0.26458581917906132 0 -0.1619615230134199 0.27744751604782569 0 -0.16295596946611621 0.26679113438051821 0 -0.15248295753788721 0.26458581917906132 0 -0.1619615230134199 0.27744751604782569 0 -0.16295596946611621 0.26679113438051821 0 -0.1736537184321294 0.26646623278499182 0 -0.1912617800180853 0.28627851795556941 0 -0.18838302241754251 0.2710851817518265 0 -0.17381913700134111 0.28250582917969091 0 -0.18838302241754251 0.2710851817518265 0 -0.1736537184321294 0.26646623278499182 0 -0.17381913700134111 0.28250582917969091 0 -0.1912617800180853 0.28627851795556941 0 -0.17381913700134111 0.28250582917969091 0 -0.181836286286642 0.30073073064242939 0 -0.17381913700134111 0.28250582917969091 0 -0.181836286286642 0.30073073064242939 0 -0.16832099577655329 0.29952253670197332 0 -0.17381913700134111 0.28250582917969091 0 -0.181836286286642 0.30073073064242939 0 -0.17971340992624471 0.31263194127036947 0 -0.1898534355719429 0.31895563210516797 0 -0.181836286286642 0.30073073064242939 0 -0.1683120899940074 0.31621231690321822 0 -0.17971340992624471 0.31263194127036947 0 -0.16832099577655329 0.29952253670197332 0 -0.1898534355719429 0.31895563210516797 0 -0.181836286286642 0.30073073064242939 0 -0.17971340992624471 0.31263194127036947 0 -0.181836286286642 0.30073073064242939 0 -0.16832099577655329 0.29952253670197332 0 -0.1683120899940074 0.31621231690321822 0 -0.1599724888422103 0.31034031513008797 0 -0.16832099577655329 0.29952253670197332 0 -0.1599724888422103 0.31034031513008797 0 -0.16832099577655329 0.29952253670197332 0 -0.15468904744803719 0.29434557536231798 0 -0.15689513735818569 0.32410533154557492 0 -0.1599724888422103 0.31034031513008797 0 -0.15468904744803719 0.29434557536231798 0 -0.17381913700134111 0.28250582917969091 0 -0.16832099577655329 0.29952253670197332 0 -0.16469767580983791 0.28845536432295188 0 -0.1619615230134199 0.27744751604782569 0 -0.16469767580983791 0.28845536432295188 0 -0.15468904744803719 0.29434557536231798 0 -0.1619615230134199 0.27744751604782569 0 -0.17381913700134111 0.28250582917969091 0 -0.16469767580983791 0.28845536432295188 0 -0.16832099577655329 0.29952253670197332 0 -0.16469767580983791 0.28845536432295188 0 -0.15468904744803719 0.29434557536231798 0 -0.15468904744803719 0.29434557536231798 0 -0.13721182317485489 0.30514362066638512 0 -0.1331064142480633 0.28947222546558432 0 -0.15468904744803719 0.29434557536231798 0 -0.1331064142480633 0.28947222546558432 0 -0.14177389146291439 0.27658067435587691 0 -0.14994963927078289 0.31950407615247328 0 -0.15468904744803719 0.29434557536231798 0 -0.13721182317485489 0.30514362066638512 0 -0.15689513735818569 0.32410533154557492 0 -0.15468904744803719 0.29434557536231798 0 -0.13721182317485489 0.30514362066638512 0 -0.1154170665416496 0.29492860743835331 0 -0.1237041471641563 0.3150591570540977 0 -0.13721182317485489 0.30514362066638512 0 -0.1331064142480633 0.28947222546558432 0 -0.1154170665416496 0.29492860743835331 0 -0.13041013700142601 0.27365065967180052 0 -0.13818090107915851 0.26084909210062063 0 -0.14177389146291439 0.27658067435587691 0 -0.1331064142480633 0.28947222546558432 0 -0.13041013700142601 0.27365065967180052 0 -0.1209353843976628 0.28026424758500179 0 -0.1331064142480633 0.28947222546558432 0 -0.13041013700142601 0.27365065967180052 0 -0.14177389146291439 0.27658067435587691 0 -0.13041013700142601 0.27365065967180052 0 -0.12854179022962489 0.26340256385917171 0 -0.1210567531115385 0.26828649542157151 0 -0.13041013700142601 0.27365065967180052 0 -0.12854179022962489 0.26340256385917171 0 -0.13818090107915851 0.26084909210062063 0 -0.12854179022962489 0.26340256385917171 0 -0.13818090107915851 0.26084909210062063 0 -0.1245193697263768 0.25082400824269452 0 -0.13818090107915851 0.26084909210062063 0 -0.1245193697263768 0.25082400824269452 0 -0.13884631553718049 0.2460819267732304 0 -0.1641376444911597 0.25348716799195747 0 -0.15248295753788721 0.26458581917906132 0 -0.15097385591933679 0.24422830971525139 0 -0.15248295753788721 0.26458581917906132 0 -0.13884631553718049 0.2460819267732304 0 -0.15097385591933679 0.24422830971525139 0 -0.15248295753788721 0.26458581917906132 0 -0.13884631553718049 0.2460819267732304 0 -0.15248295753788721 0.26458581917906132 0 -0.15097385591933679 0.24422830971525139 0 -0.13818090107915851 0.26084909210062063 0 -0.15248295753788721 0.26458581917906132 0 -0.13884631553718049 0.2460819267732304 0 -0.15468904744803719 0.29434557536231798 0 -0.15248295753788721 0.26458581917906132 0 -0.15468904744803719 0.29434557536231798 0 -0.15248295753788721 0.26458581917906132 0 -0.14177389146291439 0.27658067435587691 0 -0.13818090107915851 0.26084909210062063 0 -0.15248295753788721 0.26458581917906132 0 -0.14177389146291439 0.27658067435587691 0 -0.097413101076760114 0.27660307080725299 0 -0.094666885453573074 0.28609697530781669 0 -0.091074255566442372 0.26902052766453483 0 -0.1071299859191429 0.27479805782260891 0 -0.097413101076760114 0.27660307080725299 0 -0.1026697056031672 0.26396337450155782 0 -0.1071299859191429 0.27479805782260891 0 -0.1026697056031672 0.26396337450155782 0 -0.1071299859191429 0.27479805782260891 0 -0.097772353682765795 0.28769905199654783 0 -0.1071299859191429 0.27479805782260891 0 -0.097413101076760114 0.27660307080725299 0 -0.097772353682765795 0.28769905199654783 0 -0.097413101076760114 0.27660307080725299 0 -0.1026697056031672 0.26396337450155782 0 -0.091074255566442372 0.26902052766453483 0 -0.098730633274728821 0.25553511076904117 0 -0.1026697056031672 0.26396337450155782 0 -0.091074255566442372 0.26902052766453483 0 -0.1071299859191429 0.27479805782260891 0 -0.10857203192562449 0.253773843241345 0 -0.1026697056031672 0.26396337450155782 0 -0.098730633274728821 0.25553511076904117 0 -0.10857203192562449 0.253773843241345 0 -0.1026697056031672 0.26396337450155782 0 -0.1071299859191429 0.27479805782260891 0 -0.1245193697263768 0.25082400824269452 0 -0.1210567531115385 0.26828649542157151 0 -0.1071299859191429 0.27479805782260891 0 -0.1245193697263768 0.25082400824269452 0 -0.1071299859191429 0.27479805782260891 0 -0.10857203192562449 0.253773843241345 0 -0.1245193697263768 0.25082400824269452 0 -0.12854179022962489 0.26340256385917171 0 -0.1245193697263768 0.25082400824269452 0 -0.1210567531115385 0.26828649542157151 0 -0.1071299859191429 0.27479805782260891 0 -0.1210567531115385 0.26828649542157151 0 -0.1209353843976628 0.28026424758500179 0 -0.13041013700142601 0.27365065967180052 0 -0.1210567531115385 0.26828649542157151 0 -0.1209353843976628 0.28026424758500179 0 -0.1071299859191429 0.27479805782260891 0 -0.1209353843976628 0.28026424758500179 0 -0.1154170665416496 0.29492860743835331 0 -0.1331064142480633 0.28947222546558432 0 -0.1209353843976628 0.28026424758500179 0 -0.1154170665416496 0.29492860743835331 0 -0.1071299859191429 0.27479805782260891 0 -0.1154170665416496 0.29492860743835331 0 -0.1138914359117182 0.2960147081156429 0 -0.1087943119983668 0.30476135568801982 0 -0.1237041471641563 0.3150591570540977 0 -0.1154170665416496 0.29492860743835331 0 -0.1138914359117182 0.2960147081156429 0 -0.1237041471641563 0.3150591570540977 0 -0.1001462331367468 0.31214134858607079 0 -0.1087943119983668 0.30476135568801982 0 -0.1237041471641563 0.3150591570540977 0 -0.1154170665416496 0.29492860743835331 0 -0.1237041471641563 0.3150591570540977 0 -0.1001462331367468 0.31214134858607079 0 -0.10401403961756429 0.2956475213468297 0 -0.095626377778404437 0.290657623346669 0 -0.1001462331367468 0.31214134858607079 0 -0.095626377778404437 0.290657623346669 0 -0.1001462331367468 0.31214134858607079 0 -0.1087943119983668 0.30476135568801982 0 -0.10401403961756429 0.2956475213468297 0 -0.1138914359117182 0.2960147081156429 0 -0.1087943119983668 0.30476135568801982 0 -0.10401403961756429 0.2956475213468297 0 -0.1154170665416496 0.29492860743835331 0 -0.1138914359117182 0.2960147081156429 0 -0.097772353682765795 0.28769905199654783 0 -0.1138914359117182 0.2960147081156429 0 -0.10401403961756429 0.2956475213468297 0 -0.097772353682765795 0.28769905199654783 0 -0.1138914359117182 0.2960147081156429 0 -0.097772353682765795 0.28769905199654783 0 -0.1071299859191429 0.27479805782260891 0 -0.1154170665416496 0.29492860743835331 0 -0.097772353682765795 0.28769905199654783 0 -0.10401403961756429 0.2956475213468297 0 -0.095626377778404437 0.290657623346669 0 -0.097772353682765795 0.28769905199654783 0 -0.095626377778404437 0.290657623346669 0 -0.097772353682765795 0.28769905199654783 0 -0.095626377778404437 0.290657623346669 0 -0.094666885453573074 0.28609697530781669 0 -0.097413101076760114 0.27660307080725299 0 -0.094666885453573074 0.28609697530781669 0 -0.097772353682765795 0.28769905199654783 0 -0.095626377778404437 0.290657623346669 0 -0.094666885453573074 0.28609697530781669 0 -0.097772353682765795 0.28769905199654783 0 -0.094666885453573074 0.28609697530781669 0 -0.097772353682765795 0.28769905199654783 0 -0.095626377778404437 0.290657623346669 0 -0.08366752086620502 0.29105383014271641 0 -0.082640824795175052 0.30856028709218658 0 -0.094666885453573074 0.28609697530781669 0 -0.08366752086620502 0.29105383014271641 0 -0.076843961766697388 0.27690232623836031 0 -0.094666885453573074 0.28609697530781669 0 -0.076843961766697388 0.27690232623836031 0 -0.095626377778404437 0.290657623346669 0 -0.094666885453573074 0.28609697530781669 0 -0.08366752086620502 0.29105383014271641 0 -0.1001462331367468 0.31214134858607079 0 -0.095626377778404437 0.290657623346669 0 -0.082640824795175052 0.30856028709218658 0 -0.08366752086620502 0.29105383014271641 0 -0.082640824795175052 0.30856028709218658 0 -0.069323002849279322 0.29324764572244472 0 -0.095626377778404437 0.290657623346669 0 -0.082640824795175052 0.30856028709218658 0 -0.082640824795175052 0.30856028709218658 0 -0.067100668917239911 0.30743674431235352 0 -0.069323002849279322 0.29324764572244472 0 -0.067100668917239911 0.30743674431235352 0 -0.069323002849279322 0.29324764572244472 0 -0.056799547622498482 0.2962257251874823 0 -0.08366752086620502 0.29105383014271641 0 -0.069323002849279322 0.29324764572244472 0 -0.076843961766697388 0.27690232623836031 0 -0.069323002849279322 0.29324764572244472 0 -0.076843961766697388 0.27690232623836031 0 -0.061901981469868861 0.28264368732469441 0 -0.069323002849279322 0.29324764572244472 0 -0.056799547622498482 0.2962257251874823 0 -0.061901981469868861 0.28264368732469441 0 -0.076843961766697388 0.27690232623836031 0 -0.080000464123583179 0.26581424165258261 0 -0.059021038079822057 0.26770767716890309 0 -0.076843961766697388 0.27690232623836031 0 -0.059021038079822057 0.26770767716890309 0 -0.061901981469868861 0.28264368732469441 0 -0.076843961766697388 0.27690232623836031 0 -0.059021038079822057 0.26770767716890309 0 -0.094666885453573074 0.28609697530781669 0 -0.091074255566442372 0.26902052766453483 0 -0.094666885453573074 0.28609697530781669 0 -0.076843961766697388 0.27690232623836031 0 -0.091074255566442372 0.26902052766453483 0 -0.076843961766697388 0.27690232623836031 0 -0.080000464123583179 0.26581424165258261 0 -0.091074255566442372 0.26902052766453483 0 -0.080000464123583179 0.26581424165258261 0 -0.091074255566442372 0.26902052766453483 0 -0.087821607423689663 0.2537606424516044 0 -0.098730633274728821 0.25553511076904117 0 -0.091074255566442372 0.26902052766453483 0 -0.087821607423689663 0.2537606424516044 0 -0.080000464123583179 0.26581424165258261 0 -0.087821607423689663 0.2537606424516044 0 -0.073970605074816495 0.25598825942369569 0 -0.073970605074816495 0.25598825942369569 0 -0.05774904498435033 0.25419785454266369 0 -0.059021038079822057 0.26770767716890309 0 -0.080000464123583179 0.26581424165258261 0 -0.073970605074816495 0.25598825942369569 0 -0.059021038079822057 0.26770767716890309 0 -0.073970605074816495 0.25598825942369569 0 -0.05774904498435033 0.25419785454266369 0 -0.062993086238880794 0.24070619097824791 0 -0.073970605074816495 0.25598825942369569 0 -0.059021038079822057 0.26770767716890309 0 -0.059021038079822057 0.26770767716890309 0 -0.04361044081197156 0.25975752059986951 0 -0.05774904498435033 0.25419785454266369 0 -0.059021038079822057 0.26770767716890309 0 -0.04361044081197156 0.25975752059986951 0 -0.05774904498435033 0.25419785454266369 0 -0.04361044081197156 0.25975752059986951 0 -0.049150054716260758 0.24682962454260279 0 -0.059021038079822057 0.26770767716890309 0 -0.040860528150706593 0.28194425020118458 0 -0.059021038079822057 0.26770767716890309 0 -0.04361044081197156 0.25975752059986951 0 -0.040860528150706593 0.28194425020118458 0 -0.059021038079822057 0.26770767716890309 0 -0.040860528150706593 0.28194425020118458 0 -0.061901981469868861 0.28264368732469441 0 -0.04361044081197156 0.25975752059986951 0 -0.029237255970418641 0.26764266496843447 0 -0.040860528150706593 0.28194425020118458 0 -0.029237255970418641 0.26764266496843447 0 -0.02687602612969155 0.27915176132855302 0 -0.040860528150706593 0.28194425020118458 0 -0.04361044081197156 0.25975752059986951 0 -0.028199843544121379 0.25180736403083531 0 -0.029237255970418641 0.26764266496843447 0 -0.04361044081197156 0.25975752059986951 0 -0.028199843544121379 0.25180736403083531 0 -0.049150054716260758 0.24682962454260279 0 -0.04361044081197156 0.25975752059986951 0 -0.028199843544121379 0.25180736403083531 0 -0.028199843544121379 0.25180736403083531 0 -0.019713996955274 0.25894678162479451 0 -0.029237255970418641 0.26764266496843447 0 -0.028199843544121379 0.25180736403083531 0 -0.019713996955274 0.25894678162479451 0 -0.0067125861305070769 0.2454977905887831 0 -0.029237255970418641 0.26764266496843447 0 -0.02687602612969155 0.27915176132855302 0 -0.014706302176048869 0.27083930691112562 0 -0.019713996955274 0.25894678162479451 0 -0.029237255970418641 0.26764266496843447 0 -0.014706302176048869 0.27083930691112562 0 -0.014706302176048869 0.27083930691112562 0 -0.010303404472008171 0.29060007823643108 0 0.00036586918226188788 0.27564353025539912 0 -0.014706302176048869 0.27083930691112562 0 0.0041589756708292538 0.26017081773150558 0 0.00036586918226188788 0.27564353025539912 0 -0.014706302176048869 0.27083930691112562 0 -0.0067125861305070769 0.2454977905887831 0 0.0041589756708292538 0.26017081773150558 0 -0.019713996955274 0.25894678162479451 0 -0.014706302176048869 0.27083930691112562 0 -0.0067125861305070769 0.2454977905887831 0 -0.014706302176048869 0.27083930691112562 0 -0.0067125861305070769 0.2454977905887831 0 -0.01267501183996431 0.29724353167455969 0 -0.01276323623293717 0.30397056719107401 0 -0.0049333884333196774 0.298222658037266 0 -0.01276323623293717 0.30397056719107401 0 -0.011001929408437651 0.30535130888484269 0 -0.01276323623293717 0.30397056719107401 0 -0.0138420525665095 0.30765231201035248 0 -0.01818969412707579 0.30746665241258531 0 -0.01276323623293717 0.30397056719107401 0 -0.0138420525665095 0.30765231201035248 0 -0.011001929408437651 0.30535130888484269 0 -0.0138420525665095 0.30765231201035248 0 -0.0099139911848114531 0.31192143338525191 0 -0.015823501906507421 0.31156156555019238 0 -0.0138420525665095 0.30765231201035248 0 -0.0099139911848114531 0.31192143338525191 0 -0.011001929408437651 0.30535130888484269 0 -0.01276323623293717 0.30397056719107401 0 0.002360204579834125 0.30663038714305529 0 -0.0099139911848114531 0.31192143338525191 0 -0.011001929408437651 0.30535130888484269 0 0.002360204579834125 0.30663038714305529 0 -0.0099139911848114531 0.31192143338525191 0 -0.0053530779621081843 0.31677408380582378 0 0.002360204579834125 0.30663038714305529 0 -0.01276323623293717 0.30397056719107401 0 -0.011001929408437651 0.30535130888484269 0 0.002360204579834125 0.30663038714305529 0 -0.01276323623293717 0.30397056719107401 0 -0.0049333884333196774 0.298222658037266 0 0.002360204579834125 0.30663038714305529 0 -0.0049333884333196774 0.298222658037266 0 -0.010303404472008171 0.29060007823643108 0 0.0032397524786903281 0.28941532214885041 0 -0.010303404472008171 0.29060007823643108 0 0.0032397524786903281 0.28941532214885041 0 0.00036586918226188788 0.27564353025539912 0 -0.01267501183996431 0.29724353167455969 0 -0.010303404472008171 0.29060007823643108 0 -0.02270001822159215 0.29618082323346739 0 -0.01267501183996431 0.29724353167455969 0 -0.0049333884333196774 0.298222658037266 0 -0.010303404472008171 0.29060007823643108 0 -0.02687602612969155 0.27915176132855302 0 -0.014706302176048869 0.27083930691112562 0 -0.02270001822159215 0.29618082323346739 0 -0.014706302176048869 0.27083930691112562 0 -0.010303404472008171 0.29060007823643108 0 -0.02270001822159215 0.29618082323346739 0 -0.02687602612969155 0.27915176132855302 0 -0.02270001822159215 0.29618082323346739 0 -0.040860528150706593 0.28194425020118458 0 -0.014706302176048869 0.27083930691112562 0 -0.02270001822159215 0.29618082323346739 0 -0.02270001822159215 0.29618082323346739 0 -0.02450576402454448 0.30190536191844741 0 -0.040652655823521497 0.29906554355296472 0 -0.02270001822159215 0.29618082323346739 0 -0.02450576402454448 0.30190536191844741 0 -0.01276323623293717 0.30397056719107401 0 -0.02270001822159215 0.29618082323346739 0 -0.01276323623293717 0.30397056719107401 0 -0.02450576402454448 0.30190536191844741 0 -0.01818969412707579 0.30746665241258531 0 -0.01276323623293717 0.30397056719107401 0 -0.02270001822159215 0.29618082323346739 0 -0.02450576402454448 0.30190536191844741 0 -0.01276323623293717 0.30397056719107401 0 -0.02450576402454448 0.30190536191844741 0 -0.01267501183996431 0.29724353167455969 0 -0.01276323623293717 0.30397056719107401 0 -0.02270001822159215 0.29618082323346739 0 -0.015823501906507421 0.31156156555019238 0 -0.01818969412707579 0.30746665241258531 0 -0.0209780959593245 0.31626339013722948 0 -0.02450576402454448 0.30190536191844741 0 -0.01818969412707579 0.30746665241258531 0 -0.0209780959593245 0.31626339013722948 0 -0.0138420525665095 0.30765231201035248 0 -0.015823501906507421 0.31156156555019238 0 -0.01818969412707579 0.30746665241258531 0 -0.02450576402454448 0.30190536191844741 0 -0.040652655823521497 0.29906554355296472 0 -0.040808990682695452 0.31588825203750232 0 -0.02450576402454448 0.30190536191844741 0 -0.040652655823521497 0.29906554355296472 0 -0.040652655823521497 0.29906554355296472 0 -0.054285582405981282 0.31403488948725999 0 -0.040808990682695452 0.31588825203750232 0 -0.02270001822159215 0.29618082323346739 0 -0.040860528150706593 0.28194425020118458 0 -0.02270001822159215 0.29618082323346739 0 -0.040652655823521497 0.29906554355296472 0 -0.040860528150706593 0.28194425020118458 0 -0.040652655823521497 0.29906554355296472 0 -0.040860528150706593 0.28194425020118458 0 -0.056799547622498482 0.2962257251874823 0 -0.040860528150706593 0.28194425020118458 0 -0.056799547622498482 0.2962257251874823 0 -0.061901981469868861 0.28264368732469441 0 -0.040652655823521497 0.29906554355296472 0 -0.056799547622498482 0.2962257251874823 0 -0.054285582405981282 0.31403488948725999 0 -0.040652655823521497 0.29906554355296472 0 -0.056799547622498482 0.2962257251874823 0 -0.067100668917239911 0.30743674431235352 0 -0.056799547622498482 0.2962257251874823 0 -0.054285582405981282 0.31403488948725999 0 -0.054285582405981282 0.31403488948725999 0 -0.050826183723336783 0.3335427867235608 0 -0.040808990682695452 0.31588825203750232 0 -0.054285582405981282 0.31403488948725999 0 -0.050826183723336783 0.3335427867235608 0 -0.069655271811942657 0.32646295083770188 0 -0.050826183723336783 0.3335427867235608 0 -0.033603848092504107 0.33074792332501979 0 -0.038117235962785032 0.34915909562416131 0 -0.033603848092504107 0.33074792332501979 0 -0.025052234675127849 0.3473525287310304 0 -0.038117235962785032 0.34915909562416131 0 -0.050826183723336783 0.3335427867235608 0 -0.033603848092504107 0.33074792332501979 0 -0.040808990682695452 0.31588825203750232 0 -0.02450576402454448 0.30190536191844741 0 -0.033603848092504107 0.33074792332501979 0 -0.040808990682695452 0.31588825203750232 0 -0.02450576402454448 0.30190536191844741 0 -0.033603848092504107 0.33074792332501979 0 -0.0209780959593245 0.31626339013722948 0 -0.0209780959593245 0.31626339013722948 0 -0.02047922933067519 0.33288102596205432 0 -0.011787956709305131 0.32577086575549119 0 -0.033603848092504107 0.33074792332501979 0 -0.0209780959593245 0.31626339013722948 0 -0.02047922933067519 0.33288102596205432 0 -0.02450576402454448 0.30190536191844741 0 -0.033603848092504107 0.33074792332501979 0 -0.015823501906507421 0.31156156555019238 0 -0.0209780959593245 0.31626339013722948 0 -0.01240827535191439 0.31640601256921819 0 -0.033603848092504107 0.33074792332501979 0 -0.02047922933067519 0.33288102596205432 0 -0.025052234675127849 0.3473525287310304 0 -0.02047922933067519 0.33288102596205432 0 -0.01148215698073273 0.34011427551088808 0 -0.025052234675127849 0.3473525287310304 0 -0.01148215698073273 0.34011427551088808 0 0.0002001884757462532 0.34890758167539238 0 0.0012801965277906089 0.32776898440922392 0 -0.02047922933067519 0.33288102596205432 0 -0.01148215698073273 0.34011427551088808 0 -0.011787956709305131 0.32577086575549119 0 -0.01148215698073273 0.34011427551088808 0 -0.011787956709305131 0.32577086575549119 0 0.0012801965277906089 0.32776898440922392 0 -0.0053530779621081843 0.31677408380582378 0 0.0012801965277906089 0.32776898440922392 0 0.002360204579834125 0.30663038714305529 0 -0.0053530779621081843 0.31677408380582378 0 -0.011787956709305131 0.32577086575549119 0 0.0012801965277906089 0.32776898440922392 0 -0.0209780959593245 0.31626339013722948 0 -0.01240827535191439 0.31640601256921819 0 -0.011787956709305131 0.32577086575549119 0 -0.0053530779621081843 0.31677408380582378 0 -0.01240827535191439 0.31640601256921819 0 -0.011787956709305131 0.32577086575549119 0 -0.0099139911848114531 0.31192143338525191 0 -0.0053530779621081843 0.31677408380582378 0 -0.01240827535191439 0.31640601256921819 0 -0.0099139911848114531 0.31192143338525191 0 -0.015823501906507421 0.31156156555019238 0 -0.01240827535191439 0.31640601256921819 0 -0.00087981957629810256 0.37004617894156078 0 0.0002001884757462532 0.34890758167539238 0 -0.01443026978900671 0.37274382347287532 0 -0.00087981957629810256 0.37004617894156078 0 -0.01305390617282505 0.35800466653213692 0 -0.01148215698073273 0.34011427551088808 0 -0.01305390617282505 0.35800466653213692 0 0.0002001884757462532 0.34890758167539238 0 -0.00087981957629810256 0.37004617894156078 0 -0.01305390617282505 0.35800466653213692 0 0.0002001884757462532 0.34890758167539238 0 -0.01305390617282505 0.35800466653213692 0 -0.025052234675127849 0.3473525287310304 0 -0.0264747293129333 0.36478847695512689 0 -0.025052234675127849 0.3473525287310304 0 -0.0264747293129333 0.36478847695512689 0 -0.025052234675127849 0.3473525287310304 0 -0.0264747293129333 0.36478847695512689 0 -0.038117235962785032 0.34915909562416131 0 -0.01148215698073273 0.34011427551088808 0 -0.01305390617282505 0.35800466653213692 0 -0.025052234675127849 0.3473525287310304 0 -0.0264747293129333 0.36478847695512689 0 -0.027897223950732301 0.38222442517922389 0 -0.01443026978900671 0.37274382347287532 0 -0.0264747293129333 0.36478847695512689 0 -0.027897223950732301 0.38222442517922389 0 -0.01443026978900671 0.37274382347287532 0 -0.01305390617282505 0.35800466653213692 0 -0.0264747293129333 0.36478847695512689 0 -0.042075342727755149 0.36314126357092652 0 -0.05098908328580963 0.37605008536516832 0 -0.027897223950732301 0.38222442517922389 0 -0.0264747293129333 0.36478847695512689 0 -0.042075342727755149 0.36314126357092652 0 -0.027897223950732301 0.38222442517922389 0 -0.0264747293129333 0.36478847695512689 0 -0.042075342727755149 0.36314126357092652 0 -0.038117235962785032 0.34915909562416131 0 -0.050826183723336783 0.3335427867235608 0 -0.038117235962785032 0.34915909562416131 0 -0.051615769091477581 0.35153497743823758 0 -0.042075342727755149 0.36314126357092652 0 -0.038117235962785032 0.34915909562416131 0 -0.051615769091477581 0.35153497743823758 0 -0.042075342727755149 0.36314126357092652 0 -0.051615769091477581 0.35153497743823758 0 -0.059879695339774712 0.36303210136802289 0 -0.051615769091477581 0.35153497743823758 0 -0.059879695339774712 0.36303210136802289 0 -0.067713785053270581 0.3494531896782464 0 -0.050826183723336783 0.3335427867235608 0 -0.051615769091477581 0.35153497743823758 0 -0.067713785053270581 0.3494531896782464 0 -0.059879695339774712 0.36303210136802289 0 -0.074080942620887325 0.36987574555111391 0 -0.05098908328580963 0.37605008536516832 0 -0.042075342727755149 0.36314126357092652 0 -0.059879695339774712 0.36303210136802289 0 -0.05098908328580963 0.37605008536516832 0 -0.074080942620887325 0.36987574555111391 0 -0.082819615086019815 0.35975024286749341 0 -0.067713785053270581 0.3494531896782464 0 -0.059879695339774712 0.36303210136802289 0 -0.074080942620887325 0.36987574555111391 0 -0.067713785053270581 0.3494531896782464 0 -0.074080942620887325 0.36987574555111391 0 -0.05098908328580963 0.37605008536516832 0 -0.082819615086019815 0.35975024286749341 0 -0.091339564116386315 0.3706965763510438 0 -0.094552704262952494 0.35212560814186777 0 -0.082915547044562388 0.37178415292286471 0 -0.082819615086019815 0.35975024286749341 0 -0.091339564116386315 0.3706965763510438 0 -0.074080942620887325 0.36987574555111391 0 -0.082915547044562388 0.37178415292286471 0 -0.078586468023807629 0.37780731978115989 0 -0.074080942620887325 0.36987574555111391 0 -0.082915547044562388 0.37178415292286471 0 -0.082819615086019815 0.35975024286749341 0 -0.082915547044562388 0.37178415292286471 0 -0.091339564116386315 0.3706965763510438 0 -0.090008656623773955 0.37658634356315313 0 -0.091339564116386315 0.3706965763510438 0 -0.095295011892300996 0.37506670273382342 0 -0.090008656623773955 0.37658634356315313 0 -0.082819615086019815 0.35975024286749341 0 -0.067713785053270581 0.3494531896782464 0 -0.084752309763828276 0.34144734860045589 0 -0.082819615086019815 0.35975024286749341 0 -0.084752309763828276 0.34144734860045589 0 -0.094552704262952494 0.35212560814186777 0 -0.050826183723336783 0.3335427867235608 0 -0.067713785053270581 0.3494531896782464 0 -0.069655271811942657 0.32646295083770188 0 -0.067713785053270581 0.3494531896782464 0 -0.069655271811942657 0.32646295083770188 0 -0.084752309763828276 0.34144734860045589 0 -0.067100668917239911 0.30743674431235352 0 -0.054285582405981282 0.31403488948725999 0 -0.069655271811942657 0.32646295083770188 0 -0.082640824795175052 0.30856028709218658 0 -0.067100668917239911 0.30743674431235352 0 -0.069655271811942657 0.32646295083770188 0 -0.082640824795175052 0.30856028709218658 0 -0.069655271811942657 0.32646295083770188 0 -0.1001462331367468 0.31214134858607079 0 -0.082640824795175052 0.30856028709218658 0 -0.088328449754244448 0.32485326814268223 0 -0.082640824795175052 0.30856028709218658 0 -0.069655271811942657 0.32646295083770188 0 -0.088328449754244448 0.32485326814268223 0 -0.069655271811942657 0.32646295083770188 0 -0.088328449754244448 0.32485326814268223 0 -0.084752309763828276 0.34144734860045589 0 -0.088328449754244448 0.32485326814268223 0 -0.084752309763828276 0.34144734860045589 0 -0.1046660884950916 0.33362507382547218 0 -0.084752309763828276 0.34144734860045589 0 -0.1046660884950916 0.33362507382547218 0 -0.094552704262952494 0.35212560814186777 0 -0.1001462331367468 0.31214134858607079 0 -0.088328449754244448 0.32485326814268223 0 -0.1046660884950916 0.33362507382547218 0 -0.1001462331367468 0.31214134858607079 0 -0.1046660884950916 0.33362507382547218 0 -0.1001462331367468 0.31214134858607079 0 -0.1046660884950916 0.33362507382547218 0 -0.1237041471641563 0.3150591570540977 0 -0.131991227786662 0.33518970666984238 0 -0.1046660884950916 0.33362507382547218 0 -0.1237041471641563 0.3150591570540977 0 -0.131991227786662 0.33518970666984238 0 -0.1046660884950916 0.33362507382547218 0 -0.10918594385343509 0.35510879906487391 0 -0.131991227786662 0.33518970666984238 0 -0.12365021453331169 0.35636852945536851 0 -0.10918594385343509 0.35510879906487391 0 -0.131991227786662 0.33518970666984238 0 -0.10918594385343509 0.35510879906487391 0 -0.10918594385343509 0.35510879906487391 0 -0.1136508012236188 0.37633110849055429 0 -0.13029579966624269 0.36904839742441409 0 -0.12365021453331169 0.35636852945536851 0 -0.1136508012236188 0.37633110849055429 0 -0.12365021453331169 0.35636852945536851 0 -0.10918594385343509 0.35510879906487391 0 -0.1136508012236188 0.37633110849055429 0 -0.13029579966624269 0.36904839742441409 0 -0.1136508012236188 0.37633110849055429 0 -0.091339564116386315 0.3706965763510438 0 -0.10402771889055509 0.36763541562836821 0 -0.10918594385343509 0.35510879906487391 0 -0.10402771889055509 0.36763541562836821 0 -0.10918594385343509 0.35510879906487391 0 -0.1136508012236188 0.37633110849055429 0 -0.091339564116386315 0.3706965763510438 0 -0.10918594385343509 0.35510879906487391 0 -0.10266346985122091 0.37392646637975568 0 -0.10402771889055509 0.36763541562836821 0 -0.1136508012236188 0.37633110849055429 0 -0.10266346985122091 0.37392646637975568 0 -0.10402771889055509 0.36763541562836821 0 -0.095295011892300996 0.37506670273382342 0 -0.091339564116386315 0.3706965763510438 0 -0.10402771889055509 0.36763541562836821 0 -0.095295011892300996 0.37506670273382342 0 -0.091339564116386315 0.3706965763510438 0 -0.10918594385343509 0.35510879906487391 0 -0.094552704262952494 0.35212560814186777 0 -0.1046660884950916 0.33362507382547218 0 -0.10918594385343509 0.35510879906487391 0 -0.1046660884950916 0.33362507382547218 0 -0.10918594385343509 0.35510879906487391 0 -0.094552704262952494 0.35212560814186777 0 -0.096875880600343717 0.39618756988263032 0 -0.1082500167617997 0.4064623520207597 0 -0.089132891537137784 0.40635808565336301 0 -0.1067612793999044 0.3927722817437021 0 -0.096875880600343717 0.39618756988263032 0 -0.1082500167617997 0.4064623520207597 0 -0.1067612793999044 0.3927722817437021 0 -0.096875880600343717 0.39618756988263032 0 -0.095216507315106752 0.38439669267830662 0 -0.095216507315106752 0.38439669267830662 0 -0.095295011892300996 0.37506670273382342 0 -0.10847749738474451 0.37859459185738892 0 -0.095295011892300996 0.37506670273382342 0 -0.10847749738474451 0.37859459185738892 0 -0.10266346985122091 0.37392646637975568 0 -0.095295011892300996 0.37506670273382342 0 -0.10847749738474451 0.37859459185738892 0 -0.095216507315106752 0.38439669267830662 0 -0.10847749738474451 0.37859459185738892 0 -0.10907874750421991 0.38448998308028592 0 -0.10266346985122091 0.37392646637975568 0 -0.10847749738474451 0.37859459185738892 0 -0.1136508012236188 0.37633110849055429 0 -0.095216507315106752 0.38439669267830662 0 -0.10847749738474451 0.37859459185738892 0 -0.1067612793999044 0.3927722817437021 0 -0.095216507315106752 0.38439669267830662 0 -0.10907874750421991 0.38448998308028592 0 -0.1284531441338306 0.38394046285741251 0 -0.13029579966624269 0.36904839742441409 0 -0.1136508012236188 0.37633110849055429 0 -0.1067612793999044 0.3927722817437021 0 -0.10907874750421991 0.38448998308028592 0 -0.11468815243080061 0.3888772816569917 0 -0.10907874750421991 0.38448998308028592 0 -0.11468815243080061 0.3888772816569917 0 -0.1148649814971867 0.38210233639949021 0 -0.10847749738474451 0.37859459185738892 0 -0.11446406699757571 0.38019671414583778 0 -0.1136508012236188 0.37633110849055429 0 -0.10847749738474451 0.37859459185738892 0 -0.1136508012236188 0.37633110849055429 0 -0.10907874750421991 0.38448998308028592 0 -0.1148649814971867 0.38210233639949021 0 -0.11446406699757571 0.38019671414583778 0 -0.10847749738474451 0.37859459185738892 0 -0.11446406699757571 0.38019671414583778 0 -0.10847749738474451 0.37859459185738892 0 -0.10907874750421991 0.38448998308028592 0 -0.11446406699757571 0.38019671414583778 0 -0.1148649814971867 0.38210233639949021 0 -0.11446406699757571 0.38019671414583778 0 -0.11446406699757571 0.38019671414583778 0 -0.1136508012236188 0.37633110849055429 0 -0.1284531441338306 0.38394046285741251 0 -0.11446406699757571 0.38019671414583778 0 -0.1284531441338306 0.38394046285741251 0 -0.11446406699757571 0.38019671414583778 0 -0.1136508012236188 0.37633110849055429 0 -0.1284531441338306 0.38394046285741251 0 -0.1148649814971867 0.38210233639949021 0 -0.11446406699757571 0.38019671414583778 0 -0.1284531441338306 0.38394046285741251 0 -0.11468815243080061 0.3888772816569917 0 -0.1148649814971867 0.38210233639949021 0 -0.1284531441338306 0.38394046285741251 0 -0.11468815243080061 0.3888772816569917 0 -0.1183241912536639 0.39459657999153402 0 -0.12582637250862541 0.40516963685766161 0 -0.1183241912536639 0.39459657999153402 0 -0.1082500167617997 0.4064623520207597 0 -0.12582637250862541 0.40516963685766161 0 -0.1284531441338306 0.38394046285741251 0 -0.1183241912536639 0.39459657999153402 0 -0.1067612793999044 0.3927722817437021 0 -0.1183241912536639 0.39459657999153402 0 -0.1082500167617997 0.4064623520207597 0 -0.1067612793999044 0.3927722817437021 0 -0.11468815243080061 0.3888772816569917 0 -0.1183241912536639 0.39459657999153402 0 -0.12582637250862541 0.40516963685766161 0 -0.1231996008834208 0.42639881085791081 0 -0.1231996008834208 0.42639881085791081 0 -0.098610100622489316 0.42453591803248891 0 -0.1082500167617997 0.4064623520207597 0 -0.12582637250862541 0.40516963685766161 0 -0.1231996008834208 0.42639881085791081 0 -0.1082500167617997 0.4064623520207597 0 -0.1231996008834208 0.42639881085791081 0 -0.1205728292582179 0.44762798485816019 0 -0.1231996008834208 0.42639881085791081 0 -0.098610100622489316 0.42453591803248891 0 -0.1036835290135158 0.44236008459213882 0 -0.098610100622489316 0.42453591803248891 0 -0.08766019002062557 0.43632508189671643 0 -0.1036835290135158 0.44236008459213882 0 -0.098610100622489316 0.42453591803248891 0 -0.1082500167617997 0.4064623520207597 0 -0.089132891537137784 0.40635808565336301 0 -0.089132891537137784 0.40635808565336301 0 -0.077117288629656167 0.42384981955002499 0 -0.070939324401208162 0.41179561984863799 0 -0.098610100622489316 0.42453591803248891 0 -0.089132891537137784 0.40635808565336301 0 -0.077117288629656167 0.42384981955002499 0 -0.098610100622489316 0.42453591803248891 0 -0.08766019002062557 0.43632508189671643 0 -0.077117288629656167 0.42384981955002499 0 -0.08766019002062557 0.43632508189671643 0 -0.077117288629656167 0.42384981955002499 0 -0.067566439174446019 0.43932659135653218 0 -0.077117288629656167 0.42384981955002499 0 -0.054551228381880652 0.41712205094834193 0 -0.067566439174446019 0.43932659135653218 0 -0.070939324401208162 0.41179561984863799 0 -0.062802449355065265 0.40773553992998091 0 -0.054551228381880652 0.41712205094834193 0 -0.077117288629656167 0.42384981955002499 0 -0.054551228381880652 0.41712205094834193 0 -0.077117288629656167 0.42384981955002499 0 -0.070939324401208162 0.41179561984863799 0 -0.054551228381880652 0.41712205094834193 0 -0.070939324401208162 0.41179561984863799 0 -0.062802449355065265 0.40773553992998091 0 -0.065441423317382758 0.39941644151882277 0 -0.067920900171846044 0.39078620695296612 0 -0.062154291566120699 0.38075815660313111 0 -0.058000352946317869 0.40062559442740753 0 -0.065441423317382758 0.39941644151882277 0 -0.067920900171846044 0.39078620695296612 0 -0.058000352946317869 0.40062559442740753 0 -0.065441423317382758 0.39941644151882277 0 -0.067920900171846044 0.39078620695296612 0 -0.072244758983263324 0.39529918423180899 0 -0.065441423317382758 0.39941644151882277 0 -0.072244758983263324 0.39529918423180899 0 -0.078215969348603712 0.40037102310483852 0 -0.072244758983263324 0.39529918423180899 0 -0.078215969348603712 0.40037102310483852 0 -0.078136939523753765 0.38756110481489892 0 -0.067920900171846044 0.39078620695296612 0 -0.072244758983263324 0.39529918423180899 0 -0.078136939523753765 0.38756110481489892 0 -0.070939324401208162 0.41179561984863799 0 -0.065441423317382758 0.39941644151882277 0 -0.078215969348603712 0.40037102310483852 0 -0.089132891537137784 0.40635808565336301 0 -0.070939324401208162 0.41179561984863799 0 -0.078215969348603712 0.40037102310483852 0 -0.089132891537137784 0.40635808565336301 0 -0.078215969348603712 0.40037102310483852 0 -0.086979106933745221 0.39251327506496531 0 -0.078215969348603712 0.40037102310483852 0 -0.086979106933745221 0.39251327506496531 0 -0.078136939523753765 0.38756110481489892 0 -0.096875880600343717 0.39618756988263032 0 -0.095216507315106752 0.38439669267830662 0 -0.086979106933745221 0.39251327506496531 0 -0.096875880600343717 0.39618756988263032 0 -0.089132891537137784 0.40635808565336301 0 -0.086979106933745221 0.39251327506496531 0 -0.082915547044562388 0.37178415292286471 0 -0.090008656623773955 0.37658634356315313 0 -0.085276652750513326 0.38098759312972741 0 -0.095216507315106752 0.38439669267830662 0 -0.095295011892300996 0.37506670273382342 0 -0.090008656623773955 0.37658634356315313 0 -0.095216507315106752 0.38439669267830662 0 -0.090008656623773955 0.37658634356315313 0 -0.085276652750513326 0.38098759312972741 0 -0.095216507315106752 0.38439669267830662 0 -0.086979106933745221 0.39251327506496531 0 -0.085276652750513326 0.38098759312972741 0 -0.086979106933745221 0.39251327506496531 0 -0.078136939523753765 0.38756110481489892 0 -0.085276652750513326 0.38098759312972741 0 -0.078136939523753765 0.38756110481489892 0 -0.078586468023807629 0.37780731978115989 0 -0.085276652750513326 0.38098759312972741 0 -0.082915547044562388 0.37178415292286471 0 -0.078586468023807629 0.37780731978115989 0 -0.085276652750513326 0.38098759312972741 0 -0.078136939523753765 0.38756110481489892 0 -0.078586468023807629 0.37780731978115989 0 -0.072175908381283099 0.38135770674065389 0 -0.074080942620887325 0.36987574555111391 0 -0.078586468023807629 0.37780731978115989 0 -0.072175908381283099 0.38135770674065389 0 -0.067920900171846044 0.39078620695296612 0 -0.078136939523753765 0.38756110481489892 0 -0.072175908381283099 0.38135770674065389 0 -0.067920900171846044 0.39078620695296612 0 -0.072175908381283099 0.38135770674065389 0 -0.062154291566120699 0.38075815660313111 0 -0.074080942620887325 0.36987574555111391 0 -0.072175908381283099 0.38135770674065389 0 -0.062154291566120699 0.38075815660313111 0 -0.062154291566120699 0.38075815660313111 0 -0.052934030650872467 0.38703083742350541 0 -0.058000352946317869 0.40062559442740753 0 -0.074080942620887325 0.36987574555111391 0 -0.062154291566120699 0.38075815660313111 0 -0.05098908328580963 0.37605008536516832 0 -0.062154291566120699 0.38075815660313111 0 -0.052934030650872467 0.38703083742350541 0 -0.05098908328580963 0.37605008536516832 0 -0.052934030650872467 0.38703083742350541 0 -0.05098908328580963 0.37605008536516832 0 -0.043087987561371423 0.3912989010638398 0 -0.062154291566120699 0.38075815660313111 0 -0.058000352946317869 0.40062559442740753 0 -0.062802449355065265 0.40773553992998091 0 -0.065441423317382758 0.39941644151882277 0 -0.058000352946317869 0.40062559442740753 0 -0.065441423317382758 0.39941644151882277 0 -0.058000352946317869 0.40062559442740753 0 -0.052934030650872467 0.38703083742350541 0 -0.058000352946317869 0.40062559442740753 0 -0.043087987561371423 0.3912989010638398 0 -0.043087987561371423 0.3912989010638398 0 -0.027897223950732301 0.38222442517922389 0 -0.029772684243853001 0.40521251082679888 0 -0.058000352946317869 0.40062559442740753 0 -0.029772684243853001 0.40521251082679888 0 -0.030150816700491061 0.40984739503695439 0 -0.058000352946317869 0.40062559442740753 0 -0.029772684243853001 0.40521251082679888 0 -0.058000352946317869 0.40062559442740753 0 -0.043087987561371423 0.3912989010638398 0 -0.029772684243853001 0.40521251082679888 0 -0.05098908328580963 0.37605008536516832 0 -0.043087987561371423 0.3912989010638398 0 -0.027897223950732301 0.38222442517922389 0 -0.05098908328580963 0.37605008536516832 0 -0.027897223950732301 0.38222442517922389 0 -0.027897223950732301 0.38222442517922389 0 -0.017116541542245761 0.39354656116536901 0 -0.0038456699322450831 0.38865536975632942 0 -0.027897223950732301 0.38222442517922389 0 -0.0038456699322450831 0.38865536975632942 0 -0.027897223950732301 0.38222442517922389 0 -0.029772684243853001 0.40521251082679888 0 -0.027897223950732301 0.38222442517922389 0 -0.029772684243853001 0.40521251082679888 0 -0.017116541542245761 0.39354656116536901 0 -0.029772684243853001 0.40521251082679888 0 -0.01995545137450257 0.40680778342687612 0 -0.029772684243853001 0.40521251082679888 0 -0.017116541542245761 0.39354656116536901 0 -0.01995545137450257 0.40680778342687612 0 -0.01995545137450257 0.40680778342687612 0 0.0051179241548920951 0.39933249235822299 0 -0.01995545137450257 0.40680778342687612 0 0.0062569560340532994 0.41106722556066511 0 0.0051179241548920951 0.39933249235822299 0 -0.017116541542245761 0.39354656116536901 0 -0.01995545137450257 0.40680778342687612 0 0.0051179241548920951 0.39933249235822299 0 -0.017116541542245761 0.39354656116536901 0 -0.0038456699322450831 0.38865536975632942 0 0.0051179241548920951 0.39933249235822299 0 -0.01443026978900671 0.37274382347287532 0 -0.00087981957629810256 0.37004617894156078 0 -0.0038456699322450831 0.38865536975632942 0 -0.01443026978900671 0.37274382347287532 0 -0.027897223950732301 0.38222442517922389 0 -0.0038456699322450831 0.38865536975632942 0 -0.010758393889383251 0.42494773866136148 0 -0.018044979890104101 0.44078207827288662 0 -0.0021281657377375911 0.43989566915210648 0 -0.010758393889383251 0.42494773866136148 0 -0.0021281657377375911 0.43989566915210648 0 0.0045153601692261239 0.42615740995073359 0 -0.010758393889383251 0.42494773866136148 0 -0.01995545137450257 0.40680778342687612 0 0.0062569560340532994 0.41106722556066511 0 -0.01995545137450257 0.40680778342687612 0 0.0062569560340532994 0.41106722556066511 0 -0.010758393889383251 0.42494773866136148 0 -0.023176858434127309 0.41852297503184321 0 -0.01995545137450257 0.40680778342687612 0 -0.01995545137450257 0.40680778342687612 0 -0.030150816700491061 0.40984739503695439 0 -0.029772684243853001 0.40521251082679888 0 -0.01995545137450257 0.40680778342687612 0 -0.030150816700491061 0.40984739503695439 0 -0.023176858434127309 0.41852297503184321 0 -0.01995545137450257 0.40680778342687612 0 -0.030150816700491061 0.40984739503695439 0 -0.029772684243853001 0.40521251082679888 0 -0.030150816700491061 0.40984739503695439 0 -0.023176858434127309 0.41852297503184321 0 -0.030150816700491061 0.40984739503695439 0 -0.031337084794427872 0.42438784286436171 0 -0.030150816700491061 0.40984739503695439 0 -0.031337084794427872 0.42438784286436171 0 -0.010758393889383251 0.42494773866136148 0 -0.024359255722819571 0.43045035540818127 0 -0.018044979890104101 0.44078207827288662 0 -0.023176858434127309 0.41852297503184321 0 -0.036333588189583751 0.42992516214321258 0 -0.023176858434127309 0.41852297503184321 0 -0.036333588189583751 0.42992516214321258 0 -0.031337084794427872 0.42438784286436171 0 -0.023176858434127309 0.41852297503184321 0 -0.024359255722819571 0.43045035540818127 0 -0.036333588189583751 0.42992516214321258 0 -0.010758393889383251 0.42494773866136148 0 -0.023176858434127309 0.41852297503184321 0 -0.024359255722819571 0.43045035540818127 0 -0.024359255722819571 0.43045035540818127 0 -0.032066469395329027 0.43854998078171992 0 -0.018044979890104101 0.44078207827288662 0 -0.024359255722819571 0.43045035540818127 0 -0.036333588189583751 0.42992516214321258 0 -0.032066469395329027 0.43854998078171992 0 -0.036333588189583751 0.42992516214321258 0 -0.054551228381880652 0.41712205094834193 0 -0.049490317945040482 0.44132734925458161 0 -0.036333588189583751 0.42992516214321258 0 -0.049490317945040482 0.44132734925458161 0 -0.032066469395329027 0.43854998078171992 0 -0.036333588189583751 0.42992516214321258 0 -0.031337084794427872 0.42438784286436171 0 -0.054551228381880652 0.41712205094834193 0 -0.036333588189583751 0.42992516214321258 0 -0.049490317945040482 0.44132734925458161 0 -0.030150816700491061 0.40984739503695439 0 -0.054551228381880652 0.41712205094834193 0 -0.030150816700491061 0.40984739503695439 0 -0.031337084794427872 0.42438784286436171 0 -0.054551228381880652 0.41712205094834193 0 -0.058000352946317869 0.40062559442740753 0 -0.030150816700491061 0.40984739503695439 0 -0.054551228381880652 0.41712205094834193 0 -0.062802449355065265 0.40773553992998091 0 -0.058000352946317869 0.40062559442740753 0 -0.054551228381880652 0.41712205094834193 0 -0.058000352946317869 0.40062559442740753 0 -0.054551228381880652 0.41712205094834193 0 -0.054551228381880652 0.41712205094834193 0 -0.049490317945040482 0.44132734925458161 0 -0.067566439174446019 0.43932659135653218 0 -0.054551228381880652 0.41712205094834193 0 -0.049490317945040482 0.44132734925458161 0 -0.049490317945040482 0.44132734925458161 0 -0.068155680773031788 0.45750355439234391 0 -0.067566439174446019 0.43932659135653218 0 -0.049490317945040482 0.44132734925458161 0 -0.045334342195398149 0.46120453025374658 0 -0.049490317945040482 0.44132734925458161 0 -0.068155680773031788 0.45750355439234391 0 -0.045334342195398149 0.46120453025374658 0 -0.057227565891968687 0.47414549024026259 0 -0.068155680773031788 0.45750355439234391 0 -0.049490317945040482 0.44132734925458161 0 -0.045334342195398149 0.46120453025374658 0 -0.068155680773031788 0.45750355439234391 0 -0.045334342195398149 0.46120453025374658 0 -0.03013564349722082 0.46553738519070192 0 -0.057227565891968687 0.47414549024026259 0 -0.045334342195398149 0.46120453025374658 0 -0.03210420522909728 0.4502649588297376 0 -0.03013564349722082 0.46553738519070192 0 -0.049490317945040482 0.44132734925458161 0 -0.03210420522909728 0.4502649588297376 0 -0.032066469395329027 0.43854998078171992 0 -0.049490317945040482 0.44132734925458161 0 -0.045334342195398149 0.46120453025374658 0 -0.03210420522909728 0.4502649588297376 0 -0.03210420522909728 0.4502649588297376 0 -0.032066469395329027 0.43854998078171992 0 -0.018044979890104101 0.44078207827288662 0 -0.03210420522909728 0.4502649588297376 0 -0.018044979890104101 0.44078207827288662 0 -0.018519750317616109 0.45226818740216718 0 -0.03013564349722082 0.46553738519070192 0 -0.0030437211024727639 0.4569292801411412 0 -0.021426870931403531 0.47846464007056783 0 -0.03013564349722082 0.46553738519070192 0 -0.0030437211024727639 0.4569292801411412 0 -0.03210420522909728 0.4502649588297376 0 -0.018519750317616109 0.45226818740216718 0 -0.03013564349722082 0.46553738519070192 0 -0.018519750317616109 0.45226818740216718 0 -0.03013564349722082 0.46553738519070192 0 -0.0030437211024727639 0.4569292801411412 0 -0.0030437211024727639 0.4569292801411412 0 -0.021426870931403531 0.47846464007056783 0 -0.018044979890104101 0.44078207827288662 0 -0.0021281657377375911 0.43989566915210648 0 -0.0095731882271606547 0.44773393208930778 0 -0.0030437211024727639 0.4569292801411412 0 -0.0021281657377375911 0.43989566915210648 0 -0.0095731882271606547 0.44773393208930778 0 -0.018519750317616109 0.45226818740216718 0 -0.0030437211024727639 0.4569292801411412 0 -0.0095731882271606547 0.44773393208930778 0 -0.018044979890104101 0.44078207827288662 0 -0.018519750317616109 0.45226818740216718 0 -0.0095731882271606547 0.44773393208930778 0 -0.01027405539571569 0.5 0 -0.021426870931403531 0.47846464007056783 0 0.0021015448394762831 0.47993526466174352 0 -0.0030437211024727639 0.4569292801411412 0 -0.021426870931403531 0.47846464007056783 0 0.0021015448394762831 0.47993526466174352 0 -0.03013564349722082 0.46553738519070192 0 -0.021426870931403531 0.47846464007056783 0 -0.039767007291828069 0.48142286728727579 0 -0.01027405539571569 0.5 0 -0.021426870931403531 0.47846464007056783 0 -0.039810020760332597 0.499999999999996 0 -0.021426870931403531 0.47846464007056783 0 -0.039810020760332597 0.499999999999996 0 -0.039810020760332597 0.499999999999996 0 -0.039767007291828069 0.48142286728727579 0 -0.051037937123749377 0.48897582105949161 0 -0.021426870931403531 0.47846464007056783 0 -0.039810020760332597 0.499999999999996 0 -0.039767007291828069 0.48142286728727579 0 -0.03013564349722082 0.46553738519070192 0 -0.057227565891968687 0.47414549024026259 0 -0.03013564349722082 0.46553738519070192 0 -0.039767007291828069 0.48142286728727579 0 -0.057227565891968687 0.47414549024026259 0 -0.039767007291828069 0.48142286728727579 0 -0.057227565891968687 0.47414549024026259 0 -0.051037937123749377 0.48897582105949161 0 -0.057227565891968687 0.47414549024026259 0 -0.051037937123749377 0.48897582105949161 0 -0.0634626098652461 0.48696969838654508 0 -0.039810020760332597 0.499999999999996 0 -0.051037937123749377 0.48897582105949161 0 -0.058041219367492181 0.5 0 -0.051037937123749377 0.48897582105949161 0 -0.058041219367492181 0.5 0 -0.0634626098652461 0.48696969838654508 0 -0.058041219367492181 0.5 0 -0.076272417974651785 0.50000000000000089 0 -0.0634626098652461 0.48696969838654508 0 -0.076272417974651785 0.50000000000000089 0 -0.0634626098652461 0.48696969838654508 0 -0.076428571603230189 0.48383736307845682 0 -0.079576396542757916 0.49999999999999778 0 -0.091039221735841169 0.48254266161938791 0 -0.099570611304334589 0.47788725767925139 0 -0.079576396542757916 0.49999999999999778 0 -0.099570611304334589 0.47788725767925139 0 -0.076272417974651785 0.50000000000000089 0 -0.079576396542757916 0.49999999999999778 0 -0.091039221735841169 0.48254266161938791 0 -0.076272417974651785 0.50000000000000089 0 -0.091039221735841169 0.48254266161938791 0 -0.076272417974651785 0.50000000000000089 0 -0.091039221735841169 0.48254266161938791 0 -0.076428571603230189 0.48383736307845682 0 -0.086821043601023384 0.47367975953010583 0 -0.091039221735841169 0.48254266161938791 0 -0.076428571603230189 0.48383736307845682 0 -0.086821043601023384 0.47367975953010583 0 -0.070999075872179379 0.47391048847432721 0 -0.076428571603230189 0.48383736307845682 0 -0.057227565891968687 0.47414549024026259 0 -0.0634626098652461 0.48696969838654508 0 -0.070999075872179379 0.47391048847432721 0 -0.0634626098652461 0.48696969838654508 0 -0.070999075872179379 0.47391048847432721 0 -0.076428571603230189 0.48383736307845682 0 -0.086821043601023384 0.47367975953010583 0 -0.070999075872179379 0.47391048847432721 0 -0.068155680773031788 0.45750355439234391 0 -0.057227565891968687 0.47414549024026259 0 -0.070999075872179379 0.47391048847432721 0 -0.068155680773031788 0.45750355439234391 0 -0.086821043601023384 0.47367975953010583 0 -0.068155680773031788 0.45750355439234391 0 -0.068155680773031788 0.45750355439234391 0 -0.067566439174446019 0.43932659135653218 0 -0.086591909557826266 0.45249742446004221 0 -0.08766019002062557 0.43632508189671643 0 -0.067566439174446019 0.43932659135653218 0 -0.086591909557826266 0.45249742446004221 0 -0.08766019002062557 0.43632508189671643 0 -0.086591909557826266 0.45249742446004221 0 -0.1036835290135158 0.44236008459213882 0 -0.086821043601023384 0.47367975953010583 0 -0.068155680773031788 0.45750355439234391 0 -0.086591909557826266 0.45249742446004221 0 -0.086821043601023384 0.47367975953010583 0 -0.086591909557826266 0.45249742446004221 0 -0.10580602549703021 0.46508532323877461 0 -0.086591909557826266 0.45249742446004221 0 -0.10580602549703021 0.46508532323877461 0 -0.1036835290135158 0.44236008459213882 0 -0.10580602549703021 0.46508532323877461 0 -0.1195648260659135 0.45577451535850699 0 -0.099570611304334589 0.47788725767925139 0 -0.10580602549703021 0.46508532323877461 0 -0.1036835290135158 0.44236008459213882 0 -0.1205728292582179 0.44762798485816019 0 -0.1231996008834208 0.42639881085791081 0 -0.1036835290135158 0.44236008459213882 0 -0.1205728292582179 0.44762798485816019 0 -0.12543055554419991 0.4418851732852449 0 -0.1231996008834208 0.42639881085791081 0 -0.1205728292582179 0.44762798485816019 0 -0.12543055554419991 0.4418851732852449 0 -0.1220603667470337 0.45301455460532869 0 -0.1220603667470337 0.45301455460532869 0 -0.1205728292582179 0.44762798485816019 0 -0.1195648260659135 0.45577451535850699 0 -0.12543055554419991 0.4418851732852449 0 -0.1220603667470337 0.45301455460532869 0 -0.1205728292582179 0.44762798485816019 0 -0.1205728292582179 0.44762798485816019 0 -0.1195648260659135 0.45577451535850699 0 -0.12543055554419991 0.4418851732852449 0 -0.1205728292582179 0.44762798485816019 0 -0.1220603667470337 0.45301455460532869 0 -0.1195648260659135 0.45577451535850699 0 -0.11494632252728711 0.47650727730266318 0 -0.10580602549703021 0.46508532323877461 0 -0.1205728292582179 0.44762798485816019 0 -0.1195648260659135 0.45577451535850699 0 -0.099570611304334589 0.47788725767925139 0 -0.1220603667470337 0.45301455460532869 0 -0.11494632252728711 0.47650727730266318 0 -0.13293933748483619 0.4720456825956364 0 -0.1220603667470337 0.45301455460532869 0 -0.11494632252728711 0.47650727730266318 0 -0.10580602549703021 0.46508532323877461 0 -0.1205728292582179 0.44762798485816019 0 -0.1195648260659135 0.45577451535850699 0 -0.1220603667470337 0.45301455460532869 0 -0.1195648260659135 0.45577451535850699 0 -0.1195648260659135 0.45577451535850699 0 -0.11494632252728711 0.47650727730266318 0 -0.099570611304334589 0.47788725767925139 0 -0.13709577279281929 0.5 0 -0.11494632252728711 0.47650727730266318 0 -0.1078322783075407 0.49999999999999761 0 -0.11494632252728711 0.47650727730266318 0 -0.1078322783075407 0.49999999999999761 0 -0.11494632252728711 0.47650727730266318 0 -0.1078322783075407 0.49999999999999761 0 -0.099570611304334589 0.47788725767925139 0 -0.079576396542757916 0.49999999999999778 0 -0.1078322783075407 0.49999999999999761 0 -0.099570611304334589 0.47788725767925139 0 -0.086821043601023384 0.47367975953010583 0 -0.091039221735841169 0.48254266161938791 0 -0.10580602549703021 0.46508532323877461 0 -0.091039221735841169 0.48254266161938791 0 -0.10580602549703021 0.46508532323877461 0 -0.099570611304334589 0.47788725767925139 0 -0.091039221735841169 0.48254266161938791 0 -0.10580602549703021 0.46508532323877461 0 -0.1711712645160397 0.075006139857380527 0 -0.16884841395719841 0.097601775460045392 0 -0.14750800171561601 0.089485490051859573 0 -0.1711712645160397 0.075006139857380527 0 -0.14750800171561601 0.089485490051859573 0 -0.15139506703433711 0.06627227086817386 0 -0.1711712645160397 0.075006139857380527 0 -0.1843700791883115 0.058462642684422833 0 -0.19455933800273759 0.07429860889728454 0 -0.1711712645160397 0.075006139857380527 0 -0.18467138450828241 0.089848248291311328 0 -0.19455933800273759 0.07429860889728454 0 -0.1711712645160397 0.075006139857380527 0 -0.18467138450828241 0.089848248291311328 0 -0.16884841395719841 0.097601775460045392 0 -0.18467138450828241 0.089848248291311328 0 -0.18597382569722021 0.10629330672598419 0 -0.16884841395719841 0.097601775460045392 0 -0.18597382569722021 0.10629330672598419 0 -0.17236277362289781 0.1166057288357769 0 -0.16884841395719841 0.097601775460045392 0 -0.18597382569722021 0.10629330672598419 0 -0.18421424307235509 0.12095890305881379 0 -0.17236277362289781 0.1166057288357769 0 -0.18421424307235509 0.12095890305881379 0 -0.17236277362289781 0.1166057288357769 0 -0.17482441116505529 0.13165925239651821 0 -0.17236277362289781 0.1166057288357769 0 -0.16172739713684009 0.12557701966577631 0 -0.17482441116505529 0.13165925239651821 0 -0.17236277362289781 0.1166057288357769 0 -0.15759596173732859 0.11087170318080811 0 -0.16172739713684009 0.12557701966577631 0 -0.15759596173732859 0.11087170318080811 0 -0.16884841395719841 0.097601775460045392 0 -0.14750800171561601 0.089485490051859573 0 -0.17236277362289781 0.1166057288357769 0 -0.15759596173732859 0.11087170318080811 0 -0.16884841395719841 0.097601775460045392 0 -0.15759596173732859 0.11087170318080811 0 -0.13746276640735841 0.10846006176325861 0 -0.14750800171561601 0.089485490051859573 0 -0.15759596173732859 0.11087170318080811 0 -0.13746276640735841 0.10846006176325861 0 -0.1435357231901325 0.12716212974980601 0 -0.15759596173732859 0.11087170318080811 0 -0.16172739713684009 0.12557701966577631 0 -0.1435357231901325 0.12716212974980601 0 -0.13746276640735841 0.10846006176325861 0 -0.1435357231901325 0.12716212974980601 0 -0.11980067290913921 0.11633006653277669 0 -0.13746276640735841 0.10846006176325861 0 -0.1188734724845756 0.098450919301042744 0 -0.11980067290913921 0.11633006653277669 0 -0.13746276640735841 0.10846006176325861 0 -0.14750800171561601 0.089485490051859573 0 -0.1188734724845756 0.098450919301042744 0 -0.14750800171561601 0.089485490051859573 0 -0.1292250598048533 0.073547824708840526 0 -0.1188734724845756 0.098450919301042744 0 -0.14750800171561601 0.089485490051859573 0 -0.15139506703433711 0.06627227086817386 0 -0.1292250598048533 0.073547824708840526 0 -0.15139506703433711 0.06627227086817386 0 -0.1292250598048533 0.073547824708840526 0 -0.13957664712513099 0.048644730116638293 0 -0.1292250598048533 0.073547824708840526 0 -0.13957664712513099 0.048644730116638293 0 -0.1159912604935 0.053330403839997292 0 -0.1292250598048533 0.073547824708840526 0 -0.13957664712513099 0.048644730116638293 0 -0.13957664712513099 0.048644730116638293 0 -0.12559464592930161 0.033607998242454432 0 -0.14992823444540859 0.023741635524436099 0 -0.13957664712513099 0.048644730116638293 0 -0.12559464592930161 0.033607998242454432 0 -0.1159912604935 0.053330403839997292 0 -0.13957664712513099 0.048644730116638293 0 -0.14992823444540859 0.023741635524436099 0 -0.16776534198832629 0.045840038782040883 0 -0.13957664712513099 0.048644730116638293 0 -0.14992823444540859 0.023741635524436099 0 -0.15139506703433711 0.06627227086817386 0 -0.13957664712513099 0.048644730116638293 0 -0.16776534198832629 0.045840038782040883 0 -0.14992823444540859 0.023741635524436099 0 -0.14131752195370059 0.001569289130654902 0 -0.12332417756614659 0.01212573047390467 0 -0.12559464592930161 0.033607998242454432 0 -0.14992823444540859 0.023741635524436099 0 -0.12332417756614659 0.01212573047390467 0 -0.16027982176568631 -0.00116145906776613 0 -0.14992823444540859 0.023741635524436099 0 -0.14131752195370059 0.001569289130654902 0 -0.16027982176568631 -0.00116145906776613 0 -0.14992823444540859 0.023741635524436099 0 -0.1727975559702061 0.02376763164536911 0 -0.19587064460800779 0.04229592024158281 0 -0.1901437370436016 0.0081220227465518963 0 -0.16027982176568631 -0.00116145906776613 0 -0.14992823444540859 0.023741635524436099 0 -0.1727975559702061 0.02376763164536911 0 -0.14992823444540859 0.023741635524436099 0 -0.1727975559702061 0.02376763164536911 0 -0.16776534198832629 0.045840038782040883 0 -0.16027982176568631 -0.00116145906776613 0 -0.1727975559702061 0.02376763164536911 0 -0.1901437370436016 0.0081220227465518963 0 -0.1711712645160397 0.075006139857380527 0 -0.15139506703433711 0.06627227086817386 0 -0.16776534198832629 0.045840038782040883 0 -0.1727975559702061 0.02376763164536911 0 -0.16776534198832629 0.045840038782040883 0 -0.19587064460800779 0.04229592024158281 0 -0.1711712645160397 0.075006139857380527 0 -0.16776534198832629 0.045840038782040883 0 -0.1843700791883115 0.058462642684422833 0 -0.16776534198832629 0.045840038782040883 0 -0.1843700791883115 0.058462642684422833 0 -0.19587064460800779 0.04229592024158281 0 -0.1843700791883115 0.058462642684422833 0 -0.19587064460800779 0.04229592024158281 0 -0.2061875481735056 0.056289735421495471 0 -0.19587064460800779 0.04229592024158281 0 -0.210273305727538 0.021503848082506011 0 -0.22473871637992121 0.039226970162926159 0 -0.19587064460800779 0.04229592024158281 0 -0.2061875481735056 0.056289735421495471 0 -0.22473871637992121 0.039226970162926159 0 -0.19587064460800779 0.04229592024158281 0 -0.22473871637992121 0.039226970162926159 0 -0.2061875481735056 0.056289735421495471 0 -0.22293294759648211 0.051161972205292207 0 -0.21465356326557331 0.072292298337464395 0 -0.2061875481735056 0.056289735421495471 0 -0.22293294759648211 0.051161972205292207 0 -0.22473871637992121 0.039226970162926159 0 -0.19587064460800779 0.04229592024158281 0 -0.1901437370436016 0.0081220227465518963 0 -0.210273305727538 0.021503848082506011 0 -0.1901437370436016 0.0081220227465518963 0 -0.210273305727538 0.021503848082506011 0 -0.20447405146865369 0.0015694416137433901 0 -0.210273305727538 0.021503848082506011 0 -0.20447405146865369 0.0015694416137433901 0 -0.2212337546737895 0.008973270288563498 0 -0.2289417689957631 -0.0050995161233011316 0 -0.2212337546737895 0.008973270288563498 0 -0.2365649664175089 0.015926478330844041 0 -0.22524719633171369 0.023345299879103401 0 -0.23599870550918969 0.029008324238861859 0 -0.22473871637992121 0.039226970162926159 0 -0.210273305727538 0.021503848082506011 0 -0.22524719633171369 0.023345299879103401 0 -0.22473871637992121 0.039226970162926159 0 -0.22524719633171369 0.023345299879103401 0 -0.23599870550918969 0.029008324238861859 0 -0.2365649664175089 0.015926478330844041 0 -0.2212337546737895 0.008973270288563498 0 -0.22524719633171369 0.023345299879103401 0 -0.2365649664175089 0.015926478330844041 0 -0.210273305727538 0.021503848082506011 0 -0.2212337546737895 0.008973270288563498 0 -0.22524719633171369 0.023345299879103401 0 -0.25633418442573502 0.021658113668284851 0 -0.24498279436372289 0.02620963615352211 0 -0.2365649664175089 0.015926478330844041 0 -0.2536067881518359 0.03615802008428208 0 -0.23599870550918969 0.029008324238861859 0 -0.24498279436372289 0.02620963615352211 0 -0.23599870550918969 0.029008324238861859 0 -0.24498279436372289 0.02620963615352211 0 -0.2365649664175089 0.015926478330844041 0 -0.25633418442573502 0.021658113668284851 0 -0.2365649664175089 0.015926478330844041 0 -0.2479964616934921 0.001751450810798965 0 -0.2289417689957631 -0.0050995161233011316 0 -0.2365649664175089 0.015926478330844041 0 -0.2479964616934921 0.001751450810798965 0 -0.22293294759648211 0.051161972205292207 0 -0.21465356326557331 0.072292298337464395 0 -0.22293294759648211 0.051161972205292207 0 -0.23606616139967501 0.051650770750553979 0 -0.23128344769709511 0.070367681396135973 0 -0.22293294759648211 0.051161972205292207 0 -0.22473871637992121 0.039226970162926159 0 -0.23606616139967501 0.051650770750553979 0 -0.2536067881518359 0.03615802008428208 0 -0.23599870550918969 0.029008324238861859 0 -0.22473871637992121 0.039226970162926159 0 -0.2536067881518359 0.03615802008428208 0 -0.22473871637992121 0.039226970162926159 0 -0.2536067881518359 0.03615802008428208 0 -0.22473871637992121 0.039226970162926159 0 -0.23606616139967501 0.051650770750553979 0 -0.23606616139967501 0.051650770750553979 0 -0.24813832050515441 0.06523053509607378 0 -0.23128344769709511 0.070367681396135973 0 -0.2536067881518359 0.03615802008428208 0 -0.23606616139967501 0.051650770750553979 0 -0.24813832050515441 0.06523053509607378 0 -0.24813832050515441 0.06523053509607378 0 -0.23128344769709511 0.070367681396135973 0 -0.24266985285847051 0.09430305010786505 0 -0.25913976470121758 0.080991104984854567 0 -0.24813832050515441 0.06523053509607378 0 -0.24266985285847051 0.09430305010786505 0 -0.24813832050515441 0.06523053509607378 0 -0.24266985285847051 0.09430305010786505 0 -0.2232398405572166 0.087567461879566627 0 -0.23128344769709511 0.070367681396135973 0 -0.24266985285847051 0.09430305010786505 0 -0.2232398405572166 0.087567461879566627 0 -0.23128344769709511 0.070367681396135973 0 -0.21465356326557331 0.072292298337464395 0 -0.22293294759648211 0.051161972205292207 0 -0.23128344769709511 0.070367681396135973 0 -0.21465356326557331 0.072292298337464395 0 -0.2061875481735056 0.056289735421495471 0 -0.21465356326557331 0.072292298337464395 0 -0.19455933800273759 0.07429860889728454 0 -0.21465356326557331 0.072292298337464395 0 -0.20637417893466439 0.093422624469636562 0 -0.2232398405572166 0.087567461879566627 0 -0.21465356326557331 0.072292298337464395 0 -0.20637417893466439 0.093422624469636562 0 -0.21465356326557331 0.072292298337464395 0 -0.20637417893466439 0.093422624469636562 0 -0.19455933800273759 0.07429860889728454 0 -0.18467138450828241 0.089848248291311328 0 -0.20637417893466439 0.093422624469636562 0 -0.19455933800273759 0.07429860889728454 0 -0.1843700791883115 0.058462642684422833 0 -0.2061875481735056 0.056289735421495471 0 -0.19455933800273759 0.07429860889728454 0 -0.18421424307235509 0.12095890305881379 0 -0.19809479460375551 0.1145529506018088 0 -0.1898154102728466 0.13568327673398109 0 -0.18597382569722021 0.10629330672598419 0 -0.18421424307235509 0.12095890305881379 0 -0.19809479460375551 0.1145529506018088 0 -0.20637417893466439 0.093422624469636562 0 -0.19809479460375551 0.1145529506018088 0 -0.18467138450828241 0.089848248291311328 0 -0.18597382569722021 0.10629330672598419 0 -0.20637417893466439 0.093422624469636562 0 -0.18597382569722021 0.10629330672598419 0 -0.20637417893466439 0.093422624469636562 0 -0.19809479460375551 0.1145529506018088 0 -0.20637417893466439 0.093422624469636562 0 -0.19809479460375551 0.1145529506018088 0 -0.22158757336239801 0.1113429802786722 0 -0.2232398405572166 0.087567461879566627 0 -0.20637417893466439 0.093422624469636562 0 -0.22158757336239801 0.1113429802786722 0 -0.19809479460375551 0.1145529506018088 0 -0.22158757336239801 0.1113429802786722 0 -0.20050529386632471 0.12838291044947819 0 -0.22158757336239801 0.1113429802786722 0 -0.20050529386632471 0.12838291044947819 0 -0.22158757336239801 0.1113429802786722 0 -0.20050529386632471 0.12838291044947819 0 -0.2184048750017199 0.1313562180074577 0 -0.22158757336239801 0.1113429802786722 0 -0.23811807215611311 0.1185020984244162 0 -0.2184048750017199 0.1313562180074577 0 -0.22158757336239801 0.1113429802786722 0 -0.24266985285847051 0.09430305010786505 0 -0.22158757336239801 0.1113429802786722 0 -0.24266985285847051 0.09430305010786505 0 -0.23811807215611311 0.1185020984244162 0 -0.2232398405572166 0.087567461879566627 0 -0.22158757336239801 0.1113429802786722 0 -0.24266985285847051 0.09430305010786505 0 -0.25221335592051047 0.1122038124009291 0 -0.24266985285847051 0.09430305010786505 0 -0.23811807215611311 0.1185020984244162 0 -0.24266985285847051 0.09430305010786505 0 -0.23811807215611311 0.1185020984244162 0 -0.25221335592051047 0.1122038124009291 0 -0.23811807215611311 0.1185020984244162 0 -0.24928655479220371 0.12736228417046699 0 -0.23811807215611311 0.1185020984244162 0 -0.24928655479220371 0.12736228417046699 0 -0.23356629145375701 0.1427011467409674 0 -0.25067899134314953 0.14316715857932191 0 -0.24928655479220371 0.12736228417046699 0 -0.23356629145375701 0.1427011467409674 0 -0.23811807215611311 0.1185020984244162 0 -0.23356629145375701 0.1427011467409674 0 -0.23811807215611311 0.1185020984244162 0 -0.23356629145375701 0.1427011467409674 0 -0.2184048750017199 0.1313562180074577 0 -0.23356629145375701 0.1427011467409674 0 -0.22901451075140081 0.1669001950575186 0 -0.21147588350800561 0.14837993260236909 0 -0.23356629145375701 0.1427011467409674 0 -0.2184048750017199 0.1313562180074577 0 -0.21147588350800561 0.14837993260236909 0 -0.23356629145375701 0.1427011467409674 0 -0.22901451075140081 0.1669001950575186 0 -0.25067899134314953 0.14316715857932191 0 -0.23356629145375701 0.1427011467409674 0 -0.24762251711130989 0.15780097984971159 0 -0.23356629145375701 0.1427011467409674 0 -0.24762251711130989 0.15780097984971159 0 -0.22901451075140081 0.1669001950575186 0 -0.24762251711130989 0.15780097984971159 0 -0.247977347910708 0.17381395201700811 0 -0.22901451075140081 0.1669001950575186 0 -0.247977347910708 0.17381395201700811 0 -0.23681234476122251 0.18123021728975819 0 -0.22901451075140081 0.1669001950575186 0 -0.247977347910708 0.17381395201700811 0 -0.23681234476122251 0.18123021728975819 0 -0.24579479033373661 0.1931074787104361 0 -0.23681234476122251 0.18123021728975819 0 -0.22901451075140081 0.1669001950575186 0 -0.2244627300490446 0.19109924337406989 0 -0.22901451075140081 0.1669001950575186 0 -0.21241003655471949 0.17908286763696829 0 -0.2244627300490446 0.19109924337406989 0 -0.22901451075140081 0.1669001950575186 0 -0.2244627300490446 0.19109924337406989 0 -0.22901451075140081 0.1669001950575186 0 -0.20704156133192181 0.16504857704935891 0 -0.21147588350800561 0.14837993260236909 0 -0.22901451075140081 0.1669001950575186 0 -0.20704156133192181 0.16504857704935891 0 -0.21241003655471949 0.17908286763696829 0 -0.20704156133192181 0.16504857704935891 0 -0.21241003655471949 0.17908286763696829 0 -0.19553293149171419 0.17688649995016681 0 -0.21241003655471949 0.17908286763696829 0 -0.19553293149171419 0.17688649995016681 0 -0.20077359137631889 0.19693793164549961 0 -0.19553293149171419 0.17688649995016681 0 -0.20077359137631889 0.19693793164549961 0 -0.18763212765137979 0.18808778620069039 0 -0.19553293149171419 0.17688649995016681 0 -0.20077359137631889 0.19693793164549961 0 -0.19553293149171419 0.17688649995016681 0 -0.19029227160710971 0.15683506825483409 0 -0.18118028017317919 0.16672300267686299 0 -0.20704156133192181 0.16504857704935891 0 -0.19553293149171419 0.17688649995016681 0 -0.19029227160710971 0.15683506825483409 0 -0.20704156133192181 0.16504857704935891 0 -0.19029227160710971 0.15683506825483409 0 -0.21147588350800561 0.14837993260236909 0 -0.19553293149171419 0.17688649995016681 0 -0.19029227160710971 0.15683506825483409 0 -0.19029227160710971 0.15683506825483409 0 -0.1973745198030824 0.1435697982951617 0 -0.21147588350800561 0.14837993260236909 0 -0.19029227160710971 0.15683506825483409 0 -0.1973745198030824 0.1435697982951617 0 -0.17942301437025129 0.14542284062028421 0 -0.19809479460375551 0.1145529506018088 0 -0.1898154102728466 0.13568327673398109 0 -0.20050529386632471 0.12838291044947819 0 -0.1898154102728466 0.13568327673398109 0 -0.20050529386632471 0.12838291044947819 0 -0.17942301437025129 0.14542284062028421 0 -0.1973745198030824 0.1435697982951617 0 -0.20050529386632471 0.12838291044947819 0 -0.17942301437025129 0.14542284062028421 0 -0.19809479460375551 0.1145529506018088 0 -0.1898154102728466 0.13568327673398109 0 -0.20050529386632471 0.12838291044947819 0 -0.17942301437025129 0.14542284062028421 0 -0.1973745198030824 0.1435697982951617 0 -0.20050529386632471 0.12838291044947819 0 -0.2056353212585415 0.13859239388291569 0 -0.2056353212585415 0.13859239388291569 0 -0.2184048750017199 0.1313562180074577 0 -0.21147588350800561 0.14837993260236909 0 -0.20050529386632471 0.12838291044947819 0 -0.2056353212585415 0.13859239388291569 0 -0.2184048750017199 0.1313562180074577 0 -0.1973745198030824 0.1435697982951617 0 -0.2056353212585415 0.13859239388291569 0 -0.21147588350800561 0.14837993260236909 0 -0.23051586595270601 0.24702283913706391 0 -0.24249599570668121 0.22914751995652369 0 -0.2287922861393612 0.2272572477849206 0 -0.23051586595270601 0.24702283913706391 0 -0.2287922861393612 0.2272572477849206 0 -0.21691059416941341 0.23124935450524869 0 -0.23051586595270601 0.24702283913706391 0 -0.21691059416941341 0.23124935450524869 0 -0.2139102389921374 0.24720041731987641 0 -0.25184776955068922 0.24631017592718801 0 -0.23051586595270601 0.24702283913706391 0 -0.24249599570668121 0.22914751995652369 0 -0.23051586595270601 0.24702283913706391 0 -0.24249599570668121 0.22914751995652369 0 -0.25447612546065629 0.21127220077598349 0 -0.24249599570668121 0.22914751995652369 0 -0.24249599570668121 0.22914751995652369 0 -0.2287922861393612 0.2272572477849206 0 -0.23412802552131681 0.21356823363514549 0 -0.2287922861393612 0.2272572477849206 0 -0.21991094934668981 0.21529829169062131 0 -0.21691059416941341 0.23124935450524869 0 -0.21991094934668981 0.21529829169062131 0 -0.23412802552131681 0.21356823363514549 0 -0.2244627300490446 0.19109924337406989 0 -0.21991094934668981 0.21529829169062131 0 -0.2244627300490446 0.19109924337406989 0 -0.2287922861393612 0.2272572477849206 0 -0.21991094934668981 0.21529829169062131 0 -0.23412802552131681 0.21356823363514549 0 -0.21991094934668981 0.21529829169062131 0 -0.23412802552131681 0.21356823363514549 0 -0.25447612546065629 0.21127220077598349 0 -0.24249599570668121 0.22914751995652369 0 -0.23412802552131681 0.21356823363514549 0 -0.25447612546065629 0.21127220077598349 0 -0.23412802552131681 0.21356823363514549 0 -0.24579479033373661 0.1931074787104361 0 -0.23681234476122251 0.18123021728975819 0 -0.24579479033373661 0.1931074787104361 0 -0.2244627300490446 0.19109924337406989 0 -0.23412802552131681 0.21356823363514549 0 -0.24579479033373661 0.1931074787104361 0 -0.2244627300490446 0.19109924337406989 0 -0.2244627300490446 0.19109924337406989 0 -0.20077359137631889 0.19693793164549961 0 -0.2115849623773853 0.2048228297729135 0 -0.21241003655471949 0.17908286763696829 0 -0.2244627300490446 0.19109924337406989 0 -0.20077359137631889 0.19693793164549961 0 -0.20077359137631889 0.19693793164549961 0 -0.18763212765137979 0.18808778620069039 0 -0.17620474499852459 0.19809916179316411 0 -0.2060142512609224 0.21698936334083271 0 -0.1777395027808544 0.22043008179613721 0 -0.20077359137631889 0.19693793164549961 0 -0.2060142512609224 0.21698936334083271 0 -0.1777395027808544 0.22043008179613721 0 -0.20077359137631889 0.19693793164549961 0 -0.2060142512609224 0.21698936334083271 0 -0.21991094934668981 0.21529829169062131 0 -0.2244627300490446 0.19109924337406989 0 -0.2115849623773853 0.2048228297729135 0 -0.20077359137631889 0.19693793164549961 0 -0.2060142512609224 0.21698936334083271 0 -0.2115849623773853 0.2048228297729135 0 -0.21991094934668981 0.21529829169062131 0 -0.2060142512609224 0.21698936334083271 0 -0.2115849623773853 0.2048228297729135 0 -0.21991094934668981 0.21529829169062131 0 -0.2060142512609224 0.21698936334083271 0 -0.21262852542381011 0.2235188099244747 0 -0.21991094934668981 0.21529829169062131 0 -0.2060142512609224 0.21698936334083271 0 -0.21991094934668981 0.21529829169062131 0 -0.21262852542381011 0.2235188099244747 0 -0.21691059416941341 0.23124935450524869 0 -0.21991094934668981 0.21529829169062131 0 -0.21691059416941341 0.23124935450524869 0 -0.21262852542381011 0.2235188099244747 0 -0.21691059416941341 0.23124935450524869 0 -0.20996224512652989 0.23209489033035449 0 -0.2060142512609224 0.21698936334083271 0 -0.20996224512652989 0.23209489033035449 0 -0.2060142512609224 0.21698936334083271 0 -0.20996224512652989 0.23209489033035449 0 -0.19495986002373211 0.2300217463570402 0 -0.2060142512609224 0.21698936334083271 0 -0.21262852542381011 0.2235188099244747 0 -0.20996224512652989 0.23209489033035449 0 -0.2060142512609224 0.21698936334083271 0 -0.19495986002373211 0.2300217463570402 0 -0.1777395027808544 0.22043008179613721 0 -0.19495986002373211 0.2300217463570402 0 -0.19815701532950039 0.24327969040006259 0 -0.18216608642050139 0.23822309235898101 0 -0.18499936284267901 0.25575901019454228 0 -0.19815701532950039 0.24327969040006259 0 -0.18216608642050139 0.23822309235898101 0 -0.20996224512652989 0.23209489033035449 0 -0.19495986002373211 0.2300217463570402 0 -0.19815701532950039 0.24327969040006259 0 -0.21691059416941341 0.23124935450524869 0 -0.2139102389921374 0.24720041731987641 0 -0.20996224512652989 0.23209489033035449 0 -0.19815701532950039 0.24327969040006259 0 -0.2139102389921374 0.24720041731987641 0 -0.19883530747484129 0.2584162776348467 0 -0.19815701532950039 0.24327969040006259 0 -0.2139102389921374 0.24720041731987641 0 -0.21691059416941341 0.23124935450524869 0 -0.20996224512652989 0.23209489033035449 0 -0.2139102389921374 0.24720041731987641 0 -0.20996224512652989 0.23209489033035449 0 -0.2139102389921374 0.24720041731987641 0 -0.1641376444911597 0.25348716799195747 0 -0.1650484086225982 0.2358662131345203 0 -0.18216608642050139 0.23822309235898101 0 -0.1641376444911597 0.25348716799195747 0 -0.1650484086225982 0.2358662131345203 0 -0.15097385591933679 0.24422830971525139 0 -0.18499936284267901 0.25575901019454228 0 -0.1641376444911597 0.25348716799195747 0 -0.18216608642050139 0.23822309235898101 0 -0.1650484086225982 0.2358662131345203 0 -0.18216608642050139 0.23822309235898101 0 -0.1777395027808544 0.22043008179613721 0 -0.19495986002373211 0.2300217463570402 0 -0.18216608642050139 0.23822309235898101 0 -0.1777395027808544 0.22043008179613721 0 -0.1777395027808544 0.22043008179613721 0 -0.14946475430078629 0.2238708002514414 0 -0.1650484086225982 0.2358662131345203 0 -0.1777395027808544 0.22043008179613721 0 -0.14946475430078629 0.2238708002514414 0 -0.1777395027808544 0.22043008179613721 0 -0.159954755578569 0.2073564164643423 0 -0.14946475430078629 0.2238708002514414 0 -0.1777395027808544 0.22043008179613721 0 -0.159954755578569 0.2073564164643423 0 -0.17620474499852459 0.19809916179316411 0 -0.20077359137631889 0.19693793164549961 0 -0.1777395027808544 0.22043008179613721 0 -0.17620474499852459 0.19809916179316411 0 -0.18763212765137979 0.18808778620069039 0 -0.17620474499852459 0.19809916179316411 0 -0.17801724273896161 0.18042755141393119 0 -0.17620474499852459 0.19809916179316411 0 -0.16000689398529649 0.19319658181242699 0 -0.16514459632117789 0.18393895868434379 0 -0.159954755578569 0.2073564164643423 0 -0.17620474499852459 0.19809916179316411 0 -0.16000689398529649 0.19319658181242699 0 -0.16000689398529649 0.19319658181242699 0 -0.16514459632117789 0.18393895868434379 0 -0.1541912190186201 0.18544899740778301 0 -0.16000689398529649 0.19319658181242699 0 -0.14772255061774139 0.19647018034114749 0 -0.1541912190186201 0.18544899740778301 0 -0.14772255061774139 0.19647018034114749 0 -0.1541912190186201 0.18544899740778301 0 -0.144557788628006 0.18408249412587421 0 -0.159954755578569 0.2073564164643423 0 -0.16000689398529649 0.19319658181242699 0 -0.14772255061774139 0.19647018034114749 0 -0.14772255061774139 0.19647018034114749 0 -0.1330062274617729 0.1895706411315774 0 -0.144557788628006 0.18408249412587421 0 -0.1330062274617729 0.1895706411315774 0 -0.1286859713420283 0.2059120484563943 0 -0.14063992125143979 0.20611838897375601 0 -0.14772255061774139 0.19647018034114749 0 -0.1330062274617729 0.1895706411315774 0 -0.14063992125143979 0.20611838897375601 0 -0.1330062274617729 0.1895706411315774 0 -0.1286859713420283 0.2059120484563943 0 -0.120796641412089 0.1971979530807981 0 -0.1286859713420283 0.2059120484563943 0 -0.13840598924293521 0.21555180597028259 0 -0.14063992125143979 0.20611838897375601 0 -0.1286859713420283 0.2059120484563943 0 -0.1276564653219002 0.21681992860011101 0 -0.13840598924293521 0.21555180597028259 0 -0.13840598924293521 0.21555180597028259 0 -0.14063992125143979 0.20611838897375601 0 -0.14859008678821109 0.2120716927917369 0 -0.159954755578569 0.2073564164643423 0 -0.14859008678821109 0.2120716927917369 0 -0.14946475430078629 0.2238708002514414 0 -0.13840598924293521 0.21555180597028259 0 -0.14859008678821109 0.2120716927917369 0 -0.14946475430078629 0.2238708002514414 0 -0.14772255061774139 0.19647018034114749 0 -0.14063992125143979 0.20611838897375601 0 -0.14859008678821109 0.2120716927917369 0 -0.159954755578569 0.2073564164643423 0 -0.14772255061774139 0.19647018034114749 0 -0.14859008678821109 0.2120716927917369 0 -0.14859008678821109 0.2120716927917369 0 -0.14946475430078629 0.2238708002514414 0 -0.14946475430078629 0.2238708002514414 0 -0.13975950793465469 0.23349497867164429 0 -0.15097385591933679 0.24422830971525139 0 -0.14946475430078629 0.2238708002514414 0 -0.15097385591933679 0.24422830971525139 0 -0.14946475430078629 0.2238708002514414 0 -0.13430294037949481 0.22571582225089981 0 -0.13975950793465469 0.23349497867164429 0 -0.13840598924293521 0.21555180597028259 0 -0.14946475430078629 0.2238708002514414 0 -0.13430294037949481 0.22571582225089981 0 -0.14946475430078629 0.2238708002514414 0 -0.13430294037949481 0.22571582225089981 0 -0.1276564653219002 0.21681992860011101 0 -0.13840598924293521 0.21555180597028259 0 -0.13430294037949481 0.22571582225089981 0 -0.1276564653219002 0.21681992860011101 0 -0.13430294037949481 0.22571582225089981 0 -0.12520967353647541 0.22757803436739851 0 -0.13430294037949481 0.22571582225089981 0 -0.12520967353647541 0.22757803436739851 0 -0.13975950793465469 0.23349497867164429 0 -0.12520967353647541 0.22757803436739851 0 -0.13884631553718049 0.2460819267732304 0 -0.1165444496308824 0.23895395153575749 0 -0.1245193697263768 0.25082400824269452 0 -0.13884631553718049 0.2460819267732304 0 -0.1165444496308824 0.23895395153575749 0 -0.12520967353647541 0.22757803436739851 0 -0.13975950793465469 0.23349497867164429 0 -0.13884631553718049 0.2460819267732304 0 -0.12520967353647541 0.22757803436739851 0 -0.13884631553718049 0.2460819267732304 0 -0.1650484086225982 0.2358662131345203 0 -0.14946475430078629 0.2238708002514414 0 -0.15097385591933679 0.24422830971525139 0 -0.13975950793465469 0.23349497867164429 0 -0.13884631553718049 0.2460819267732304 0 -0.15097385591933679 0.24422830971525139 0 -0.17942301437025129 0.14542284062028421 0 -0.15834073487417771 0.16246277079108989 0 -0.15993481009316071 0.14028998748595739 0 -0.17942301437025129 0.14542284062028421 0 -0.15834073487417771 0.16246277079108989 0 -0.15993481009316071 0.14028998748595739 0 -0.17482441116505529 0.13165925239651821 0 -0.17942301437025129 0.14542284062028421 0 -0.15993481009316071 0.14028998748595739 0 -0.16172739713684009 0.12557701966577631 0 -0.17482441116505529 0.13165925239651821 0 -0.18421424307235509 0.12095890305881379 0 -0.1898154102728466 0.13568327673398109 0 -0.17482441116505529 0.13165925239651821 0 -0.1898154102728466 0.13568327673398109 0 -0.17482441116505529 0.13165925239651821 0 -0.17942301437025129 0.14542284062028421 0 -0.17942301437025129 0.14542284062028421 0 -0.18065904645271719 0.15754470093345119 0 -0.1726479708770188 0.16134782337968939 0 -0.19029227160710971 0.15683506825483409 0 -0.17942301437025129 0.14542284062028421 0 -0.18065904645271719 0.15754470093345119 0 -0.19029227160710971 0.15683506825483409 0 -0.18065904645271719 0.15754470093345119 0 -0.18118028017317919 0.16672300267686299 0 -0.18118028017317919 0.16672300267686299 0 -0.17282318596713889 0.1702685108339014 0 -0.1726479708770188 0.16134782337968939 0 -0.18065904645271719 0.15754470093345119 0 -0.18118028017317919 0.16672300267686299 0 -0.1726479708770188 0.16134782337968939 0 -0.17620474499852459 0.19809916179316411 0 -0.17801724273896161 0.18042755141393119 0 -0.16514459632117789 0.18393895868434379 0 -0.19553293149171419 0.17688649995016681 0 -0.18763212765137979 0.18808778620069039 0 -0.17801724273896161 0.18042755141393119 0 -0.19553293149171419 0.17688649995016681 0 -0.18118028017317919 0.16672300267686299 0 -0.17801724273896161 0.18042755141393119 0 -0.18118028017317919 0.16672300267686299 0 -0.17282318596713889 0.1702685108339014 0 -0.17801724273896161 0.18042755141393119 0 -0.17282318596713889 0.1702685108339014 0 -0.17801724273896161 0.18042755141393119 0 -0.16785916826896799 0.17578904425889549 0 -0.17801724273896161 0.18042755141393119 0 -0.16514459632117789 0.18393895868434379 0 -0.16785916826896799 0.17578904425889549 0 -0.16785916826896799 0.17578904425889549 0 -0.15894703750757189 0.1783702721287431 0 -0.15827593308466409 0.1709906004124285 0 -0.16514459632117789 0.18393895868434379 0 -0.16785916826896799 0.17578904425889549 0 -0.15894703750757189 0.1783702721287431 0 -0.16514459632117789 0.18393895868434379 0 -0.15894703750757189 0.1783702721287431 0 -0.1541912190186201 0.18544899740778301 0 -0.17942301437025129 0.14542284062028421 0 -0.1726479708770188 0.16134782337968939 0 -0.15834073487417771 0.16246277079108989 0 -0.1726479708770188 0.16134782337968939 0 -0.16441126777756659 0.16705513244012771 0 -0.15834073487417771 0.16246277079108989 0 -0.17282318596713889 0.1702685108339014 0 -0.1726479708770188 0.16134782337968939 0 -0.16441126777756659 0.16705513244012771 0 -0.17282318596713889 0.1702685108339014 0 -0.16785916826896799 0.17578904425889549 0 -0.16441126777756659 0.16705513244012771 0 -0.16441126777756659 0.16705513244012771 0 -0.15827593308466409 0.1709906004124285 0 -0.15834073487417771 0.16246277079108989 0 -0.16441126777756659 0.16705513244012771 0 -0.15834073487417771 0.16246277079108989 0 -0.16785916826896799 0.17578904425889549 0 -0.16441126777756659 0.16705513244012771 0 -0.15827593308466409 0.1709906004124285 0 -0.15834073487417771 0.16246277079108989 0 -0.1505098538685275 0.1687921463947589 0 -0.14084264969637619 0.16112661045873991 0 -0.15834073487417771 0.16246277079108989 0 -0.14084264969637619 0.16112661045873991 0 -0.13965732825978899 0.14832876289181171 0 -0.15827593308466409 0.1709906004124285 0 -0.15834073487417771 0.16246277079108989 0 -0.1505098538685275 0.1687921463947589 0 -0.15834073487417771 0.16246277079108989 0 -0.1505098538685275 0.1687921463947589 0 -0.1505098538685275 0.1687921463947589 0 -0.14084264969637619 0.16112661045873991 0 -0.14009524359197889 0.17317684265768379 0 -0.1541912190186201 0.18544899740778301 0 -0.1510961792832281 0.17681022552121189 0 -0.144557788628006 0.18408249412587421 0 -0.15894703750757189 0.1783702721287431 0 -0.1541912190186201 0.18544899740778301 0 -0.1510961792832281 0.17681022552121189 0 -0.15894703750757189 0.1783702721287431 0 -0.15827593308466409 0.1709906004124285 0 -0.1510961792832281 0.17681022552121189 0 -0.15827593308466409 0.1709906004124285 0 -0.1505098538685275 0.1687921463947589 0 -0.1510961792832281 0.17681022552121189 0 -0.1510961792832281 0.17681022552121189 0 -0.144557788628006 0.18408249412587421 0 -0.14009524359197889 0.17317684265768379 0 -0.1505098538685275 0.1687921463947589 0 -0.1510961792832281 0.17681022552121189 0 -0.14009524359197889 0.17317684265768379 0 -0.1330062274617729 0.1895706411315774 0 -0.14009524359197889 0.17317684265768379 0 -0.1254036219945677 0.16857639118291559 0 -0.1330062274617729 0.1895706411315774 0 -0.144557788628006 0.18408249412587421 0 -0.14009524359197889 0.17317684265768379 0 -0.14084264969637619 0.16112661045873991 0 -0.1254036219945677 0.16857639118291559 0 -0.12305490781020299 0.15148842345361621 0 -0.14084264969637619 0.16112661045873991 0 -0.14009524359197889 0.17317684265768379 0 -0.1254036219945677 0.16857639118291559 0 -0.13965732825978899 0.14832876289181171 0 -0.1209739216453999 0.13419475499253419 0 -0.12305490781020299 0.15148842345361621 0 -0.14084264969637619 0.16112661045873991 0 -0.13965732825978899 0.14832876289181171 0 -0.12305490781020299 0.15148842345361621 0 -0.13965732825978899 0.14832876289181171 0 -0.1209739216453999 0.13419475499253419 0 -0.15993481009316071 0.14028998748595739 0 -0.15834073487417771 0.16246277079108989 0 -0.13965732825978899 0.14832876289181171 0 -0.15834073487417771 0.16246277079108989 0 -0.13965732825978899 0.14832876289181171 0 -0.15993481009316071 0.14028998748595739 0 -0.16172739713684009 0.12557701966577631 0 -0.1435357231901325 0.12716212974980601 0 -0.15993481009316071 0.14028998748595739 0 -0.13965732825978899 0.14832876289181171 0 -0.1435357231901325 0.12716212974980601 0 -0.1435357231901325 0.12716212974980601 0 -0.1209739216453999 0.13419475499253419 0 -0.11980067290913921 0.11633006653277669 0 -0.13965732825978899 0.14832876289181171 0 -0.1435357231901325 0.12716212974980601 0 -0.1209739216453999 0.13419475499253419 0 -0.1209739216453999 0.13419475499253419 0 -0.10555608039051551 0.13935577662446871 0 -0.10229051503101071 0.1200607470932567 0 -0.1209739216453999 0.13419475499253419 0 -0.10229051503101071 0.1200607470932567 0 -0.10555608039051551 0.13935577662446871 0 -0.083933289059558214 0.14259527673705799 0 -0.10229051503101071 0.1200607470932567 0 -0.10555608039051551 0.13935577662446871 0 -0.105717721768088 0.15775497431992361 0 -0.083933289059558214 0.14259527673705799 0 -0.1209739216453999 0.13419475499253419 0 -0.10555608039051551 0.13935577662446871 0 -0.12305490781020299 0.15148842345361621 0 -0.10555608039051551 0.13935577662446871 0 -0.12305490781020299 0.15148842345361621 0 -0.105717721768088 0.15775497431992361 0 -0.1254036219945677 0.16857639118291559 0 -0.1099213353087847 0.18423498077365411 0 -0.105717721768088 0.15775497431992361 0 -0.1254036219945677 0.16857639118291559 0 -0.12305490781020299 0.15148842345361621 0 -0.105717721768088 0.15775497431992361 0 -0.1330062274617729 0.1895706411315774 0 -0.1254036219945677 0.16857639118291559 0 -0.1099213353087847 0.18423498077365411 0 -0.1099213353087847 0.18423498077365411 0 -0.086381767210076635 0.169686043603793 0 -0.086162015743261794 0.20085969889341621 0 -0.1099213353087847 0.18423498077365411 0 -0.105717721768088 0.15775497431992361 0 -0.086381767210076635 0.169686043603793 0 -0.086381767210076635 0.169686043603793 0 -0.070092748738376912 0.1637916146304684 0 -0.083933289059558214 0.14259527673705799 0 -0.105717721768088 0.15775497431992361 0 -0.086381767210076635 0.169686043603793 0 -0.083933289059558214 0.14259527673705799 0 -0.086381767210076635 0.169686043603793 0 -0.06997867975103414 0.18487190258679231 0 -0.086162015743261794 0.20085969889341621 0 -0.06997867975103414 0.18487190258679231 0 -0.070092748738376912 0.1637916146304684 0 -0.060015246261647608 0.17338448077896521 0 -0.086381767210076635 0.169686043603793 0 -0.06997867975103414 0.18487190258679231 0 -0.070092748738376912 0.1637916146304684 0 -0.070092748738376912 0.1637916146304684 0 -0.064832515332864146 0.1490640130043783 0 -0.055414994815080741 0.16314797107182349 0 -0.064832515332864146 0.1490640130043783 0 -0.064960192440270639 0.13269513757965329 0 -0.083933289059558214 0.14259527673705799 0 -0.070092748738376912 0.1637916146304684 0 -0.064832515332864146 0.1490640130043783 0 -0.083933289059558214 0.14259527673705799 0 -0.064960192440270639 0.13269513757965329 0 -0.083933289059558214 0.14259527673705799 0 -0.072370878685899642 0.1217286521554925 0 -0.083933289059558214 0.14259527673705799 0 -0.081484810909039793 0.115504509870323 0 -0.10229051503101071 0.1200607470932567 0 -0.083933289059558214 0.14259527673705799 0 -0.072370878685899642 0.1217286521554925 0 -0.081484810909039793 0.115504509870323 0 -0.083933289059558214 0.14259527673705799 0 -0.081484810909039793 0.115504509870323 0 -0.086381767210076635 0.169686043603793 0 -0.083933289059558214 0.14259527673705799 0 -0.10857203192562449 0.253773843241345 0 -0.1001605289441776 0.23997994716665649 0 -0.1165444496308824 0.23895395153575749 0 -0.1001605289441776 0.23997994716665649 0 -0.1165444496308824 0.23895395153575749 0 -0.10912099644809919 0.22726665986575731 0 -0.098730633274728821 0.25553511076904117 0 -0.087821607423689663 0.2537606424516044 0 -0.1001605289441776 0.23997994716665649 0 -0.098730633274728821 0.25553511076904117 0 -0.10857203192562449 0.253773843241345 0 -0.1001605289441776 0.23997994716665649 0 -0.10857203192562449 0.253773843241345 0 -0.1245193697263768 0.25082400824269452 0 -0.1165444496308824 0.23895395153575749 0 -0.12520967353647541 0.22757803436739851 0 -0.10912099644809919 0.22726665986575731 0 -0.1115730315357702 0.2090741419615666 0 -0.12520967353647541 0.22757803436739851 0 -0.1165444496308824 0.23895395153575749 0 -0.10912099644809919 0.22726665986575731 0 -0.10912099644809919 0.22726665986575731 0 -0.1115730315357702 0.2090741419615666 0 -0.092117298593190455 0.22074722429740731 0 -0.1001605289441776 0.23997994716665649 0 -0.10912099644809919 0.22726665986575731 0 -0.092117298593190455 0.22074722429740731 0 -0.1115730315357702 0.2090741419615666 0 -0.086162015743261794 0.20085969889341621 0 -0.092117298593190455 0.22074722429740731 0 -0.1286859713420283 0.2059120484563943 0 -0.1276564653219002 0.21681992860011101 0 -0.1115730315357702 0.2090741419615666 0 -0.1276564653219002 0.21681992860011101 0 -0.12520967353647541 0.22757803436739851 0 -0.1115730315357702 0.2090741419615666 0 -0.1286859713420283 0.2059120484563943 0 -0.1115730315357702 0.2090741419615666 0 -0.120796641412089 0.1971979530807981 0 -0.12520967353647541 0.22757803436739851 0 -0.1115730315357702 0.2090741419615666 0 -0.1099213353087847 0.18423498077365411 0 -0.1115730315357702 0.2090741419615666 0 -0.120796641412089 0.1971979530807981 0 -0.1330062274617729 0.1895706411315774 0 -0.1099213353087847 0.18423498077365411 0 -0.120796641412089 0.1971979530807981 0 -0.1099213353087847 0.18423498077365411 0 -0.1115730315357702 0.2090741419615666 0 -0.086162015743261794 0.20085969889341621 0 -0.06997867975103414 0.18487190258679231 0 -0.069202789217974986 0.2059448091064445 0 -0.048716705039018933 0.1954195827086995 0 -0.06997867975103414 0.18487190258679231 0 -0.086162015743261794 0.20085969889341621 0 -0.069202789217974986 0.2059448091064445 0 -0.069202789217974986 0.2059448091064445 0 -0.079841743657551756 0.2127451087817131 0 -0.07188487107577976 0.22342870282958449 0 -0.069202789217974986 0.2059448091064445 0 -0.07188487107577976 0.22342870282958449 0 -0.052590495917862509 0.21414201453966389 0 -0.086162015743261794 0.20085969889341621 0 -0.079841743657551756 0.2127451087817131 0 -0.092117298593190455 0.22074722429740731 0 -0.086162015743261794 0.20085969889341621 0 -0.069202789217974986 0.2059448091064445 0 -0.079841743657551756 0.2127451087817131 0 -0.092117298593190455 0.22074722429740731 0 -0.07188487107577976 0.22342870282958449 0 -0.08149133289175578 0.23910182785786599 0 -0.079841743657551756 0.2127451087817131 0 -0.092117298593190455 0.22074722429740731 0 -0.07188487107577976 0.22342870282958449 0 -0.1001605289441776 0.23997994716665649 0 -0.092117298593190455 0.22074722429740731 0 -0.08149133289175578 0.23910182785786599 0 -0.07188487107577976 0.22342870282958449 0 -0.062993086238880794 0.24070619097824791 0 -0.0568080948490709 0.22883672327449869 0 -0.07188487107577976 0.22342870282958449 0 -0.062993086238880794 0.24070619097824791 0 -0.08149133289175578 0.23910182785786599 0 -0.073970605074816495 0.25598825942369569 0 -0.062993086238880794 0.24070619097824791 0 -0.08149133289175578 0.23910182785786599 0 -0.087821607423689663 0.2537606424516044 0 -0.073970605074816495 0.25598825942369569 0 -0.08149133289175578 0.23910182785786599 0 -0.087821607423689663 0.2537606424516044 0 -0.1001605289441776 0.23997994716665649 0 -0.08149133289175578 0.23910182785786599 0 -0.033969864848961667 0.23919865786554201 0 -0.049150054716260758 0.24682962454260279 0 -0.027931320423383959 0.2461637075656927 0 -0.049150054716260758 0.24682962454260279 0 -0.027931320423383959 0.2461637075656927 0 -0.028199843544121379 0.25180736403083531 0 -0.049150054716260758 0.24682962454260279 0 -0.027931320423383959 0.2461637075656927 0 -0.033969864848961667 0.23919865786554201 0 -0.040921575192306409 0.2362641802266697 0 -0.033998490740296018 0.2284807963059412 0 -0.033969864848961667 0.23919865786554201 0 -0.040921575192306409 0.2362641802266697 0 -0.049150054716260758 0.24682962454260279 0 -0.05774904498435033 0.25419785454266369 0 -0.062993086238880794 0.24070619097824791 0 -0.049150054716260758 0.24682962454260279 0 -0.062993086238880794 0.24070619097824791 0 -0.051035785603907459 0.23617781512157299 0 -0.0568080948490709 0.22883672327449869 0 -0.062993086238880794 0.24070619097824791 0 -0.049150054716260758 0.24682962454260279 0 -0.051035785603907459 0.23617781512157299 0 -0.040921575192306409 0.2362641802266697 0 -0.049150054716260758 0.24682962454260279 0 -0.051035785603907459 0.23617781512157299 0 -0.07188487107577976 0.22342870282958449 0 -0.0568080948490709 0.22883672327449869 0 -0.052590495917862509 0.21414201453966389 0 -0.051035785603907459 0.23617781512157299 0 -0.0568080948490709 0.22883672327449869 0 -0.045306117023018462 0.22825235658584589 0 -0.0568080948490709 0.22883672327449869 0 -0.045306117023018462 0.22825235658584589 0 -0.052590495917862509 0.21414201453966389 0 -0.045306117023018462 0.22825235658584589 0 -0.038607022851074133 0.21796037638068291 0 -0.052590495917862509 0.21414201453966389 0 -0.045306117023018462 0.22825235658584589 0 -0.033998490740296018 0.2284807963059412 0 -0.038607022851074133 0.21796037638068291 0 -0.040921575192306409 0.2362641802266697 0 -0.045306117023018462 0.22825235658584589 0 -0.033998490740296018 0.2284807963059412 0 -0.040921575192306409 0.2362641802266697 0 -0.051035785603907459 0.23617781512157299 0 -0.045306117023018462 0.22825235658584589 0 -0.033969864848961667 0.23919865786554201 0 -0.033998490740296018 0.2284807963059412 0 -0.0262003912042519 0.23511982977204021 0 -0.033998490740296018 0.2284807963059412 0 -0.038607022851074133 0.21796037638068291 0 -0.025756580404818711 0.2150884576169266 0 -0.033704534264430791 0.2044448501885732 0 -0.052590495917862509 0.21414201453966389 0 -0.048716705039018933 0.1954195827086995 0 -0.038607022851074133 0.21796037638068291 0 -0.033704534264430791 0.2044448501885732 0 -0.052590495917862509 0.21414201453966389 0 -0.038607022851074133 0.21796037638068291 0 -0.033704534264430791 0.2044448501885732 0 -0.025756580404818711 0.2150884576169266 0 -0.069202789217974986 0.2059448091064445 0 -0.052590495917862509 0.21414201453966389 0 -0.048716705039018933 0.1954195827086995 0 -0.033704534264430791 0.2044448501885732 0 -0.048716705039018933 0.1954195827086995 0 -0.032659893090975348 0.18453187573503291 0 -0.01523576898795816 0.2009060415452496 0 -0.032659893090975348 0.18453187573503291 0 -0.033704534264430791 0.2044448501885732 0 -0.01523576898795816 0.2009060415452496 0 -0.032659893090975348 0.18453187573503291 0 -0.01523576898795816 0.2009060415452496 0 -0.032659893090975348 0.18453187573503291 0 -0.01586588330823414 0.18415291803538569 0 -0.01523576898795816 0.2009060415452496 0 -0.01586588330823414 0.18415291803538569 0 -0.002984792374191875 0.182819937678703 0 -0.01523576898795816 0.2009060415452496 0 -0.002984792374191875 0.182819937678703 0 0.0070705260361831421 0.20180284821720479 0 -0.01523576898795816 0.2009060415452496 0 0.002188355115057558 0.21728020735546791 0 0.0070705260361831421 0.20180284821720479 0 -0.01523576898795816 0.2009060415452496 0 0.002188355115057558 0.21728020735546791 0 -0.01523576898795816 0.2009060415452496 0 -0.01377501299899926 0.214002919914838 0 0.002188355115057558 0.21728020735546791 0 -0.01377501299899926 0.214002919914838 0 -0.019218652586153951 0.22473576136627479 0 0.002188355115057558 0.21728020735546791 0 -0.033704534264430791 0.2044448501885732 0 -0.01523576898795816 0.2009060415452496 0 -0.025756580404818711 0.2150884576169266 0 -0.01377501299899926 0.214002919914838 0 -0.025756580404818711 0.2150884576169266 0 -0.019218652586153951 0.22473576136627479 0 -0.01523576898795816 0.2009060415452496 0 -0.01377501299899926 0.214002919914838 0 -0.025756580404818711 0.2150884576169266 0 -0.033998490740296018 0.2284807963059412 0 -0.025756580404818711 0.2150884576169266 0 -0.019218652586153951 0.22473576136627479 0 -0.033998490740296018 0.2284807963059412 0 -0.019218652586153951 0.22473576136627479 0 -0.0262003912042519 0.23511982977204021 0 -0.019218652586153951 0.22473576136627479 0 -0.015743986993860731 0.2359000204529523 0 -0.0262003912042519 0.23511982977204021 0 -0.0067125861305070769 0.2454977905887831 0 -0.015743986993860731 0.2359000204529523 0 0.002188355115057558 0.21728020735546791 0 -0.019218652586153951 0.22473576136627479 0 -0.015743986993860731 0.2359000204529523 0 0.002188355115057558 0.21728020735546791 0 -0.0067125861305070769 0.2454977905887831 0 0.002188355115057558 0.21728020735546791 0 -0.028199843544121379 0.25180736403083531 0 -0.0067125861305070769 0.2454977905887831 0 -0.027931320423383959 0.2461637075656927 0 -0.0067125861305070769 0.2454977905887831 0 -0.027931320423383959 0.2461637075656927 0 -0.0067125861305070769 0.2454977905887831 0 -0.015743986993860731 0.2359000204529523 0 -0.027931320423383959 0.2461637075656927 0 -0.015743986993860731 0.2359000204529523 0 -0.0262003912042519 0.23511982977204021 0 -0.027931320423383959 0.2461637075656927 0 -0.033969864848961667 0.23919865786554201 0 -0.0262003912042519 0.23511982977204021 0 -0.027931320423383959 0.2461637075656927 0 -0.039233294779016152 0.1519737515976988 0 -0.051321891089051948 0.1434766153211128 0 -0.042811682197905918 0.15962837894142939 0 -0.039233294779016152 0.1519737515976988 0 -0.036369475025505707 0.1425306264682917 0 -0.051321891089051948 0.1434766153211128 0 -0.039233294779016152 0.1519737515976988 0 -0.034467418289147192 0.15999334571873641 0 -0.030257530695989718 0.15082098484546899 0 -0.039233294779016152 0.1519737515976988 0 -0.036369475025505707 0.1425306264682917 0 -0.030257530695989718 0.15082098484546899 0 -0.036369475025505707 0.1425306264682917 0 -0.031820174218179759 0.13636426524533521 0 -0.043210385751510448 0.1306981949520189 0 -0.043210385751510448 0.1306981949520189 0 -0.028364804978969978 0.1277497585026082 0 -0.052559764984113189 0.1187955207174103 0 -0.031820174218179759 0.13636426524533521 0 -0.043210385751510448 0.1306981949520189 0 -0.028364804978969978 0.1277497585026082 0 -0.036369475025505707 0.1425306264682917 0 -0.043210385751510448 0.1306981949520189 0 -0.051321891089051948 0.1434766153211128 0 -0.051321891089051948 0.1434766153211128 0 -0.052559764984113189 0.1187955207174103 0 -0.064960192440270639 0.13269513757965329 0 -0.051321891089051948 0.1434766153211128 0 -0.052559764984113189 0.1187955207174103 0 -0.043210385751510448 0.1306981949520189 0 -0.051321891089051948 0.1434766153211128 0 -0.052559764984113189 0.1187955207174103 0 -0.051321891089051948 0.1434766153211128 0 -0.050084017193991623 0.16815770992481541 0 -0.064832515332864146 0.1490640130043783 0 -0.051321891089051948 0.1434766153211128 0 -0.055414994815080741 0.16314797107182349 0 -0.064832515332864146 0.1490640130043783 0 -0.064960192440270639 0.13269513757965329 0 -0.051321891089051948 0.1434766153211128 0 -0.051321891089051948 0.1434766153211128 0 -0.055414994815080741 0.16314797107182349 0 -0.050084017193991623 0.16815770992481541 0 -0.051321891089051948 0.1434766153211128 0 -0.050084017193991623 0.16815770992481541 0 -0.042811682197905918 0.15962837894142939 0 -0.070092748738376912 0.1637916146304684 0 -0.055414994815080741 0.16314797107182349 0 -0.060015246261647608 0.17338448077896521 0 -0.055414994815080741 0.16314797107182349 0 -0.050084017193991623 0.16815770992481541 0 -0.060015246261647608 0.17338448077896521 0 -0.055414994815080741 0.16314797107182349 0 -0.050084017193991623 0.16815770992481541 0 -0.048716705039018933 0.1954195827086995 0 -0.050084017193991623 0.16815770992481541 0 -0.06997867975103414 0.18487190258679231 0 -0.048716705039018933 0.1954195827086995 0 -0.060015246261647608 0.17338448077896521 0 -0.048716705039018933 0.1954195827086995 0 -0.050084017193991623 0.16815770992481541 0 -0.060015246261647608 0.17338448077896521 0 -0.050084017193991623 0.16815770992481541 0 -0.032659893090975348 0.18453187573503291 0 -0.037074836443362152 0.16770285875787391 0 -0.050084017193991623 0.16815770992481541 0 -0.032659893090975348 0.18453187573503291 0 -0.048716705039018933 0.1954195827086995 0 -0.050084017193991623 0.16815770992481541 0 -0.032659893090975348 0.18453187573503291 0 -0.032659893090975348 0.18453187573503291 0 -0.037074836443362152 0.16770285875787391 0 -0.02786309508302225 0.16963224763468349 0 -0.050084017193991623 0.16815770992481541 0 -0.042811682197905918 0.15962837894142939 0 -0.037074836443362152 0.16770285875787391 0 -0.037074836443362152 0.16770285875787391 0 -0.034467418289147192 0.15999334571873641 0 -0.02786309508302225 0.16963224763468349 0 -0.042811682197905918 0.15962837894142939 0 -0.037074836443362152 0.16770285875787391 0 -0.034467418289147192 0.15999334571873641 0 -0.039233294779016152 0.1519737515976988 0 -0.042811682197905918 0.15962837894142939 0 -0.034467418289147192 0.15999334571873641 0 -0.034467418289147192 0.15999334571873641 0 -0.02633652758679841 0.16034525070310079 0 -0.030257530695989718 0.15082098484546899 0 -0.034467418289147192 0.15999334571873641 0 -0.02633652758679841 0.16034525070310079 0 -0.02786309508302225 0.16963224763468349 0 -0.02633652758679841 0.16034525070310079 0 -0.02786309508302225 0.16963224763468349 0 -0.017344706524565399 0.1632841241342812 0 -0.02786309508302225 0.16963224763468349 0 -0.017344706524565399 0.1632841241342812 0 -0.020495356478876209 0.1755117200678962 0 -0.017344706524565399 0.1632841241342812 0 -0.020495356478876209 0.1755117200678962 0 -0.010419478739446229 0.17416585569503501 0 -0.02633652758679841 0.16034525070310079 0 -0.017344706524565399 0.1632841241342812 0 -0.022681751898893151 0.1533340175979106 0 -0.017344706524565399 0.1632841241342812 0 -0.014918057393375371 0.15437853374477389 0 -0.022681751898893151 0.1533340175979106 0 -0.032659893090975348 0.18453187573503291 0 -0.020495356478876209 0.1755117200678962 0 -0.01586588330823414 0.18415291803538569 0 -0.032659893090975348 0.18453187573503291 0 -0.02786309508302225 0.16963224763468349 0 -0.020495356478876209 0.1755117200678962 0 -0.01586588330823414 0.18415291803538569 0 -0.010419478739446229 0.17416585569503501 0 -0.002984792374191875 0.182819937678703 0 -0.020495356478876209 0.1755117200678962 0 -0.01586588330823414 0.18415291803538569 0 -0.010419478739446229 0.17416585569503501 0 -0.010419478739446229 0.17416585569503501 0 -0.00013995955948005169 0.1722625834562479 0 -0.002984792374191875 0.182819937678703 0 -0.0079831214446054004 0.1646444725640536 0 -0.0069976941138892986 0.1555058086497863 0 -0.014918057393375371 0.15437853374477389 0 -0.017344706524565399 0.1632841241342812 0 -0.0079831214446054004 0.1646444725640536 0 -0.014918057393375371 0.15437853374477389 0 -0.017344706524565399 0.1632841241342812 0 -0.010419478739446229 0.17416585569503501 0 -0.0079831214446054004 0.1646444725640536 0 -0.010419478739446229 0.17416585569503501 0 -0.00013995955948005169 0.1722625834562479 0 -0.0079831214446054004 0.1646444725640536 0 -0.00013995955948005169 0.1722625834562479 0 -0.0079831214446054004 0.1646444725640536 0 0.00079023584047536143 0.16212904774933021 0 -0.0079831214446054004 0.1646444725640536 0 -0.0069976941138892986 0.1555058086497863 0 0.00079023584047536143 0.16212904774933021 0 -0.0069976941138892986 0.1555058086497863 0 -0.0059281172365853313 0.14590660226524421 0 0.00079023584047536143 0.16212904774933021 0 -0.0059281172365853313 0.14590660226524421 0 0.00010543445606855251 0.14834388122586309 0 0.00082868943533995004 0.141115449658996 0 -0.0059281172365853313 0.14590660226524421 0 -0.010815610380147739 0.15037651543428929 0 -0.016129046146247741 0.14573002509791599 0 -0.0069976941138892986 0.1555058086497863 0 -0.0059281172365853313 0.14590660226524421 0 -0.010815610380147739 0.15037651543428929 0 -0.014918057393375371 0.15437853374477389 0 -0.010815610380147739 0.15037651543428929 0 -0.016129046146247741 0.14573002509791599 0 -0.0069976941138892986 0.1555058086497863 0 -0.014918057393375371 0.15437853374477389 0 -0.010815610380147739 0.15037651543428929 0 -0.014918057393375371 0.15437853374477389 0 -0.022681751898893151 0.1533340175979106 0 -0.016129046146247741 0.14573002509791599 0 -0.022681751898893151 0.1533340175979106 0 -0.016129046146247741 0.14573002509791599 0 -0.023841756391292841 0.14352295391142489 0 -0.036369475025505707 0.1425306264682917 0 -0.023841756391292841 0.14352295391142489 0 -0.030257530695989718 0.15082098484546899 0 -0.036369475025505707 0.1425306264682917 0 -0.031820174218179759 0.13636426524533521 0 -0.023841756391292841 0.14352295391142489 0 -0.022681751898893151 0.1533340175979106 0 -0.023841756391292841 0.14352295391142489 0 -0.030257530695989718 0.15082098484546899 0 -0.02633652758679841 0.16034525070310079 0 -0.022681751898893151 0.1533340175979106 0 -0.030257530695989718 0.15082098484546899 0 -0.0059281172365853313 0.14590660226524421 0 -0.016129046146247741 0.14573002509791599 0 -0.028364804978969978 0.1277497585026082 0 -0.016129046146247741 0.14573002509791599 0 -0.023841756391292841 0.14352295391142489 0 -0.028364804978969978 0.1277497585026082 0 -0.031820174218179759 0.13636426524533521 0 -0.023841756391292841 0.14352295391142489 0 -0.028364804978969978 0.1277497585026082 0 -0.0059281172365853313 0.14590660226524421 0 -0.028364804978969978 0.1277497585026082 0 -0.0059281172365853313 0.14590660226524421 0 -0.028364804978969978 0.1277497585026082 0 -0.0068668774793380089 0.1345471695475278 0 -0.028364804978969978 0.1277497585026082 0 -0.01145816809130428 0.12682305235231209 0 -0.0068668774793380089 0.1345471695475278 0 -0.0059281172365853313 0.14590660226524421 0 -0.0068668774793380089 0.1345471695475278 0 0.00082868943533995004 0.141115449658996 0 -0.0068668774793380089 0.1345471695475278 0 0.0060329548530184979 0.1339258120873098 0 0.00082868943533995004 0.141115449658996 0 -0.01145816809130428 0.12682305235231209 0 -0.0068668774793380089 0.1345471695475278 0 -0.00082439648766763319 0.126182985957942 0 -0.0068668774793380089 0.1345471695475278 0 -0.00082439648766763319 0.126182985957942 0 0.0060329548530184979 0.1339258120873098 0 -0.01145816809130428 0.12682305235231209 0 -0.00082439648766763319 0.126182985957942 0 -0.002949797505990402 0.11698106427360989 0 -0.01145816809130428 0.12682305235231209 0 -0.002949797505990402 0.11698106427360989 0 -0.01701203994356907 0.1194417109449703 0 -0.002949797505990402 0.11698106427360989 0 -0.0081840208466594684 0.1063124210284206 0 -0.016547213217728101 0.11078437689416849 0 -0.002949797505990402 0.11698106427360989 0 -0.01701203994356907 0.1194417109449703 0 -0.016547213217728101 0.11078437689416849 0 -0.00089384049089925866 0.099379613399809719 0 -0.012345232172020109 0.098104629546094557 0 0.0057402632052494153 0.089790503587336104 0 -0.002949797505990402 0.11698106427360989 0 -0.00089384049089925866 0.099379613399809719 0 -0.0081840208466594684 0.1063124210284206 0 -0.00089384049089925866 0.099379613399809719 0 -0.012345232172020109 0.098104629546094557 0 -0.0081840208466594684 0.1063124210284206 0 -0.012345232172020109 0.098104629546094557 0 -0.0081840208466594684 0.1063124210284206 0 -0.016547213217728101 0.11078437689416849 0 -0.012345232172020109 0.098104629546094557 0 -0.028482165794696819 0.1027932253732295 0 -0.016547213217728101 0.11078437689416849 0 -0.012345232172020109 0.098104629546094557 0 -0.028482165794696819 0.1027932253732295 0 -0.018792858258600519 0.080891594286476548 0 -0.028482165794696819 0.1027932253732295 0 -0.02511471091017458 0.11575556869714949 0 -0.035167330615908918 0.1180087717707712 0 -0.028364804978969978 0.1277497585026082 0 -0.01145816809130428 0.12682305235231209 0 -0.01701203994356907 0.1194417109449703 0 -0.028364804978969978 0.1277497585026082 0 -0.02511471091017458 0.11575556869714949 0 -0.01701203994356907 0.1194417109449703 0 -0.028364804978969978 0.1277497585026082 0 -0.02511471091017458 0.11575556869714949 0 -0.035167330615908918 0.1180087717707712 0 -0.028482165794696819 0.1027932253732295 0 -0.02511471091017458 0.11575556869714949 0 -0.016547213217728101 0.11078437689416849 0 -0.02511471091017458 0.11575556869714949 0 -0.01701203994356907 0.1194417109449703 0 -0.016547213217728101 0.11078437689416849 0 -0.018792858258600519 0.080891594286476548 0 -0.047909777990857973 0.066596898312140759 0 -0.01475407716168687 0.060851110243847019 0 -0.01475407716168687 0.060851110243847019 0 0.002034669314375587 0.057952022898971632 0 0.0045890164421649726 0.073984735346648359 0 -0.018792858258600519 0.080891594286476548 0 -0.01475407716168687 0.060851110243847019 0 0.0045890164421649726 0.073984735346648359 0 -0.018792858258600519 0.080891594286476548 0 0.0057402632052494153 0.089790503587336104 0 0.0045890164421649726 0.073984735346648359 0 -0.012345232172020109 0.098104629546094557 0 -0.018792858258600519 0.080891594286476548 0 0.0057402632052494153 0.089790503587336104 0 -0.018792858258600519 0.080891594286476548 0 0.0057402632052494153 0.089790503587336104 0 -0.028482165794696819 0.1027932253732295 0 -0.018792858258600519 0.080891594286476548 0 -0.041538554303383421 0.092302835041456061 0 -0.018792858258600519 0.080891594286476548 0 -0.041538554303383421 0.092302835041456061 0 -0.047909777990857973 0.066596898312140759 0 -0.041538554303383421 0.092302835041456061 0 -0.047909777990857973 0.066596898312140759 0 -0.041538554303383421 0.092302835041456061 0 -0.059050839940257741 0.089343006760422075 0 -0.047909777990857973 0.066596898312140759 0 -0.059050839940257741 0.089343006760422075 0 -0.047909777990857973 0.066596898312140759 0 -0.065923365744557205 0.075942869226539103 0 -0.028364804978969978 0.1277497585026082 0 -0.050801492721354619 0.10959291473997231 0 -0.052559764984113189 0.1187955207174103 0 -0.035167330615908918 0.1180087717707712 0 -0.048738604823041647 0.10065995592838339 0 -0.050801492721354619 0.10959291473997231 0 -0.028364804978969978 0.1277497585026082 0 -0.050801492721354619 0.10959291473997231 0 -0.028364804978969978 0.1277497585026082 0 -0.035167330615908918 0.1180087717707712 0 -0.050801492721354619 0.10959291473997231 0 -0.041538554303383421 0.092302835041456061 0 -0.035167330615908918 0.1180087717707712 0 -0.048738604823041647 0.10065995592838339 0 -0.028482165794696819 0.1027932253732295 0 -0.041538554303383421 0.092302835041456061 0 -0.035167330615908918 0.1180087717707712 0 -0.041538554303383421 0.092302835041456061 0 -0.035167330615908918 0.1180087717707712 0 -0.048738604823041647 0.10065995592838339 0 -0.058251442615051982 0.1029428312725976 0 -0.050801492721354619 0.10959291473997231 0 -0.041538554303383421 0.092302835041456061 0 -0.059050839940257741 0.089343006760422075 0 -0.048738604823041647 0.10065995592838339 0 -0.059050839940257741 0.089343006760422075 0 -0.058251442615051982 0.1029428312725976 0 -0.067597093013130757 0.10001663980563751 0 -0.059050839940257741 0.089343006760422075 0 -0.048738604823041647 0.10065995592838339 0 -0.058251442615051982 0.1029428312725976 0 -0.058251442615051982 0.1029428312725976 0 -0.058174271421562278 0.1123457411147237 0 -0.050801492721354619 0.10959291473997231 0 -0.058251442615051982 0.1029428312725976 0 -0.058174271421562278 0.1123457411147237 0 -0.06634993084398455 0.1109731543569063 0 -0.058174271421562278 0.1123457411147237 0 -0.052559764984113189 0.1187955207174103 0 -0.062908725943307098 0.1194242844867319 0 -0.058174271421562278 0.1123457411147237 0 -0.062908725943307098 0.1194242844867319 0 -0.06634993084398455 0.1109731543569063 0 -0.058174271421562278 0.1123457411147237 0 -0.050801492721354619 0.10959291473997231 0 -0.052559764984113189 0.1187955207174103 0 -0.064960192440270639 0.13269513757965329 0 -0.052559764984113189 0.1187955207174103 0 -0.062908725943307098 0.1194242844867319 0 -0.064960192440270639 0.13269513757965329 0 -0.062908725943307098 0.1194242844867319 0 -0.072370878685899642 0.1217286521554925 0 -0.062908725943307098 0.1194242844867319 0 -0.06634993084398455 0.1109731543569063 0 -0.072370878685899642 0.1217286521554925 0 -0.06634993084398455 0.1109731543569063 0 -0.072370878685899642 0.1217286521554925 0 -0.073367809242115223 0.1073273398383895 0 -0.072370878685899642 0.1217286521554925 0 -0.081484810909039793 0.115504509870323 0 -0.073367809242115223 0.1073273398383895 0 -0.081484810909039793 0.115504509870323 0 -0.083607108416621514 0.1059267391939793 0 -0.10229051503101071 0.1200607470932567 0 -0.083607108416621514 0.1059267391939793 0 -0.10229051503101071 0.1200607470932567 0 -0.083607108416621514 0.1059267391939793 0 -0.090297345563659093 0.098177352824033642 0 -0.079036332758521385 0.088413743003588161 0 -0.081484810909039793 0.115504509870323 0 -0.083607108416621514 0.1059267391939793 0 -0.079036332758521385 0.088413743003588161 0 -0.081484810909039793 0.115504509870323 0 -0.079036332758521385 0.088413743003588161 0 -0.083607108416621514 0.1059267391939793 0 -0.090297345563659093 0.098177352824033642 0 -0.099820504866436219 0.10574094215644871 0 -0.073367809242115223 0.1073273398383895 0 -0.067597093013130757 0.10001663980563751 0 -0.079036332758521385 0.088413743003588161 0 -0.081484810909039793 0.115504509870323 0 -0.073367809242115223 0.1073273398383895 0 -0.079036332758521385 0.088413743003588161 0 -0.058251442615051982 0.1029428312725976 0 -0.06634993084398455 0.1109731543569063 0 -0.067597093013130757 0.10001663980563751 0 -0.06634993084398455 0.1109731543569063 0 -0.073367809242115223 0.1073273398383895 0 -0.067597093013130757 0.10001663980563751 0 -0.059050839940257741 0.089343006760422075 0 -0.065923365744557205 0.075942869226539103 0 -0.079036332758521385 0.088413743003588161 0 -0.059050839940257741 0.089343006760422075 0 -0.067597093013130757 0.10001663980563751 0 -0.079036332758521385 0.088413743003588161 0 -0.047909777990857973 0.066596898312140759 0 -0.065923365744557205 0.075942869226539103 0 -0.076587854608002978 0.061322976136853252 0 -0.079036332758521385 0.088413743003588161 0 -0.076587854608002978 0.061322976136853252 0 -0.065923365744557205 0.075942869226539103 0 -0.079036332758521385 0.088413743003588161 0 -0.076587854608002978 0.061322976136853252 0 -0.079036332758521385 0.088413743003588161 0 -0.1016812002747732 0.072711056816511174 0 -0.076587854608002978 0.061322976136853252 0 -0.079036332758521385 0.088413743003588161 0 -0.098725436213057224 0.09262798694211842 0 -0.1016812002747732 0.072711056816511174 0 -0.090297345563659093 0.098177352824033642 0 -0.079036332758521385 0.088413743003588161 0 -0.098725436213057224 0.09262798694211842 0 -0.098725436213057224 0.09262798694211842 0 -0.1016812002747732 0.072711056816511174 0 -0.1188734724845756 0.098450919301042744 0 -0.1292250598048533 0.073547824708840526 0 -0.1016812002747732 0.072711056816511174 0 -0.1159912604935 0.053330403839997292 0 -0.1292250598048533 0.073547824708840526 0 -0.1016812002747732 0.072711056816511174 0 -0.1188734724845756 0.098450919301042744 0 -0.1292250598048533 0.073547824708840526 0 -0.1188734724845756 0.098450919301042744 0 -0.1188734724845756 0.098450919301042744 0 -0.11980067290913921 0.11633006653277669 0 -0.099820504866436219 0.10574094215644871 0 -0.1209739216453999 0.13419475499253419 0 -0.11980067290913921 0.11633006653277669 0 -0.10229051503101071 0.1200607470932567 0 -0.083607108416621514 0.1059267391939793 0 -0.10229051503101071 0.1200607470932567 0 -0.099820504866436219 0.10574094215644871 0 -0.11980067290913921 0.11633006653277669 0 -0.10229051503101071 0.1200607470932567 0 -0.099820504866436219 0.10574094215644871 0 -0.098725436213057224 0.09262798694211842 0 -0.1188734724845756 0.098450919301042744 0 -0.099820504866436219 0.10574094215644871 0 -0.090297345563659093 0.098177352824033642 0 -0.098725436213057224 0.09262798694211842 0 -0.099820504866436219 0.10574094215644871 0 -0.099963557658248631 0.01255376896326779 0 -0.12332417756614659 0.01212573047390467 0 -0.1045330586676519 0.033180804512176483 0 -0.099963557658248631 0.01255376896326779 0 -0.1045330586676519 0.033180804512176483 0 -0.079747820120782006 0.030302778211909329 0 -0.1101430223599959 -0.0097464949415967794 0 -0.089612629523708298 -0.002578900474753773 0 -0.099963557658248631 0.01255376896326779 0 -0.1101430223599959 -0.0097464949415967794 0 -0.099963557658248631 0.01255376896326779 0 -0.12332417756614659 0.01212573047390467 0 -0.12559464592930161 0.033607998242454432 0 -0.12332417756614659 0.01212573047390467 0 -0.1045330586676519 0.033180804512176483 0 -0.12559464592930161 0.033607998242454432 0 -0.1159912604935 0.053330403839997292 0 -0.1045330586676519 0.033180804512176483 0 -0.1016812002747732 0.072711056816511174 0 -0.1159912604935 0.053330403839997292 0 -0.09570823883294205 0.050169603903489512 0 -0.1159912604935 0.053330403839997292 0 -0.09570823883294205 0.050169603903489512 0 -0.1045330586676519 0.033180804512176483 0 -0.09570823883294205 0.050169603903489512 0 -0.1045330586676519 0.033180804512176483 0 -0.079747820120782006 0.030302778211909329 0 -0.1016812002747732 0.072711056816511174 0 -0.09570823883294205 0.050169603903489512 0 -0.076587854608002978 0.061322976136853252 0 -0.09570823883294205 0.050169603903489512 0 -0.076587854608002978 0.061322976136853252 0 -0.079747820120782006 0.030302778211909329 0 -0.076587854608002978 0.061322976136853252 0 -0.079747820120782006 0.030302778211909329 0 -0.054281001678332511 0.040890961582825493 0 -0.079747820120782006 0.030302778211909329 0 -0.075867284991946005 0.0089052263810172338 0 -0.055020306791806882 0.011606654754603559 0 -0.079747820120782006 0.030302778211909329 0 -0.055020306791806882 0.011606654754603559 0 -0.054281001678332511 0.040890961582825493 0 -0.099963557658248631 0.01255376896326779 0 -0.079747820120782006 0.030302778211909329 0 -0.075867284991946005 0.0089052263810172338 0 -0.089612629523708298 -0.002578900474753773 0 -0.099963557658248631 0.01255376896326779 0 -0.075867284991946005 0.0089052263810172338 0 -0.064293171325576548 -0.01105348015708171 0 -0.075867284991946005 0.0089052263810172338 0 -0.055020306791806882 0.011606654754603559 0 -0.055020306791806882 0.011606654754603559 0 -0.035656216418855913 0.023287976328726971 0 -0.054281001678332511 0.040890961582825493 0 -0.046732334298602442 -0.006744458449042038 0 -0.055020306791806882 0.011606654754603559 0 -0.031201037738230551 0.0036621007205455318 0 -0.055020306791806882 0.011606654754603559 0 -0.035656216418855913 0.023287976328726971 0 -0.031201037738230551 0.0036621007205455318 0 -0.047909777990857973 0.066596898312140759 0 -0.054281001678332511 0.040890961582825493 0 -0.047909777990857973 0.066596898312140759 0 -0.076587854608002978 0.061322976136853252 0 -0.054281001678332511 0.040890961582825493 0 -0.035656216418855913 0.023287976328726971 0 -0.054281001678332511 0.040890961582825493 0 -0.02734949526734896 0.043167672965685439 0 -0.047909777990857973 0.066596898312140759 0 -0.054281001678332511 0.040890961582825493 0 -0.02734949526734896 0.043167672965685439 0 -0.047909777990857973 0.066596898312140759 0 -0.02734949526734896 0.043167672965685439 0 -0.01475407716168687 0.060851110243847019 0 -0.02734949526734896 0.043167672965685439 0 -0.0010960172098543419 0.042513737653159439 0 -0.01042924061856065 0.01711249161997485 0 -0.0010960172098543419 0.042513737653159439 0 -0.01475407716168687 0.060851110243847019 0 0.002034669314375587 0.057952022898971632 0 -0.02734949526734896 0.043167672965685439 0 -0.0010960172098543419 0.042513737653159439 0 -0.01475407716168687 0.060851110243847019 0 -0.035656216418855913 0.023287976328726971 0 -0.031201037738230551 0.0036621007205455318 0 -0.01042924061856065 0.01711249161997485 0 -0.0089960230977084721 -0.01103573319387138 0 -0.031201037738230551 0.0036621007205455318 0 -0.01042924061856065 0.01711249161997485 0 -0.035656216418855913 0.023287976328726971 0 -0.02734949526734896 0.043167672965685439 0 -0.01042924061856065 0.01711249161997485 0 -0.0010960172098543419 0.042513737653159439 0 -0.01042924061856065 0.01711249161997485 0 0.0098834863910447109 0.029145312182995511 0 -0.0089960230977084721 -0.01103573319387138 0 -0.01042924061856065 0.01711249161997485 0 0.0045792914518202627 0.0040950445345904066 0 -0.01042924061856065 0.01711249161997485 0 0.0045792914518202627 0.0040950445345904066 0 0.01841636082331442 0.017296003022671608 0 0.0045792914518202627 0.0040950445345904066 0 0.01841636082331442 0.017296003022671608 0 0.01932606870023575 -0.0069925833104134546 0 -0.01042924061856065 0.01711249161997485 0 0.01841636082331442 0.017296003022671608 0 -0.01042924061856065 0.01711249161997485 0 0.0098834863910447109 0.029145312182995511 0 0.01841636082331442 0.017296003022671608 0 0.0098834863910447109 0.029145312182995511 0 0.01841636082331442 0.017296003022671608 0 0.02576239239508795 0.031376676689934872 0 0.01841636082331442 0.017296003022671608 0 0.02576239239508795 0.031376676689934872 0 0.037047131790631377 0.026522451707800921 0 0.01841636082331442 0.017296003022671608 0 0.03375457624651311 0.01395544178252218 0 0.01932606870023575 -0.0069925833104134546 0 0.03375457624651311 0.01395544178252218 0 0.01932606870023575 -0.0069925833104134546 0 -0.0010960172098543419 0.042513737653159439 0 0.002034669314375587 0.057952022898971632 0 0.016346918795954079 0.05015532121738199 0 0.002034669314375587 0.057952022898971632 0 0.016346918795954079 0.05015532121738199 0 0.019336412406651179 0.063883867485784743 0 -0.0010960172098543419 0.042513737653159439 0 0.01676393656523617 0.037427651929236763 0 0.016346918795954079 0.05015532121738199 0 -0.0010960172098543419 0.042513737653159439 0 0.0098834863910447109 0.029145312182995511 0 0.01676393656523617 0.037427651929236763 0 0.0098834863910447109 0.029145312182995511 0 0.01676393656523617 0.037427651929236763 0 0.02576239239508795 0.031376676689934872 0 0.01676393656523617 0.037427651929236763 0 0.02576239239508795 0.031376676689934872 0 0.0292754013543703 0.043299188392650297 0 0.01676393656523617 0.037427651929236763 0 0.0292754013543703 0.043299188392650297 0 0.016346918795954079 0.05015532121738199 0 0.0292754013543703 0.043299188392650297 0 0.016346918795954079 0.05015532121738199 0 0.031278943650257837 0.055592948761876988 0 0.016346918795954079 0.05015532121738199 0 0.031278943650257837 0.055592948761876988 0 0.019336412406651179 0.063883867485784743 0 0.044586049542794479 0.060495943968892622 0 0.031278943650257837 0.055592948761876988 0 0.04317818686993128 0.048356839086185148 0 0.044586049542794479 0.060495943968892622 0 0.031278943650257837 0.055592948761876988 0 0.034942519138216707 0.068165210744933744 0 0.0292754013543703 0.043299188392650297 0 0.031278943650257837 0.055592948761876988 0 0.04317818686993128 0.048356839086185148 0 0.04317818686993128 0.048356839086185148 0 0.041150429782503883 0.036255668233017173 0 0.054646617625796437 0.041110669488953297 0 0.0292754013543703 0.043299188392650297 0 0.04317818686993128 0.048356839086185148 0 0.041150429782503883 0.036255668233017173 0 0.02576239239508795 0.031376676689934872 0 0.041150429782503883 0.036255668233017173 0 0.037047131790631377 0.026522451707800921 0 0.02576239239508795 0.031376676689934872 0 0.0292754013543703 0.043299188392650297 0 0.041150429782503883 0.036255668233017173 0 0.041150429782503883 0.036255668233017173 0 0.054646617625796437 0.041110669488953297 0 0.05264451368706112 0.030204396168012609 0 0.054646617625796437 0.041110669488953297 0 0.05264451368706112 0.030204396168012609 0 0.065486367675815421 0.034572053388985648 0 0.054646617625796437 0.041110669488953297 0 0.065486367675815421 0.034572053388985648 0 0.064358290650222347 0.046282094534396051 0 0.04317818686993128 0.048356839086185148 0 0.054646617625796437 0.041110669488953297 0 0.05601822511557536 0.053359655220036051 0 0.044586049542794479 0.060495943968892622 0 0.04317818686993128 0.048356839086185148 0 0.05601822511557536 0.053359655220036051 0 0.054646617625796437 0.041110669488953297 0 0.05601822511557536 0.053359655220036051 0 0.064358290650222347 0.046282094534396051 0 0.05601822511557536 0.053359655220036051 0 0.061289775951766212 0.060987566067924832 0 0.054744216709492637 0.065227032035206453 0 0.05601822511557536 0.053359655220036051 0 0.061289775951766212 0.060987566067924832 0 0.067941668414158135 0.055854136259246803 0 0.044586049542794479 0.060495943968892622 0 0.05601822511557536 0.053359655220036051 0 0.054744216709492637 0.065227032035206453 0 0.03375457624651311 0.01395544178252218 0 0.047261962265189493 0.017479514425368371 0 0.046596842003609563 -0.00069525990569292847 0 0.03375457624651311 0.01395544178252218 0 0.046596842003609563 -0.00069525990569292847 0 0.033591006718873592 -0.0077061067195627808 0 0.01841636082331442 0.017296003022671608 0 0.03375457624651311 0.01395544178252218 0 0.047261962265189493 0.017479514425368371 0 0.01841636082331442 0.017296003022671608 0 0.047261962265189493 0.017479514425368371 0 0.01841636082331442 0.017296003022671608 0 0.037047131790631377 0.026522451707800921 0 0.047261962265189493 0.017479514425368371 0 0.041150429782503883 0.036255668233017173 0 0.037047131790631377 0.026522451707800921 0 0.05264451368706112 0.030204396168012609 0 0.037047131790631377 0.026522451707800921 0 0.047261962265189493 0.017479514425368371 0 0.05264451368706112 0.030204396168012609 0 0.047261962265189493 0.017479514425368371 0 0.076107563707064285 0.017663025828065119 0 0.047261962265189493 0.017479514425368371 0 0.076107563707064285 0.017663025828065119 0 0.063950914290884106 0.025662525408789209 0 0.047261962265189493 0.017479514425368371 0 0.05264451368706112 0.030204396168012609 0 0.063950914290884106 0.025662525408789209 0 0.05264451368706112 0.030204396168012609 0 0.063950914290884106 0.025662525408789209 0 0.065486367675815421 0.034572053388985648 0 0.047261962265189493 0.017479514425368371 0 0.06175221594896229 0.0069685432474568291 0 0.076107563707064285 0.017663025828065119 0 0.047261962265189493 0.017479514425368371 0 0.06175221594896229 0.0069685432474568291 0 0.046596842003609563 -0.00069525990569292847 0 0.06175221594896229 0.0069685432474568291 0 0.07905212668422168 0.0023684285233401721 0 0.068077007432875786 -0.0040758889933961793 0 0.06175221594896229 0.0069685432474568291 0 0.07905212668422168 0.0023684285233401721 0 0.076107563707064285 0.017663025828065119 0 0.07905212668422168 0.0023684285233401721 0 0.078254164119290204 0.02839363723351428 0 0.07905212668422168 0.0023684285233401721 0 0.091770219455842267 0.0081801344681066215 0 0.087847030251306052 0.01971377807653699 0 0.07905212668422168 0.0023684285233401721 0 0.091770219455842267 0.0081801344681066215 0 0.0878376211017112 -0.010387035779324091 0 0.087847030251306052 0.01971377807653699 0 0.078254164119290204 0.02839363723351428 0 0.095515182730773779 0.0200409229087486 0 0.090339786138129763 0.02880406384902387 0 0.078254164119290204 0.02839363723351428 0 0.095515182730773779 0.0200409229087486 0 0.078254164119290204 0.02839363723351428 0 0.095515182730773779 0.0200409229087486 0 0.07905212668422168 0.0023684285233401721 0 0.087847030251306052 0.01971377807653699 0 0.078254164119290204 0.02839363723351428 0 0.090339786138129763 0.02880406384902387 0 0.078254164119290204 0.02839363723351428 0 0.090502179544923622 0.036206125326248867 0 0.087847030251306052 0.01971377807653699 0 0.095515182730773779 0.0200409229087486 0 0.091770219455842267 0.0081801344681066215 0 0.087847030251306052 0.01971377807653699 0 0.095515182730773779 0.0200409229087486 0 0.07905212668422168 0.0023684285233401721 0 0.078254164119290204 0.02839363723351428 0 0.076107563707064285 0.017663025828065119 0 0.078254164119290204 0.02839363723351428 0 0.076107563707064285 0.017663025828065119 0 0.063950914290884106 0.025662525408789209 0 0.078254164119290204 0.02839363723351428 0 0.063950914290884106 0.025662525408789209 0 0.065486367675815421 0.034572053388985648 0 0.078254164119290204 0.02839363723351428 0 0.065486367675815421 0.034572053388985648 0 0.077698574419766409 0.04651395831475845 0 0.078254164119290204 0.02839363723351428 0 0.077698574419766409 0.04651395831475845 0 0.065486367675815421 0.034572053388985648 0 0.064358290650222347 0.046282094534396051 0 0.077698574419766409 0.04651395831475845 0 0.078254164119290204 0.02839363723351428 0 0.065486367675815421 0.034572053388985648 0 0.077698574419766409 0.04651395831475845 0 0.07714298472024167 0.064634279396002609 0 0.077698574419766409 0.04651395831475845 0 0.067941668414158135 0.055854136259246803 0 0.07714298472024167 0.064634279396002609 0 0.061289775951766212 0.060987566067924832 0 0.067941668414158135 0.055854136259246803 0 0.069999157542351587 0.065148634365049765 0 0.064358290650222347 0.046282094534396051 0 0.077698574419766409 0.04651395831475845 0 0.067941668414158135 0.055854136259246803 0 0.05601822511557536 0.053359655220036051 0 0.064358290650222347 0.046282094534396051 0 0.067941668414158135 0.055854136259246803 0 0.067941668414158135 0.055854136259246803 0 0.07714298472024167 0.064634279396002609 0 0.069999157542351587 0.065148634365049765 0 0.077698574419766409 0.04651395831475845 0 0.092400146547217218 0.056033403321733358 0 0.096289651642211455 0.046228781006692012 0 0.077698574419766409 0.04651395831475845 0 0.087881666206539852 0.063054619256112485 0 0.07714298472024167 0.064634279396002609 0 0.077698574419766409 0.04651395831475845 0 0.092400146547217218 0.056033403321733358 0 0.087881666206539852 0.063054619256112485 0 0.092400146547217218 0.056033403321733358 0 0.097696953631965511 0.065844372140303697 0 0.087881666206539852 0.063054619256112485 0 0.078254164119290204 0.02839363723351428 0 0.077698574419766409 0.04651395831475845 0 0.090502179544923622 0.036206125326248867 0 0.077698574419766409 0.04651395831475845 0 0.090502179544923622 0.036206125326248867 0 0.096289651642211455 0.046228781006692012 0 0.090339786138129763 0.02880406384902387 0 0.090502179544923622 0.036206125326248867 0 0.097087618157531447 0.03057556992758375 0 0.090502179544923622 0.036206125326248867 0 0.10204923092768491 0.037603420808938547 0 0.097087618157531447 0.03057556992758375 0 0.090502179544923622 0.036206125326248867 0 0.096289651642211455 0.046228781006692012 0 0.10204923092768491 0.037603420808938547 0 0.096289651642211455 0.046228781006692012 0 0.10204923092768491 0.037603420808938547 0 0.1110374364555668 0.042884925464511087 0 0.10204923092768491 0.037603420808938547 0 0.1110374364555668 0.042884925464511087 0 0.1083899404091391 0.030535384444801871 0 0.10204923092768491 0.037603420808938547 0 0.097087618157531447 0.03057556992758375 0 0.1083899404091391 0.030535384444801871 0 0.092400146547217218 0.056033403321733358 0 0.1039546911980465 0.057002555395901461 0 0.097696953631965511 0.065844372140303697 0 0.092400146547217218 0.056033403321733358 0 0.096289651642211455 0.046228781006692012 0 0.1039546911980465 0.057002555395901461 0 0.096289651642211455 0.046228781006692012 0 0.1039546911980465 0.057002555395901461 0 0.1110374364555668 0.042884925464511087 0 0.1039546911980465 0.057002555395901461 0 0.1184476747314175 0.056014063399916478 0 0.1106165626664971 0.069574427499079716 0 0.1039546911980465 0.057002555395901461 0 0.1184476747314175 0.056014063399916478 0 0.1110374364555668 0.042884925464511087 0 0.1110374364555668 0.042884925464511087 0 0.1196768841157642 0.03312942407152087 0 0.1083899404091391 0.030535384444801871 0 0.1110374364555668 0.042884925464511087 0 0.1196768841157642 0.03312942407152087 0 0.12648151235079791 0.041627876699407602 0 0.1184476747314175 0.056014063399916478 0 0.1110374364555668 0.042884925464511087 0 0.12648151235079791 0.041627876699407602 0 0.1196768841157642 0.03312942407152087 0 0.1221117354862226 0.0211756062385163 0 0.13187984920416429 0.031323327930024139 0 0.1221117354862226 0.0211756062385163 0 0.1175995477600949 0.0093541612357724065 0 0.095515182730773779 0.0200409229087486 0 0.1196768841157642 0.03312942407152087 0 0.1221117354862226 0.0211756062385163 0 0.1083899404091391 0.030535384444801871 0 0.1175995477600949 0.0093541612357724065 0 0.10585658762530251 0.0097324821153323259 0 0.110514703989132 -0.0008969358902345655 0 0.1175995477600949 0.0093541612357724065 0 0.095515182730773779 0.0200409229087486 0 0.1175995477600949 0.0093541612357724065 0 0.10585658762530251 0.0097324821153323259 0 0.095515182730773779 0.0200409229087486 0 0.10585658762530251 0.0097324821153323259 0 0.110514703989132 -0.0008969358902345655 0 0.099403600792298777 -8.5827329185945826e-05 0 0.10585658762530251 0.0097324821153323259 0 0.098136397651054336 0.0094669280407504025 0 0.099403600792298777 -8.5827329185945826e-05 0 0.091770219455842267 0.0081801344681066215 0 0.098136397651054336 0.0094669280407504025 0 0.099403600792298777 -8.5827329185945826e-05 0 0.10585658762530251 0.0097324821153323259 0 0.098136397651054336 0.0094669280407504025 0 0.095515182730773779 0.0200409229087486 0 0.091770219455842267 0.0081801344681066215 0 0.098136397651054336 0.0094669280407504025 0 0.095515182730773779 0.0200409229087486 0 0.1221117354862226 0.0211756062385163 0 0.095515182730773779 0.0200409229087486 0 0.1221117354862226 0.0211756062385163 0 0.095515182730773779 0.0200409229087486 0 0.1083899404091391 0.030535384444801871 0 0.090339786138129763 0.02880406384902387 0 0.095515182730773779 0.0200409229087486 0 0.097087618157531447 0.03057556992758375 0 0.095515182730773779 0.0200409229087486 0 0.097087618157531447 0.03057556992758375 0 0.1083899404091391 0.030535384444801871 0 0.1107267544787164 0.1204150413650918 0 0.08812886447722601 0.1116229686304006 0 0.10095871487851329 0.099020024805160867 0 0.1107267544787164 0.1204150413650918 0 0.08812886447722601 0.1116229686304006 0 0.1107267544787164 0.1204150413650918 0 0.08812886447722601 0.1116229686304006 0 0.093826915640095265 0.12855250308583879 0 0.1107267544787164 0.1204150413650918 0 0.1189401858846638 0.099345531850481006 0 0.13715475885935269 0.1120727242666161 0 0.1107267544787164 0.1204150413650918 0 0.1189401858846638 0.099345531850481006 0 0.10095871487851329 0.099020024805160867 0 0.1107267544787164 0.1204150413650918 0 0.1189401858846638 0.099345531850481006 0 0.1189401858846638 0.099345531850481006 0 0.094469671713508424 0.082247083107764296 0 0.12547495181618501 0.082582219884395291 0 0.1106165626664971 0.069574427499079716 0 0.094469671713508424 0.082247083107764296 0 0.12547495181618501 0.082582219884395291 0 0.1189401858846638 0.099345531850481006 0 0.12547495181618501 0.082582219884395291 0 0.1184476747314175 0.056014063399916478 0 0.1106165626664971 0.069574427499079716 0 0.12616329073261071 0.067024338333600775 0 0.1106165626664971 0.069574427499079716 0 0.12616329073261071 0.067024338333600775 0 0.12547495181618501 0.082582219884395291 0 0.1106165626664971 0.069574427499079716 0 0.097696953631965511 0.065844372140303697 0 0.094469671713508424 0.082247083107764296 0 0.1039546911980465 0.057002555395901461 0 0.1106165626664971 0.069574427499079716 0 0.097696953631965511 0.065844372140303697 0 0.10095871487851329 0.099020024805160867 0 0.094469671713508424 0.082247083107764296 0 0.090623544958507274 0.099663641955594851 0 0.10095871487851329 0.099020024805160867 0 0.1189401858846638 0.099345531850481006 0 0.094469671713508424 0.082247083107764296 0 0.1189401858846638 0.099345531850481006 0 0.094469671713508424 0.082247083107764296 0 0.094469671713508424 0.082247083107764296 0 0.070888608056777505 0.075890095307825492 0 0.075220001928022931 0.086002584818095792 0 0.094469671713508424 0.082247083107764296 0 0.075220001928022931 0.086002584818095792 0 0.080483472162656722 0.095709684945086609 0 0.094469671713508424 0.082247083107764296 0 0.080483472162656722 0.095709684945086609 0 0.090623544958507274 0.099663641955594851 0 0.094469671713508424 0.082247083107764296 0 0.07714298472024167 0.064634279396002609 0 0.069999157542351587 0.065148634365049765 0 0.097696953631965511 0.065844372140303697 0 0.094469671713508424 0.082247083107764296 0 0.087881666206539852 0.063054619256112485 0 0.094469671713508424 0.082247083107764296 0 0.070888608056777505 0.075890095307825492 0 0.069999157542351587 0.065148634365049765 0 0.094469671713508424 0.082247083107764296 0 0.069999157542351587 0.065148634365049765 0 0.094469671713508424 0.082247083107764296 0 0.087881666206539852 0.063054619256112485 0 0.07714298472024167 0.064634279396002609 0 0.070888608056777505 0.075890095307825492 0 0.063138566934015719 0.083441176909156867 0 0.059659450625032188 0.072279769256317572 0 0.070888608056777505 0.075890095307825492 0 0.063527989809047225 0.066818872967588955 0 0.059659450625032188 0.072279769256317572 0 0.070888608056777505 0.075890095307825492 0 0.069999157542351587 0.065148634365049765 0 0.063527989809047225 0.066818872967588955 0 0.061289775951766212 0.060987566067924832 0 0.069999157542351587 0.065148634365049765 0 0.063527989809047225 0.066818872967588955 0 0.075220001928022931 0.086002584818095792 0 0.068441617658889148 0.091870926596631708 0 0.080483472162656722 0.095709684945086609 0 0.070888608056777505 0.075890095307825492 0 0.075220001928022931 0.086002584818095792 0 0.063138566934015719 0.083441176909156867 0 0.075220001928022931 0.086002584818095792 0 0.063138566934015719 0.083441176909156867 0 0.068441617658889148 0.091870926596631708 0 0.063138566934015719 0.083441176909156867 0 0.068441617658889148 0.091870926596631708 0 0.057835072794014723 0.091370290415109801 0 0.065530974475735609 0.1028308958957094 0 0.080483472162656722 0.095709684945086609 0 0.08812886447722601 0.1116229686304006 0 0.065530974475735609 0.1028308958957094 0 0.08812886447722601 0.1116229686304006 0 0.068441617658889148 0.091870926596631708 0 0.065530974475735609 0.1028308958957094 0 0.057835072794014723 0.091370290415109801 0 0.065530974475735609 0.1028308958957094 0 0.079339627596799217 0.1164872314899148 0 0.054806506132949281 0.1075883221890552 0 0.068441617658889148 0.091870926596631708 0 0.065530974475735609 0.1028308958957094 0 0.080483472162656722 0.095709684945086609 0 0.080483472162656722 0.095709684945086609 0 0.090623544958507274 0.099663641955594851 0 0.08812886447722601 0.1116229686304006 0 0.10095871487851329 0.099020024805160867 0 0.090623544958507274 0.099663641955594851 0 0.08812886447722601 0.1116229686304006 0 0.08812886447722601 0.1116229686304006 0 0.082322619978975192 0.1256009050522981 0 0.093826915640095265 0.12855250308583879 0 0.079339627596799217 0.1164872314899148 0 0.073339457844807873 0.12469811022793489 0 0.082322619978975192 0.1256009050522981 0 0.08812886447722601 0.1116229686304006 0 0.079339627596799217 0.1164872314899148 0 0.082322619978975192 0.1256009050522981 0 0.079339627596799217 0.1164872314899148 0 0.06409668449741264 0.12024327120683891 0 0.054806506132949281 0.1075883221890552 0 0.079339627596799217 0.1164872314899148 0 0.073339457844807873 0.12469811022793489 0 0.06409668449741264 0.12024327120683891 0 0.065530974475735609 0.1028308958957094 0 0.08812886447722601 0.1116229686304006 0 0.079339627596799217 0.1164872314899148 0 0.079339627596799217 0.1164872314899148 0 0.054806506132949281 0.1075883221890552 0 0.073339457844807873 0.12469811022793489 0 0.06409668449741264 0.12024327120683891 0 0.067141198041719183 0.12963058133249411 0 0.06409668449741264 0.12024327120683891 0 0.049873174265023593 0.1200393206422268 0 0.057398494632256707 0.13262498522612789 0 0.049873174265023593 0.1200393206422268 0 0.054806506132949281 0.1075883221890552 0 0.043737194083525402 0.1110678904723672 0 0.06409668449741264 0.12024327120683891 0 0.049873174265023593 0.1200393206422268 0 0.054806506132949281 0.1075883221890552 0 0.065530974475735609 0.1028308958957094 0 0.042933084474245257 0.094038823161018248 0 0.065530974475735609 0.1028308958957094 0 0.054806506132949281 0.1075883221890552 0 0.042933084474245257 0.094038823161018248 0 0.065530974475735609 0.1028308958957094 0 0.042933084474245257 0.094038823161018248 0 0.057835072794014723 0.091370290415109801 0 0.054806506132949281 0.1075883221890552 0 0.042933084474245257 0.094038823161018248 0 0.030273384669099349 0.09868941288819566 0 0.054806506132949281 0.1075883221890552 0 0.030273384669099349 0.09868941288819566 0 0.054806506132949281 0.1075883221890552 0 0.043737194083525402 0.1110678904723672 0 0.030273384669099349 0.09868941288819566 0 0.033911473668448662 0.1103035769788476 0 0.043737194083525402 0.1110678904723672 0 0.030273384669099349 0.09868941288819566 0 0.033911473668448662 0.1103035769788476 0 0.036260268305745531 0.1196876977242806 0 0.025375047615424379 0.1117693068305468 0 0.033911473668448662 0.1103035769788476 0 0.036260268305745531 0.1196876977242806 0 0.043737194083525402 0.1110678904723672 0 0.036260268305745531 0.1196876977242806 0 0.025749548020319198 0.12421072619980519 0 0.033687501549020907 0.1310224577675054 0 0.049873174265023593 0.1200393206422268 0 0.036260268305745531 0.1196876977242806 0 0.044411149288317527 0.13149611031592251 0 0.049873174265023593 0.1200393206422268 0 0.036260268305745531 0.1196876977242806 0 0.043737194083525402 0.1110678904723672 0 0.044586049542794479 0.060495943968892622 0 0.054744216709492637 0.065227032035206453 0 0.047863068983481347 0.071770702164041217 0 0.054744216709492637 0.065227032035206453 0 0.059659450625032188 0.072279769256317572 0 0.047863068983481347 0.071770702164041217 0 0.061289775951766212 0.060987566067924832 0 0.063527989809047225 0.066818872967588955 0 0.054744216709492637 0.065227032035206453 0 0.063527989809047225 0.066818872967588955 0 0.054744216709492637 0.065227032035206453 0 0.059659450625032188 0.072279769256317572 0 0.063138566934015719 0.083441176909156867 0 0.059659450625032188 0.072279769256317572 0 0.055954346279278991 0.0783873216684427 0 0.059659450625032188 0.072279769256317572 0 0.047863068983481347 0.071770702164041217 0 0.055954346279278991 0.0783873216684427 0 0.047863068983481347 0.071770702164041217 0 0.050453047312920697 0.083815672289018747 0 0.055954346279278991 0.0783873216684427 0 0.063138566934015719 0.083441176909156867 0 0.050453047312920697 0.083815672289018747 0 0.055954346279278991 0.0783873216684427 0 0.063138566934015719 0.083441176909156867 0 0.050453047312920697 0.083815672289018747 0 0.057835072794014723 0.091370290415109801 0 0.042933084474245257 0.094038823161018248 0 0.050453047312920697 0.083815672289018747 0 0.057835072794014723 0.091370290415109801 0 0.042933084474245257 0.094038823161018248 0 0.050453047312920697 0.083815672289018747 0 0.038111198264004248 0.080329207550698112 0 0.042933084474245257 0.094038823161018248 0 0.038111198264004248 0.080329207550698112 0 0.030442872300299611 0.0871492564159978 0 0.042933084474245257 0.094038823161018248 0 0.030442872300299611 0.0871492564159978 0 0.030273384669099349 0.09868941288819566 0 0.047863068983481347 0.071770702164041217 0 0.050453047312920697 0.083815672289018747 0 0.038111198264004248 0.080329207550698112 0 0.047863068983481347 0.071770702164041217 0 0.038111198264004248 0.080329207550698112 0 0.034942519138216707 0.068165210744933744 0 0.038111198264004248 0.080329207550698112 0 0.034942519138216707 0.068165210744933744 0 0.024091848018943131 0.076624064522879287 0 0.044586049542794479 0.060495943968892622 0 0.047863068983481347 0.071770702164041217 0 0.034942519138216707 0.068165210744933744 0 0.019336412406651179 0.063883867485784743 0 0.024091848018943131 0.076624064522879287 0 0.0045890164421649726 0.073984735346648359 0 0.031278943650257837 0.055592948761876988 0 0.034942519138216707 0.068165210744933744 0 0.019336412406651179 0.063883867485784743 0 0.034942519138216707 0.068165210744933744 0 0.019336412406651179 0.063883867485784743 0 0.024091848018943131 0.076624064522879287 0 0.024091848018943131 0.076624064522879287 0 0.019027476927151291 0.085247594552211439 0 0.0045890164421649726 0.073984735346648359 0 0.019027476927151291 0.085247594552211439 0 0.0057402632052494153 0.089790503587336104 0 0.030273384669099349 0.09868941288819566 0 0.038111198264004248 0.080329207550698112 0 0.024091848018943131 0.076624064522879287 0 0.030442872300299611 0.0871492564159978 0 0.024091848018943131 0.076624064522879287 0 0.019027476927151291 0.085247594552211439 0 0.030442872300299611 0.0871492564159978 0 0.019027476927151291 0.085247594552211439 0 0.030442872300299611 0.0871492564159978 0 0.030273384669099349 0.09868941288819566 0 0.019027476927151291 0.085247594552211439 0 0.0057402632052494153 0.089790503587336104 0 0.0045890164421649726 0.073984735346648359 0 0.002034669314375587 0.057952022898971632 0 0.019336412406651179 0.063883867485784743 0 0.0045890164421649726 0.073984735346648359 0 0.025375047615424379 0.1117693068305468 0 0.0143427559978945 0.1036254073975484 0 0.011119905785276029 0.11863783152895049 0 0.025749548020319198 0.12421072619980519 0 0.025375047615424379 0.1117693068305468 0 0.011119905785276029 0.11863783152895049 0 0.036260268305745531 0.1196876977242806 0 0.025749548020319198 0.12421072619980519 0 0.025375047615424379 0.1117693068305468 0 0.025375047615424379 0.1117693068305468 0 0.030273384669099349 0.09868941288819566 0 0.0143427559978945 0.1036254073975484 0 0.033911473668448662 0.1103035769788476 0 0.025375047615424379 0.1117693068305468 0 0.030273384669099349 0.09868941288819566 0 0.0057402632052494153 0.089790503587336104 0 0.030273384669099349 0.09868941288819566 0 0.0143427559978945 0.1036254073975484 0 0.0057402632052494153 0.089790503587336104 0 0.030273384669099349 0.09868941288819566 0 -0.00089384049089925866 0.099379613399809719 0 0.011119905785276029 0.11863783152895049 0 -0.00089384049089925866 0.099379613399809719 0 0.0143427559978945 0.1036254073975484 0 0.011119905785276029 0.11863783152895049 0 -0.00089384049089925866 0.099379613399809719 0 0.0057402632052494153 0.089790503587336104 0 0.0143427559978945 0.1036254073975484 0 -0.002949797505990402 0.11698106427360989 0 -0.00089384049089925866 0.099379613399809719 0 0.011119905785276029 0.11863783152895049 0 -0.00082439648766763319 0.126182985957942 0 -0.002949797505990402 0.11698106427360989 0 0.011119905785276029 0.11863783152895049 0 0.0060329548530184979 0.1339258120873098 0 0.023133652061451342 0.1378960496580913 0 0.01080005258353604 0.14285378316903499 0 -0.00082439648766763319 0.126182985957942 0 0.011119905785276029 0.11863783152895049 0 0.0060329548530184979 0.1339258120873098 0 0.011119905785276029 0.11863783152895049 0 0.0060329548530184979 0.1339258120873098 0 0.023133652061451342 0.1378960496580913 0 0.0060329548530184979 0.1339258120873098 0 0.01080005258353604 0.14285378316903499 0 0.00082868943533995004 0.141115449658996 0 0.025749548020319198 0.12421072619980519 0 0.011119905785276029 0.11863783152895049 0 0.023133652061451342 0.1378960496580913 0 0.011119905785276029 0.11863783152895049 0 0.023133652061451342 0.1378960496580913 0 0.025749548020319198 0.12421072619980519 0 0.023133652061451342 0.1378960496580913 0 0.033687501549020907 0.1310224577675054 0 0.017626416396847391 0.15274907450654779 0 0.035147398337626312 0.15715426778723229 0 0.023133652061451342 0.1378960496580913 0 0.035147398337626312 0.15715426778723229 0 0.023133652061451342 0.1378960496580913 0 0.017626416396847391 0.15274907450654779 0 0.035147398337626312 0.15715426778723229 0 0.023133652061451342 0.1378960496580913 0 0.017626416396847391 0.15274907450654779 0 0.01080005258353604 0.14285378316903499 0 0.017626416396847391 0.15274907450654779 0 0.01080005258353604 0.14285378316903499 0 0.00010543445606855251 0.14834388122586309 0 -0.0059281172365853313 0.14590660226524421 0 0.016508570505799319 0.16406344602788009 0 0.017626416396847391 0.15274907450654779 0 0.00010543445606855251 0.14834388122586309 0 -0.0059281172365853313 0.14590660226524421 0 0.00010543445606855251 0.14834388122586309 0 0.016508570505799319 0.16406344602788009 0 0.017626416396847391 0.15274907450654779 0 0.00010543445606855251 0.14834388122586309 0 0.016508570505799319 0.16406344602788009 0 0.01080005258353604 0.14285378316903499 0 0.00010543445606855251 0.14834388122586309 0 0.00082868943533995004 0.141115449658996 0 -0.0059281172365853313 0.14590660226524421 0 0.00079023584047536143 0.16212904774933021 0 0.016508570505799319 0.16406344602788009 0 0.00079023584047536143 0.16212904774933021 0 0.0092817368916129316 0.1703913735327689 0 0.016508570505799319 0.16406344602788009 0 -0.00013995955948005169 0.1722625834562479 0 0.00079023584047536143 0.16212904774933021 0 0.0092817368916129316 0.1703913735327689 0 0.0092817368916129316 0.1703913735327689 0 0.014388581913753969 0.1786032960423837 0 0.016508570505799319 0.16406344602788009 0 -0.00013995955948005169 0.1722625834562479 0 -0.002984792374191875 0.182819937678703 0 0.014388581913753969 0.1786032960423837 0 -0.00013995955948005169 0.1722625834562479 0 0.0092817368916129316 0.1703913735327689 0 0.014388581913753969 0.1786032960423837 0 0.014388581913753969 0.1786032960423837 0 0.038945258248183963 0.1822202897905161 0 0.026063462980553061 0.19189243905611769 0 0.014388581913753969 0.1786032960423837 0 0.016508570505799319 0.16406344602788009 0 0.038945258248183963 0.1822202897905161 0 0.016508570505799319 0.16406344602788009 0 0.038945258248183963 0.1822202897905161 0 0.017626416396847391 0.15274907450654779 0 0.016508570505799319 0.16406344602788009 0 0.035147398337626312 0.15715426778723229 0 0.016508570505799319 0.16406344602788009 0 0.035147398337626312 0.15715426778723229 0 0.041133348826321373 0.16674983752638431 0 0.035147398337626312 0.15715426778723229 0 0.041133348826321373 0.16674983752638431 0 0.035147398337626312 0.15715426778723229 0 0.056957487034522122 0.1626378449351028 0 0.035147398337626312 0.15715426778723229 0 0.056957487034522122 0.1626378449351028 0 0.048350494649797779 0.15015418015345339 0 0.035147398337626312 0.15715426778723229 0 0.041133348826321373 0.16674983752638431 0 0.056957487034522122 0.1626378449351028 0 0.016508570505799319 0.16406344602788009 0 0.041133348826321373 0.16674983752638431 0 0.038945258248183963 0.1822202897905161 0 0.041133348826321373 0.16674983752638431 0 0.038945258248183963 0.1822202897905161 0 0.052948188622079222 0.17831138263907509 0 0.052948188622079222 0.17831138263907509 0 0.056957487034522122 0.1626378449351028 0 0.066322903010800113 0.17957180739022019 0 0.052948188622079222 0.17831138263907509 0 0.061381945990568593 0.20037713355315201 0 0.066322903010800113 0.17957180739022019 0 0.038945258248183963 0.1822202897905161 0 0.052948188622079222 0.17831138263907509 0 0.061381945990568593 0.20037713355315201 0 0.041133348826321373 0.16674983752638431 0 0.052948188622079222 0.17831138263907509 0 0.056957487034522122 0.1626378449351028 0 0.056957487034522122 0.1626378449351028 0 0.048350494649797779 0.15015418015345339 0 0.059571495683659777 0.1474168749991891 0 0.048350494649797779 0.15015418015345339 0 0.04972290486466055 0.14070277112682411 0 0.059571495683659777 0.1474168749991891 0 0.04972290486466055 0.14070277112682411 0 0.059571495683659777 0.1474168749991891 0 0.057398494632256707 0.13262498522612789 0 0.059571495683659777 0.1474168749991891 0 0.057398494632256707 0.13262498522612789 0 0.068356426405192017 0.1394561736357392 0 0.049873174265023593 0.1200393206422268 0 0.057398494632256707 0.13262498522612789 0 0.044411149288317527 0.13149611031592251 0 0.04972290486466055 0.14070277112682411 0 0.057398494632256707 0.13262498522612789 0 0.044411149288317527 0.13149611031592251 0 0.04972290486466055 0.14070277112682411 0 0.044411149288317527 0.13149611031592251 0 0.038882890069270981 0.14182170493942761 0 0.023133652061451342 0.1378960496580913 0 0.033687501549020907 0.1310224577675054 0 0.038882890069270981 0.14182170493942761 0 0.036260268305745531 0.1196876977242806 0 0.044411149288317527 0.13149611031592251 0 0.033687501549020907 0.1310224577675054 0 0.044411149288317527 0.13149611031592251 0 0.033687501549020907 0.1310224577675054 0 0.038882890069270981 0.14182170493942761 0 0.023133652061451342 0.1378960496580913 0 0.035147398337626312 0.15715426778723229 0 0.038882890069270981 0.14182170493942761 0 0.035147398337626312 0.15715426778723229 0 0.048350494649797779 0.15015418015345339 0 0.038882890069270981 0.14182170493942761 0 0.048350494649797779 0.15015418015345339 0 0.04972290486466055 0.14070277112682411 0 0.038882890069270981 0.14182170493942761 0 0.029612041759355889 0.24435779863365781 0 0.01144972781442437 0.24492779461122019 0 0.014247957129277639 0.2286131111972064 0 0.029612041759355889 0.24435779863365781 0 0.01144972781442437 0.24492779461122019 0 0.029612041759355889 0.24435779863365781 0 0.01144972781442437 0.24492779461122019 0 0.02186299581578972 0.25674704960299283 0 -0.0067125861305070769 0.2454977905887831 0 0.01144972781442437 0.24492779461122019 0 -0.0067125861305070769 0.2454977905887831 0 0.01144972781442437 0.24492779461122019 0 0.014247957129277639 0.2286131111972064 0 0.014247957129277639 0.2286131111972064 0 0.018341283897770101 0.22308032342543099 0 0.002188355115057558 0.21728020735546791 0 -0.0067125861305070769 0.2454977905887831 0 0.014247957129277639 0.2286131111972064 0 0.002188355115057558 0.21728020735546791 0 0.014247957129277639 0.2286131111972064 0 0.002188355115057558 0.21728020735546791 0 0.029612041759355889 0.24435779863365781 0 0.018341283897770101 0.22308032342543099 0 0.029612041759355889 0.24435779863365781 0 0.018341283897770101 0.22308032342543099 0 0.040068511687278652 0.2250763925191783 0 0.029612041759355889 0.24435779863365781 0 0.014247957129277639 0.2286131111972064 0 0.018341283897770101 0.22308032342543099 0 0.018341283897770101 0.22308032342543099 0 0.02989936070082095 0.20710601012551369 0 0.040068511687278652 0.2250763925191783 0 0.018341283897770101 0.22308032342543099 0 0.02989936070082095 0.20710601012551369 0 0.0070705260361831421 0.20180284821720479 0 0.018341283897770101 0.22308032342543099 0 0.002188355115057558 0.21728020735546791 0 0.0070705260361831421 0.20180284821720479 0 0.018341283897770101 0.22308032342543099 0 0.0070705260361831421 0.20180284821720479 0 0.002188355115057558 0.21728020735546791 0 0.0070705260361831421 0.20180284821720479 0 -0.002984792374191875 0.182819937678703 0 0.0070705260361831421 0.20180284821720479 0 0.014388581913753969 0.1786032960423837 0 0.0070705260361831421 0.20180284821720479 0 -0.002984792374191875 0.182819937678703 0 0.014388581913753969 0.1786032960423837 0 0.0070705260361831421 0.20180284821720479 0 0.02989936070082095 0.20710601012551369 0 0.0070705260361831421 0.20180284821720479 0 0.026063462980553061 0.19189243905611769 0 0.014388581913753969 0.1786032960423837 0 0.0070705260361831421 0.20180284821720479 0 0.026063462980553061 0.19189243905611769 0 0.038945258248183963 0.1822202897905161 0 0.026063462980553061 0.19189243905611769 0 0.040581768907249398 0.1983751636629556 0 0.02989936070082095 0.20710601012551369 0 0.026063462980553061 0.19189243905611769 0 0.040581768907249398 0.1983751636629556 0 0.038945258248183963 0.1822202897905161 0 0.040581768907249398 0.1983751636629556 0 0.061381945990568593 0.20037713355315201 0 0.040581768907249398 0.1983751636629556 0 0.061381945990568593 0.20037713355315201 0 0.046618816616120468 0.21027994578947851 0 0.038945258248183963 0.1822202897905161 0 0.061381945990568593 0.20037713355315201 0 0.061381945990568593 0.20037713355315201 0 0.046618816616120468 0.21027994578947851 0 0.060433870424215642 0.22314753465730719 0 0.02989936070082095 0.20710601012551369 0 0.040581768907249398 0.1983751636629556 0 0.046618816616120468 0.21027994578947851 0 0.02989936070082095 0.20710601012551369 0 0.046618816616120468 0.21027994578947851 0 0.040068511687278652 0.2250763925191783 0 0.040068511687278652 0.2250763925191783 0 0.060433870424215642 0.22314753465730719 0 0.053555423586063432 0.2436063728312057 0 0.046618816616120468 0.21027994578947851 0 0.040068511687278652 0.2250763925191783 0 0.060433870424215642 0.22314753465730719 0 0.029612041759355889 0.24435779863365781 0 0.053555423586063432 0.2436063728312057 0 0.036465713714951727 0.25729648802006788 0 0.029612041759355889 0.24435779863365781 0 0.040068511687278652 0.2250763925191783 0 0.053555423586063432 0.2436063728312057 0 0.029612041759355889 0.24435779863365781 0 0.053555423586063432 0.2436063728312057 0 0.093683841314688002 0.24820175738892189 0 0.077498805412770863 0.2428549470287534 0 0.083818633732953257 0.218533977315788 0 0.060433870424215642 0.22314753465730719 0 0.053555423586063432 0.2436063728312057 0 0.077498805412770863 0.2428549470287534 0 0.053555423586063432 0.2436063728312057 0 0.077498805412770863 0.2428549470287534 0 0.060433870424215642 0.22314753465730719 0 0.077498805412770863 0.2428549470287534 0 0.083818633732953257 0.218533977315788 0 0.083818633732953257 0.218533977315788 0 0.083341955455175198 0.19066391239898459 0 0.097167490159200592 0.2077714345077841 0 0.061381945990568593 0.20037713355315201 0 0.083818633732953257 0.218533977315788 0 0.061381945990568593 0.20037713355315201 0 0.083818633732953257 0.218533977315788 0 0.083341955455175198 0.19066391239898459 0 0.061381945990568593 0.20037713355315201 0 0.060433870424215642 0.22314753465730719 0 0.083818633732953257 0.218533977315788 0 0.061381945990568593 0.20037713355315201 0 0.083341955455175198 0.19066391239898459 0 0.066322903010800113 0.17957180739022019 0 0.083341955455175198 0.19066391239898459 0 0.102722015503261 0.19387339975216561 0 0.097167490159200592 0.2077714345077841 0 0.083341955455175198 0.19066391239898459 0 0.102722015503261 0.19387339975216561 0 0.099260312306416645 0.18017407548359249 0 0.102722015503261 0.19387339975216561 0 0.1159910595883636 0.19671415710530099 0 0.10800393573270881 0.20637330068954429 0 0.102722015503261 0.19387339975216561 0 0.10800393573270881 0.20637330068954429 0 0.097167490159200592 0.2077714345077841 0 0.102722015503261 0.19387339975216561 0 0.1159910595883636 0.19671415710530099 0 0.11230993515489369 0.181340015252234 0 0.1159910595883636 0.19671415710530099 0 0.12612918054461139 0.18694294646378359 0 0.12833809593590281 0.19968889372809809 0 0.1159910595883636 0.19671415710530099 0 0.11230993515489369 0.181340015252234 0 0.12612918054461139 0.18694294646378359 0 0.1159910595883636 0.19671415710530099 0 0.1184672035089092 0.20938223285764959 0 0.12833809593590281 0.19968889372809809 0 0.1159910595883636 0.19671415710530099 0 0.1184672035089092 0.20938223285764959 0 0.10800393573270881 0.20637330068954429 0 0.1184672035089092 0.20938223285764959 0 0.1209885823856677 0.21968753409449959 0 0.1290961992274722 0.212672868064716 0 0.1184672035089092 0.20938223285764959 0 0.10800393573270881 0.20637330068954429 0 0.1083853481833402 0.22115664346373839 0 0.1184672035089092 0.20938223285764959 0 0.1083853481833402 0.22115664346373839 0 0.1209885823856677 0.21968753409449959 0 0.083818633732953257 0.218533977315788 0 0.097167490159200592 0.2077714345077841 0 0.1083853481833402 0.22115664346373839 0 0.10800393573270881 0.20637330068954429 0 0.097167490159200592 0.2077714345077841 0 0.1083853481833402 0.22115664346373839 0 0.083818633732953257 0.218533977315788 0 0.1083853481833402 0.22115664346373839 0 0.10625532147533789 0.23669082107842401 0 0.083818633732953257 0.218533977315788 0 0.10625532147533789 0.23669082107842401 0 0.1083853481833402 0.22115664346373839 0 0.1209885823856677 0.21968753409449959 0 0.11901216217150699 0.23367182415963031 0 0.1209885823856677 0.21968753409449959 0 0.11901216217150699 0.23367182415963031 0 0.1286704749319654 0.22177958979839371 0 0.1083853481833402 0.22115664346373839 0 0.11901216217150699 0.23367182415963031 0 0.10625532147533789 0.23669082107842401 0 0.1236358936284965 0.24097919379615801 0 0.10625532147533789 0.23669082107842401 0 0.1286920092177225 0.25484766484105992 0 0.10625532147533789 0.23669082107842401 0 0.1286920092177225 0.25484766484105992 0 0.11901216217150699 0.23367182415963031 0 0.1236358936284965 0.24097919379615801 0 0.10625532147533789 0.23669082107842401 0 0.10625532147533789 0.23669082107842401 0 0.1173043538645356 0.25739549318977062 0 0.1286920092177225 0.25484766484105992 0 0.11901216217150699 0.23367182415963031 0 0.1236358936284965 0.24097919379615801 0 0.13052543404488531 0.23948952164979309 0 0.093683841314688002 0.24820175738892189 0 0.10625532147533789 0.23669082107842401 0 0.1055113111411201 0.26134467515459481 0 0.093683841314688002 0.24820175738892189 0 0.083818633732953257 0.218533977315788 0 0.10625532147533789 0.23669082107842401 0 0.084829550018202041 0.15530621338285819 0 0.09247022179635514 0.16724762205435359 0 0.1015984881375351 0.14383133170972251 0 0.084829550018202041 0.15530621338285819 0 0.082562081581436464 0.1396760479894254 0 0.1015984881375351 0.14383133170972251 0 0.084829550018202041 0.15530621338285819 0 0.082562081581436464 0.1396760479894254 0 0.072394509357390543 0.15246989271666259 0 0.082562081581436464 0.1396760479894254 0 0.1015984881375351 0.14383133170972251 0 0.093826915640095265 0.12855250308583879 0 0.082322619978975192 0.1256009050522981 0 0.082562081581436464 0.1396760479894254 0 0.093826915640095265 0.12855250308583879 0 0.082322619978975192 0.1256009050522981 0 0.082562081581436464 0.1396760479894254 0 0.075079391389339473 0.13192675775042681 0 0.082562081581436464 0.1396760479894254 0 0.075079391389339473 0.13192675775042681 0 0.068356426405192017 0.1394561736357392 0 0.073339457844807873 0.12469811022793489 0 0.082322619978975192 0.1256009050522981 0 0.075079391389339473 0.13192675775042681 0 0.073339457844807873 0.12469811022793489 0 0.075079391389339473 0.13192675775042681 0 0.067141198041719183 0.12963058133249411 0 0.06409668449741264 0.12024327120683891 0 0.057398494632256707 0.13262498522612789 0 0.067141198041719183 0.12963058133249411 0 0.057398494632256707 0.13262498522612789 0 0.067141198041719183 0.12963058133249411 0 0.068356426405192017 0.1394561736357392 0 0.075079391389339473 0.13192675775042681 0 0.067141198041719183 0.12963058133249411 0 0.068356426405192017 0.1394561736357392 0 0.059571495683659777 0.1474168749991891 0 0.068356426405192017 0.1394561736357392 0 0.072394509357390543 0.15246989271666259 0 0.082562081581436464 0.1396760479894254 0 0.068356426405192017 0.1394561736357392 0 0.072394509357390543 0.15246989271666259 0 0.056957487034522122 0.1626378449351028 0 0.059571495683659777 0.1474168749991891 0 0.072394509357390543 0.15246989271666259 0 0.056957487034522122 0.1626378449351028 0 0.078767575731418044 0.16812142208297309 0 0.056957487034522122 0.1626378449351028 0 0.066322903010800113 0.17957180739022019 0 0.078767575731418044 0.16812142208297309 0 0.056957487034522122 0.1626378449351028 0 0.072394509357390543 0.15246989271666259 0 0.078767575731418044 0.16812142208297309 0 0.083341955455175198 0.19066391239898459 0 0.066322903010800113 0.17957180739022019 0 0.078767575731418044 0.16812142208297309 0 0.083341955455175198 0.19066391239898459 0 0.09247022179635514 0.16724762205435359 0 0.083341955455175198 0.19066391239898459 0 0.078767575731418044 0.16812142208297309 0 0.09247022179635514 0.16724762205435359 0 0.083341955455175198 0.19066391239898459 0 0.09247022179635514 0.16724762205435359 0 0.099260312306416645 0.18017407548359249 0 0.084829550018202041 0.15530621338285819 0 0.072394509357390543 0.15246989271666259 0 0.078767575731418044 0.16812142208297309 0 0.084829550018202041 0.15530621338285819 0 0.078767575731418044 0.16812142208297309 0 0.09247022179635514 0.16724762205435359 0 0.1072007960666221 0.16737863604378261 0 0.1181491332798312 0.15846521612557679 0 0.1015984881375351 0.14383133170972251 0 0.09247022179635514 0.16724762205435359 0 0.1072007960666221 0.16737863604378261 0 0.1015984881375351 0.14383133170972251 0 0.09247022179635514 0.16724762205435359 0 0.1072007960666221 0.16737863604378261 0 0.099260312306416645 0.18017407548359249 0 0.1072007960666221 0.16737863604378261 0 0.099260312306416645 0.18017407548359249 0 0.11230993515489369 0.181340015252234 0 0.102722015503261 0.19387339975216561 0 0.099260312306416645 0.18017407548359249 0 0.11230993515489369 0.181340015252234 0 0.1072007960666221 0.16737863604378261 0 0.11230993515489369 0.181340015252234 0 0.123600755590838 0.17233325503775521 0 0.11230993515489369 0.181340015252234 0 0.123600755590838 0.17233325503775521 0 0.12612918054461139 0.18694294646378359 0 0.1072007960666221 0.16737863604378261 0 0.123600755590838 0.17233325503775521 0 0.1181491332798312 0.15846521612557679 0 0.1181491332798312 0.15846521612557679 0 0.1243466167420595 0.14353728646847219 0 0.1015984881375351 0.14383133170972251 0 0.09247022179635514 0.16724762205435359 0 0.1015984881375351 0.14383133170972251 0 0.1107267544787164 0.1204150413650918 0 0.1015984881375351 0.14383133170972251 0 0.1107267544787164 0.1204150413650918 0 0.1015984881375351 0.14383133170972251 0 0.093826915640095265 0.12855250308583879 0 0.1107267544787164 0.1204150413650918 0 0.13853269635246351 0.13123339048505189 0 0.1107267544787164 0.1204150413650918 0 0.1243466167420595 0.14353728646847219 0 0.1015984881375351 0.14383133170972251 0 0.1107267544787164 0.1204150413650918 0 0.1243466167420595 0.14353728646847219 0 0.13853269635246351 0.13123339048505189 0 0.1243466167420595 0.14353728646847219 0 0.13853269635246351 0.13123339048505189 0 0.13808578714334691 0.1464651801436134 0 0.13853269635246351 0.13123339048505189 0 0.1663386382262107 0.1420517396050115 0 0.1553693318340402 0.12479991668275341 0 0.13853269635246351 0.13123339048505189 0 0.1663386382262107 0.1420517396050115 0 0.15193415790169179 0.1510472610753136 0 0.15352208440399359 0.1668798415245199 0 0.16261102722791601 0.14979649809528911 0 0.13853269635246351 0.13123339048505189 0 0.15193415790169179 0.1510472610753136 0 0.13808578714334691 0.1464651801436134 0 0.13853269635246351 0.13123339048505189 0 0.15193415790169179 0.1510472610753136 0 0.1663386382262107 0.1420517396050115 0 0.15193415790169179 0.1510472610753136 0 0.13808578714334691 0.1464651801436134 0 0.13752967757717299 0.16004278254561599 0 0.15193415790169179 0.1510472610753136 0 0.13752967757717299 0.16004278254561599 0 0.1181491332798312 0.15846521612557679 0 0.1243466167420595 0.14353728646847219 0 0.13752967757717299 0.16004278254561599 0 0.1243466167420595 0.14353728646847219 0 0.13808578714334691 0.1464651801436134 0 0.13752967757717299 0.16004278254561599 0 0.123600755590838 0.17233325503775521 0 0.13752967757717299 0.16004278254561599 0 0.13659001312214511 0.1797006293620817 0 0.123600755590838 0.17233325503775521 0 0.1181491332798312 0.15846521612557679 0 0.13752967757717299 0.16004278254561599 0 0.123600755590838 0.17233325503775521 0 0.12612918054461139 0.18694294646378359 0 0.13659001312214511 0.1797006293620817 0 0.12612918054461139 0.18694294646378359 0 0.13659001312214511 0.1797006293620817 0 0.13994522387552491 0.1918807282972316 0 0.13659001312214511 0.1797006293620817 0 0.15215822988252389 0.18264551818359309 0 0.15352208440399359 0.1668798415245199 0 0.13659001312214511 0.1797006293620817 0 0.15352208440399359 0.1668798415245199 0 0.13659001312214511 0.1797006293620817 0 0.15215822988252389 0.18264551818359309 0 0.13994522387552491 0.1918807282972316 0 0.13752967757717299 0.16004278254561599 0 0.13659001312214511 0.1797006293620817 0 0.15352208440399359 0.1668798415245199 0 0.15193415790169179 0.1510472610753136 0 0.13752967757717299 0.16004278254561599 0 0.15352208440399359 0.1668798415245199 0 0.15352208440399359 0.1668798415245199 0 0.17045415568584291 0.15405905368695891 0 0.15352208440399359 0.1668798415245199 0 0.16489156447137629 0.17221349346837611 0 0.17045415568584291 0.15405905368695891 0 0.16489156447137629 0.17221349346837611 0 0.17822651980266169 0.17585883084073919 0 0.17045415568584291 0.15405905368695891 0 0.15352208440399359 0.1668798415245199 0 0.16261102722791601 0.14979649809528911 0 0.17045415568584291 0.15405905368695891 0 0.15215822988252389 0.18264551818359309 0 0.16489156447137629 0.17221349346837611 0 0.16529861450285721 0.19110643400732541 0 0.16489156447137629 0.17221349346837611 0 0.17822651980266169 0.17585883084073919 0 0.16529861450285721 0.19110643400732541 0 0.15215822988252389 0.18264551818359309 0 0.15352208440399359 0.1668798415245199 0 0.16489156447137629 0.17221349346837611 0 0.17822651980266169 0.17585883084073919 0 0.18055638558177911 0.19305629781419989 0 0.1920037211624758 0.19034361114482179 0 0.17822651980266169 0.17585883084073919 0 0.16529861450285721 0.19110643400732541 0 0.18055638558177911 0.19305629781419989 0 0.17822651980266169 0.17585883084073919 0 0.17045415568584291 0.15405905368695891 0 0.1967542113089909 0.168352514486315 0 0.17045415568584291 0.15405905368695891 0 0.1967542113089909 0.168352514486315 0 0.18657063452309411 0.14185582394492521 0 0.17045415568584291 0.15405905368695891 0 0.18657063452309411 0.14185582394492521 0 0.1825345859194 0.14378127936735211 0 0.17045415568584291 0.15405905368695891 0 0.18657063452309411 0.14185582394492521 0 0.17045415568584291 0.15405905368695891 0 0.1967542113089909 0.168352514486315 0 0.1744026358808598 0.145299639368037 0 0.1825345859194 0.14378127936735211 0 0.17358390480872621 0.13752710909889271 0 0.1825345859194 0.14378127936735211 0 0.17358390480872621 0.13752710909889271 0 0.1744026358808598 0.145299639368037 0 0.1825345859194 0.14378127936735211 0 0.17045415568584291 0.15405905368695891 0 0.1744026358808598 0.145299639368037 0 0.17358390480872621 0.13752710909889271 0 0.1711773454710121 0.1435227305037676 0 0.17828827792020799 0.1345892530724859 0 0.1992437006399807 0.1215027028639304 0 0.18361350155480979 0.1218610433560799 0 0.18657063452309411 0.14185582394492521 0 0.1825345859194 0.14378127936735211 0 0.17828827792020799 0.1345892530724859 0 0.18657063452309411 0.14185582394492521 0 0.17828827792020799 0.1345892530724859 0 0.17828827792020799 0.1345892530724859 0 0.17389927722369289 0.11926578249398739 0 0.18361350155480979 0.1218610433560799 0 0.1825345859194 0.14378127936735211 0 0.17828827792020799 0.1345892530724859 0 0.17358390480872621 0.13752710909889271 0 0.17828827792020799 0.1345892530724859 0 0.17358390480872621 0.13752710909889271 0 0.17358390480872621 0.13752710909889271 0 0.1553693318340402 0.12479991668275341 0 0.17358390480872621 0.13752710909889271 0 0.1553693318340402 0.12479991668275341 0 0.1588426654228681 0.1175285385747781 0 0.17358390480872621 0.13752710909889271 0 0.1663386382262107 0.1420517396050115 0 0.17828827792020799 0.1345892530724859 0 0.17358390480872621 0.13752710909889271 0 0.1588426654228681 0.1175285385747781 0 0.17828827792020799 0.1345892530724859 0 0.1588426654228681 0.1175285385747781 0 0.17358390480872621 0.13752710909889271 0 0.1663386382262107 0.1420517396050115 0 0.1553693318340402 0.12479991668275341 0 0.15193415790169179 0.1510472610753136 0 0.1663386382262107 0.1420517396050115 0 0.15193415790169179 0.1510472610753136 0 0.16261102722791601 0.14979649809528911 0 0.1663386382262107 0.1420517396050115 0 0.1744026358808598 0.145299639368037 0 0.17045415568584291 0.15405905368695891 0 0.1692380528951887 0.14723166592735551 0 0.16261102722791601 0.14979649809528911 0 0.17045415568584291 0.15405905368695891 0 0.1692380528951887 0.14723166592735551 0 0.16261102722791601 0.14979649809528911 0 0.17045415568584291 0.15405905368695891 0 0.1744026358808598 0.145299639368037 0 0.1692380528951887 0.14723166592735551 0 0.1711773454710121 0.1435227305037676 0 0.1692380528951887 0.14723166592735551 0 0.1711773454710121 0.1435227305037676 0 0.1663386382262107 0.1420517396050115 0 0.17358390480872621 0.13752710909889271 0 0.1711773454710121 0.1435227305037676 0 0.1663386382262107 0.1420517396050115 0 0.16261102722791601 0.14979649809528911 0 0.1692380528951887 0.14723166592735551 0 0.1663386382262107 0.1420517396050115 0 0.14658109877038339 0.2391161347108057 0 0.16085058421703699 0.24075786873429389 0 0.14737864001805551 0.25121788241116427 0 0.14658109877038339 0.2391161347108057 0 0.1518984499790699 0.22996379177285131 0 0.16085058421703699 0.24075786873429389 0 0.14658109877038339 0.2391161347108057 0 0.14737864001805551 0.25121788241116427 0 0.1357283634457094 0.25258130713008992 0 0.13052543404488531 0.23948952164979309 0 0.13693239124384221 0.22578062022524481 0 0.1357283634457094 0.25258130713008992 0 0.14658109877038339 0.2391161347108057 0 0.13693239124384221 0.22578062022524481 0 0.1357283634457094 0.25258130713008992 0 0.13693239124384221 0.22578062022524481 0 0.1357283634457094 0.25258130713008992 0 0.1296454250842034 0.24697442185427521 0 0.13052543404488531 0.23948952164979309 0 0.1357283634457094 0.25258130713008992 0 0.1236358936284965 0.24097919379615801 0 0.1296454250842034 0.24697442185427521 0 0.1286920092177225 0.25484766484105992 0 0.1236358936284965 0.24097919379615801 0 0.1296454250842034 0.24697442185427521 0 0.13052543404488531 0.23948952164979309 0 0.11901216217150699 0.23367182415963031 0 0.1286704749319654 0.22177958979839371 0 0.13693239124384221 0.22578062022524481 0 0.11901216217150699 0.23367182415963031 0 0.13693239124384221 0.22578062022524481 0 0.11901216217150699 0.23367182415963031 0 0.13052543404488531 0.23948952164979309 0 0.13693239124384221 0.22578062022524481 0 0.13693239124384221 0.22578062022524481 0 0.13732303963133799 0.21708510244787771 0 0.1286704749319654 0.22177958979839371 0 0.13693239124384221 0.22578062022524481 0 0.13732303963133799 0.21708510244787771 0 0.13693239124384221 0.22578062022524481 0 0.1518984499790699 0.22996379177285131 0 0.16322972568501709 0.21420054342106079 0 0.13693239124384221 0.22578062022524481 0 0.16322972568501709 0.21420054342106079 0 0.14658109877038339 0.2391161347108057 0 0.13693239124384221 0.22578062022524481 0 0.1518984499790699 0.22996379177285131 0 0.13693239124384221 0.22578062022524481 0 0.14544218404939499 0.21256348460858149 0 0.16322972568501709 0.21420054342106079 0 0.14544218404939499 0.21256348460858149 0 0.1511802335849958 0.19973684207548309 0 0.16322972568501709 0.21420054342106079 0 0.14544218404939499 0.21256348460858149 0 0.13854553010178219 0.20601431487324121 0 0.1511802335849958 0.19973684207548309 0 0.13693239124384221 0.22578062022524481 0 0.14544218404939499 0.21256348460858149 0 0.13732303963133799 0.21708510244787771 0 0.13732303963133799 0.21708510244787771 0 0.1290961992274722 0.212672868064716 0 0.13854553010178219 0.20601431487324121 0 0.14544218404939499 0.21256348460858149 0 0.13732303963133799 0.21708510244787771 0 0.13854553010178219 0.20601431487324121 0 0.1209885823856677 0.21968753409449959 0 0.1286704749319654 0.22177958979839371 0 0.1290961992274722 0.212672868064716 0 0.1286704749319654 0.22177958979839371 0 0.13732303963133799 0.21708510244787771 0 0.1290961992274722 0.212672868064716 0 0.1290961992274722 0.212672868064716 0 0.13854553010178219 0.20601431487324121 0 0.12833809593590281 0.19968889372809809 0 0.1184672035089092 0.20938223285764959 0 0.1290961992274722 0.212672868064716 0 0.12833809593590281 0.19968889372809809 0 0.13854553010178219 0.20601431487324121 0 0.12833809593590281 0.19968889372809809 0 0.13994522387552491 0.1918807282972316 0 0.12612918054461139 0.18694294646378359 0 0.12833809593590281 0.19968889372809809 0 0.13994522387552491 0.1918807282972316 0 0.15215822988252389 0.18264551818359309 0 0.13994522387552491 0.1918807282972316 0 0.1511802335849958 0.19973684207548309 0 0.15215822988252389 0.18264551818359309 0 0.1511802335849958 0.19973684207548309 0 0.16529861450285721 0.19110643400732541 0 0.13854553010178219 0.20601431487324121 0 0.13994522387552491 0.1918807282972316 0 0.1511802335849958 0.19973684207548309 0 0.16529861450285721 0.19110643400732541 0 0.16322972568501709 0.21420054342106079 0 0.1511802335849958 0.19973684207548309 0 0.16529861450285721 0.19110643400732541 0 0.16322972568501709 0.21420054342106079 0 0.16529861450285721 0.19110643400732541 0 0.18055638558177911 0.19305629781419989 0 0.17975603501013809 0.20692315446353601 0 0.18055638558177911 0.19305629781419989 0 0.17975603501013809 0.20692315446353601 0 0.19628234433525879 0.19964576550601079 0 0.17975603501013809 0.20692315446353601 0 0.1769083901674697 0.22285999474144871 0 0.18916958897112091 0.2175768757455819 0 0.17975603501013809 0.20692315446353601 0 0.16322972568501709 0.21420054342106079 0 0.1769083901674697 0.22285999474144871 0 0.16529861450285721 0.19110643400732541 0 0.17975603501013809 0.20692315446353601 0 0.16322972568501709 0.21420054342106079 0 0.17975603501013809 0.20692315446353601 0 0.16322972568501709 0.21420054342106079 0 0.16322972568501709 0.21420054342106079 0 0.1769083901674697 0.22285999474144871 0 0.16085058421703699 0.24075786873429389 0 0.1518984499790699 0.22996379177285131 0 0.16322972568501709 0.21420054342106079 0 0.16085058421703699 0.24075786873429389 0 0.16322972568501709 0.21420054342106079 0 0.16085058421703699 0.24075786873429389 0 0.1769083901674697 0.22285999474144871 0 0.18618582173783979 0.23612729373750579 0 0.18916958897112091 0.2175768757455819 0 0.1769083901674697 0.22285999474144871 0 0.18618582173783979 0.23612729373750579 0 0.16085058421703699 0.24075786873429389 0 0.18618582173783979 0.23612729373750579 0 0.16085058421703699 0.24075786873429389 0 0.17444353000816201 0.2581931818276173 0 0.21714836287453759 0.24501057505280541 0 0.20326649633027699 0.2386008671198066 0 0.20671535360489809 0.2223281702794081 0 0.21714836287453759 0.24501057505280541 0 0.20326649633027699 0.2386008671198066 0 0.20520283793857749 0.25194597199181179 0 0.18618582173783979 0.23612729373750579 0 0.20326649633027699 0.2386008671198066 0 0.19570194822741041 0.2454510088932618 0 0.18618582173783979 0.23612729373750579 0 0.19570194822741041 0.2454510088932618 0 0.1893992401434304 0.25590890759110818 0 0.20326649633027699 0.2386008671198066 0 0.19570194822741041 0.2454510088932618 0 0.20520283793857749 0.25194597199181179 0 0.18618582173783979 0.23612729373750579 0 0.20671535360489809 0.2223281702794081 0 0.18916958897112091 0.2175768757455819 0 0.18618582173783979 0.23612729373750579 0 0.20326649633027699 0.2386008671198066 0 0.20671535360489809 0.2223281702794081 0 0.21714836287453759 0.24501057505280541 0 0.20671535360489809 0.2223281702794081 0 0.2264391426247073 0.2285501293452519 0 0.20671535360489809 0.2223281702794081 0 0.2197830005032983 0.2174447757979433 0 0.2264391426247073 0.2285501293452519 0 0.21714836287453759 0.24501057505280541 0 0.20671535360489809 0.2223281702794081 0 0.20671535360489809 0.2223281702794081 0 0.2152392865597591 0.2057882234062304 0 0.2197830005032983 0.2174447757979433 0 0.20671535360489809 0.2223281702794081 0 0.2152392865597591 0.2057882234062304 0 0.19628234433525879 0.19964576550601079 0 0.17975603501013809 0.20692315446353601 0 0.18916958897112091 0.2175768757455819 0 0.19628234433525879 0.19964576550601079 0 0.17975603501013809 0.20692315446353601 0 0.19628234433525879 0.19964576550601079 0 0.20671535360489809 0.2223281702794081 0 0.18916958897112091 0.2175768757455819 0 0.19628234433525879 0.19964576550601079 0 0.20671535360489809 0.2223281702794081 0 0.19628234433525879 0.19964576550601079 0 0.18055638558177911 0.19305629781419989 0 0.19628234433525879 0.19964576550601079 0 0.1920037211624758 0.19034361114482179 0 0.19628234433525879 0.19964576550601079 0 0.1920037211624758 0.19034361114482179 0 0.19628234433525879 0.19964576550601079 0 0.19846981855184989 0.19012444396554351 0 0.20674494939704899 0.1891975022477366 0 0.19628234433525879 0.19964576550601079 0 0.1920037211624758 0.19034361114482179 0 0.19846981855184989 0.19012444396554351 0 0.2152392865597591 0.2057882234062304 0 0.19628234433525879 0.19964576550601079 0 0.22088405788765009 0.18881235829934501 0 0.19628234433525879 0.19964576550601079 0 0.20674494939704899 0.1891975022477366 0 0.22088405788765009 0.18881235829934501 0 0.19628234433525879 0.19964576550601079 0 0.22088405788765009 0.18881235829934501 0 0.2152392865597591 0.2057882234062304 0 0.22088405788765009 0.18881235829934501 0 0.22472945218583429 0.1996866948119754 0 0.22676382252441471 0.193023279688262 0 0.24935432255528769 0.19693943608502659 0 0.22305426693213931 0.18264597528567081 0 0.22088405788765009 0.18881235829934501 0 0.22676382252441471 0.193023279688262 0 0.22305426693213931 0.18264597528567081 0 0.22088405788765009 0.18881235829934501 0 0.22472945218583429 0.1996866948119754 0 0.22676382252441471 0.193023279688262 0 0.22472945218583429 0.1996866948119754 0 0.23538004815044489 0.19995083502768701 0 0.23174675686515719 0.20520605457250241 0 0.22472945218583429 0.1996866948119754 0 0.22676382252441471 0.193023279688262 0 0.23538004815044489 0.19995083502768701 0 0.22676382252441471 0.193023279688262 0 0.24935432255528769 0.19693943608502659 0 0.23538004815044489 0.19995083502768701 0 0.24935432255528769 0.19693943608502659 0 0.22305426693213931 0.18264597528567081 0 0.24935432255528769 0.19693943608502659 0 0.22842642654455639 0.17857823203832629 0 0.24935432255528769 0.19693943608502659 0 0.2454275566270771 0.20281680800347529 0 0.23538004815044489 0.19995083502768701 0 0.2454275566270771 0.20281680800347529 0 0.23538004815044489 0.19995083502768701 0 0.23761418294559539 0.20519715383910059 0 0.2454275566270771 0.20281680800347529 0 0.23761418294559539 0.20519715383910059 0 0.24176710877166679 0.21003029919206209 0 0.23538004815044489 0.19995083502768701 0 0.23761418294559539 0.20519715383910059 0 0.23174675686515719 0.20520605457250241 0 0.23761418294559539 0.20519715383910059 0 0.235729922374877 0.21208968363769851 0 0.23174675686515719 0.20520605457250241 0 0.23761418294559539 0.20519715383910059 0 0.24176710877166679 0.21003029919206209 0 0.235729922374877 0.21208968363769851 0 0.24176710877166679 0.21003029919206209 0 0.2460729633334354 0.2086357382219938 0 0.24614915226034359 0.2116544418930518 0 0.2454275566270771 0.20281680800347529 0 0.24176710877166679 0.21003029919206209 0 0.2460729633334354 0.2086357382219938 0 0.2460729633334354 0.2086357382219938 0 0.24614915226034359 0.2116544418930518 0 0.25094803567465412 0.21004140379938599 0 0.2454275566270771 0.20281680800347529 0 0.2460729633334354 0.2086357382219938 0 0.25094803567465412 0.21004140379938599 0 0.24491667054163929 0.21571989589081669 0 0.23925277559152069 0.2178972397029123 0 0.25026085623467398 0.22245649446486629 0 0.24915236946045161 0.21535571836731099 0 0.24491667054163929 0.21571989589081669 0 0.25026085623467398 0.22245649446486629 0 0.24915236946045161 0.21535571836731099 0 0.24614915226034359 0.2116544418930518 0 0.24491667054163929 0.21571989589081669 0 0.24915236946045161 0.21535571836731099 0 0.24614915226034359 0.2116544418930518 0 0.25094803567465412 0.21004140379938599 0 0.24176710877166679 0.21003029919206209 0 0.24614915226034359 0.2116544418930518 0 0.24491667054163929 0.21571989589081669 0 0.24176710877166679 0.21003029919206209 0 0.23925277559152069 0.2178972397029123 0 0.235729922374877 0.21208968363769851 0 0.23925277559152069 0.2178972397029123 0 0.235729922374877 0.21208968363769851 0 0.23531520007212581 0.2255815059415682 0 0.24176710877166679 0.21003029919206209 0 0.24491667054163929 0.21571989589081669 0 0.23925277559152069 0.2178972397029123 0 0.235729922374877 0.21208968363769851 0 0.22680806104297921 0.2167976235817361 0 0.22528017866903419 0.20910590554605071 0 0.235729922374877 0.21208968363769851 0 0.23174675686515719 0.20520605457250241 0 0.22528017866903419 0.20910590554605071 0 0.22472945218583429 0.1996866948119754 0 0.23174675686515719 0.20520605457250241 0 0.22528017866903419 0.20910590554605071 0 0.2152392865597591 0.2057882234062304 0 0.22528017866903419 0.20910590554605071 0 0.2197830005032983 0.2174447757979433 0 0.2152392865597591 0.2057882234062304 0 0.22472945218583429 0.1996866948119754 0 0.22528017866903419 0.20910590554605071 0 0.22680806104297921 0.2167976235817361 0 0.22528017866903419 0.20910590554605071 0 0.2197830005032983 0.2174447757979433 0 0.235729922374877 0.21208968363769851 0 0.2264391426247073 0.2285501293452519 0 0.23531520007212581 0.2255815059415682 0 0.235729922374877 0.21208968363769851 0 0.2264391426247073 0.2285501293452519 0 0.235729922374877 0.21208968363769851 0 0.22680806104297921 0.2167976235817361 0 0.2264391426247073 0.2285501293452519 0 0.22680806104297921 0.2167976235817361 0 0.2197830005032983 0.2174447757979433 0 0.2264391426247073 0.2285501293452519 0 0.2264391426247073 0.2285501293452519 0 0.23531520007212581 0.2255815059415682 0 0.23228678217246229 0.23920978062111359 0 0.23925277559152069 0.2178972397029123 0 0.23531520007212581 0.2255815059415682 0 0.2423169063647706 0.23328778410659839 0 0.23925277559152069 0.2178972397029123 0 0.2423169063647706 0.23328778410659839 0 0.25649998866544099 0.24000328340968119 0 0.23925277559152069 0.2178972397029123 0 0.25649998866544099 0.24000328340968119 0 0.25026085623467398 0.22245649446486629 0 0.23925277559152069 0.2178972397029123 0 0.25649998866544099 0.24000328340968119 0 0.23531520007212581 0.2255815059415682 0 0.2423169063647706 0.23328778410659839 0 0.23228678217246229 0.23920978062111359 0 0.2423169063647706 0.23328778410659839 0 0.2438731903488971 0.2443253423721817 0 0.23228678217246229 0.23920978062111359 0 0.2423169063647706 0.23328778410659839 0 0.2438731903488971 0.2443253423721817 0 0.25649998866544099 0.24000328340968119 0 0.2438731903488971 0.2443253423721817 0 0.24924586184957531 0.25441070943284838 0 0.25649998866544099 0.24000328340968119 0 0.2438731903488971 0.2443253423721817 0 0.23474974831446649 0.24735315689870069 0 0.23631049940191359 0.25694621688910702 0 0.2438731903488971 0.2443253423721817 0 0.23474974831446649 0.24735315689870069 0 0.23228678217246229 0.23920978062111359 0 0.21714836287453759 0.24501057505280541 0 0.2264391426247073 0.2285501293452519 0 0.21714836287453759 0.24501057505280541 0 0.2264391426247073 0.2285501293452519 0 0.23228678217246229 0.23920978062111359 0 0.23474974831446649 0.24735315689870069 0 0.23228678217246229 0.23920978062111359 0 0.22616492460773091 0.25035997063068921 0 0.21714836287453759 0.24501057505280541 0 0.23228678217246229 0.23920978062111359 0 0.22616492460773091 0.25035997063068921 0 0.20716867055446689 0.14807174811064841 0 0.21191589303928851 0.13791914824419699 0 0.2018957112533977 0.13963114810098881 0 0.20716867055446689 0.14807174811064841 0 0.21742924608791961 0.15523651051699791 0 0.20749853053382489 0.16021702799162599 0 0.20716867055446689 0.14807174811064841 0 0.21742924608791961 0.15523651051699791 0 0.21696723444778501 0.14497288563118579 0 0.20716867055446689 0.14807174811064841 0 0.21696723444778501 0.14497288563118579 0 0.21191589303928851 0.13791914824419699 0 0.21696723444778501 0.14497288563118579 0 0.21191589303928851 0.13791914824419699 0 0.2224818906245746 0.137238100815638 0 0.21191589303928851 0.13791914824419699 0 0.21819794242644769 0.1275137735300382 0 0.2224818906245746 0.137238100815638 0 0.21191589303928851 0.13791914824419699 0 0.21819794242644769 0.1275137735300382 0 0.20636100074167371 0.12687076498240199 0 0.21191589303928851 0.13791914824419699 0 0.20636100074167371 0.12687076498240199 0 0.2018957112533977 0.13963114810098881 0 0.18657063452309411 0.14185582394492521 0 0.20636100074167371 0.12687076498240199 0 0.2018957112533977 0.13963114810098881 0 0.18657063452309411 0.14185582394492521 0 0.20636100074167371 0.12687076498240199 0 0.1992437006399807 0.1215027028639304 0 0.18657063452309411 0.14185582394492521 0 0.17828827792020799 0.1345892530724859 0 0.1992437006399807 0.1215027028639304 0 0.18657063452309411 0.14185582394492521 0 0.20636100074167371 0.12687076498240199 0 0.17828827792020799 0.1345892530724859 0 0.1992437006399807 0.1215027028639304 0 0.18657063452309411 0.14185582394492521 0 0.20749853053382489 0.16021702799162599 0 0.18657063452309411 0.14185582394492521 0 0.20716867055446689 0.14807174811064841 0 0.20749853053382489 0.16021702799162599 0 0.18657063452309411 0.14185582394492521 0 0.20716867055446689 0.14807174811064841 0 0.2018957112533977 0.13963114810098881 0 0.18657063452309411 0.14185582394492521 0 0.1967542113089909 0.168352514486315 0 0.20749853053382489 0.16021702799162599 0 0.17822651980266169 0.17585883084073919 0 0.1920037211624758 0.19034361114482179 0 0.1988482593126161 0.181310896963605 0 0.17822651980266169 0.17585883084073919 0 0.1967542113089909 0.168352514486315 0 0.1988482593126161 0.181310896963605 0 0.1920037211624758 0.19034361114482179 0 0.19846981855184989 0.19012444396554351 0 0.1988482593126161 0.181310896963605 0 0.19846981855184989 0.19012444396554351 0 0.20674494939704899 0.1891975022477366 0 0.1988482593126161 0.181310896963605 0 0.20674494939704899 0.1891975022477366 0 0.1988482593126161 0.181310896963605 0 0.22305426693213931 0.18264597528567081 0 0.1967542113089909 0.168352514486315 0 0.22305426693213931 0.18264597528567081 0 0.1967542113089909 0.168352514486315 0 0.1988482593126161 0.181310896963605 0 0.22305426693213931 0.18264597528567081 0 0.20674494939704899 0.1891975022477366 0 0.22088405788765009 0.18881235829934501 0 0.22305426693213931 0.18264597528567081 0 0.20749853053382489 0.16021702799162599 0 0.2133412913898218 0.16534320619023801 0 0.22305426693213931 0.18264597528567081 0 0.1967542113089909 0.168352514486315 0 0.20749853053382489 0.16021702799162599 0 0.22305426693213931 0.18264597528567081 0 0.20749853053382489 0.16021702799162599 0 0.2133412913898218 0.16534320619023801 0 0.21742924608791961 0.15523651051699791 0 0.2133412913898218 0.16534320619023801 0 0.2224576065178602 0.16104945045273811 0 0.21742924608791961 0.15523651051699791 0 0.20749853053382489 0.16021702799162599 0 0.2133412913898218 0.16534320619023801 0 0.21742924608791961 0.15523651051699791 0 0.2224576065178602 0.16104945045273811 0 0.2289071886229895 0.1572998165168763 0 0.2133412913898218 0.16534320619023801 0 0.2224576065178602 0.16104945045273811 0 0.22867759222887549 0.16454746828911351 0 0.2133412913898218 0.16534320619023801 0 0.2364846466088574 0.17298911175848919 0 0.2133412913898218 0.16534320619023801 0 0.22867759222887549 0.16454746828911351 0 0.2364846466088574 0.17298911175848919 0 0.22867759222887549 0.16454746828911351 0 0.2289071886229895 0.1572998165168763 0 0.23951595681167229 0.16220761622284149 0 0.2224576065178602 0.16104945045273811 0 0.22867759222887549 0.16454746828911351 0 0.2289071886229895 0.1572998165168763 0 0.24935432255528769 0.19693943608502659 0 0.22305426693213931 0.18264597528567081 0 0.22842642654455639 0.17857823203832629 0 0.2133412913898218 0.16534320619023801 0 0.22305426693213931 0.18264597528567081 0 0.22842642654455639 0.17857823203832629 0 0.2133412913898218 0.16534320619023801 0 0.22842642654455639 0.17857823203832629 0 0.2364846466088574 0.17298911175848919 0 0.2133412913898218 0.16534320619023801 0 0.22842642654455639 0.17857823203832629 0 0.22842642654455639 0.17857823203832629 0 0.2364846466088574 0.17298911175848919 0 0.24565130564131499 0.1834963333921539 0 0.2364846466088574 0.17298911175848919 0 0.25007349048874872 0.16739368446153899 0 0.25935905753740091 0.18094155703567161 0 0.2364846466088574 0.17298911175848919 0 0.24565130564131499 0.1834963333921539 0 0.25935905753740091 0.18094155703567161 0 0.2364846466088574 0.17298911175848919 0 0.25935905753740091 0.18094155703567161 0 0.24935432255528769 0.19693943608502659 0 0.22842642654455639 0.17857823203832629 0 0.24565130564131499 0.1834963333921539 0 0.2289071886229895 0.1572998165168763 0 0.23951595681167229 0.16220761622284149 0 0.2375694250200038 0.1506117887431333 0 0.2364846466088574 0.17298911175848919 0 0.23951595681167229 0.16220761622284149 0 0.25007349048874872 0.16739368446153899 0 0.22867759222887549 0.16454746828911351 0 0.2364846466088574 0.17298911175848919 0 0.23951595681167229 0.16220761622284149 0 0.23951595681167229 0.16220761622284149 0 0.2375694250200038 0.1506117887431333 0 0.25076961036854689 0.15660723377399119 0 0.23951595681167229 0.16220761622284149 0 0.25076961036854689 0.15660723377399119 0 0.25007349048874872 0.16739368446153899 0 0.2375694250200038 0.1506117887431333 0 0.24657939787599439 0.1393859283567242 0 0.25076961036854689 0.15660723377399119 0 0.2375694250200038 0.1506117887431333 0 0.23306909559740199 0.13878028876992629 0 0.24657939787599439 0.1393859283567242 0 0.2289071886229895 0.1572998165168763 0 0.2375694250200038 0.1506117887431333 0 0.22622138771695291 0.14747879308719239 0 0.22622138771695291 0.14747879308719239 0 0.2224818906245746 0.137238100815638 0 0.23306909559740199 0.13878028876992629 0 0.2375694250200038 0.1506117887431333 0 0.22622138771695291 0.14747879308719239 0 0.23306909559740199 0.13878028876992629 0 0.21696723444778501 0.14497288563118579 0 0.22622138771695291 0.14747879308719239 0 0.2224818906245746 0.137238100815638 0 0.21742924608791961 0.15523651051699791 0 0.21696723444778501 0.14497288563118579 0 0.22622138771695291 0.14747879308719239 0 0.21742924608791961 0.15523651051699791 0 0.2289071886229895 0.1572998165168763 0 0.22622138771695291 0.14747879308719239 0 0.21819794242644769 0.1275137735300382 0 0.2224818906245746 0.137238100815638 0 0.22851979051957169 0.12676371563128849 0 0.2224818906245746 0.137238100815638 0 0.23306909559740199 0.13878028876992629 0 0.22851979051957169 0.12676371563128849 0 0.23306909559740199 0.13878028876992629 0 0.22851979051957169 0.12676371563128849 0 0.2404627815028211 0.12927433716363471 0 0.23306909559740199 0.13878028876992629 0 0.2404627815028211 0.12927433716363471 0 0.24657939787599439 0.1393859283567242 0 0.2404627815028211 0.12927433716363471 0 0.24657939787599439 0.1393859283567242 0 0.25182276585737318 0.12923487294363301 0 0.2404627815028211 0.12927433716363471 0 0.2461092204160209 0.12279952171658361 0 0.25182276585737318 0.12923487294363301 0 0.2461092204160209 0.12279952171658361 0 0.23834718843736791 0.1161268253472411 0 0.25348076198986558 0.1105559123977594 0 0.2404627815028211 0.12927433716363471 0 0.2461092204160209 0.12279952171658361 0 0.23834718843736791 0.1161268253472411 0 0.22851979051957169 0.12676371563128849 0 0.2404627815028211 0.12927433716363471 0 0.23834718843736791 0.1161268253472411 0 0.23834718843736791 0.1161268253472411 0 0.24115454607952511 0.095329602446818137 0 0.25348076198986558 0.1105559123977594 0 0.24115454607952511 0.095329602446818137 0 0.22019912335975289 0.1084161526553743 0 0.22050215684242361 0.090791562284132515 0 0.23834718843736791 0.1161268253472411 0 0.24115454607952511 0.095329602446818137 0 0.22019912335975289 0.1084161526553743 0 0.24115454607952511 0.095329602446818137 0 0.22019912335975289 0.1084161526553743 0 0.21819794242644769 0.1275137735300382 0 0.22851979051957169 0.12676371563128849 0 0.22019912335975289 0.1084161526553743 0 0.22851979051957169 0.12676371563128849 0 0.23834718843736791 0.1161268253472411 0 0.22019912335975289 0.1084161526553743 0 0.20636100074167371 0.12687076498240199 0 0.22019912335975289 0.1084161526553743 0 0.1992437006399807 0.1215027028639304 0 0.21819794242644769 0.1275137735300382 0 0.20636100074167371 0.12687076498240199 0 0.22019912335975289 0.1084161526553743 0 0.22019912335975289 0.1084161526553743 0 0.1992437006399807 0.1215027028639304 0 0.22019912335975289 0.1084161526553743 0 0.19884018875680801 0.097736202429318339 0 0.22050215684242361 0.090791562284132515 0 0.22019912335975289 0.1084161526553743 0 0.19884018875680801 0.097736202429318339 0 0.1992437006399807 0.1215027028639304 0 0.19884018875680801 0.097736202429318339 0 0.1830227504353571 0.1120864349939152 0 0.18166427311363451 0.097649615556476443 0 0.1992437006399807 0.1215027028639304 0 0.1830227504353571 0.1120864349939152 0 0.18361350155480979 0.1218610433560799 0 0.19884018875680801 0.097736202429318339 0 0.1992437006399807 0.1215027028639304 0 0.1830227504353571 0.1120864349939152 0 0.20263517875230849 0.057785926162421293 0 0.18266086025302269 0.058497071149588922 0 0.18373995780991539 0.077278680874224015 0 0.20868562794198239 0.076584844921125272 0 0.20263517875230849 0.057785926162421293 0 0.18373995780991539 0.077278680874224015 0 0.20868562794198239 0.076584844921125272 0 0.18373995780991539 0.077278680874224015 0 0.19884018875680801 0.097736202429318339 0 0.18166427311363451 0.097649615556476443 0 0.18373995780991539 0.077278680874224015 0 0.19884018875680801 0.097736202429318339 0 0.20868562794198239 0.076584844921125272 0 0.18373995780991539 0.077278680874224015 0 0.19884018875680801 0.097736202429318339 0 0.20868562794198239 0.076584844921125272 0 0.22050215684242361 0.090791562284132515 0 0.20868562794198239 0.076584844921125272 0 0.22030731307755211 0.063528144230232814 0 0.20263517875230849 0.057785926162421293 0 0.20868562794198239 0.076584844921125272 0 0.2336312980740495 0.07589100896802653 0 0.20868562794198239 0.076584844921125272 0 0.2336312980740495 0.07589100896802653 0 0.22030731307755211 0.063528144230232814 0 0.2336312980740495 0.07589100896802653 0 0.22030731307755211 0.063528144230232814 0 0.23361721052328191 0.058353916973313158 0 0.24115454607952511 0.095329602446818137 0 0.2336312980740495 0.07589100896802653 0 0.22050215684242361 0.090791562284132515 0 0.20868562794198239 0.076584844921125272 0 0.2336312980740495 0.07589100896802653 0 0.22050215684242361 0.090791562284132515 0 0.24115454607952511 0.095329602446818137 0 0.24628835692018061 0.082167537972379481 0 0.26210996879929749 0.082243052238262226 0 0.24115454607952511 0.095329602446818137 0 0.2336312980740495 0.07589100896802653 0 0.24628835692018061 0.082167537972379481 0 0.2336312980740495 0.07589100896802653 0 0.243269786728808 0.065271085736777687 0 0.25857696820611659 0.075197173014929092 0 0.243269786728808 0.065271085736777687 0 0.24670767730800799 0.051526191952567371 0 0.25857696820611659 0.075197173014929092 0 0.2336312980740495 0.07589100896802653 0 0.24628835692018061 0.082167537972379481 0 0.25857696820611659 0.075197173014929092 0 0.2336312980740495 0.07589100896802653 0 0.243269786728808 0.065271085736777687 0 0.23361721052328191 0.058353916973313158 0 0.2336312980740495 0.07589100896802653 0 0.25857696820611659 0.075197173014929092 0 0.243269786728808 0.065271085736777687 0 0.24670767730800799 0.051526191952567371 0 0.23361721052328191 0.058353916973313158 0 0.24670767730800799 0.051526191952567371 0 0.23207369531732869 0.04286393310848103 0 0.23361721052328191 0.058353916973313158 0 0.24670767730800799 0.051526191952567371 0 0.23483838640990221 0.027855210890204238 0 0.24670767730800799 0.051526191952567371 0 0.24688176197826031 0.035227469018283497 0 0.23483838640990221 0.027855210890204238 0 0.24670767730800799 0.051526191952567371 0 0.24688176197826031 0.035227469018283497 0 0.25357027357901851 0.039615494441644902 0 0.24670767730800799 0.051526191952567371 0 0.23207369531732869 0.04286393310848103 0 0.23483838640990221 0.027855210890204238 0 0.23207369531732869 0.04286393310848103 0 0.22774153366056901 0.033502131624914208 0 0.23483838640990221 0.027855210890204238 0 0.23207369531732869 0.04286393310848103 0 0.22774153366056901 0.033502131624914208 0 0.22421345404863349 0.03898882168967216 0 0.22774153366056901 0.033502131624914208 0 0.21908418601896321 0.032088352878624271 0 0.22421345404863349 0.03898882168967216 0 0.23207369531732869 0.04286393310848103 0 0.22421345404863349 0.03898882168967216 0 0.22296725009613841 0.049025024126277801 0 0.22421345404863349 0.03898882168967216 0 0.22296725009613841 0.049025024126277801 0 0.21070994226758771 0.039724513899187283 0 0.22030731307755211 0.063528144230232814 0 0.22296725009613841 0.049025024126277801 0 0.23361721052328191 0.058353916973313158 0 0.23207369531732869 0.04286393310848103 0 0.22296725009613841 0.049025024126277801 0 0.23361721052328191 0.058353916973313158 0 0.23665614420463971 0.0061919762364166832 0 0.24577479012298409 0.0066097637553849268 0 0.246759296357245 -0.002510635819166105 0 0.24577479012298409 0.0066097637553849268 0 0.25742416126469281 0.0073364507183336647 0 0.246759296357245 -0.002510635819166105 0 0.24577479012298409 0.0066097637553849268 0 0.24225955866535909 0.01542126388595547 0 0.25742416126469281 0.0073364507183336647 0 0.23665614420463971 0.0061919762364166832 0 0.24577479012298409 0.0066097637553849268 0 0.24225955866535909 0.01542126388595547 0 0.23665614420463971 0.0061919762364166832 0 0.24225955866535909 0.01542126388595547 0 0.2316464477780687 0.01460843698911915 0 0.24225955866535909 0.01542126388595547 0 0.2284979465080175 0.025714339557589349 0 0.25509449926346622 0.026849022887357851 0 0.24688176197826031 0.035227469018283497 0 0.23483838640990221 0.027855210890204238 0 0.25509449926346622 0.026849022887357851 0 0.2284979465080175 0.025714339557589349 0 0.25509449926346622 0.026849022887357851 0 0.23483838640990221 0.027855210890204238 0 0.2284979465080175 0.025714339557589349 0 0.25509449926346622 0.026849022887357851 0 0.22774153366056901 0.033502131624914208 0 0.23483838640990221 0.027855210890204238 0 0.2284979465080175 0.025714339557589349 0 0.22774153366056901 0.033502131624914208 0 0.21908418601896321 0.032088352878624271 0 0.2284979465080175 0.025714339557589349 0 0.2284979465080175 0.025714339557589349 0 0.2250596796598672 0.017118924022769391 0 0.215906331467591 0.017507761580573079 0 0.2284979465080175 0.025714339557589349 0 0.2250596796598672 0.017118924022769391 0 0.2316464477780687 0.01460843698911915 0 0.24225955866535909 0.01542126388595547 0 0.2284979465080175 0.025714339557589349 0 0.2316464477780687 0.01460843698911915 0 0.22558579938535231 0.0090323158126615847 0 0.21642668838111401 0.0025320231582431768 0 0.22605066663092499 -0.0066391765881388936 0 0.23665614420463971 0.0061919762364166832 0 0.22558579938535231 0.0090323158126615847 0 0.22605066663092499 -0.0066391765881388936 0 0.23665614420463971 0.0061919762364166832 0 0.2316464477780687 0.01460843698911915 0 0.22558579938535231 0.0090323158126615847 0 0.2250596796598672 0.017118924022769391 0 0.2316464477780687 0.01460843698911915 0 0.22558579938535231 0.0090323158126615847 0 0.22558579938535231 0.0090323158126615847 0 0.21642668838111401 0.0025320231582431768 0 0.215906331467591 0.017507761580573079 0 0.2250596796598672 0.017118924022769391 0 0.22558579938535231 0.0090323158126615847 0 0.215906331467591 0.017507761580573079 0 0.20536935462328429 0.0056862788303377806 0 0.21642668838111401 0.0025320231582431768 0 0.215906331467591 0.017507761580573079 0 0.20536935462328429 0.0056862788303377806 0 0.215906331467591 0.017507761580573079 0 0.2019013937525688 0.02457965622782109 0 0.21908418601896321 0.032088352878624271 0 0.2284979465080175 0.025714339557589349 0 0.2019013937525688 0.02457965622782109 0 0.2284979465080175 0.025714339557589349 0 0.2019013937525688 0.02457965622782109 0 0.2284979465080175 0.025714339557589349 0 0.215906331467591 0.017507761580573079 0 0.2019013937525688 0.02457965622782109 0 0.2019013937525688 0.02457965622782109 0 0.1857530235408775 0.031559633469889027 0 0.17530484099711999 0.023444972898052831 0 0.2019013937525688 0.02457965622782109 0 0.17530484099711999 0.023444972898052831 0 0.20536935462328429 0.0056862788303377806 0 0.18891566880757921 0.0057909682396340839 0 0.20534203690460509 -0.01076771735711169 0 0.20536935462328429 0.0056862788303377806 0 0.2019013937525688 0.02457965622782109 0 0.18891566880757921 0.0057909682396340839 0 0.2019013937525688 0.02457965622782109 0 0.18891566880757921 0.0057909682396340839 0 0.17708704701074079 0.01428691470876509 0 0.22030731307755211 0.063528144230232814 0 0.22296725009613841 0.049025024126277801 0 0.20263517875230849 0.057785926162421293 0 0.22296725009613841 0.049025024126277801 0 0.21070994226758771 0.039724513899187283 0 0.20263517875230849 0.057785926162421293 0 0.21908418601896321 0.032088352878624271 0 0.2019013937525688 0.02457965622782109 0 0.21070994226758771 0.039724513899187283 0 0.21908418601896321 0.032088352878624271 0 0.22421345404863349 0.03898882168967216 0 0.21070994226758771 0.039724513899187283 0 0.2019013937525688 0.02457965622782109 0 0.18992611025030809 0.042054836691606749 0 0.1857530235408775 0.031559633469889027 0 0.2019013937525688 0.02457965622782109 0 0.21070994226758771 0.039724513899187283 0 0.18992611025030809 0.042054836691606749 0 0.21070994226758771 0.039724513899187283 0 0.18992611025030809 0.042054836691606749 0 0.20263517875230849 0.057785926162421293 0 0.18992611025030809 0.042054836691606749 0 0.20263517875230849 0.057785926162421293 0 0.18266086025302269 0.058497071149588922 0 0.18992611025030809 0.042054836691606749 0 0.18266086025302269 0.058497071149588922 0 0.16871572198957019 0.049458834550822513 0 0.18266086025302269 0.058497071149588922 0 0.16871572198957019 0.049458834550822513 0 0.1695165363689255 0.064883037922558492 0 0.18992611025030809 0.042054836691606749 0 0.17587974916351309 0.036159068062075438 0 0.16871572198957019 0.049458834550822513 0 0.18992611025030809 0.042054836691606749 0 0.1857530235408775 0.031559633469889027 0 0.17587974916351309 0.036159068062075438 0 0.16045537247170061 0.035245968588640382 0 0.16871572198957019 0.049458834550822513 0 0.15191871952441779 0.047219415160355459 0 0.17587974916351309 0.036159068062075438 0 0.16045537247170061 0.035245968588640382 0 0.16871572198957019 0.049458834550822513 0 0.17587974916351309 0.036159068062075438 0 0.16045537247170061 0.035245968588640382 0 0.17530484099711999 0.023444972898052831 0 0.16871572198957019 0.049458834550822513 0 0.1536718541142704 0.061208086210834317 0 0.15191871952441779 0.047219415160355459 0 0.16871572198957019 0.049458834550822513 0 0.1536718541142704 0.061208086210834317 0 0.1695165363689255 0.064883037922558492 0 0.18891566880757921 0.0057909682396340839 0 0.17708704701074079 0.01428691470876509 0 0.16895049907619231 -0.002679034393242765 0 0.17708704701074079 0.01428691470876509 0 0.16895049907619231 -0.002679034393242765 0 0.2019013937525688 0.02457965622782109 0 0.17708704701074079 0.01428691470876509 0 0.17530484099711999 0.023444972898052831 0 0.1857530235408775 0.031559633469889027 0 0.17587974916351309 0.036159068062075438 0 0.17530484099711999 0.023444972898052831 0 0.17530484099711999 0.023444972898052831 0 0.14870828824167129 0.022310289568284559 0 0.17708704701074079 0.01428691470876509 0 0.17530484099711999 0.023444972898052831 0 0.16099536516314181 0.0115701389107277 0 0.17530484099711999 0.023444972898052831 0 0.16099536516314181 0.0115701389107277 0 0.14870828824167129 0.022310289568284559 0 0.16045537247170061 0.035245968588640382 0 0.17530484099711999 0.023444972898052831 0 0.14870828824167129 0.022310289568284559 0 0.17708704701074079 0.01428691470876509 0 0.16099536516314181 0.0115701389107277 0 0.16895049907619231 -0.002679034393242765 0 0.16099536516314181 0.0115701389107277 0 0.16895049907619231 -0.002679034393242765 0 0.1566002555707719 -0.007194885615248307 0 0.16099536516314181 0.0115701389107277 0 0.13968391278941569 -0.001332600437204217 0 0.1566002555707719 -0.007194885615248307 0 0.16099536516314181 0.0115701389107277 0 0.13575264869271589 0.013711668820296591 0 0.13968391278941569 -0.001332600437204217 0 0.14870828824167129 0.022310289568284559 0 0.14242082582636559 0.038373443072391357 0 0.13187984920416429 0.031323327930024139 0 0.16099536516314181 0.0115701389107277 0 0.14870828824167129 0.022310289568284559 0 0.13575264869271589 0.013711668820296591 0 0.1221117354862226 0.0211756062385163 0 0.14870828824167129 0.022310289568284559 0 0.1221117354862226 0.0211756062385163 0 0.14870828824167129 0.022310289568284559 0 0.13187984920416429 0.031323327930024139 0 0.1221117354862226 0.0211756062385163 0 0.14870828824167129 0.022310289568284559 0 0.13575264869271589 0.013711668820296591 0 0.1175995477600949 0.0093541612357724065 0 0.13575264869271589 0.013711668820296591 0 0.13968391278941569 -0.001332600437204217 0 0.1175995477600949 0.0093541612357724065 0 0.13968391278941569 -0.001332600437204217 0 0.1221117354862226 0.0211756062385163 0 0.1175995477600949 0.0093541612357724065 0 0.13575264869271589 0.013711668820296591 0 0.1536718541142704 0.061208086210834317 0 0.15191871952441779 0.047219415160355459 0 0.13659726649251169 0.054413780907292673 0 0.16045537247170061 0.035245968588640382 0 0.14870828824167129 0.022310289568284559 0 0.14242082582636559 0.038373443072391357 0 0.15191871952441779 0.047219415160355459 0 0.14242082582636559 0.038373443072391357 0 0.13659726649251169 0.054413780907292673 0 0.16045537247170061 0.035245968588640382 0 0.15191871952441779 0.047219415160355459 0 0.14242082582636559 0.038373443072391357 0 0.14242082582636559 0.038373443072391357 0 0.13187984920416429 0.031323327930024139 0 0.12648151235079791 0.041627876699407602 0 0.14242082582636559 0.038373443072391357 0 0.12648151235079791 0.041627876699407602 0 0.13659726649251169 0.054413780907292673 0 0.1196768841157642 0.03312942407152087 0 0.13187984920416429 0.031323327930024139 0 0.12648151235079791 0.041627876699407602 0 0.1184476747314175 0.056014063399916478 0 0.13659726649251169 0.054413780907292673 0 0.12616329073261071 0.067024338333600775 0 0.1184476747314175 0.056014063399916478 0 0.12648151235079791 0.041627876699407602 0 0.13659726649251169 0.054413780907292673 0 0.13659726649251169 0.054413780907292673 0 0.12616329073261071 0.067024338333600775 0 0.1396799979564424 0.072537199977319694 0 0.12616329073261071 0.067024338333600775 0 0.1396799979564424 0.072537199977319694 0 0.12547495181618501 0.082582219884395291 0 0.1536718541142704 0.061208086210834317 0 0.13659726649251169 0.054413780907292673 0 0.1396799979564424 0.072537199977319694 0 0.1536718541142704 0.061208086210834317 0 0.1396799979564424 0.072537199977319694 0 0.15879428767784859 0.077972516827322771 0 0.14143592666555779 0.090110248492711043 0 0.1648789805605296 0.095124379185528046 0 0.15879428767784859 0.077972516827322771 0 0.1396799979564424 0.072537199977319694 0 0.14143592666555779 0.090110248492711043 0 0.15879428767784859 0.077972516827322771 0 0.1396799979564424 0.072537199977319694 0 0.14143592666555779 0.090110248492711043 0 0.12547495181618501 0.082582219884395291 0 0.1189401858846638 0.099345531850481006 0 0.14143592666555779 0.090110248492711043 0 0.12547495181618501 0.082582219884395291 0 0.1189401858846638 0.099345531850481006 0 0.14143592666555779 0.090110248492711043 0 0.13715475885935269 0.1120727242666161 0 0.1189401858846638 0.099345531850481006 0 0.13715475885935269 0.1120727242666161 0 0.1107267544787164 0.1204150413650918 0 0.13853269635246351 0.13123339048505189 0 0.13715475885935269 0.1120727242666161 0 0.13715475885935269 0.1120727242666161 0 0.15080999520815561 0.1036252429199455 0 0.1588426654228681 0.1175285385747781 0 0.13853269635246351 0.13123339048505189 0 0.13715475885935269 0.1120727242666161 0 0.1553693318340402 0.12479991668275341 0 0.13715475885935269 0.1120727242666161 0 0.1553693318340402 0.12479991668275341 0 0.1588426654228681 0.1175285385747781 0 0.13715475885935269 0.1120727242666161 0 0.1553693318340402 0.12479991668275341 0 0.14143592666555779 0.090110248492711043 0 0.15080999520815561 0.1036252429199455 0 0.1648789805605296 0.095124379185528046 0 0.14143592666555779 0.090110248492711043 0 0.13715475885935269 0.1120727242666161 0 0.15080999520815561 0.1036252429199455 0 0.15080999520815561 0.1036252429199455 0 0.1648789805605296 0.095124379185528046 0 0.1682859921719573 0.1079788912189359 0 0.1648789805605296 0.095124379185528046 0 0.1682859921719573 0.1079788912189359 0 0.18166427311363451 0.097649615556476443 0 0.17828827792020799 0.1345892530724859 0 0.1588426654228681 0.1175285385747781 0 0.17389927722369289 0.11926578249398739 0 0.15080999520815561 0.1036252429199455 0 0.1682859921719573 0.1079788912189359 0 0.1588426654228681 0.1175285385747781 0 0.1682859921719573 0.1079788912189359 0 0.1588426654228681 0.1175285385747781 0 0.17389927722369289 0.11926578249398739 0 0.1682859921719573 0.1079788912189359 0 0.17389927722369289 0.11926578249398739 0 0.1830227504353571 0.1120864349939152 0 0.17389927722369289 0.11926578249398739 0 0.1830227504353571 0.1120864349939152 0 0.18361350155480979 0.1218610433560799 0 0.1682859921719573 0.1079788912189359 0 0.1830227504353571 0.1120864349939152 0 0.18166427311363451 0.097649615556476443 0 0.1648789805605296 0.095124379185528046 0 0.18166427311363451 0.097649615556476443 0 0.18373995780991539 0.077278680874224015 0 0.18266086025302269 0.058497071149588922 0 0.18373995780991539 0.077278680874224015 0 0.1695165363689255 0.064883037922558492 0 0.18373995780991539 0.077278680874224015 0 0.15879428767784859 0.077972516827322771 0 0.18373995780991539 0.077278680874224015 0 0.15879428767784859 0.077972516827322771 0 0.1695165363689255 0.064883037922558492 0 0.1536718541142704 0.061208086210834317 0 0.15879428767784859 0.077972516827322771 0 0.1695165363689255 0.064883037922558492 0 0.1648789805605296 0.095124379185528046 0 0.18373995780991539 0.077278680874224015 0 0.15879428767784859 0.077972516827322771 0 0.094712203302199982 0.4780458143900318 0 0.11519851676414369 0.48118072910952558 0 0.1061405408965682 0.45795894174876012 0 0.094712203302199982 0.4780458143900318 0 0.1078698060627518 0.5 0 0.11519851676414369 0.48118072910952558 0 0.1078698060627518 0.5 0 0.11519851676414369 0.48118072910952558 0 0.13740577142736871 0.49999999999999989 0 0.11519851676414369 0.48118072910952558 0 0.121934603102152 0.46560955878734261 0 0.1338395057733027 0.47814249583817309 0 0.11519851676414369 0.48118072910952558 0 0.121934603102152 0.46560955878734261 0 0.1061405408965682 0.45795894174876012 0 0.121934603102152 0.46560955878734261 0 0.12492092938486329 0.44442938247274849 0 0.1061405408965682 0.45795894174876012 0 0.12492092938486329 0.44442938247274849 0 0.1060823779628267 0.4385391005670361 0 0.1061405408965682 0.45795894174876012 0 0.1060823779628267 0.4385391005670361 0 0.096104700823337816 0.4484139277736981 0 0.1061405408965682 0.45795894174876012 0 0.1060823779628267 0.4385391005670361 0 0.096104700823337816 0.4484139277736981 0 0.091065819349795157 0.43696662366003702 0 0.094712203302199982 0.4780458143900318 0 0.1061405408965682 0.45795894174876012 0 0.08801622379284911 0.45770780380309389 0 0.096104700823337816 0.4484139277736981 0 0.1061405408965682 0.45795894174876012 0 0.08801622379284911 0.45770780380309389 0 0.08801622379284911 0.45770780380309389 0 0.081933819338856628 0.44560250537806878 0 0.070636912201720359 0.45414960410186872 0 0.096104700823337816 0.4484139277736981 0 0.081933819338856628 0.44560250537806878 0 0.091065819349795157 0.43696662366003702 0 0.096104700823337816 0.4484139277736981 0 0.08801622379284911 0.45770780380309389 0 0.081933819338856628 0.44560250537806878 0 0.081933819338856628 0.44560250537806878 0 0.078516363599464539 0.43408965910939012 0 0.091065819349795157 0.43696662366003702 0 0.081933819338856628 0.44560250537806878 0 0.068273170768507599 0.44007197908475398 0 0.078516363599464539 0.43408965910939012 0 0.081933819338856628 0.44560250537806878 0 0.068273170768507599 0.44007197908475398 0 0.070636912201720359 0.45414960410186872 0 0.068273170768507599 0.44007197908475398 0 0.070636912201720359 0.45414960410186872 0 0.0582498225695064 0.44693323077955621 0 0.08801622379284911 0.45770780380309389 0 0.070636912201720359 0.45414960410186872 0 0.074349518851503371 0.47287917189245982 0 0.070636912201720359 0.45414960410186872 0 0.074349518851503371 0.47287917189245982 0 0.055276226741618813 0.46217433831946741 0 0.074349518851503371 0.47287917189245982 0 0.058734710662760432 0.48305438674424828 0 0.055276226741618813 0.46217433831946741 0 0.094712203302199982 0.4780458143900318 0 0.074349518851503371 0.47287917189245982 0 0.078333840698134927 0.5 0 0.094712203302199982 0.4780458143900318 0 0.08801622379284911 0.45770780380309389 0 0.074349518851503371 0.47287917189245982 0 0.094712203302199982 0.4780458143900318 0 0.1078698060627518 0.5 0 0.078333840698134927 0.5 0 0.074349518851503371 0.47287917189245982 0 0.078333840698134927 0.5 0 0.058734710662760432 0.48305438674424828 0 0.048797875333518037 0.5 0 0.058734710662760432 0.48305438674424828 0 0.045250358135840552 0.47669310227080097 0 0.078333840698134927 0.5 0 0.048797875333518037 0.5 0 0.058734710662760432 0.48305438674424828 0 0.058734710662760432 0.48305438674424828 0 0.045250358135840552 0.47669310227080097 0 0.055276226741618813 0.46217433831946741 0 0.045250358135840552 0.47669310227080097 0 0.026218199598028111 0.47754913873587818 0 0.037224778343277372 0.46068764755441138 0 0.048797875333518037 0.5 0 0.045250358135840552 0.47669310227080097 0 0.026218199598028111 0.47754913873587818 0 0.048797875333518037 0.5 0 0.0192619099689012 0.5 0 0.026218199598028111 0.47754913873587818 0 0.0192619099689012 0.5 0 0.026218199598028111 0.47754913873587818 0 0.0021015448394762831 0.47993526466174352 0 0.026218199598028111 0.47754913873587818 0 0.0021015448394762831 0.47993526466174352 0 0.01108225669383254 0.46569995025485711 0 -0.01027405539571569 0.5 0 0.0192619099689012 0.5 0 0.0021015448394762831 0.47993526466174352 0 -0.0030437211024727639 0.4569292801411412 0 0.01222321751646497 0.4520784094830112 0 0.01471282117006794 0.43612797391779562 0 -0.0030437211024727639 0.4569292801411412 0 -0.0021281657377375911 0.43989566915210648 0 0.01471282117006794 0.43612797391779562 0 -0.0030437211024727639 0.4569292801411412 0 0.01471282117006794 0.43612797391779562 0 -0.0030437211024727639 0.4569292801411412 0 0.01222321751646497 0.4520784094830112 0 -0.0030437211024727639 0.4569292801411412 0 0.01222321751646497 0.4520784094830112 0 0.01108225669383254 0.46569995025485711 0 -0.0030437211024727639 0.4569292801411412 0 0.0021015448394762831 0.47993526466174352 0 0.01108225669383254 0.46569995025485711 0 0.01222321751646497 0.4520784094830112 0 0.01108225669383254 0.46569995025485711 0 0.023304694301932629 0.46050474122909718 0 0.026218199598028111 0.47754913873587818 0 0.023304694301932629 0.46050474122909718 0 0.037224778343277372 0.46068764755441138 0 0.026218199598028111 0.47754913873587818 0 0.01108225669383254 0.46569995025485711 0 0.023304694301932629 0.46050474122909718 0 0.01222321751646497 0.4520784094830112 0 0.023304694301932629 0.46050474122909718 0 0.027490156135402771 0.44722753882488142 0 0.023304694301932629 0.46050474122909718 0 0.027490156135402771 0.44722753882488142 0 0.037224778343277372 0.46068764755441138 0 0.027490156135402771 0.44722753882488142 0 0.033669679411598367 0.43572241843427212 0 0.01471282117006794 0.43612797391779562 0 0.01222321751646497 0.4520784094830112 0 0.027490156135402771 0.44722753882488142 0 0.01471282117006794 0.43612797391779562 0 0.01222321751646497 0.4520784094830112 0 0.027490156135402771 0.44722753882488142 0 0.027490156135402771 0.44722753882488142 0 0.044366578431372913 0.44443720517200591 0 0.037224778343277372 0.46068764755441138 0 0.027490156135402771 0.44722753882488142 0 0.044366578431372913 0.44443720517200591 0 0.033669679411598367 0.43572241843427212 0 0.045250358135840552 0.47669310227080097 0 0.037224778343277372 0.46068764755441138 0 0.055276226741618813 0.46217433831946741 0 0.044366578431372913 0.44443720517200591 0 0.037224778343277372 0.46068764755441138 0 0.055276226741618813 0.46217433831946741 0 0.070636912201720359 0.45414960410186872 0 0.055276226741618813 0.46217433831946741 0 0.0582498225695064 0.44693323077955621 0 0.044366578431372913 0.44443720517200591 0 0.0582498225695064 0.44693323077955621 0 0.053862848090510743 0.43095102279929348 0 0.068273170768507599 0.44007197908475398 0 0.0582498225695064 0.44693323077955621 0 0.053862848090510743 0.43095102279929348 0 0.044366578431372913 0.44443720517200591 0 0.055276226741618813 0.46217433831946741 0 0.0582498225695064 0.44693323077955621 0 0.044366578431372913 0.44443720517200591 0 0.053862848090510743 0.43095102279929348 0 0.045375849420795117 0.42592323728196291 0 0.053862848090510743 0.43095102279929348 0 0.064891050443789206 0.40703430854799899 0 0.067022570504086124 0.42726485013015109 0 0.04159939216313744 0.41681027156222472 0 0.045375849420795117 0.42592323728196291 0 0.064891050443789206 0.40703430854799899 0 0.053862848090510743 0.43095102279929348 0 0.064891050443789206 0.40703430854799899 0 0.053862848090510743 0.43095102279929348 0 0.045375849420795117 0.42592323728196291 0 0.064891050443789206 0.40703430854799899 0 0.04159939216313744 0.41681027156222472 0 0.044257438104729437 0.40151725891054019 0 0.064891050443789206 0.40703430854799899 0 0.032469363442609693 0.41532666769445092 0 0.02700379994155001 0.40488876630444809 0 0.044257438104729437 0.40151725891054019 0 0.04159939216313744 0.41681027156222472 0 0.032469363442609693 0.41532666769445092 0 0.044257438104729437 0.40151725891054019 0 0.04159939216313744 0.41681027156222472 0 0.032469363442609693 0.41532666769445092 0 0.03356542112164148 0.4259821137781411 0 0.04159939216313744 0.41681027156222472 0 0.032469363442609693 0.41532666769445092 0 0.032469363442609693 0.41532666769445092 0 0.044257438104729437 0.40151725891054019 0 0.044366578431372913 0.44443720517200591 0 0.045375849420795117 0.42592323728196291 0 0.033669679411598367 0.43572241843427212 0 0.04159939216313744 0.41681027156222472 0 0.045375849420795117 0.42592323728196291 0 0.03356542112164148 0.4259821137781411 0 0.045375849420795117 0.42592323728196291 0 0.03356542112164148 0.4259821137781411 0 0.033669679411598367 0.43572241843427212 0 0.032469363442609693 0.41532666769445092 0 0.03356542112164148 0.4259821137781411 0 0.01471282117006794 0.43612797391779562 0 0.032469363442609693 0.41532666769445092 0 0.01471282117006794 0.43612797391779562 0 0.032469363442609693 0.41532666769445092 0 0.01471282117006794 0.43612797391779562 0 0.01448871093619849 0.42211065866362008 0 0.03356542112164148 0.4259821137781411 0 0.033669679411598367 0.43572241843427212 0 0.01471282117006794 0.43612797391779562 0 0.032469363442609693 0.41532666769445092 0 0.0062569560340532994 0.41106722556066511 0 0.01448871093619849 0.42211065866362008 0 0.032469363442609693 0.41532666769445092 0 0.0062569560340532994 0.41106722556066511 0 0.032469363442609693 0.41532666769445092 0 0.0062569560340532994 0.41106722556066511 0 0.017121911335030611 0.40494204584850851 0 0.032469363442609693 0.41532666769445092 0 0.017121911335030611 0.40494204584850851 0 0.02700379994155001 0.40488876630444809 0 0.0062569560340532994 0.41106722556066511 0 0.0045153601692261239 0.42615740995073359 0 0.01448871093619849 0.42211065866362008 0 -0.010758393889383251 0.42494773866136148 0 0.0062569560340532994 0.41106722556066511 0 0.0045153601692261239 0.42615740995073359 0 -0.0021281657377375911 0.43989566915210648 0 0.0045153601692261239 0.42615740995073359 0 0.01471282117006794 0.43612797391779562 0 0.0045153601692261239 0.42615740995073359 0 0.01471282117006794 0.43612797391779562 0 0.01448871093619849 0.42211065866362008 0 -0.00087981957629810256 0.37004617894156078 0 -0.0038456699322450831 0.38865536975632942 0 0.011768988736328499 0.38126337763943952 0 -0.0038456699322450831 0.38865536975632942 0 0.011768988736328499 0.38126337763943952 0 0.02020588408624183 0.39508631433343588 0 -0.0038456699322450831 0.38865536975632942 0 0.0051179241548920951 0.39933249235822299 0 0.02020588408624183 0.39508631433343588 0 -0.0038456699322450831 0.38865536975632942 0 0.02020588408624183 0.39508631433343588 0 0.0062569560340532994 0.41106722556066511 0 0.0051179241548920951 0.39933249235822299 0 0.017121911335030611 0.40494204584850851 0 0.0051179241548920951 0.39933249235822299 0 0.02020588408624183 0.39508631433343588 0 0.017121911335030611 0.40494204584850851 0 0.02020588408624183 0.39508631433343588 0 0.02700379994155001 0.40488876630444809 0 0.044257438104729437 0.40151725891054019 0 0.02020588408624183 0.39508631433343588 0 0.017121911335030611 0.40494204584850851 0 0.02700379994155001 0.40488876630444809 0 0.011768988736328499 0.38126337763943952 0 0.036659939510540633 0.38181921096920313 0 0.02195090609193304 0.36831395755289459 0 0.011768988736328499 0.38126337763943952 0 0.02020588408624183 0.39508631433343588 0 0.036659939510540633 0.38181921096920313 0 0.036659939510540633 0.38181921096920313 0 0.044257438104729437 0.40151725891054019 0 0.057639492707952662 0.38584054598823853 0 0.02020588408624183 0.39508631433343588 0 0.036659939510540633 0.38181921096920313 0 0.044257438104729437 0.40151725891054019 0 0.02020588408624183 0.39508631433343588 0 0.044257438104729437 0.40151725891054019 0 0.044257438104729437 0.40151725891054019 0 0.057639492707952662 0.38584054598823853 0 0.044257438104729437 0.40151725891054019 0 0.064891050443789206 0.40703430854799899 0 0.044257438104729437 0.40151725891054019 0 0.057639492707952662 0.38584054598823853 0 0.064891050443789206 0.40703430854799899 0 0.036659939510540633 0.38181921096920313 0 0.057639492707952662 0.38584054598823853 0 0.051819697924249328 0.36732262263658139 0 0.057639492707952662 0.38584054598823853 0 0.071021547311180155 0.37016383306594047 0 0.057639492707952662 0.38584054598823853 0 0.075481067410671621 0.38406788105603251 0 0.071021547311180155 0.37016383306594047 0 0.075481067410671621 0.38406788105603251 0 0.087833080319522402 0.37848025756055609 0 0.08486176860829138 0.39217561198248418 0 0.08486176860829138 0.39217561198248418 0 0.095639164740084576 0.38445716806686958 0 0.095115306777065492 0.39523062707628598 0 0.087833080319522402 0.37848025756055609 0 0.08486176860829138 0.39217561198248418 0 0.095639164740084576 0.38445716806686958 0 0.087833080319522402 0.37848025756055609 0 0.095639164740084576 0.38445716806686958 0 0.097112316461010095 0.37059917313332852 0 0.075481067410671621 0.38406788105603251 0 0.08486176860829138 0.39217561198248418 0 0.076697568730004967 0.40205267544905299 0 0.08882797701860784 0.40044404351243429 0 0.095115306777065492 0.39523062707628598 0 0.094899024592770512 0.40385162676505759 0 0.08882797701860784 0.40044404351243429 0 0.090125380899319402 0.4068014501658887 0 0.094899024592770512 0.40385162676505759 0 0.08882797701860784 0.40044404351243429 0 0.08486176860829138 0.39217561198248418 0 0.095115306777065492 0.39523062707628598 0 0.08882797701860784 0.40044404351243429 0 0.08486176860829138 0.39217561198248418 0 0.076697568730004967 0.40205267544905299 0 0.08882797701860784 0.40044404351243429 0 0.076697568730004967 0.40205267544905299 0 0.090125380899319402 0.4068014501658887 0 0.057639492707952662 0.38584054598823853 0 0.075481067410671621 0.38406788105603251 0 0.064891050443789206 0.40703430854799899 0 0.075481067410671621 0.38406788105603251 0 0.064891050443789206 0.40703430854799899 0 0.075481067410671621 0.38406788105603251 0 0.076697568730004967 0.40205267544905299 0 0.064891050443789206 0.40703430854799899 0 0.064891050443789206 0.40703430854799899 0 0.067022570504086124 0.42726485013015109 0 0.076647942817414244 0.42230080988615493 0 0.064891050443789206 0.40703430854799899 0 0.076647942817414244 0.42230080988615493 0 0.082591516604322318 0.41814788359060812 0 0.068273170768507599 0.44007197908475398 0 0.053862848090510743 0.43095102279929348 0 0.067022570504086124 0.42726485013015109 0 0.067022570504086124 0.42726485013015109 0 0.076647942817414244 0.42230080988615493 0 0.078516363599464539 0.43408965910939012 0 0.068273170768507599 0.44007197908475398 0 0.067022570504086124 0.42726485013015109 0 0.078516363599464539 0.43408965910939012 0 0.078516363599464539 0.43408965910939012 0 0.08695227269864915 0.42619232189922629 0 0.091065819349795157 0.43696662366003702 0 0.076647942817414244 0.42230080988615493 0 0.078516363599464539 0.43408965910939012 0 0.08695227269864915 0.42619232189922629 0 0.076647942817414244 0.42230080988615493 0 0.08695227269864915 0.42619232189922629 0 0.082591516604322318 0.41814788359060812 0 0.08695227269864915 0.42619232189922629 0 0.090528131215433072 0.42116106266262582 0 0.098306245686814855 0.42661645627698652 0 0.08695227269864915 0.42619232189922629 0 0.091065819349795157 0.43696662366003702 0 0.098306245686814855 0.42661645627698652 0 0.076697568730004967 0.40205267544905299 0 0.064891050443789206 0.40703430854799899 0 0.0933976791369589 0.41465645841262161 0 0.064891050443789206 0.40703430854799899 0 0.0933976791369589 0.41465645841262161 0 0.064891050443789206 0.40703430854799899 0 0.082591516604322318 0.41814788359060812 0 0.0933976791369589 0.41465645841262161 0 0.076697568730004967 0.40205267544905299 0 0.0933976791369589 0.41465645841262161 0 0.090125380899319402 0.4068014501658887 0 0.08695227269864915 0.42619232189922629 0 0.082591516604322318 0.41814788359060812 0 0.090528131215433072 0.42116106266262582 0 0.082591516604322318 0.41814788359060812 0 0.0933976791369589 0.41465645841262161 0 0.090528131215433072 0.42116106266262582 0 0.0933976791369589 0.41465645841262161 0 0.090125380899319402 0.4068014501658887 0 0.09647189007991816 0.41297344267761232 0 0.090125380899319402 0.4068014501658887 0 0.09647189007991816 0.41297344267761232 0 0.094899024592770512 0.40385162676505759 0 0.09647189007991816 0.41297344267761232 0 0.1010528579266461 0.40355565540263177 0 0.094899024592770512 0.40385162676505759 0 0.0933976791369589 0.41465645841262161 0 0.1219043078301292 0.42227860827724262 0 0.0933976791369589 0.41465645841262161 0 0.09647189007991816 0.41297344267761232 0 0.1219043078301292 0.42227860827724262 0 0.0933976791369589 0.41465645841262161 0 0.098306245686814855 0.42661645627698652 0 0.1219043078301292 0.42227860827724262 0 0.0933976791369589 0.41465645841262161 0 0.090528131215433072 0.42116106266262582 0 0.098306245686814855 0.42661645627698652 0 0.1060823779628267 0.4385391005670361 0 0.098306245686814855 0.42661645627698652 0 0.1219043078301292 0.42227860827724262 0 0.1060823779628267 0.4385391005670361 0 0.091065819349795157 0.43696662366003702 0 0.098306245686814855 0.42661645627698652 0 0.12492092938486329 0.44442938247274849 0 0.1060823779628267 0.4385391005670361 0 0.1219043078301292 0.42227860827724262 0 0.09647189007991816 0.41297344267761232 0 0.1219043078301292 0.42227860827724262 0 0.1190569495839222 0.39894175692983752 0 0.1190569495839222 0.39894175692983752 0 0.115761552396259 0.38214441258079901 0 0.1010528579266461 0.40355565540263177 0 0.1190569495839222 0.39894175692983752 0 0.115761552396259 0.38214441258079901 0 0.12974413416520811 0.37723340166559111 0 0.115761552396259 0.38214441258079901 0 0.095639164740084576 0.38445716806686958 0 0.097112316461010095 0.37059917313332852 0 0.115761552396259 0.38214441258079901 0 0.095639164740084576 0.38445716806686958 0 0.095115306777065492 0.39523062707628598 0 0.115761552396259 0.38214441258079901 0 0.095115306777065492 0.39523062707628598 0 0.1010528579266461 0.40355565540263177 0 0.115761552396259 0.38214441258079901 0 0.1010528579266461 0.40355565540263177 0 0.09647189007991816 0.41297344267761232 0 0.1190569495839222 0.39894175692983752 0 0.1010528579266461 0.40355565540263177 0 0.09647189007991816 0.41297344267761232 0 0.1190569495839222 0.39894175692983752 0 0.095115306777065492 0.39523062707628598 0 0.1010528579266461 0.40355565540263177 0 0.094899024592770512 0.40385162676505759 0 0.10827336336815011 0.36124254367215403 0 0.096661101344437117 0.33813502607209961 0 0.086071084377554341 0.36110145356406598 0 0.10827336336815011 0.36124254367215403 0 0.1178091704133494 0.34532791259500412 0 0.096661101344437117 0.33813502607209961 0 0.10827336336815011 0.36124254367215403 0 0.097112316461010095 0.37059917313332852 0 0.086071084377554341 0.36110145356406598 0 0.115761552396259 0.38214441258079901 0 0.10827336336815011 0.36124254367215403 0 0.097112316461010095 0.37059917313332852 0 0.115761552396259 0.38214441258079901 0 0.130470246865872 0.36073316975896619 0 0.115761552396259 0.38214441258079901 0 0.10827336336815011 0.36124254367215403 0 0.130470246865872 0.36073316975896619 0 0.10827336336815011 0.36124254367215403 0 0.1178091704133494 0.34532791259500412 0 0.130470246865872 0.36073316975896619 0 0.1178091704133494 0.34532791259500412 0 0.1165642244890083 0.32860356309398259 0 0.096661101344437117 0.33813502607209961 0 0.1178091704133494 0.34532791259500412 0 0.1165642244890083 0.32860356309398259 0 0.13211628005130679 0.33298336784462518 0 0.1165642244890083 0.32860356309398259 0 0.10725111831131991 0.31516859858013302 0 0.13332030784944099 0.30618268093978013 0 0.1165642244890083 0.32860356309398259 0 0.10725111831131991 0.31516859858013302 0 0.096661101344437117 0.33813502607209961 0 0.10725111831131991 0.31516859858013302 0 0.096661101344437117 0.33813502607209961 0 0.083224867590868737 0.31468210130402469 0 0.10725111831131991 0.31516859858013302 0 0.096661101344437117 0.33813502607209961 0 0.096661101344437117 0.33813502607209961 0 0.07597424335929559 0.33111589414587539 0 0.080661787287451714 0.34468239258271399 0 0.096661101344437117 0.33813502607209961 0 0.083224867590868737 0.31468210130402469 0 0.07597424335929559 0.33111589414587539 0 0.083224867590868737 0.31468210130402469 0 0.07597424335929559 0.33111589414587539 0 0.059514592965360741 0.32316425985506708 0 0.083224867590868737 0.31468210130402469 0 0.059514592965360741 0.32316425985506708 0 0.063782691452085136 0.30639840853764622 0 0.07597424335929559 0.33111589414587539 0 0.06478019181332767 0.33979874744210242 0 0.080661787287451714 0.34468239258271399 0 0.07597424335929559 0.33111589414587539 0 0.06478019181332767 0.33979874744210242 0 0.059514592965360741 0.32316425985506708 0 0.06478019181332767 0.33979874744210242 0 0.065179557391164378 0.35550843706964658 0 0.080661787287451714 0.34468239258271399 0 0.065179557391164378 0.35550843706964658 0 0.080661787287451714 0.34468239258271399 0 0.086071084377554341 0.36110145356406598 0 0.096661101344437117 0.33813502607209961 0 0.080661787287451714 0.34468239258271399 0 0.086071084377554341 0.36110145356406598 0 0.096661101344437117 0.33813502607209961 0 0.086071084377554341 0.36110145356406598 0 0.075481067410671621 0.38406788105603251 0 0.087833080319522402 0.37848025756055609 0 0.086071084377554341 0.36110145356406598 0 0.087833080319522402 0.37848025756055609 0 0.097112316461010095 0.37059917313332852 0 0.086071084377554341 0.36110145356406598 0 0.075481067410671621 0.38406788105603251 0 0.086071084377554341 0.36110145356406598 0 0.065179557391164378 0.35550843706964658 0 0.086071084377554341 0.36110145356406598 0 0.071021547311180155 0.37016383306594047 0 0.075481067410671621 0.38406788105603251 0 0.086071084377554341 0.36110145356406598 0 0.071021547311180155 0.37016383306594047 0 0.065179557391164378 0.35550843706964658 0 0.071021547311180155 0.37016383306594047 0 0.051819697924249328 0.36732262263658139 0 0.057639492707952662 0.38584054598823853 0 0.071021547311180155 0.37016383306594047 0 0.051819697924249328 0.36732262263658139 0 0.065179557391164378 0.35550843706964658 0 0.051819697924249328 0.36732262263658139 0 0.049838358168664013 0.34387188034770361 0 0.06478019181332767 0.33979874744210242 0 0.065179557391164378 0.35550843706964658 0 0.049838358168664013 0.34387188034770361 0 0.051819697924249328 0.36732262263658139 0 0.049838358168664013 0.34387188034770361 0 0.035296009355446328 0.35376563031759239 0 0.051819697924249328 0.36732262263658139 0 0.035296009355446328 0.35376563031759239 0 0.036925423150432873 0.36796838548469379 0 0.036659939510540633 0.38181921096920313 0 0.051819697924249328 0.36732262263658139 0 0.036925423150432873 0.36796838548469379 0 0.035296009355446328 0.35376563031759239 0 0.036925423150432873 0.36796838548469379 0 0.02195090609193304 0.36831395755289459 0 0.036659939510540633 0.38181921096920313 0 0.036925423150432873 0.36796838548469379 0 0.02195090609193304 0.36831395755289459 0 0.035296009355446328 0.35376563031759239 0 0.01506475588466639 0.35387845252856293 0 0.01961883978161183 0.33791049060672518 0 0.035296009355446328 0.35376563031759239 0 0.02195090609193304 0.36831395755289459 0 0.01506475588466639 0.35387845252856293 0 -0.00087981957629810256 0.37004617894156078 0 0.01506475588466639 0.35387845252856293 0 0.0002001884757462532 0.34890758167539238 0 0.01506475588466639 0.35387845252856293 0 0.0002001884757462532 0.34890758167539238 0 0.01961883978161183 0.33791049060672518 0 -0.00087981957629810256 0.37004617894156078 0 0.02195090609193304 0.36831395755289459 0 0.01506475588466639 0.35387845252856293 0 -0.00087981957629810256 0.37004617894156078 0 0.011768988736328499 0.38126337763943952 0 0.02195090609193304 0.36831395755289459 0 0.0012801965277906089 0.32776898440922392 0 0.002360204579834125 0.30663038714305529 0 0.012945225336225901 0.31966147757224872 0 0.0012801965277906089 0.32776898440922392 0 0.002360204579834125 0.30663038714305529 0 0.012945225336225901 0.31966147757224872 0 0.0012801965277906089 0.32776898440922392 0 0.01961883978161183 0.33791049060672518 0 0.0002001884757462532 0.34890758167539238 0 0.0012801965277906089 0.32776898440922392 0 0.0002001884757462532 0.34890758167539238 0 0.0012801965277906089 0.32776898440922392 0 0.01961883978161183 0.33791049060672518 0 0.01961883978161183 0.33791049060672518 0 0.026280143587429791 0.32517951026540981 0 0.040866506798854813 0.32923453645108808 0 0.026280143587429791 0.32517951026540981 0 0.043965425914658782 0.30866210867470928 0 0.02336153268238415 0.31032397461410788 0 0.012945225336225901 0.31966147757224872 0 0.01961883978161183 0.33791049060672518 0 0.026280143587429791 0.32517951026540981 0 0.012945225336225901 0.31966147757224872 0 0.026280143587429791 0.32517951026540981 0 0.02336153268238415 0.31032397461410788 0 0.026280143587429791 0.32517951026540981 0 0.040866506798854813 0.32923453645108808 0 0.043965425914658782 0.30866210867470928 0 0.035296009355446328 0.35376563031759239 0 0.01961883978161183 0.33791049060672518 0 0.040866506798854813 0.32923453645108808 0 0.049838358168664013 0.34387188034770361 0 0.035296009355446328 0.35376563031759239 0 0.040866506798854813 0.32923453645108808 0 0.049838358168664013 0.34387188034770361 0 0.040866506798854813 0.32923453645108808 0 0.059514592965360741 0.32316425985506708 0 0.06478019181332767 0.33979874744210242 0 0.049838358168664013 0.34387188034770361 0 0.059514592965360741 0.32316425985506708 0 0.059514592965360741 0.32316425985506708 0 0.043965425914658782 0.30866210867470928 0 0.063782691452085136 0.30639840853764622 0 0.040866506798854813 0.32923453645108808 0 0.059514592965360741 0.32316425985506708 0 0.043965425914658782 0.30866210867470928 0 0.06080298650476032 0.2900179104773471 0 0.043965425914658782 0.30866210867470928 0 0.063782691452085136 0.30639840853764622 0 0.06080298650476032 0.2900179104773471 0 0.044526397714357367 0.28784175365976289 0 0.058278987705904207 0.26709009886207707 0 0.06080298650476032 0.2900179104773471 0 0.044526397714357367 0.28784175365976289 0 0.043965425914658782 0.30866210867470928 0 0.044526397714357367 0.28784175365976289 0 0.032297231200322733 0.29764506587282208 0 0.030318194050874259 0.28424821995646232 0 0.044526397714357367 0.28784175365976289 0 0.030318194050874259 0.28424821995646232 0 0.039657769829346552 0.27317030701641748 0 0.044526397714357367 0.28784175365976289 0 0.043965425914658782 0.30866210867470928 0 0.032297231200322733 0.29764506587282208 0 0.043965425914658782 0.30866210867470928 0 0.032297231200322733 0.29764506587282208 0 0.02336153268238415 0.31032397461410788 0 0.032297231200322733 0.29764506587282208 0 0.02336153268238415 0.31032397461410788 0 0.017829126939640321 0.29517085919307429 0 0.032297231200322733 0.29764506587282208 0 0.030318194050874259 0.28424821995646232 0 0.017829126939640321 0.29517085919307429 0 0.030318194050874259 0.28424821995646232 0 0.017829126939640321 0.29517085919307429 0 0.014767629400767 0.28140051010841938 0 0.017829126939640321 0.29517085919307429 0 0.014767629400767 0.28140051010841938 0 0.0032397524786903281 0.28941532214885041 0 0.014767629400767 0.28140051010841938 0 0.0032397524786903281 0.28941532214885041 0 0.00036586918226188788 0.27564353025539912 0 0.012945225336225901 0.31966147757224872 0 0.02336153268238415 0.31032397461410788 0 0.002360204579834125 0.30663038714305529 0 0.017829126939640321 0.29517085919307429 0 0.0032397524786903281 0.28941532214885041 0 0.002360204579834125 0.30663038714305529 0 0.02336153268238415 0.31032397461410788 0 0.017829126939640321 0.29517085919307429 0 0.002360204579834125 0.30663038714305529 0 0.0032397524786903281 0.28941532214885041 0 0.002360204579834125 0.30663038714305529 0 -0.0049333884333196774 0.298222658037266 0 0.0032397524786903281 0.28941532214885041 0 0.002360204579834125 0.30663038714305529 0 0.02336153268238415 0.31032397461410788 0 0.002360204579834125 0.30663038714305529 0 0.0041589756708292538 0.26017081773150558 0 0.01350306597380126 0.26799647246087538 0 0.02186299581578972 0.25674704960299283 0 0.01144972781442437 0.24492779461122019 0 0.0041589756708292538 0.26017081773150558 0 0.02186299581578972 0.25674704960299283 0 -0.0067125861305070769 0.2454977905887831 0 0.01144972781442437 0.24492779461122019 0 0.0041589756708292538 0.26017081773150558 0 0.0041589756708292538 0.26017081773150558 0 0.00036586918226188788 0.27564353025539912 0 0.01350306597380126 0.26799647246087538 0 0.014767629400767 0.28140051010841938 0 0.00036586918226188788 0.27564353025539912 0 0.01350306597380126 0.26799647246087538 0 0.014767629400767 0.28140051010841938 0 0.01350306597380126 0.26799647246087538 0 0.026077141113441751 0.27020525264116119 0 0.030318194050874259 0.28424821995646232 0 0.014767629400767 0.28140051010841938 0 0.026077141113441751 0.27020525264116119 0 0.026077141113441751 0.27020525264116119 0 0.02186299581578972 0.25674704960299283 0 0.036465713714951727 0.25729648802006788 0 0.01350306597380126 0.26799647246087538 0 0.026077141113441751 0.27020525264116119 0 0.02186299581578972 0.25674704960299283 0 0.029612041759355889 0.24435779863365781 0 0.02186299581578972 0.25674704960299283 0 0.036465713714951727 0.25729648802006788 0 0.029612041759355889 0.24435779863365781 0 0.036465713714951727 0.25729648802006788 0 0.036465713714951727 0.25729648802006788 0 0.039657769829346552 0.27317030701641748 0 0.058278987705904207 0.26709009886207707 0 0.026077141113441751 0.27020525264116119 0 0.036465713714951727 0.25729648802006788 0 0.039657769829346552 0.27317030701641748 0 0.030318194050874259 0.28424821995646232 0 0.026077141113441751 0.27020525264116119 0 0.039657769829346552 0.27317030701641748 0 0.044526397714357367 0.28784175365976289 0 0.039657769829346552 0.27317030701641748 0 0.058278987705904207 0.26709009886207707 0 0.053555423586063432 0.2436063728312057 0 0.036465713714951727 0.25729648802006788 0 0.058278987705904207 0.26709009886207707 0 0.053555423586063432 0.2436063728312057 0 0.077498805412770863 0.2428549470287534 0 0.058278987705904207 0.26709009886207707 0 0.077498805412770863 0.2428549470287534 0 0.058278987705904207 0.26709009886207707 0 0.08017397845893158 0.26329946016589001 0 0.093683841314688002 0.24820175738892189 0 0.077498805412770863 0.2428549470287534 0 0.08017397845893158 0.26329946016589001 0 0.093683841314688002 0.24820175738892189 0 0.08017397845893158 0.26329946016589001 0 0.093622015938068237 0.26210029311057498 0 0.08017397845893158 0.26329946016589001 0 0.073241997869302009 0.27813098128297692 0 0.095118932837533227 0.2755552797328934 0 0.08017397845893158 0.26329946016589001 0 0.093622015938068237 0.26210029311057498 0 0.095118932837533227 0.2755552797328934 0 0.06080298650476032 0.2900179104773471 0 0.058278987705904207 0.26709009886207707 0 0.073241997869302009 0.27813098128297692 0 0.058278987705904207 0.26709009886207707 0 0.08017397845893158 0.26329946016589001 0 0.073241997869302009 0.27813098128297692 0 0.06080298650476032 0.2900179104773471 0 0.063782691452085136 0.30639840853764622 0 0.081912308890857155 0.29240117500976498 0 0.06080298650476032 0.2900179104773471 0 0.073241997869302009 0.27813098128297692 0 0.081912308890857155 0.29240117500976498 0 0.083224867590868737 0.31468210130402469 0 0.063782691452085136 0.30639840853764622 0 0.081912308890857155 0.29240117500976498 0 0.083224867590868737 0.31468210130402469 0 0.081912308890857155 0.29240117500976498 0 0.098618735647141131 0.29534426347027332 0 0.073241997869302009 0.27813098128297692 0 0.081912308890857155 0.29240117500976498 0 0.095118932837533227 0.2755552797328934 0 0.081912308890857155 0.29240117500976498 0 0.098618735647141131 0.29534426347027332 0 0.095118932837533227 0.2755552797328934 0 0.098618735647141131 0.29534426347027332 0 0.095118932837533227 0.2755552797328934 0 0.1092598898568034 0.28082151720367438 0 0.098618735647141131 0.29534426347027332 0 0.1143851686734019 0.29605169421661892 0 0.1092598898568034 0.28082151720367438 0 0.10725111831131991 0.31516859858013302 0 0.083224867590868737 0.31468210130402469 0 0.098618735647141131 0.29534426347027332 0 0.10725111831131991 0.31516859858013302 0 0.098618735647141131 0.29534426347027332 0 0.1143851686734019 0.29605169421661892 0 0.10725111831131991 0.31516859858013302 0 0.1143851686734019 0.29605169421661892 0 0.13332030784944099 0.30618268093978013 0 0.1143851686734019 0.29605169421661892 0 0.12232917009848469 0.28607604863620101 0 0.13332030784944099 0.30618268093978013 0 0.1143851686734019 0.29605169421661892 0 0.12232917009848469 0.28607604863620101 0 0.1092598898568034 0.28082151720367438 0 0.1195960207431393 0.27055714201146602 0 0.1055113111411201 0.26134467515459481 0 0.1092598898568034 0.28082151720367438 0 0.12232917009848469 0.28607604863620101 0 0.1195960207431393 0.27055714201146602 0 0.1092598898568034 0.28082151720367438 0 0.10625532147533789 0.23669082107842401 0 0.1173043538645356 0.25739549318977062 0 0.1055113111411201 0.26134467515459481 0 0.1173043538645356 0.25739549318977062 0 0.1286920092177225 0.25484766484105992 0 0.12696847091562841 0.26311970384770528 0 0.1195960207431393 0.27055714201146602 0 0.1173043538645356 0.25739549318977062 0 0.12696847091562841 0.26311970384770528 0 0.1195960207431393 0.27055714201146602 0 0.1173043538645356 0.25739549318977062 0 0.1055113111411201 0.26134467515459481 0 0.093683841314688002 0.24820175738892189 0 0.093622015938068237 0.26210029311057498 0 0.1055113111411201 0.26134467515459481 0 0.1055113111411201 0.26134467515459481 0 0.095118932837533227 0.2755552797328934 0 0.1092598898568034 0.28082151720367438 0 0.093622015938068237 0.26210029311057498 0 0.1055113111411201 0.26134467515459481 0 0.095118932837533227 0.2755552797328934 0 0.14699071528950219 0.27542909067037041 0 0.15609230128107801 0.29387251936076042 0 0.15847144274905689 0.26731519404752702 0 0.14699071528950219 0.27542909067037041 0 0.14448881341496189 0.26506202055740541 0 0.13452433564757521 0.27938199403493502 0 0.14699071528950219 0.27542909067037041 0 0.14448881341496189 0.26506202055740541 0 0.15847144274905689 0.26731519404752702 0 0.14737864001805551 0.25121788241116427 0 0.14448881341496189 0.26506202055740541 0 0.15847144274905689 0.26731519404752702 0 0.16085058421703699 0.24075786873429389 0 0.14737864001805551 0.25121788241116427 0 0.15847144274905689 0.26731519404752702 0 0.14737864001805551 0.25121788241116427 0 0.14448881341496189 0.26506202055740541 0 0.1357283634457094 0.25258130713008992 0 0.1357283634457094 0.25258130713008992 0 0.12696847091562841 0.26311970384770528 0 0.13452433564757521 0.27938199403493502 0 0.1357283634457094 0.25258130713008992 0 0.1286920092177225 0.25484766484105992 0 0.12696847091562841 0.26311970384770528 0 0.1296454250842034 0.24697442185427521 0 0.1357283634457094 0.25258130713008992 0 0.1286920092177225 0.25484766484105992 0 0.1195960207431393 0.27055714201146602 0 0.12696847091562841 0.26311970384770528 0 0.13452433564757521 0.27938199403493502 0 0.1357283634457094 0.25258130713008992 0 0.13452433564757521 0.27938199403493502 0 0.14448881341496189 0.26506202055740541 0 0.1357283634457094 0.25258130713008992 0 0.13452433564757521 0.27938199403493502 0 0.12232917009848469 0.28607604863620101 0 0.1195960207431393 0.27055714201146602 0 0.13452433564757521 0.27938199403493502 0 0.13452433564757521 0.27938199403493502 0 0.13332030784944099 0.30618268093978013 0 0.13452433564757521 0.27938199403493502 0 0.13332030784944099 0.30618268093978013 0 0.14329621141945961 0.29113841740749358 0 0.12232917009848469 0.28607604863620101 0 0.13452433564757521 0.27938199403493502 0 0.13332030784944099 0.30618268093978013 0 0.1546885854565459 0.3095415908729513 0 0.15609230128107801 0.29387251936076042 0 0.14601314419571629 0.3034194747473406 0 0.1546885854565459 0.3095415908729513 0 0.15609230128107801 0.29387251936076042 0 0.13332030784944099 0.30618268093978013 0 0.14601314419571629 0.3034194747473406 0 0.14302319920118309 0.31681913714738441 0 0.14601314419571629 0.3034194747473406 0 0.1546885854565459 0.3095415908729513 0 0.14302319920118309 0.31681913714738441 0 0.13332030784944099 0.30618268093978013 0 0.14601314419571629 0.3034194747473406 0 0.14329621141945961 0.29113841740749358 0 0.14699071528950219 0.27542909067037041 0 0.14329621141945961 0.29113841740749358 0 0.15609230128107801 0.29387251936076042 0 0.14699071528950219 0.27542909067037041 0 0.15609230128107801 0.29387251936076042 0 0.14699071528950219 0.27542909067037041 0 0.13452433564757521 0.27938199403493502 0 0.14329621141945961 0.29113841740749358 0 0.14601314419571629 0.3034194747473406 0 0.14329621141945961 0.29113841740749358 0 0.15609230128107801 0.29387251936076042 0 0.15609230128107801 0.29387251936076042 0 0.16206017858012359 0.2911768695793101 0 0.15847144274905689 0.26731519404752702 0 0.16206017858012359 0.2911768695793101 0 0.16102827508441969 0.30387476302947902 0 0.1781224979177902 0.29136644789337779 0 0.16206017858012359 0.2911768695793101 0 0.1781224979177902 0.29136644789337779 0 0.1702509974283862 0.27774428490250308 0 0.15609230128107801 0.29387251936076042 0 0.16206017858012359 0.2911768695793101 0 0.16102827508441969 0.30387476302947902 0 0.16458232790739771 0.3110766858441617 0 0.1781224979177902 0.29136644789337779 0 0.1546885854565459 0.3095415908729513 0 0.15609230128107801 0.29387251936076042 0 0.16102827508441969 0.30387476302947902 0 0.16102827508441969 0.30387476302947902 0 0.16458232790739771 0.3110766858441617 0 0.1781224979177902 0.29136644789337779 0 0.16102827508441969 0.30387476302947902 0 0.15988763580509849 0.31791068411530132 0 0.16102827508441969 0.30387476302947902 0 0.16458232790739771 0.3110766858441617 0 0.15988763580509849 0.31791068411530132 0 0.1546885854565459 0.3095415908729513 0 0.16102827508441969 0.30387476302947902 0 0.15988763580509849 0.31791068411530132 0 0.16102827508441969 0.30387476302947902 0 0.16458232790739771 0.3110766858441617 0 0.16206017858012359 0.2911768695793101 0 0.16102827508441969 0.30387476302947902 0 0.15609230128107801 0.29387251936076042 0 0.16102827508441969 0.30387476302947902 0 0.16458232790739771 0.3110766858441617 0 0.18133166168569859 0.30846691361596917 0 0.1781224979177902 0.29136644789337779 0 0.18133166168569859 0.30846691361596917 0 0.19327056208197829 0.28731480076158122 0 0.1781224979177902 0.29136644789337779 0 0.19166266792818379 0.27165620994259487 0 0.18133166168569859 0.30846691361596917 0 0.1781224979177902 0.29136644789337779 0 0.19327056208197829 0.28731480076158122 0 0.1781224979177902 0.29136644789337779 0 0.17973547357858599 0.27040474535056369 0 0.1702509974283862 0.27774428490250308 0 0.1781224979177902 0.29136644789337779 0 0.17973547357858599 0.27040474535056369 0 0.19166266792818379 0.27165620994259487 0 0.17973547357858599 0.27040474535056369 0 0.1702509974283862 0.27774428490250308 0 0.17444353000816201 0.2581931818276173 0 0.17973547357858599 0.27040474535056369 0 0.1893992401434304 0.25590890759110818 0 0.19166266792818379 0.27165620994259487 0 0.15609230128107801 0.29387251936076042 0 0.15847144274905689 0.26731519404752702 0 0.16206017858012359 0.2911768695793101 0 0.1702509974283862 0.27774428490250308 0 0.15847144274905689 0.26731519404752702 0 0.1702509974283862 0.27774428490250308 0 0.15847144274905689 0.26731519404752702 0 0.17444353000816201 0.2581931818276173 0 0.16085058421703699 0.24075786873429389 0 0.15847144274905689 0.26731519404752702 0 0.17444353000816201 0.2581931818276173 0 0.16085058421703699 0.24075786873429389 0 0.15847144274905689 0.26731519404752702 0 0.18618582173783979 0.23612729373750579 0 0.17444353000816201 0.2581931818276173 0 0.1893992401434304 0.25590890759110818 0 0.17973547357858599 0.27040474535056369 0 0.17444353000816201 0.2581931818276173 0 0.1893992401434304 0.25590890759110818 0 0.19166266792818379 0.27165620994259487 0 0.205209462478258 0.26616268790719327 0 0.20520283793857749 0.25194597199181179 0 0.19570194822741041 0.2454510088932618 0 0.1893992401434304 0.25590890759110818 0 0.20520283793857749 0.25194597199181179 0 0.1893992401434304 0.25590890759110818 0 0.19166266792818379 0.27165620994259487 0 0.20520283793857749 0.25194597199181179 0 0.19166266792818379 0.27165620994259487 0 0.20520283793857749 0.25194597199181179 0 0.19166266792818379 0.27165620994259487 0 0.205209462478258 0.26616268790719327 0 0.19327056208197829 0.28731480076158122 0 0.205209462478258 0.26616268790719327 0 0.19327056208197829 0.28731480076158122 0 0.205209462478258 0.26616268790719327 0 0.21119501609641311 0.27471916902773341 0 0.19327056208197829 0.28731480076158122 0 0.21119501609641311 0.27471916902773341 0 0.21720412567118549 0.26212786120649573 0 0.2243018681569614 0.27446694315485121 0 0.205209462478258 0.26616268790719327 0 0.21119501609641311 0.27471916902773341 0 0.21720412567118549 0.26212786120649573 0 0.21119501609641311 0.27471916902773341 0 0.2243018681569614 0.27446694315485121 0 0.21598906209368221 0.28352355210854541 0 0.21714836287453759 0.24501057505280541 0 0.205209462478258 0.26616268790719327 0 0.20520283793857749 0.25194597199181179 0 0.21714836287453759 0.24501057505280541 0 0.205209462478258 0.26616268790719327 0 0.21714836287453759 0.24501057505280541 0 0.205209462478258 0.26616268790719327 0 0.21720412567118549 0.26212786120649573 0 0.21714836287453759 0.24501057505280541 0 0.22616492460773091 0.25035997063068921 0 0.22431281387017379 0.26058680749564439 0 0.22431281387017379 0.26058680749564439 0 0.24199173503370719 0.26881813545601441 0 0.23631049940191359 0.25694621688910702 0 0.21720412567118549 0.26212786120649573 0 0.22431281387017379 0.26058680749564439 0 0.24199173503370719 0.26881813545601441 0 0.21720412567118549 0.26212786120649573 0 0.24199173503370719 0.26881813545601441 0 0.21714836287453759 0.24501057505280541 0 0.21720412567118549 0.26212786120649573 0 0.22431281387017379 0.26058680749564439 0 0.21714836287453759 0.24501057505280541 0 0.22431281387017379 0.26058680749564439 0 0.22616492460773091 0.25035997063068921 0 0.22431281387017379 0.26058680749564439 0 0.23631049940191359 0.25694621688910702 0 0.23474974831446649 0.24735315689870069 0 0.22616492460773091 0.25035997063068921 0 0.23631049940191359 0.25694621688910702 0 0.2243018681569614 0.27446694315485121 0 0.24199173503370719 0.26881813545601441 0 0.23284915347607099 0.28697622267944511 0 0.21720412567118549 0.26212786120649573 0 0.2243018681569614 0.27446694315485121 0 0.24199173503370719 0.26881813545601441 0 0.24199173503370719 0.26881813545601441 0 0.24555838619246181 0.28049138676962287 0 0.25784649716980201 0.27309739874842359 0 0.24199173503370719 0.26881813545601441 0 0.25784649716980201 0.27309739874842359 0 0.24199173503370719 0.26881813545601441 0 0.24555838619246181 0.28049138676962287 0 0.23284915347607099 0.28697622267944511 0 0.24199173503370719 0.26881813545601441 0 0.23284915347607099 0.28697622267944511 0 0.24199173503370719 0.26881813545601441 0 0.24924586184957531 0.25441070943284838 0 0.25784649716980201 0.27309739874842359 0 0.24199173503370719 0.26881813545601441 0 0.24924586184957531 0.25441070943284838 0 0.24199173503370719 0.26881813545601441 0 0.24924586184957531 0.25441070943284838 0 0.23631049940191359 0.25694621688910702 0 0.2438731903488971 0.2443253423721817 0 0.24924586184957531 0.25441070943284838 0 0.23631049940191359 0.25694621688910702 0 0.23683692637387779 0.2995586261044314 0 0.24954615909026809 0.29307379019460911 0 0.24124582101073619 0.31305018164079529 0 0.24954615909026809 0.29307379019460911 0 0.24124582101073619 0.31305018164079529 0 0.23683692637387779 0.2995586261044314 0 0.24954615909026809 0.29307379019460911 0 0.23284915347607099 0.28697622267944511 0 0.24555838619246181 0.28049138676962287 0 0.24954615909026809 0.29307379019460911 0 0.23284915347607099 0.28697622267944511 0 0.23284915347607099 0.28697622267944511 0 0.22093222240916199 0.29260391118973211 0 0.21598906209368221 0.28352355210854541 0 0.23284915347607099 0.28697622267944511 0 0.22093222240916199 0.29260391118973211 0 0.2237065719184359 0.30513430990287632 0 0.23284915347607099 0.28697622267944511 0 0.2237065719184359 0.30513430990287632 0 0.2243018681569614 0.27446694315485121 0 0.23284915347607099 0.28697622267944511 0 0.21598906209368221 0.28352355210854541 0 0.23683692637387779 0.2995586261044314 0 0.23284915347607099 0.28697622267944511 0 0.2237065719184359 0.30513430990287632 0 0.23683692637387779 0.2995586261044314 0 0.2237065719184359 0.30513430990287632 0 0.24124582101073619 0.31305018164079529 0 0.2237065719184359 0.30513430990287632 0 0.2292202731292006 0.31790627907617941 0 0.24124582101073619 0.31305018164079529 0 0.2237065719184359 0.30513430990287632 0 0.20221197453875159 0.30559191403069552 0 0.2145639903608009 0.32329239712630747 0 0.2237065719184359 0.30513430990287632 0 0.21118410214845909 0.29478156006806189 0 0.20221197453875159 0.30559191403069552 0 0.22093222240916199 0.29260391118973211 0 0.2237065719184359 0.30513430990287632 0 0.21118410214845909 0.29478156006806189 0 0.21119501609641311 0.27471916902773341 0 0.21598906209368221 0.28352355210854541 0 0.19327056208197829 0.28731480076158122 0 0.21598906209368221 0.28352355210854541 0 0.21118410214845909 0.29478156006806189 0 0.19327056208197829 0.28731480076158122 0 0.22093222240916199 0.29260391118973211 0 0.21598906209368221 0.28352355210854541 0 0.21118410214845909 0.29478156006806189 0 0.21118410214845909 0.29478156006806189 0 0.19327056208197829 0.28731480076158122 0 0.20221197453875159 0.30559191403069552 0 0.1781224979177902 0.29136644789337779 0 0.19166266792818379 0.27165620994259487 0 0.19327056208197829 0.28731480076158122 0 0.18133166168569859 0.30846691361596917 0 0.19327056208197829 0.28731480076158122 0 0.20221197453875159 0.30559191403069552 0 0.18133166168569859 0.30846691361596917 0 0.20221197453875159 0.30559191403069552 0 0.19464908993155711 0.31811144080715609 0 0.19464908993155711 0.31811144080715609 0 0.1984168945110322 0.3311122310201714 0 0.2145639903608009 0.32329239712630747 0 0.19464908993155711 0.31811144080715609 0 0.1984168945110322 0.3311122310201714 0 0.1835740478549881 0.32342967538610568 0 0.1974913678473858 0.33979126504553969 0 0.21403476307894531 0.33996841150891721 0 0.19070481693106109 0.34978859538309609 0 0.1974913678473858 0.33979126504553969 0 0.19070481693106109 0.34978859538309609 0 0.18680899686850469 0.33829582226997429 0 0.1984168945110322 0.3311122310201714 0 0.1974913678473858 0.33979126504553969 0 0.18680899686850469 0.33829582226997429 0 0.1984168945110322 0.3311122310201714 0 0.18680899686850469 0.33829582226997429 0 0.1835740478549881 0.32342967538610568 0 0.1984168945110322 0.3311122310201714 0 0.21403476307894531 0.33996841150891721 0 0.2145639903608009 0.32329239712630747 0 0.1984168945110322 0.3311122310201714 0 0.1974913678473858 0.33979126504553969 0 0.21403476307894531 0.33996841150891721 0 0.20221197453875159 0.30559191403069552 0 0.19464908993155711 0.31811144080715609 0 0.2145639903608009 0.32329239712630747 0 0.2237065719184359 0.30513430990287632 0 0.2145639903608009 0.32329239712630747 0 0.2237065719184359 0.30513430990287632 0 0.2145639903608009 0.32329239712630747 0 0.2292202731292006 0.31790627907617941 0 0.2145639903608009 0.32329239712630747 0 0.2292202731292006 0.31790627907617941 0 0.23736470922682951 0.33014822763473828 0 0.21403476307894531 0.33996841150891721 0 0.23736470922682951 0.33014822763473828 0 0.21403476307894531 0.33996841150891721 0 0.22860003019672459 0.34371267523538163 0 0.23736470922682951 0.33014822763473828 0 0.21403476307894531 0.33996841150891721 0 0.2145639903608009 0.32329239712630747 0 0.23736470922682951 0.33014822763473828 0 0.23736470922682951 0.33014822763473828 0 0.24954674546759109 0.34153470978815648 0 0.26069465537471359 0.32032804376055951 0 0.22860003019672459 0.34371267523538163 0 0.23736470922682951 0.33014822763473828 0 0.24954674546759109 0.34153470978815648 0 0.23736470922682951 0.33014822763473828 0 0.26069465537471359 0.32032804376055951 0 0.2292202731292006 0.31790627907617941 0 0.23736470922682951 0.33014822763473828 0 0.24124582101073619 0.31305018164079529 0 0.23736470922682951 0.33014822763473828 0 0.24124582101073619 0.31305018164079529 0 0.26069465537471359 0.32032804376055951 0 0.24528295548902029 0.36888346300206892 0 0.2319074600003509 0.35695635651053642 0 0.2345670454358412 0.3786152285576655 0 0.24528295548902029 0.36888346300206892 0 0.2319074600003509 0.35695635651053642 0 0.25449703772848981 0.35745791892868539 0 0.22860003019672459 0.34371267523538163 0 0.24954674546759109 0.34153470978815648 0 0.2319074600003509 0.35695635651053642 0 0.24954674546759109 0.34153470978815648 0 0.2319074600003509 0.35695635651053642 0 0.25449703772848981 0.35745791892868539 0 0.2319074600003509 0.35695635651053642 0 0.25449703772848981 0.35745791892868539 0 0.22860003019672459 0.34371267523538163 0 0.2319074600003509 0.35695635651053642 0 0.20931788227221201 0.35645479409238751 0 0.2319074600003509 0.35695635651053642 0 0.20931788227221201 0.35645479409238751 0 0.2319074600003509 0.35695635651053642 0 0.214431658194837 0.37224533894340528 0 0.2345670454358412 0.3786152285576655 0 0.214431658194837 0.37224533894340528 0 0.20075212653822361 0.36491275569825582 0 0.19715999348425259 0.37709197730238481 0 0.214431658194837 0.37224533894340528 0 0.20931788227221201 0.35645479409238751 0 0.20075212653822361 0.36491275569825582 0 0.2319074600003509 0.35695635651053642 0 0.214431658194837 0.37224533894340528 0 0.20931788227221201 0.35645479409238751 0 0.21403476307894531 0.33996841150891721 0 0.22860003019672459 0.34371267523538163 0 0.20931788227221201 0.35645479409238751 0 0.21403476307894531 0.33996841150891721 0 0.20931788227221201 0.35645479409238751 0 0.19070481693106109 0.34978859538309609 0 0.19070481693106109 0.34978859538309609 0 0.18672830454407291 0.35595323167424442 0 0.18680899686850469 0.33829582226997429 0 0.20931788227221201 0.35645479409238751 0 0.19070481693106109 0.34978859538309609 0 0.18672830454407291 0.35595323167424442 0 0.20931788227221201 0.35645479409238751 0 0.20075212653822361 0.36491275569825582 0 0.18672830454407291 0.35595323167424442 0 0.20931788227221201 0.35645479409238751 0 0.18672830454407291 0.35595323167424442 0 0.21403476307894531 0.33996841150891721 0 0.19070481693106109 0.34978859538309609 0 0.18672830454407291 0.35595323167424442 0 0.19715999348425259 0.37709197730238481 0 0.20075212653822361 0.36491275569825582 0 0.18672830454407291 0.35595323167424442 0 0.19715999348425259 0.37709197730238481 0 0.1894182482323257 0.37316985056887131 0 0.18672830454407291 0.35595323167424442 0 0.19715999348425259 0.37709197730238481 0 0.16422706859193029 0.37087838543428803 0 0.18672830454407291 0.35595323167424442 0 0.1894182482323257 0.37316985056887131 0 0.18167233300928939 0.36753551151446379 0 0.18226391436274961 0.37295089512072271 0 0.1894182482323257 0.37316985056887131 0 0.18167233300928939 0.36753551151446379 0 0.18672830454407291 0.35595323167424442 0 0.18167233300928939 0.36753551151446379 0 0.16422706859193029 0.37087838543428803 0 0.18672830454407291 0.35595323167424442 0 0.18167233300928939 0.36753551151446379 0 0.1761741330625827 0.37323447767881551 0 0.16422706859193029 0.37087838543428803 0 0.18167233300928939 0.36753551151446379 0 0.18226391436274961 0.37295089512072271 0 0.1761741330625827 0.37323447767881551 0 0.16422706859193029 0.37087838543428803 0 0.1568499920284587 0.35528983553395233 0 0.18672830454407291 0.35595323167424442 0 0.1761741330625827 0.37323447767881551 0 0.16422706859193029 0.37087838543428803 0 0.17003611189540949 0.37865551715873558 0 0.16422706859193029 0.37087838543428803 0 0.1568499920284587 0.35528983553395233 0 0.15561066539612961 0.37054013519161172 0 0.16940060667876089 0.34533957144800698 0 0.1568499920284587 0.35528983553395233 0 0.15836881391677909 0.33660025982462688 0 0.16940060667876089 0.34533957144800698 0 0.1568499920284587 0.35528983553395233 0 0.18672830454407291 0.35595323167424442 0 0.1568499920284587 0.35528983553395233 0 0.15836881391677909 0.33660025982462688 0 0.1568499920284587 0.35528983553395233 0 0.18672830454407291 0.35595323167424442 0 0.18672830454407291 0.35595323167424442 0 0.17565531622573549 0.33351495875920301 0 0.16940060667876089 0.34533957144800698 0 0.18672830454407291 0.35595323167424442 0 0.17565531622573549 0.33351495875920301 0 0.18672830454407291 0.35595323167424442 0 0.18680899686850469 0.33829582226997429 0 0.17565531622573549 0.33351495875920301 0 0.18680899686850469 0.33829582226997429 0 0.17565531622573549 0.33351495875920301 0 0.1835740478549881 0.32342967538610568 0 0.16458232790739771 0.3110766858441617 0 0.18133166168569859 0.30846691361596917 0 0.1835740478549881 0.32342967538610568 0 0.16458232790739771 0.3110766858441617 0 0.17565531622573549 0.33351495875920301 0 0.1835740478549881 0.32342967538610568 0 0.18133166168569859 0.30846691361596917 0 0.19464908993155711 0.31811144080715609 0 0.1835740478549881 0.32342967538610568 0 0.16458232790739771 0.3110766858441617 0 0.17565531622573549 0.33351495875920301 0 0.16493539524881831 0.3256371071219829 0 0.16458232790739771 0.3110766858441617 0 0.17565531622573549 0.33351495875920301 0 0.16493539524881831 0.3256371071219829 0 0.15988763580509849 0.31791068411530132 0 0.15836881391677909 0.33660025982462688 0 0.15988763580509849 0.31791068411530132 0 0.15836881391677909 0.33660025982462688 0 0.16458232790739771 0.3110766858441617 0 0.16493539524881831 0.3256371071219829 0 0.15988763580509849 0.31791068411530132 0 0.16458232790739771 0.3110766858441617 0 0.15988763580509849 0.31791068411530132 0 0.17565531622573549 0.33351495875920301 0 0.16493539524881831 0.3256371071219829 0 0.15836881391677909 0.33660025982462688 0 0.16940060667876089 0.34533957144800698 0 0.17565531622573549 0.33351495875920301 0 0.15836881391677909 0.33660025982462688 0 0.15836881391677909 0.33660025982462688 0 0.14517894133548481 0.33932192693713348 0 0.15072301777186481 0.3551537966906832 0 0.15988763580509849 0.31791068411530132 0 0.15836881391677909 0.33660025982462688 0 0.14517894133548481 0.33932192693713348 0 0.15988763580509849 0.31791068411530132 0 0.14517894133548481 0.33932192693713348 0 0.14340082255499739 0.32858377357857138 0 0.14517894133548481 0.33932192693713348 0 0.1532848696320151 0.32521066238514229 0 0.15988763580509849 0.31791068411530132 0 0.14517894133548481 0.33932192693713348 0 0.1532848696320151 0.32521066238514229 0 0.1546885854565459 0.3095415908729513 0 0.15988763580509849 0.31791068411530132 0 0.1532848696320151 0.32521066238514229 0 0.1546885854565459 0.3095415908729513 0 0.1532848696320151 0.32521066238514229 0 0.1546885854565459 0.3095415908729513 0 0.1532848696320151 0.32521066238514229 0 0.14302319920118309 0.31681913714738441 0 0.14340082255499739 0.32858377357857138 0 0.1532848696320151 0.32521066238514229 0 0.14302319920118309 0.31681913714738441 0 0.1165642244890083 0.32860356309398259 0 0.13332030784944099 0.30618268093978013 0 0.13211628005130679 0.33298336784462518 0 0.14340082255499739 0.32858377357857138 0 0.14302319920118309 0.31681913714738441 0 0.13211628005130679 0.33298336784462518 0 0.13332030784944099 0.30618268093978013 0 0.13211628005130679 0.33298336784462518 0 0.13332030784944099 0.30618268093978013 0 0.14302319920118309 0.31681913714738441 0 0.13211628005130679 0.33298336784462518 0 0.14340082255499739 0.32858377357857138 0 0.14517894133548481 0.33932192693713348 0 0.13211628005130679 0.33298336784462518 0 0.14517894133548481 0.33932192693713348 0 0.130470246865872 0.36073316975896619 0 0.1178091704133494 0.34532791259500412 0 0.13211628005130679 0.33298336784462518 0 0.130470246865872 0.36073316975896619 0 0.14517894133548481 0.33932192693713348 0 0.13211628005130679 0.33298336784462518 0 0.130470246865872 0.36073316975896619 0 0.130470246865872 0.36073316975896619 0 0.14285029493388821 0.36612413579685937 0 0.12974413416520811 0.37723340166559111 0 0.115761552396259 0.38214441258079901 0 0.130470246865872 0.36073316975896619 0 0.12974413416520811 0.37723340166559111 0 0.130470246865872 0.36073316975896619 0 0.14285029493388821 0.36612413579685937 0 0.15072301777186481 0.3551537966906832 0 0.14285029493388821 0.36612413579685937 0 0.15110714295142191 0.36291933463356751 0 0.15072301777186481 0.3551537966906832 0 0.14285029493388821 0.36612413579685937 0 0.15561066539612961 0.37054013519161172 0 0.14164200908792621 0.38491007118206277 0 0.14285029493388821 0.36612413579685937 0 0.15561066539612961 0.37054013519161172 0 0.15110714295142191 0.36291933463356751 0 0.1568499920284587 0.35528983553395233 0 0.15561066539612961 0.37054013519161172 0 0.1568499920284587 0.35528983553395233 0 0.15561066539612961 0.37054013519161172 0 0.15110714295142191 0.36291933463356751 0 0.1568499920284587 0.35528983553395233 0 0.15110714295142191 0.36291933463356751 0 0.15072301777186481 0.3551537966906832 0 0.14517894133548481 0.33932192693713348 0 0.130470246865872 0.36073316975896619 0 0.15072301777186481 0.3551537966906832 0 0.1568499920284587 0.35528983553395233 0 0.15836881391677909 0.33660025982462688 0 0.15072301777186481 0.3551537966906832 0 0.1568499920284587 0.35528983553395233 0 0.15072301777186481 0.3551537966906832 0 0.13814282347862039 0.40361976667843791 0 0.15485731912909881 0.40902893157843012 0 0.1586236399149635 0.387051266786203 0 0.14164200908792621 0.38491007118206277 0 0.13814282347862039 0.40361976667843791 0 0.1586236399149635 0.387051266786203 0 0.16422706859193029 0.37087838543428803 0 0.14164200908792621 0.38491007118206277 0 0.16422706859193029 0.37087838543428803 0 0.14164200908792621 0.38491007118206277 0 0.1586236399149635 0.387051266786203 0 0.16422706859193029 0.37087838543428803 0 0.15561066539612961 0.37054013519161172 0 0.14164200908792621 0.38491007118206277 0 0.1190569495839222 0.39894175692983752 0 0.14164200908792621 0.38491007118206277 0 0.12974413416520811 0.37723340166559111 0 0.14285029493388821 0.36612413579685937 0 0.14164200908792621 0.38491007118206277 0 0.12974413416520811 0.37723340166559111 0 0.1190569495839222 0.39894175692983752 0 0.14164200908792621 0.38491007118206277 0 0.13814282347862039 0.40361976667843791 0 0.1190569495839222 0.39894175692983752 0 0.14164200908792621 0.38491007118206277 0 0.1219043078301292 0.42227860827724262 0 0.13814282347862039 0.40361976667843791 0 0.13979773383841451 0.42628818967266502 0 0.1219043078301292 0.42227860827724262 0 0.1190569495839222 0.39894175692983752 0 0.13814282347862039 0.40361976667843791 0 0.12492092938486329 0.44442938247274849 0 0.1219043078301292 0.42227860827724262 0 0.13979773383841451 0.42628818967266502 0 0.13979773383841451 0.42628818967266502 0 0.1617751742647533 0.42727575948695828 0 0.14783665255212211 0.44221833807443178 0 0.13814282347862039 0.40361976667843791 0 0.13979773383841451 0.42628818967266502 0 0.15485731912909881 0.40902893157843012 0 0.13979773383841451 0.42628818967266502 0 0.15485731912909881 0.40902893157843012 0 0.1617751742647533 0.42727575948695828 0 0.15485731912909881 0.40902893157843012 0 0.1617751742647533 0.42727575948695828 0 0.17397785394477519 0.40329842337821642 0 0.1617751742647533 0.42727575948695828 0 0.18138870350743291 0.42856275547629669 0 0.17149096579303549 0.45169793364222832 0 0.1617751742647533 0.42727575948695828 0 0.18138870350743291 0.42856275547629669 0 0.17397785394477519 0.40329842337821642 0 0.18138870350743291 0.42856275547629669 0 0.17397785394477519 0.40329842337821642 0 0.19750623923051661 0.4174625635849849 0 0.17397785394477519 0.40329842337821642 0 0.1741363092206113 0.38665624439800012 0 0.18784076843566311 0.38749769681062068 0 0.17397785394477519 0.40329842337821642 0 0.18784076843566311 0.38749769681062068 0 0.191868239385318 0.40083970210453779 0 0.17397785394477519 0.40329842337821642 0 0.1586236399149635 0.387051266786203 0 0.1741363092206113 0.38665624439800012 0 0.15485731912909881 0.40902893157843012 0 0.17397785394477519 0.40329842337821642 0 0.1586236399149635 0.387051266786203 0 0.16422706859193029 0.37087838543428803 0 0.1586236399149635 0.387051266786203 0 0.17003611189540949 0.37865551715873558 0 0.1586236399149635 0.387051266786203 0 0.17003611189540949 0.37865551715873558 0 0.1741363092206113 0.38665624439800012 0 0.1761741330625827 0.37323447767881551 0 0.17003611189540949 0.37865551715873558 0 0.18039634740214441 0.3792035193963505 0 0.17003611189540949 0.37865551715873558 0 0.1741363092206113 0.38665624439800012 0 0.18039634740214441 0.3792035193963505 0 0.18226391436274961 0.37295089512072271 0 0.1761741330625827 0.37323447767881551 0 0.18039634740214441 0.3792035193963505 0 0.1741363092206113 0.38665624439800012 0 0.18039634740214441 0.3792035193963505 0 0.18784076843566311 0.38749769681062068 0 0.1894182482323257 0.37316985056887131 0 0.18226391436274961 0.37295089512072271 0 0.18039634740214441 0.3792035193963505 0 0.1894182482323257 0.37316985056887131 0 0.18039634740214441 0.3792035193963505 0 0.18784076843566311 0.38749769681062068 0 0.18784076843566311 0.38749769681062068 0 0.19715999348425259 0.37709197730238481 0 0.2073849406323782 0.3978117819346747 0 0.19715999348425259 0.37709197730238481 0 0.2073849406323782 0.3978117819346747 0 0.1894182482323257 0.37316985056887131 0 0.18784076843566311 0.38749769681062068 0 0.19715999348425259 0.37709197730238481 0 0.1894182482323257 0.37316985056887131 0 0.19715999348425259 0.37709197730238481 0 0.18784076843566311 0.38749769681062068 0 0.191868239385318 0.40083970210453779 0 0.2073849406323782 0.3978117819346747 0 0.191868239385318 0.40083970210453779 0 0.2073849406323782 0.3978117819346747 0 0.19750623923051661 0.4174625635849849 0 0.2073849406323782 0.3978117819346747 0 0.22058718394813251 0.38896067189507072 0 0.22510419828866979 0.40523475714559448 0 0.214431658194837 0.37224533894340528 0 0.19715999348425259 0.37709197730238481 0 0.22058718394813251 0.38896067189507072 0 0.19715999348425259 0.37709197730238481 0 0.22058718394813251 0.38896067189507072 0 0.19715999348425259 0.37709197730238481 0 0.2073849406323782 0.3978117819346747 0 0.22058718394813251 0.38896067189507072 0 0.214431658194837 0.37224533894340528 0 0.22058718394813251 0.38896067189507072 0 0.2345670454358412 0.3786152285576655 0 0.22058718394813251 0.38896067189507072 0 0.24401437441201251 0.40082936648775652 0 0.2345670454358412 0.3786152285576655 0 0.22058718394813251 0.38896067189507072 0 0.24401437441201251 0.40082936648775652 0 0.22058718394813251 0.38896067189507072 0 0.22510419828866979 0.40523475714559448 0 0.24401437441201251 0.40082936648775652 0 0.24401437441201251 0.40082936648775652 0 0.25117864057069422 0.38381617450715522 0 0.24401437441201251 0.40082936648775652 0 0.2345670454358412 0.3786152285576655 0 0.25117864057069422 0.38381617450715522 0 0.24528295548902029 0.36888346300206892 0 0.2345670454358412 0.3786152285576655 0 0.25117864057069422 0.38381617450715522 0 0.24050998209317609 0.43369096562285347 0 0.2359246046703222 0.42004037884350598 0 0.22783483492862969 0.4392513911992546 0 0.24050998209317609 0.43369096562285347 0 0.24655206961420481 0.42558110188360621 0 0.2359246046703222 0.42004037884350598 0 0.24050998209317609 0.43369096562285347 0 0.24655206961420481 0.42558110188360621 0 0.25003150725201562 0.43372022130883903 0 0.24050998209317609 0.43369096562285347 0 0.24534049440682701 0.44107132207723249 0 0.25003150725201562 0.43372022130883903 0 0.22510419828866979 0.40523475714559448 0 0.24401437441201251 0.40082936648775652 0 0.2359246046703222 0.42004037884350598 0 0.24655206961420481 0.42558110188360621 0 0.2359246046703222 0.42004037884350598 0 0.25133370731323168 0.41510519689569142 0 0.24401437441201251 0.40082936648775652 0 0.2359246046703222 0.42004037884350598 0 0.25133370731323168 0.41510519689569142 0 0.24401437441201251 0.40082936648775652 0 0.2359246046703222 0.42004037884350598 0 0.22510419828866979 0.40523475714559448 0 0.2359246046703222 0.42004037884350598 0 0.2176098877805038 0.41853158656696471 0 0.2359246046703222 0.42004037884350598 0 0.22783483492862969 0.4392513911992546 0 0.2176098877805038 0.41853158656696471 0 0.22783483492862969 0.4392513911992546 0 0.2359246046703222 0.42004037884350598 0 0.2176098877805038 0.41853158656696471 0 0.22783483492862969 0.4392513911992546 0 0.2104404339096291 0.43182611713459901 0 0.2176098877805038 0.41853158656696471 0 0.22783483492862969 0.4392513911992546 0 0.2104404339096291 0.43182611713459901 0 0.2176098877805038 0.41853158656696471 0 0.19750623923051661 0.4174625635849849 0 0.2073849406323782 0.3978117819346747 0 0.2176098877805038 0.41853158656696471 0 0.2073849406323782 0.3978117819346747 0 0.2176098877805038 0.41853158656696471 0 0.19750623923051661 0.4174625635849849 0 0.2073849406323782 0.3978117819346747 0 0.22510419828866979 0.40523475714559448 0 0.2176098877805038 0.41853158656696471 0 0.17397785394477519 0.40329842337821642 0 0.191868239385318 0.40083970210453779 0 0.19750623923051661 0.4174625635849849 0 0.2104404339096291 0.43182611713459901 0 0.19750623923051661 0.4174625635849849 0 0.19755394660307521 0.43965605971011412 0 0.18138870350743291 0.42856275547629669 0 0.19750623923051661 0.4174625635849849 0 0.19755394660307521 0.43965605971011412 0 0.19755394660307521 0.43965605971011412 0 0.18847826364637449 0.45963814115188828 0 0.20318263446251289 0.45454074229444552 0 0.18847826364637449 0.45963814115188828 0 0.20318263446251289 0.45454074229444552 0 0.20159235756807151 0.46896509441345058 0 0.2146136306299371 0.45816146136323072 0 0.21398855504584879 0.46955151356193431 0 0.20159235756807151 0.46896509441345058 0 0.20318263446251289 0.45454074229444552 0 0.2146136306299371 0.45816146136323072 0 0.20159235756807151 0.46896509441345058 0 0.2146136306299371 0.45816146136323072 0 0.22564947014093131 0.4602800525557878 0 0.21398855504584879 0.46955151356193431 0 0.2104404339096291 0.43182611713459901 0 0.19755394660307521 0.43965605971011412 0 0.21588977126055911 0.44510869272341658 0 0.2104404339096291 0.43182611713459901 0 0.21588977126055911 0.44510869272341658 0 0.22783483492862969 0.4392513911992546 0 0.19755394660307521 0.43965605971011412 0 0.20318263446251289 0.45454074229444552 0 0.21588977126055911 0.44510869272341658 0 0.2146136306299371 0.45816146136323072 0 0.21588977126055911 0.44510869272341658 0 0.22445936813966741 0.45118147659243218 0 0.20318263446251289 0.45454074229444552 0 0.2146136306299371 0.45816146136323072 0 0.21588977126055911 0.44510869272341658 0 0.21588977126055911 0.44510869272341658 0 0.22598645667608391 0.44364078899197051 0 0.22783483492862969 0.4392513911992546 0 0.22783483492862969 0.4392513911992546 0 0.22919978033049801 0.44201731278796857 0 0.2362101887653377 0.4414092386992331 0 0.22783483492862969 0.4392513911992546 0 0.22919978033049801 0.44201731278796857 0 0.22598645667608391 0.44364078899197051 0 0.22919978033049801 0.44201731278796857 0 0.22947877882891571 0.44694578669869939 0 0.22598645667608391 0.44364078899197051 0 0.22783483492862969 0.4392513911992546 0 0.22598645667608391 0.44364078899197051 0 0.22783483492862969 0.4392513911992546 0 0.22919978033049801 0.44201731278796857 0 0.22919978033049801 0.44201731278796857 0 0.2334928518450971 0.44610105544015172 0 0.2362101887653377 0.4414092386992331 0 0.22919978033049801 0.44201731278796857 0 0.2334928518450971 0.44610105544015172 0 0.22947877882891571 0.44694578669869939 0 0.23248890709262049 0.45213277814536262 0 0.22947877882891571 0.44694578669869939 0 0.22445936813966741 0.45118147659243218 0 0.23248890709262049 0.45213277814536262 0 0.2334928518450971 0.44610105544015172 0 0.22947877882891571 0.44694578669869939 0 0.22598645667608391 0.44364078899197051 0 0.22947877882891571 0.44694578669869939 0 0.22445936813966741 0.45118147659243218 0 0.21588977126055911 0.44510869272341658 0 0.22598645667608391 0.44364078899197051 0 0.22445936813966741 0.45118147659243218 0 0.2146136306299371 0.45816146136323072 0 0.22445936813966741 0.45118147659243218 0 0.22564947014093131 0.4602800525557878 0 0.22564947014093131 0.4602800525557878 0 0.2293546818475741 0.47117576488865659 0 0.21398855504584879 0.46955151356193431 0 0.22564947014093131 0.4602800525557878 0 0.23899167808994021 0.45947732078311032 0 0.2293546818475741 0.47117576488865659 0 0.23248890709262049 0.45213277814536262 0 0.22445936813966741 0.45118147659243218 0 0.22564947014093131 0.4602800525557878 0 0.23248890709262049 0.45213277814536262 0 0.22564947014093131 0.4602800525557878 0 0.23899167808994021 0.45947732078311032 0 0.23899167808994021 0.45947732078311032 0 0.24802348447485681 0.46912426160624832 0 0.2293546818475741 0.47117576488865659 0 0.23899167808994021 0.45947732078311032 0 0.24807532024175441 0.45072224774080721 0 0.24802348447485681 0.46912426160624832 0 0.23248890709262049 0.45213277814536262 0 0.23899167808994021 0.45947732078311032 0 0.24008660420811351 0.44800016086949462 0 0.23899167808994021 0.45947732078311032 0 0.24807532024175441 0.45072224774080721 0 0.24008660420811351 0.44800016086949462 0 0.24807532024175441 0.45072224774080721 0 0.24534049440682701 0.44107132207723249 0 0.24008660420811351 0.44800016086949462 0 0.24534049440682701 0.44107132207723249 0 0.25456350493456648 0.44099956295796272 0 0.25003150725201562 0.43372022130883903 0 0.24807532024175441 0.45072224774080721 0 0.24534049440682701 0.44107132207723249 0 0.25456350493456648 0.44099956295796272 0 0.24534049440682701 0.44107132207723249 0 0.2362101887653377 0.4414092386992331 0 0.24008660420811351 0.44800016086949462 0 0.24050998209317609 0.43369096562285347 0 0.22783483492862969 0.4392513911992546 0 0.2362101887653377 0.4414092386992331 0 0.24050998209317609 0.43369096562285347 0 0.24534049440682701 0.44107132207723249 0 0.2362101887653377 0.4414092386992331 0 0.2334928518450971 0.44610105544015172 0 0.2362101887653377 0.4414092386992331 0 0.24008660420811351 0.44800016086949462 0 0.23248890709262049 0.45213277814536262 0 0.2334928518450971 0.44610105544015172 0 0.24008660420811351 0.44800016086949462 0 0.24278266422756981 0.5 0 0.2308362113105531 0.48757906600159212 0 0.25527094133527017 0.48568755804809038 0 0.24802348447485681 0.46912426160624832 0 0.2293546818475741 0.47117576488865659 0 0.2308362113105531 0.48757906600159212 0 0.24802348447485681 0.46912426160624832 0 0.2308362113105531 0.48757906600159212 0 0.25527094133527017 0.48568755804809038 0 0.2293546818475741 0.47117576488865659 0 0.2308362113105531 0.48757906600159212 0 0.2146877750087918 0.48156031665482218 0 0.2293546818475741 0.47117576488865659 0 0.21398855504584879 0.46955151356193431 0 0.2146877750087918 0.48156031665482218 0 0.2308362113105531 0.48757906600159212 0 0.2164384410275195 0.5 0 0.2146877750087918 0.48156031665482218 0 0.24278266422756981 0.5 0 0.2308362113105531 0.48757906600159212 0 0.2164384410275195 0.5 0 0.2164384410275195 0.5 0 0.2146877750087918 0.48156031665482218 0 0.2004030465470405 0.48564396572777307 0 0.2146877750087918 0.48156031665482218 0 0.20159235756807151 0.46896509441345058 0 0.2004030465470405 0.48564396572777307 0 0.21398855504584879 0.46955151356193431 0 0.2146877750087918 0.48156031665482218 0 0.20159235756807151 0.46896509441345058 0 0.18847826364637449 0.45963814115188828 0 0.20159235756807151 0.46896509441345058 0 0.1792024413033502 0.47769441757059322 0 0.20159235756807151 0.46896509441345058 0 0.2004030465470405 0.48564396572777307 0 0.1792024413033502 0.47769441757059322 0 0.2164384410275195 0.5 0 0.2004030465470405 0.48564396572777307 0 0.19009421782746919 0.5 0 0.2004030465470405 0.48564396572777307 0 0.19009421782746919 0.5 0 0.1792024413033502 0.47769441757059322 0 0.19009421782746919 0.5 0 0.1637499946274189 0.5 0 0.1792024413033502 0.47769441757059322 0 0.1637499946274189 0.5 0 0.1792024413033502 0.47769441757059322 0 0.154448368610202 0.47584896682111411 0 0.18847826364637449 0.45963814115188828 0 0.1792024413033502 0.47769441757059322 0 0.17149096579303549 0.45169793364222832 0 0.19755394660307521 0.43965605971011412 0 0.18847826364637449 0.45963814115188828 0 0.17149096579303549 0.45169793364222832 0 0.18138870350743291 0.42856275547629669 0 0.19755394660307521 0.43965605971011412 0 0.17149096579303549 0.45169793364222832 0 0.1617751742647533 0.42727575948695828 0 0.17149096579303549 0.45169793364222832 0 0.14783665255212211 0.44221833807443178 0 0.17149096579303549 0.45169793364222832 0 0.154448368610202 0.47584896682111411 0 0.1792024413033502 0.47769441757059322 0 0.17149096579303549 0.45169793364222832 0 0.154448368610202 0.47584896682111411 0 0.17149096579303549 0.45169793364222832 0 0.14157432007055529 0.46046112360749891 0 0.154448368610202 0.47584896682111411 0 0.17149096579303549 0.45169793364222832 0 0.14157432007055529 0.46046112360749891 0 0.14783665255212211 0.44221833807443178 0 0.12492092938486329 0.44442938247274849 0 0.13979773383841451 0.42628818967266502 0 0.14783665255212211 0.44221833807443178 0 0.12492092938486329 0.44442938247274849 0 0.14157432007055529 0.46046112360749891 0 0.14783665255212211 0.44221833807443178 0 0.121934603102152 0.46560955878734261 0 0.12492092938486329 0.44442938247274849 0 0.14157432007055529 0.46046112360749891 0 0.121934603102152 0.46560955878734261 0 0.14157432007055529 0.46046112360749891 0 0.1338395057733027 0.47814249583817309 0 0.11519851676414369 0.48118072910952558 0 0.1338395057733027 0.47814249583817309 0 0.13740577142736871 0.49999999999999989 0 0.1637499946274189 0.5 0 0.13740577142736871 0.49999999999999989 0 0.154448368610202 0.47584896682111411 0 0.1338395057733027 0.47814249583817309 0 0.13740577142736871 0.49999999999999989 0 0.154448368610202 0.47584896682111411 0 0.13740577142736871 0.49999999999999989 0 0.154448368610202 0.47584896682111411 0 0.14157432007055529 0.46046112360749891 0 0.1338395057733027 0.47814249583817309 0 0.154448368610202 0.47584896682111411 0 0.35565749482017811 0.4691096696763204 0 0.34458392472975252 0.48074952450543301 0 0.35659937429105248 0.48579819718509448 0 0.35565749482017811 0.4691096696763204 0 0.34458392472975252 0.48074952450543301 0 0.33340194060155942 0.46991386140811048 0 0.35565749482017811 0.4691096696763204 0 0.33340194060155942 0.46991386140811048 0 0.34453439527492968 0.49065310022660802 0 0.35659937429105248 0.48579819718509448 0 0.36313646621206641 0.5 0 0.34458392472975252 0.48074952450543301 0 0.34453439527492968 0.49065310022660802 0 0.35659937429105248 0.48579819718509448 0 0.34453439527492968 0.49065310022660802 0 0.36313646621206641 0.5 0 0.33680550992718489 0.5 0 0.35659937429105248 0.48579819718509448 0 0.36905044244076091 0.49165249158332253 0 0.36732939593929942 0.48156814675879939 0 0.36313646621206641 0.5 0 0.36905044244076091 0.49165249158332253 0 0.37900129705842062 0.49402662384127838 0 0.35659937429105248 0.48579819718509448 0 0.36313646621206641 0.5 0 0.36905044244076091 0.49165249158332253 0 0.36905044244076091 0.49165249158332253 0 0.36732939593929942 0.48156814675879939 0 0.37900129705842062 0.49402662384127838 0 0.36732939593929942 0.48156814675879939 0 0.37773733934697717 0.48397856100248571 0 0.37900129705842062 0.49402662384127838 0 0.36732939593929942 0.48156814675879939 0 0.37900129705842062 0.49402662384127838 0 0.35565749482017811 0.4691096696763204 0 0.35659937429105248 0.48579819718509448 0 0.36732939593929942 0.48156814675879939 0 0.36732939593929942 0.48156814675879939 0 0.36918132510192869 0.47395909405753772 0 0.37692434201361041 0.47513085074703049 0 0.35565749482017811 0.4691096696763204 0 0.36918132510192869 0.47395909405753772 0 0.37471811207274758 0.46842092516576977 0 0.35565749482017811 0.4691096696763204 0 0.37471811207274758 0.46842092516576977 0 0.36732939593929942 0.48156814675879939 0 0.37692434201361041 0.47513085074703049 0 0.37773733934697717 0.48397856100248571 0 0.35565749482017811 0.4691096696763204 0 0.36732939593929942 0.48156814675879939 0 0.36918132510192869 0.47395909405753772 0 0.35565749482017811 0.4691096696763204 0 0.36732939593929942 0.48156814675879939 0 0.36918132510192869 0.47395909405753772 0 0.37471811207274758 0.46842092516576977 0 0.37692434201361041 0.47513085074703049 0 0.35565749482017811 0.4691096696763204 0 0.37188241952350898 0.45839592287978098 0 0.36307989353460279 0.44986787192074162 0 0.35565749482017811 0.4691096696763204 0 0.37471811207274758 0.46842092516576977 0 0.37188241952350898 0.45839592287978098 0 0.36307989353460279 0.44986787192074162 0 0.35171153666427307 0.44042448928011207 0 0.37063340713274329 0.42699576663325872 0 0.37188241952350898 0.45839592287978098 0 0.36307989353460279 0.44986787192074162 0 0.3816306129578409 0.44606872067474312 0 0.36307989353460279 0.44986787192074162 0 0.37063340713274329 0.42699576663325872 0 0.3816306129578409 0.44606872067474312 0 0.36307989353460279 0.44986787192074162 0 0.35171153666427307 0.44042448928011207 0 0.3419041904278981 0.45442952238661499 0 0.35565749482017811 0.4691096696763204 0 0.36307989353460279 0.44986787192074162 0 0.3419041904278981 0.45442952238661499 0 0.35565749482017811 0.4691096696763204 0 0.3419041904278981 0.45442952238661499 0 0.35565749482017811 0.4691096696763204 0 0.3419041904278981 0.45442952238661499 0 0.33340194060155942 0.46991386140811048 0 0.3419041904278981 0.45442952238661499 0 0.32845948028422373 0.45584496433231331 0 0.33340194060155942 0.46991386140811048 0 0.35171153666427307 0.44042448928011207 0 0.3419041904278981 0.45442952238661499 0 0.32815088603561809 0.43974937509690948 0 0.3419041904278981 0.45442952238661499 0 0.32845948028422373 0.45584496433231331 0 0.32815088603561809 0.43974937509690948 0 0.3419041904278981 0.45442952238661499 0 0.32815088603561809 0.43974937509690948 0 0.32845948028422373 0.45584496433231331 0 0.32815088603561809 0.43974937509690948 0 0.31947800462196257 0.45128420258777302 0 0.32815088603561809 0.43974937509690948 0 0.31947800462196257 0.45128420258777302 0 0.31531651958774209 0.44329301179649211 0 0.31947800462196257 0.45128420258777302 0 0.31531651958774209 0.44329301179649211 0 0.31190318571918779 0.45616264563272763 0 0.32044482243971928 0.46165992106644888 0 0.33340194060155942 0.46991386140811048 0 0.31114638638294068 0.47071805313990062 0 0.32845948028422373 0.45584496433231331 0 0.32044482243971928 0.46165992106644888 0 0.33340194060155942 0.46991386140811048 0 0.32845948028422373 0.45584496433231331 0 0.31947800462196257 0.45128420258777302 0 0.32044482243971928 0.46165992106644888 0 0.31947800462196257 0.45128420258777302 0 0.32044482243971928 0.46165992106644888 0 0.31190318571918779 0.45616264563272763 0 0.32044482243971928 0.46165992106644888 0 0.31114638638294068 0.47071805313990062 0 0.31190318571918779 0.45616264563272763 0 0.33340194060155942 0.46991386140811048 0 0.31114638638294068 0.47071805313990062 0 0.32448327430145979 0.47968516338899719 0 0.33340194060155942 0.46991386140811048 0 0.31114638638294068 0.47071805313990062 0 0.32448327430145979 0.47968516338899719 0 0.31114638638294068 0.47071805313990062 0 0.31067286682971312 0.47982518329936119 0 0.32448327430145979 0.47968516338899719 0 0.33340194060155942 0.46991386140811048 0 0.33473145962109202 0.4832381299263922 0 0.34458392472975252 0.48074952450543301 0 0.33340194060155942 0.46991386140811048 0 0.33473145962109202 0.4832381299263922 0 0.34453439527492968 0.49065310022660802 0 0.33680550992718489 0.5 0 0.33134963686843028 0.49413274974272831 0 0.34453439527492968 0.49065310022660802 0 0.33473145962109202 0.4832381299263922 0 0.33134963686843028 0.49413274974272831 0 0.34458392472975252 0.48074952450543301 0 0.34453439527492968 0.49065310022660802 0 0.33473145962109202 0.4832381299263922 0 0.32448327430145979 0.47968516338899719 0 0.33473145962109202 0.4832381299263922 0 0.33134963686843028 0.49413274974272831 0 0.33680550992718489 0.5 0 0.33134963686843028 0.49413274974272831 0 0.31047455364230342 0.49999999999999822 0 0.33134963686843028 0.49413274974272831 0 0.30988145120105431 0.49504636073826658 0 0.31067286682971312 0.47982518329936119 0 0.33134963686843028 0.49413274974272831 0 0.31047455364230342 0.49999999999999822 0 0.30988145120105431 0.49504636073826658 0 0.32448327430145979 0.47968516338899719 0 0.33134963686843028 0.49413274974272831 0 0.31067286682971312 0.47982518329936119 0 0.33134963686843028 0.49413274974272831 0 0.31067286682971312 0.47982518329936119 0 0.30988145120105431 0.49504636073826658 0 0.30782289153344522 0.47785310493137012 0 0.31047455364230342 0.49999999999999822 0 0.30988145120105431 0.49504636073826658 0 0.30988145120105431 0.49504636073826658 0 0.29828015937755409 0.48760431626435841 0 0.30782289153344522 0.47785310493137012 0 0.31047455364230342 0.49999999999999822 0 0.30988145120105431 0.49504636073826658 0 0.29828015937755409 0.48760431626435841 0 0.31047455364230342 0.49999999999999822 0 0.29828015937755409 0.48760431626435841 0 0.28937538862223172 0.5 0 0.30988145120105431 0.49504636073826658 0 0.31067286682971312 0.47982518329936119 0 0.29828015937755409 0.48760431626435841 0 0.30782289153344522 0.47785310493137012 0 0.29056162771308047 0.46590894351041873 0 0.30988145120105431 0.49504636073826658 0 0.30782289153344522 0.47785310493137012 0 0.31067286682971312 0.47982518329936119 0 0.30782289153344522 0.47785310493137012 0 0.29056162771308047 0.46590894351041873 0 0.31114638638294068 0.47071805313990062 0 0.31067286682971312 0.47982518329936119 0 0.31114638638294068 0.47071805313990062 0 0.30782289153344522 0.47785310493137012 0 0.31067286682971312 0.47982518329936119 0 0.31114638638294068 0.47071805313990062 0 0.30941191733607459 0.47078072718759378 0 0.31114638638294068 0.47071805313990062 0 0.30941191733607459 0.47078072718759378 0 0.30782289153344522 0.47785310493137012 0 0.30782289153344522 0.47785310493137012 0 0.31067286682971312 0.47982518329936119 0 0.29828015937755409 0.48760431626435841 0 0.28288794877133089 0.48655569604377918 0 0.29056162771308047 0.46590894351041873 0 0.28288794877133089 0.48655569604377918 0 0.27121362566016832 0.47698239104473361 0 0.29056162771308047 0.46590894351041873 0 0.29828015937755409 0.48760431626435841 0 0.28937538862223172 0.5 0 0.28288794877133089 0.48655569604377918 0 0.28937538862223172 0.5 0 0.28288794877133089 0.48655569604377918 0 0.26912688742762009 0.50000000000000022 0 0.26912688742762009 0.50000000000000022 0 0.27121362566016832 0.47698239104473361 0 0.28288794877133089 0.48655569604377918 0 0.26912688742762009 0.50000000000000022 0 0.27121362566016832 0.47698239104473361 0 0.24802348447485681 0.46912426160624832 0 0.25527094133527017 0.48568755804809038 0 0.26248713078316521 0.46458786690954668 0 0.27121362566016832 0.47698239104473361 0 0.25527094133527017 0.48568755804809038 0 0.26248713078316521 0.46458786690954668 0 0.24278266422756981 0.5 0 0.26912688742762009 0.50000000000000022 0 0.25527094133527017 0.48568755804809038 0 0.26912688742762009 0.50000000000000022 0 0.27121362566016832 0.47698239104473361 0 0.25527094133527017 0.48568755804809038 0 0.26005992643434639 0.44480288502720272 0 0.25456350493456648 0.44099956295796272 0 0.25908388250284647 0.4331415586191783 0 0.26005992643434639 0.44480288502720272 0 0.25456350493456648 0.44099956295796272 0 0.24807532024175441 0.45072224774080721 0 0.26005992643434639 0.44480288502720272 0 0.25456350493456648 0.44099956295796272 0 0.24802348447485681 0.46912426160624832 0 0.26005992643434639 0.44480288502720272 0 0.24802348447485681 0.46912426160624832 0 0.26005992643434639 0.44480288502720272 0 0.26248713078316521 0.46458786690954668 0 0.26005992643434639 0.44480288502720272 0 0.26248713078316521 0.46458786690954668 0 0.273300363892716 0.45396478208946689 0 0.24807532024175441 0.45072224774080721 0 0.24802348447485681 0.46912426160624832 0 0.26005992643434639 0.44480288502720272 0 0.27121362566016832 0.47698239104473361 0 0.273300363892716 0.45396478208946689 0 0.27121362566016832 0.47698239104473361 0 0.26248713078316521 0.46458786690954668 0 0.273300363892716 0.45396478208946689 0 0.27121362566016832 0.47698239104473361 0 0.273300363892716 0.45396478208946689 0 0.29056162771308047 0.46590894351041873 0 0.273300363892716 0.45396478208946689 0 0.28358711440867967 0.44002060420806638 0 0.27519219088625479 0.43309712688045299 0 0.26005992643434639 0.44480288502720272 0 0.273300363892716 0.45396478208946689 0 0.27519219088625479 0.43309712688045299 0 0.273300363892716 0.45396478208946689 0 0.27519219088625479 0.43309712688045299 0 0.26005992643434639 0.44480288502720272 0 0.273300363892716 0.45396478208946689 0 0.28358711440867967 0.44002060420806638 0 0.2890505931525435 0.44933258191184983 0 0.2931668285764466 0.43552403663369121 0 0.2890505931525435 0.44933258191184983 0 0.30463703117179503 0.45124454311760542 0 0.2931668285764466 0.43552403663369121 0 0.273300363892716 0.45396478208946689 0 0.28358711440867967 0.44002060420806638 0 0.2890505931525435 0.44933258191184983 0 0.273300363892716 0.45396478208946689 0 0.2890505931525435 0.44933258191184983 0 0.29056162771308047 0.46590894351041873 0 0.2890505931525435 0.44933258191184983 0 0.29056162771308047 0.46590894351041873 0 0.30463703117179503 0.45124454311760542 0 0.273300363892716 0.45396478208946689 0 0.29056162771308047 0.46590894351041873 0 0.30941191733607459 0.47078072718759378 0 0.31190318571918779 0.45616264563272763 0 0.30463703117179503 0.45124454311760542 0 0.30782289153344522 0.47785310493137012 0 0.29056162771308047 0.46590894351041873 0 0.30463703117179503 0.45124454311760542 0 0.30941191733607459 0.47078072718759378 0 0.30782289153344522 0.47785310493137012 0 0.30463703117179503 0.45124454311760542 0 0.30782289153344522 0.47785310493137012 0 0.30463703117179503 0.45124454311760542 0 0.31114638638294068 0.47071805313990062 0 0.30941191733607459 0.47078072718759378 0 0.31190318571918779 0.45616264563272763 0 0.31114638638294068 0.47071805313990062 0 0.31190318571918779 0.45616264563272763 0 0.30463703117179503 0.45124454311760542 0 0.3014511708101445 0.42463598130384062 0 0.31531651958774209 0.44329301179649211 0 0.30463703117179503 0.45124454311760542 0 0.3014511708101445 0.42463598130384062 0 0.31531651958774209 0.44329301179649211 0 0.31190318571918779 0.45616264563272763 0 0.30463703117179503 0.45124454311760542 0 0.30463703117179503 0.45124454311760542 0 0.3014511708101445 0.42463598130384062 0 0.2931668285764466 0.43552403663369121 0 0.31531651958774209 0.44329301179649211 0 0.3014511708101445 0.42463598130384062 0 0.31439758164333742 0.42506922780720457 0 0.3014511708101445 0.42463598130384062 0 0.31407628789189951 0.4175306520783364 0 0.31439758164333742 0.42506922780720457 0 0.3014511708101445 0.42463598130384062 0 0.31439758164333742 0.42506922780720457 0 0.3014511708101445 0.42463598130384062 0 0.29843114547578042 0.42453491735391319 0 0.29215838886663331 0.41883843410695132 0 0.3014511708101445 0.42463598130384062 0 0.29843114547578042 0.42453491735391319 0 0.2931668285764466 0.43552403663369121 0 0.3014511708101445 0.42463598130384062 0 0.29843114547578042 0.42453491735391319 0 0.3014511708101445 0.42463598130384062 0 0.2933595842773194 0.41054284151563891 0 0.29787963522188571 0.39480622899761719 0 0.3014511708101445 0.42463598130384062 0 0.30915754173288468 0.41048985702967627 0 0.29787963522188571 0.39480622899761719 0 0.3014511708101445 0.42463598130384062 0 0.29787963522188571 0.39480622899761719 0 0.3014511708101445 0.42463598130384062 0 0.30915754173288468 0.41048985702967627 0 0.31407628789189951 0.4175306520783364 0 0.2933595842773194 0.41054284151563891 0 0.28422674073199172 0.41527559545710768 0 0.29001530318566038 0.40108828768902971 0 0.3014511708101445 0.42463598130384062 0 0.2933595842773194 0.41054284151563891 0 0.29215838886663331 0.41883843410695132 0 0.2933595842773194 0.41054284151563891 0 0.29215838886663331 0.41883843410695132 0 0.28422674073199172 0.41527559545710768 0 0.28422674073199172 0.41527559545710768 0 0.28590397940172269 0.42284341010388821 0 0.27993423672423517 0.42518226603485038 0 0.29215838886663331 0.41883843410695132 0 0.28422674073199172 0.41527559545710768 0 0.28590397940172269 0.42284341010388821 0 0.28422674073199172 0.41527559545710768 0 0.2803329026060935 0.40383839655871928 0 0.29001530318566038 0.40108828768902971 0 0.2931668285764466 0.43552403663369121 0 0.29066074645463802 0.42633706605479021 0 0.28415185808098709 0.43037455693984189 0 0.29843114547578042 0.42453491735391319 0 0.2931668285764466 0.43552403663369121 0 0.29066074645463802 0.42633706605479021 0 0.29843114547578042 0.42453491735391319 0 0.29215838886663331 0.41883843410695132 0 0.29066074645463802 0.42633706605479021 0 0.29215838886663331 0.41883843410695132 0 0.29066074645463802 0.42633706605479021 0 0.28590397940172269 0.42284341010388821 0 0.29066074645463802 0.42633706605479021 0 0.28590397940172269 0.42284341010388821 0 0.28415185808098709 0.43037455693984189 0 0.28590397940172269 0.42284341010388821 0 0.28415185808098709 0.43037455693984189 0 0.27993423672423517 0.42518226603485038 0 0.28358711440867967 0.44002060420806638 0 0.2931668285764466 0.43552403663369121 0 0.28415185808098709 0.43037455693984189 0 0.26005992643434639 0.44480288502720272 0 0.27519219088625479 0.43309712688045299 0 0.27019641452021997 0.424320640792961 0 0.28358711440867967 0.44002060420806638 0 0.28415185808098709 0.43037455693984189 0 0.27519219088625479 0.43309712688045299 0 0.27519219088625479 0.43309712688045299 0 0.27019641452021997 0.424320640792961 0 0.27993423672423517 0.42518226603485038 0 0.28415185808098709 0.43037455693984189 0 0.27519219088625479 0.43309712688045299 0 0.27993423672423517 0.42518226603485038 0 0.28422674073199172 0.41527559545710768 0 0.27019641452021997 0.424320640792961 0 0.27993423672423517 0.42518226603485038 0 0.27019641452021997 0.424320640792961 0 0.26894439502094653 0.41345942561725402 0 0.2803329026060935 0.40383839655871928 0 0.28422674073199172 0.41527559545710768 0 0.27019641452021997 0.424320640792961 0 0.2803329026060935 0.40383839655871928 0 0.27019641452021997 0.424320640792961 0 0.2803329026060935 0.40383839655871928 0 0.27019641452021997 0.424320640792961 0 0.26894439502094653 0.41345942561725402 0 0.26164587283371799 0.4205177514307315 0 0.24401437441201251 0.40082936648775652 0 0.26894439502094653 0.41345942561725402 0 0.24401437441201251 0.40082936648775652 0 0.26894439502094653 0.41345942561725402 0 0.25133370731323168 0.41510519689569142 0 0.26894439502094653 0.41345942561725402 0 0.26164587283371799 0.4205177514307315 0 0.25133370731323168 0.41510519689569142 0 0.26164587283371799 0.4205177514307315 0 0.25133370731323168 0.41510519689569142 0 0.25496054674227842 0.42534874674714113 0 0.26005992643434639 0.44480288502720272 0 0.27019641452021997 0.424320640792961 0 0.25908388250284647 0.4331415586191783 0 0.24655206961420481 0.42558110188360621 0 0.25496054674227842 0.42534874674714113 0 0.25003150725201562 0.43372022130883903 0 0.24655206961420481 0.42558110188360621 0 0.25133370731323168 0.41510519689569142 0 0.25496054674227842 0.42534874674714113 0 0.26005992643434639 0.44480288502720272 0 0.27019641452021997 0.424320640792961 0 0.25496054674227842 0.42534874674714113 0 0.25003150725201562 0.43372022130883903 0 0.25908388250284647 0.4331415586191783 0 0.25456350493456648 0.44099956295796272 0 0.25003150725201562 0.43372022130883903 0 0.25908388250284647 0.4331415586191783 0 0.27019641452021997 0.424320640792961 0 0.25908388250284647 0.4331415586191783 0 0.26147167914976582 0.42583217439750293 0 0.27019641452021997 0.424320640792961 0 0.26164587283371799 0.4205177514307315 0 0.26147167914976582 0.42583217439750293 0 0.26164587283371799 0.4205177514307315 0 0.25496054674227842 0.42534874674714113 0 0.26147167914976582 0.42583217439750293 0 0.25496054674227842 0.42534874674714113 0 0.25908388250284647 0.4331415586191783 0 0.26147167914976582 0.42583217439750293 0 0.26237741982731011 0.37832600575700298 0 0.25117864057069422 0.38381617450715522 0 0.25834290672937399 0.36680298252655319 0 0.25117864057069422 0.38381617450715522 0 0.25834290672937399 0.36680298252655319 0 0.26185985882934387 0.38754447866094272 0 0.26237741982731011 0.37832600575700298 0 0.25117864057069422 0.38381617450715522 0 0.26185985882934387 0.38754447866094272 0 0.26237741982731011 0.37832600575700298 0 0.27080622114959929 0.38206632684797759 0 0.26185985882934387 0.38754447866094272 0 0.25117864057069422 0.38381617450715522 0 0.25906964852031139 0.39624937045424979 0 0.24401437441201251 0.40082936648775652 0 0.25117864057069422 0.38381617450715522 0 0.25906964852031139 0.39624937045424979 0 0.24401437441201251 0.40082936648775652 0 0.26894439502094653 0.41345942561725402 0 0.25906964852031139 0.39624937045424979 0 0.26185985882934387 0.38754447866094272 0 0.25906964852031139 0.39624937045424979 0 0.26935097376856032 0.39559740699814061 0 0.26894439502094653 0.41345942561725402 0 0.26935097376856032 0.39559740699814061 0 0.2803329026060935 0.40383839655871928 0 0.26894439502094653 0.41345942561725402 0 0.25906964852031139 0.39624937045424979 0 0.26935097376856032 0.39559740699814061 0 0.26935097376856032 0.39559740699814061 0 0.2803329026060935 0.40383839655871928 0 0.2783739193822497 0.38759267502678307 0 0.26935097376856032 0.39559740699814061 0 0.2783739193822497 0.38759267502678307 0 0.27080622114959929 0.38206632684797759 0 0.26185985882934387 0.38754447866094272 0 0.26935097376856032 0.39559740699814061 0 0.27080622114959929 0.38206632684797759 0 0.26237741982731011 0.37832600575700298 0 0.27080622114959929 0.38206632684797759 0 0.26969947185753917 0.37140006624238642 0 0.27080622114959929 0.38206632684797759 0 0.28091010869502819 0.37310509240460021 0 0.26969947185753917 0.37140006624238642 0 0.2783739193822497 0.38759267502678307 0 0.27080622114959929 0.38206632684797759 0 0.28091010869502819 0.37310509240460021 0 0.2783739193822497 0.38759267502678307 0 0.29046939069196709 0.38335615232447767 0 0.28091010869502819 0.37310509240460021 0 0.2803329026060935 0.40383839655871928 0 0.29046939069196709 0.38335615232447767 0 0.29001530318566038 0.40108828768902971 0 0.2803329026060935 0.40383839655871928 0 0.2783739193822497 0.38759267502678307 0 0.29046939069196709 0.38335615232447767 0 0.2803329026060935 0.40383839655871928 0 0.29046939069196709 0.38335615232447767 0 0.29046939069196709 0.38335615232447767 0 0.29001530318566038 0.40108828768902971 0 0.29787963522188571 0.39480622899761719 0 0.2933595842773194 0.41054284151563891 0 0.29001530318566038 0.40108828768902971 0 0.29787963522188571 0.39480622899761719 0 0.30915754173288468 0.41048985702967627 0 0.30832764130956097 0.38081015950574509 0 0.30915754173288468 0.41048985702967627 0 0.29787963522188571 0.39480622899761719 0 0.30832764130956097 0.38081015950574509 0 0.29046939069196709 0.38335615232447767 0 0.29787963522188571 0.39480622899761719 0 0.30832764130956097 0.38081015950574509 0 0.29046939069196709 0.38335615232447767 0 0.30832764130956097 0.38081015950574509 0 0.29282281117003811 0.36616404156240662 0 0.30832764130956097 0.38081015950574509 0 0.32469664692273309 0.37565330088939719 0 0.32084316395176399 0.39533824437311438 0 0.32469664692273309 0.37565330088939719 0 0.33649784545405592 0.39766618505309881 0 0.32084316395176399 0.39533824437311438 0 0.32469664692273309 0.37565330088939719 0 0.34088236324348081 0.38135944869131511 0 0.33649784545405592 0.39766618505309881 0 0.33649784545405592 0.39766618505309881 0 0.32084316395176399 0.39533824437311438 0 0.32767703586340707 0.41206503796518962 0 0.30915754173288468 0.41048985702967627 0 0.30832764130956097 0.38081015950574509 0 0.32084316395176399 0.39533824437311438 0 0.30915754173288468 0.41048985702967627 0 0.32084316395176399 0.39533824437311438 0 0.32767703586340707 0.41206503796518962 0 0.30915754173288468 0.41048985702967627 0 0.31407628789189951 0.4175306520783364 0 0.32767703586340707 0.41206503796518962 0 0.31407628789189951 0.4175306520783364 0 0.32143101499453502 0.41932042292088612 0 0.31439758164333742 0.42506922780720457 0 0.31407628789189951 0.4175306520783364 0 0.32143101499453502 0.41932042292088612 0 0.32767703586340707 0.41206503796518962 0 0.32143101499453502 0.41932042292088612 0 0.31439758164333742 0.42506922780720457 0 0.34251624030247729 0.42601020756602292 0 0.32815088603561809 0.43974937509690948 0 0.31531651958774209 0.44329301179649211 0 0.31439758164333742 0.42506922780720457 0 0.32815088603561809 0.43974937509690948 0 0.31439758164333742 0.42506922780720457 0 0.32815088603561809 0.43974937509690948 0 0.31439758164333742 0.42506922780720457 0 0.34251624030247729 0.42601020756602292 0 0.35171153666427307 0.44042448928011207 0 0.32815088603561809 0.43974937509690948 0 0.34251624030247729 0.42601020756602292 0 0.31439758164333742 0.42506922780720457 0 0.34251624030247729 0.42601020756602292 0 0.32143101499453502 0.41932042292088612 0 0.32767703586340707 0.41206503796518962 0 0.34251624030247729 0.42601020756602292 0 0.33649784545405592 0.39766618505309881 0 0.32767703586340707 0.41206503796518962 0 0.34251624030247729 0.42601020756602292 0 0.34251624030247729 0.42601020756602292 0 0.37063340713274329 0.42699576663325872 0 0.35575788518811202 0.40417760766228689 0 0.33649784545405592 0.39766618505309881 0 0.34251624030247729 0.42601020756602292 0 0.35575788518811202 0.40417760766228689 0 0.35171153666427307 0.44042448928011207 0 0.34251624030247729 0.42601020756602292 0 0.37063340713274329 0.42699576663325872 0 0.34251624030247729 0.42601020756602292 0 0.37063340713274329 0.42699576663325872 0 0.37063340713274329 0.42699576663325872 0 0.35575788518811202 0.40417760766228689 0 0.37951547016484832 0.40521641817248771 0 0.37063340713274329 0.42699576663325872 0 0.35575788518811202 0.40417760766228689 0 0.37155154671428559 0.38224959154127691 0 0.35575788518811202 0.40417760766228689 0 0.37951547016484832 0.40521641817248771 0 0.34088236324348081 0.38135944869131511 0 0.37155154671428559 0.38224959154127691 0 0.35575788518811202 0.40417760766228689 0 0.34088236324348081 0.38135944869131511 0 0.37155154671428559 0.38224959154127691 0 0.35718775725654323 0.36843183351659059 0 0.34088236324348081 0.38135944869131511 0 0.35575788518811202 0.40417760766228689 0 0.34088236324348081 0.38135944869131511 0 0.33649784545405592 0.39766618505309881 0 0.35575788518811202 0.40417760766228689 0 0.35505597642348979 0.35298362817923168 0 0.35718775725654323 0.36843183351659059 0 0.3412193476825317 0.36165032574040962 0 0.34088236324348081 0.38135944869131511 0 0.35718775725654323 0.36843183351659059 0 0.3412193476825317 0.36165032574040962 0 0.37155154671428559 0.38224959154127691 0 0.35718775725654323 0.36843183351659059 0 0.38314815265668428 0.35903182776389608 0 0.35505597642348979 0.35298362817923168 0 0.35718775725654323 0.36843183351659059 0 0.38314815265668428 0.35903182776389608 0 0.35505597642348979 0.35298362817923168 0 0.36701136261477407 0.33731731196654768 0 0.38314815265668428 0.35903182776389608 0 0.35505597642348979 0.35298362817923168 0 0.38314815265668428 0.35903182776389608 0 0.36118971487449758 0.31504690262895102 0 0.37542481911830478 0.31106244188061788 0 0.37841764990076138 0.32649699848163211 0 0.36701136261477407 0.33731731196654768 0 0.36118971487449758 0.31504690262895102 0 0.37841764990076138 0.32649699848163211 0 0.36701136261477407 0.33731731196654768 0 0.36118971487449758 0.31504690262895102 0 0.34712575763334352 0.32510743331509878 0 0.36118971487449758 0.31504690262895102 0 0.34712575763334352 0.32510743331509878 0 0.35066929387108908 0.30280868159240881 0 0.36701136261477407 0.33731731196654768 0 0.34712575763334352 0.32510743331509878 0 0.36701136261477407 0.33731731196654768 0 0.34712575763334352 0.32510743331509878 0 0.34566500835268471 0.33973041453193092 0 0.35505597642348979 0.35298362817923168 0 0.36701136261477407 0.33731731196654768 0 0.34566500835268471 0.33973041453193092 0 0.34566500835268471 0.33973041453193092 0 0.33186315873942529 0.33518071554032741 0 0.32696380019029531 0.34693542859456722 0 0.34712575763334352 0.32510743331509878 0 0.34566500835268471 0.33973041453193092 0 0.33186315873942529 0.33518071554032741 0 0.34712575763334352 0.32510743331509878 0 0.32724015265191281 0.31289755466364988 0 0.3357230271858066 0.30470735102978203 0 0.34712575763334352 0.32510743331509878 0 0.32724015265191281 0.31289755466364988 0 0.34712575763334352 0.32510743331509878 0 0.33186315873942529 0.33518071554032741 0 0.32724015265191281 0.31289755466364988 0 0.33186315873942529 0.33518071554032741 0 0.32724015265191281 0.31289755466364988 0 0.32039031339862839 0.32789730910920079 0 0.32724015265191281 0.31289755466364988 0 0.32039031339862839 0.32789730910920079 0 0.30666784046291368 0.32145076445788268 0 0.32724015265191281 0.31289755466364988 0 0.30666784046291368 0.32145076445788268 0 0.3090008967246034 0.31146862628161542 0 0.32039031339862839 0.32789730910920079 0 0.31859402814042659 0.33929179021036793 0 0.30666784046291368 0.32145076445788268 0 0.33186315873942529 0.33518071554032741 0 0.31859402814042659 0.33929179021036793 0 0.32696380019029531 0.34693542859456722 0 0.33186315873942529 0.33518071554032741 0 0.32039031339862839 0.32789730910920079 0 0.31859402814042659 0.33929179021036793 0 0.31859402814042659 0.33929179021036793 0 0.31868111645801711 0.35872707181703911 0 0.32696380019029531 0.34693542859456722 0 0.31859402814042659 0.33929179021036793 0 0.31868111645801711 0.35872707181703911 0 0.30749774088623738 0.35113046198181391 0 0.31868111645801711 0.35872707181703911 0 0.32600684129884949 0.35854128972034321 0 0.32696380019029531 0.34693542859456722 0 0.35505597642348979 0.35298362817923168 0 0.32696380019029531 0.34693542859456722 0 0.3412193476825317 0.36165032574040962 0 0.35505597642348979 0.35298362817923168 0 0.34566500835268471 0.33973041453193092 0 0.32696380019029531 0.34693542859456722 0 0.35505597642348979 0.35298362817923168 0 0.32696380019029531 0.34693542859456722 0 0.32600684129884949 0.35854128972034321 0 0.32696380019029531 0.34693542859456722 0 0.3412193476825317 0.36165032574040962 0 0.34088236324348081 0.38135944869131511 0 0.32600684129884949 0.35854128972034321 0 0.34088236324348081 0.38135944869131511 0 0.32600684129884949 0.35854128972034321 0 0.3412193476825317 0.36165032574040962 0 0.32469664692273309 0.37565330088939719 0 0.34088236324348081 0.38135944869131511 0 0.32600684129884949 0.35854128972034321 0 0.32469664692273309 0.37565330088939719 0 0.31868111645801711 0.35872707181703911 0 0.32600684129884949 0.35854128972034321 0 0.30832764130956097 0.38081015950574509 0 0.32469664692273309 0.37565330088939719 0 0.31868111645801711 0.35872707181703911 0 0.30832764130956097 0.38081015950574509 0 0.31868111645801711 0.35872707181703911 0 0.30749774088623738 0.35113046198181391 0 0.30832764130956097 0.38081015950574509 0 0.30749774088623738 0.35113046198181391 0 0.30832764130956097 0.38081015950574509 0 0.30749774088623738 0.35113046198181391 0 0.29282281117003811 0.36616404156240662 0 0.30749774088623738 0.35113046198181391 0 0.29186347663340229 0.35253821997362778 0 0.29282281117003811 0.36616404156240662 0 0.29186347663340229 0.35253821997362778 0 0.27708661545662872 0.35795948134683442 0 0.28871172002186268 0.33778066468337797 0 0.30749774088623738 0.35113046198181391 0 0.29186347663340229 0.35253821997362778 0 0.28871172002186268 0.33778066468337797 0 0.29186347663340229 0.35253821997362778 0 0.29282281117003811 0.36616404156240662 0 0.27708661545662872 0.35795948134683442 0 0.29046939069196709 0.38335615232447767 0 0.29282281117003811 0.36616404156240662 0 0.28091010869502819 0.37310509240460021 0 0.29282281117003811 0.36616404156240662 0 0.28091010869502819 0.37310509240460021 0 0.27708661545662872 0.35795948134683442 0 0.28091010869502819 0.37310509240460021 0 0.26969947185753917 0.37140006624238642 0 0.27708661545662872 0.35795948134683442 0 0.26969947185753917 0.37140006624238642 0 0.27708661545662872 0.35795948134683442 0 0.25834290672937399 0.36680298252655319 0 0.27708661545662872 0.35795948134683442 0 0.26780454789726038 0.33902845869083392 0 0.28871172002186268 0.33778066468337797 0 0.27708661545662872 0.35795948134683442 0 0.25449703772848981 0.35745791892868539 0 0.27708661545662872 0.35795948134683442 0 0.2622337366374925 0.34899514218862748 0 0.26780454789726038 0.33902845869083392 0 0.24954674546759109 0.34153470978815648 0 0.2622337366374925 0.34899514218862748 0 0.25449703772848981 0.35745791892868539 0 0.27708661545662872 0.35795948134683442 0 0.2622337366374925 0.34899514218862748 0 0.25449703772848981 0.35745791892868539 0 0.27708661545662872 0.35795948134683442 0 0.25449703772848981 0.35745791892868539 0 0.25834290672937399 0.36680298252655319 0 0.24528295548902029 0.36888346300206892 0 0.25117864057069422 0.38381617450715522 0 0.25834290672937399 0.36680298252655319 0 0.24528295548902029 0.36888346300206892 0 0.25449703772848981 0.35745791892868539 0 0.25834290672937399 0.36680298252655319 0 0.26237741982731011 0.37832600575700298 0 0.26969947185753917 0.37140006624238642 0 0.25834290672937399 0.36680298252655319 0 0.24954674546759109 0.34153470978815648 0 0.2622337366374925 0.34899514218862748 0 0.26780454789726038 0.33902845869083392 0 0.24954674546759109 0.34153470978815648 0 0.26069465537471359 0.32032804376055951 0 0.26780454789726038 0.33902845869083392 0 0.26780454789726038 0.33902845869083392 0 0.2771640591758131 0.32649695237094001 0 0.28871172002186268 0.33778066468337797 0 0.26069465537471359 0.32032804376055951 0 0.26780454789726038 0.33902845869083392 0 0.2771640591758131 0.32649695237094001 0 0.26069465537471359 0.32032804376055951 0 0.2771640591758131 0.32649695237094001 0 0.28402460152259779 0.31050785988638052 0 0.26069465537471359 0.32032804376055951 0 0.28402460152259779 0.31050785988638052 0 0.2910600526538093 0.3221774947915057 0 0.28871172002186268 0.33778066468337797 0 0.30666784046291368 0.32145076445788268 0 0.2771640591758131 0.32649695237094001 0 0.2910600526538093 0.3221774947915057 0 0.28402460152259779 0.31050785988638052 0 0.2910600526538093 0.3221774947915057 0 0.29941880185969821 0.31332041102040048 0 0.28402460152259779 0.31050785988638052 0 0.2771640591758131 0.32649695237094001 0 0.2910600526538093 0.3221774947915057 0 0.28871172002186268 0.33778066468337797 0 0.30749774088623738 0.35113046198181391 0 0.30666784046291368 0.32145076445788268 0 0.31859402814042659 0.33929179021036793 0 0.30749774088623738 0.35113046198181391 0 0.30666784046291368 0.32145076445788268 0 0.30749774088623738 0.35113046198181391 0 0.28871172002186268 0.33778066468337797 0 0.30666784046291368 0.32145076445788268 0 0.2910600526538093 0.3221774947915057 0 0.29941880185969821 0.31332041102040048 0 0.30666784046291368 0.32145076445788268 0 0.29941880185969821 0.31332041102040048 0 0.30666784046291368 0.32145076445788268 0 0.3090008967246034 0.31146862628161542 0 0.29941880185969821 0.31332041102040048 0 0.30735454767048181 0.30068767601220142 0 0.28402460152259779 0.31050785988638052 0 0.30735454767048181 0.30068767601220142 0 0.30307373553378281 0.29969763979339847 0 0.28402460152259779 0.31050785988638052 0 0.29941880185969821 0.31332041102040048 0 0.3090008967246034 0.31146862628161542 0 0.30735454767048181 0.30068767601220142 0 0.30735454767048181 0.30068767601220142 0 0.30675815088692482 0.29410732808760709 0 0.30061996772944122 0.2965526042391573 0 0.30307373553378281 0.29969763979339847 0 0.30061996772944122 0.2965526042391573 0 0.29058147978203719 0.29738041665706061 0 0.30735454767048181 0.30068767601220142 0 0.30061996772944122 0.2965526042391573 0 0.30735454767048181 0.30068767601220142 0 0.30307373553378281 0.29969763979339847 0 0.30061996772944122 0.2965526042391573 0 0.30307373553378281 0.29969763979339847 0 0.30061996772944122 0.2965526042391573 0 0.30249650885710239 0.28514861429986033 0 0.31279778186955948 0.28305617066407962 0 0.31327227241416827 0.29033458765926368 0 0.30249650885710239 0.28514861429986033 0 0.3071899303484838 0.27630130765049932 0 0.31279778186955948 0.28305617066407962 0 0.30675815088692482 0.29410732808760709 0 0.30249650885710239 0.28514861429986033 0 0.31327227241416827 0.29033458765926368 0 0.30735454767048181 0.30068767601220142 0 0.30675815088692482 0.29410732808760709 0 0.31327227241416827 0.29033458765926368 0 0.30675815088692482 0.29410732808760709 0 0.30192891046300102 0.29091160384904469 0 0.30249650885710239 0.28514861429986033 0 0.30061996772944122 0.2965526042391573 0 0.30192891046300102 0.29091160384904469 0 0.2888485463013874 0.28146497498194079 0 0.30675815088692482 0.29410732808760709 0 0.30061996772944122 0.2965526042391573 0 0.30192891046300102 0.29091160384904469 0 0.30061996772944122 0.2965526042391573 0 0.2951866988510311 0.29321654512765372 0 0.30192891046300102 0.29091160384904469 0 0.30249650885710239 0.28514861429986033 0 0.2888485463013874 0.28146497498194079 0 0.30249650885710239 0.28514861429986033 0 0.2888485463013874 0.28146497498194079 0 0.2951866988510311 0.29321654512765372 0 0.28430264595995097 0.28949982289526832 0 0.2888485463013874 0.28146497498194079 0 0.30061996772944122 0.2965526042391573 0 0.2888485463013874 0.28146497498194079 0 0.30061996772944122 0.2965526042391573 0 0.2951866988510311 0.29321654512765372 0 0.29058147978203719 0.29738041665706061 0 0.30061996772944122 0.2965526042391573 0 0.2951866988510311 0.29321654512765372 0 0.2888485463013874 0.28146497498194079 0 0.2951866988510311 0.29321654512765372 0 0.28430264595995097 0.28949982289526832 0 0.29058147978203719 0.29738041665706061 0 0.28430264595995097 0.28949982289526832 0 0.29058147978203719 0.29738041665706061 0 0.2762812290954198 0.29480802800050537 0 0.28430264595995097 0.28949982289526832 0 0.2888485463013874 0.28146497498194079 0 0.27334752173559451 0.27728118686518288 0 0.29058147978203719 0.29738041665706061 0 0.28402460152259779 0.31050785988638052 0 0.2762812290954198 0.29480802800050537 0 0.30735454767048181 0.30068767601220142 0 0.28402460152259779 0.31050785988638052 0 0.30307373553378281 0.29969763979339847 0 0.29058147978203719 0.29738041665706061 0 0.28402460152259779 0.31050785988638052 0 0.26069465537471359 0.32032804376055951 0 0.28402460152259779 0.31050785988638052 0 0.26348049260199408 0.30328117992795223 0 0.28402460152259779 0.31050785988638052 0 0.2762812290954198 0.29480802800050537 0 0.26348049260199408 0.30328117992795223 0 0.2762812290954198 0.29480802800050537 0 0.26410037993861568 0.2883083167473347 0 0.27334752173559451 0.27728118686518288 0 0.28430264595995097 0.28949982289526832 0 0.2762812290954198 0.29480802800050537 0 0.27334752173559451 0.27728118686518288 0 0.2762812290954198 0.29480802800050537 0 0.26410037993861568 0.2883083167473347 0 0.26348049260199408 0.30328117992795223 0 0.24954615909026809 0.29307379019460911 0 0.26410037993861568 0.2883083167473347 0 0.25784649716980201 0.27309739874842359 0 0.24555838619246181 0.28049138676962287 0 0.24954615909026809 0.29307379019460911 0 0.25784649716980201 0.27309739874842359 0 0.24954615909026809 0.29307379019460911 0 0.26410037993861568 0.2883083167473347 0 0.26348049260199408 0.30328117992795223 0 0.24954615909026809 0.29307379019460911 0 0.25784649716980201 0.27309739874842359 0 0.24124582101073619 0.31305018164079529 0 0.26069465537471359 0.32032804376055951 0 0.26348049260199408 0.30328117992795223 0 0.24954615909026809 0.29307379019460911 0 0.24124582101073619 0.31305018164079529 0 0.26348049260199408 0.30328117992795223 0 0.24924586184957531 0.25441070943284838 0 0.25784649716980201 0.27309739874842359 0 0.26635104178176788 0.25262954423305578 0 0.25784649716980201 0.27309739874842359 0 0.26635104178176788 0.25262954423305578 0 0.25784649716980201 0.27309739874842359 0 0.26836932419540072 0.26787539626184881 0 0.26635104178176788 0.25262954423305578 0 0.25784649716980201 0.27309739874842359 0 0.27334752173559451 0.27728118686518288 0 0.26410037993861568 0.2883083167473347 0 0.25784649716980201 0.27309739874842359 0 0.27334752173559451 0.27728118686518288 0 0.25784649716980201 0.27309739874842359 0 0.26836932419540072 0.26787539626184881 0 0.27334752173559451 0.27728118686518288 0 0.26836932419540072 0.26787539626184881 0 0.27334752173559451 0.27728118686518288 0 0.27759979404157809 0.26704725960749798 0 0.2888485463013874 0.28146497498194079 0 0.27334752173559451 0.27728118686518288 0 0.27759979404157809 0.26704725960749798 0 0.2888485463013874 0.28146497498194079 0 0.27334752173559451 0.27728118686518288 0 0.27759979404157809 0.26704725960749798 0 0.26635104178176788 0.25262954423305578 0 0.28276787437026069 0.25041466503740861 0 0.26836932419540072 0.26787539626184881 0 0.27759979404157809 0.26704725960749798 0 0.26635104178176788 0.25262954423305578 0 0.27759979404157809 0.26704725960749798 0 0.26635104178176788 0.25262954423305578 0 0.27759979404157809 0.26704725960749798 0 0.28276787437026069 0.25041466503740861 0 0.29232065813412439 0.26567437741055461 0 0.29395634980609342 0.25347798679437261 0 0.29232065813412439 0.26567437741055461 0 0.3035033041920609 0.25833993340735312 0 0.28276787437026069 0.25041466503740861 0 0.29395634980609342 0.25347798679437261 0 0.29232065813412439 0.26567437741055461 0 0.2888485463013874 0.28146497498194079 0 0.29232065813412439 0.26567437741055461 0 0.29826073970659678 0.27623554700717018 0 0.2888485463013874 0.28146497498194079 0 0.27759979404157809 0.26704725960749798 0 0.29232065813412439 0.26567437741055461 0 0.2888485463013874 0.28146497498194079 0 0.27759979404157809 0.26704725960749798 0 0.30249650885710239 0.28514861429986033 0 0.2888485463013874 0.28146497498194079 0 0.29826073970659678 0.27623554700717018 0 0.29826073970659678 0.27623554700717018 0 0.30264623102423271 0.26948043849617609 0 0.3071899303484838 0.27630130765049932 0 0.30249650885710239 0.28514861429986033 0 0.29826073970659678 0.27623554700717018 0 0.3071899303484838 0.27630130765049932 0 0.29232065813412439 0.26567437741055461 0 0.29826073970659678 0.27623554700717018 0 0.30264623102423271 0.26948043849617609 0 0.30264623102423271 0.26948043849617609 0 0.31126492707747377 0.26649755644088291 0 0.3071899303484838 0.27630130765049932 0 0.31126492707747377 0.26649755644088291 0 0.3071899303484838 0.27630130765049932 0 0.31677248162211152 0.27583550789641659 0 0.3071899303484838 0.27630130765049932 0 0.31677248162211152 0.27583550789641659 0 0.31279778186955948 0.28305617066407962 0 0.29395634980609342 0.25347798679437261 0 0.3035033041920609 0.25833993340735312 0 0.29972105135729787 0.24731396504540271 0 0.3035033041920609 0.25833993340735312 0 0.30959430955757972 0.24797104421956531 0 0.29972105135729787 0.24731396504540271 0 0.29232065813412439 0.26567437741055461 0 0.30264623102423271 0.26948043849617609 0 0.3035033041920609 0.25833993340735312 0 0.30264623102423271 0.26948043849617609 0 0.31126492707747377 0.26649755644088291 0 0.3035033041920609 0.25833993340735312 0 0.31126492707747377 0.26649755644088291 0 0.3035033041920609 0.25833993340735312 0 0.31118230899832661 0.2567903197361433 0 0.3035033041920609 0.25833993340735312 0 0.31118230899832661 0.2567903197361433 0 0.30959430955757972 0.24797104421956531 0 0.32210051683487972 0.25821390133522898 0 0.32975590232202212 0.2511441829190228 0 0.32565014139396031 0.27090064462225599 0 0.32975590232202212 0.2511441829190228 0 0.32565014139396031 0.27090064462225599 0 0.31118230899832661 0.2567903197361433 0 0.31688290666958718 0.2524294299713844 0 0.30959430955757972 0.24797104421956531 0 0.31118230899832661 0.2567903197361433 0 0.31688290666958718 0.2524294299713844 0 0.31688123489025488 0.26005348367334502 0 0.31688290666958718 0.2524294299713844 0 0.31688123489025488 0.26005348367334502 0 0.32210051683487972 0.25821390133522898 0 0.31688123489025488 0.26005348367334502 0 0.32210051683487972 0.25821390133522898 0 0.31853386036373621 0.26630021879362609 0 0.31126492707747377 0.26649755644088291 0 0.31118230899832661 0.2567903197361433 0 0.31688123489025488 0.26005348367334502 0 0.31126492707747377 0.26649755644088291 0 0.31688123489025488 0.26005348367334502 0 0.31853386036373621 0.26630021879362609 0 0.32210051683487972 0.25821390133522898 0 0.32565014139396031 0.27090064462225599 0 0.31853386036373621 0.26630021879362609 0 0.32210051683487972 0.25821390133522898 0 0.32975590232202212 0.2511441829190228 0 0.32321984768261802 0.24799016297425749 0 0.31688290666958718 0.2524294299713844 0 0.32210051683487972 0.25821390133522898 0 0.32321984768261802 0.24799016297425749 0 0.32975590232202212 0.2511441829190228 0 0.33912355885182038 0.26341111757358121 0 0.32565014139396031 0.27090064462225599 0 0.32975590232202212 0.2511441829190228 0 0.33912355885182038 0.26341111757358121 0 0.34242532483264748 0.2437425965290515 0 0.32975590232202212 0.2511441829190228 0 0.33912355885182038 0.26341111757358121 0 0.34186892067264862 0.27696522167406912 0 0.33588095400162032 0.27307196795034427 0 0.33659123350658809 0.28125674720841148 0 0.34186892067264862 0.27696522167406912 0 0.33659123350658809 0.28125674720841148 0 0.34407584444350481 0.28446156744932077 0 0.33912355885182038 0.26341111757358121 0 0.34304500626212642 0.26870734707003913 0 0.33588095400162032 0.27307196795034427 0 0.34186892067264862 0.27696522167406912 0 0.34304500626212642 0.26870734707003913 0 0.33588095400162032 0.27307196795034427 0 0.33912355885182038 0.26341111757358121 0 0.34304500626212642 0.26870734707003913 0 0.33912355885182038 0.26341111757358121 0 0.33588095400162032 0.27307196795034427 0 0.32565014139396031 0.27090064462225599 0 0.33912355885182038 0.26341111757358121 0 0.32565014139396031 0.27090064462225599 0 0.33588095400162032 0.27307196795034427 0 0.33035937820584488 0.279399603078268 0 0.33659123350658809 0.28125674720841148 0 0.33588095400162032 0.27307196795034427 0 0.33035937820584488 0.279399603078268 0 0.32565014139396031 0.27090064462225599 0 0.33035937820584488 0.279399603078268 0 0.32565014139396031 0.27090064462225599 0 0.32255140533930532 0.28581141543059052 0 0.32565014139396031 0.27090064462225599 0 0.32255140533930532 0.28581141543059052 0 0.32565014139396031 0.27090064462225599 0 0.31677248162211152 0.27583550789641659 0 0.32255140533930532 0.28581141543059052 0 0.32565014139396031 0.27090064462225599 0 0.31853386036373621 0.26630021879362609 0 0.31677248162211152 0.27583550789641659 0 0.32565014139396031 0.27090064462225599 0 0.31677248162211152 0.27583550789641659 0 0.31126492707747377 0.26649755644088291 0 0.31853386036373621 0.26630021879362609 0 0.31677248162211152 0.27583550789641659 0 0.30735454767048181 0.30068767601220142 0 0.32747213727780139 0.29221965693505242 0 0.31677248162211152 0.27583550789641659 0 0.31279778186955948 0.28305617066407962 0 0.32255140533930532 0.28581141543059052 0 0.31279778186955948 0.28305617066407962 0 0.31327227241416827 0.29033458765926368 0 0.32255140533930532 0.28581141543059052 0 0.30735454767048181 0.30068767601220142 0 0.31327227241416827 0.29033458765926368 0 0.32747213727780139 0.29221965693505242 0 0.31327227241416827 0.29033458765926368 0 0.32747213727780139 0.29221965693505242 0 0.32255140533930532 0.28581141543059052 0 0.33035937820584488 0.279399603078268 0 0.32255140533930532 0.28581141543059052 0 0.33112315678774978 0.28595724017973673 0 0.32747213727780139 0.29221965693505242 0 0.32255140533930532 0.28581141543059052 0 0.33112315678774978 0.28595724017973673 0 0.32724015265191281 0.31289755466364988 0 0.3090008967246034 0.31146862628161542 0 0.30735454767048181 0.30068767601220142 0 0.32724015265191281 0.31289755466364988 0 0.30735454767048181 0.30068767601220142 0 0.32724015265191281 0.31289755466364988 0 0.30735454767048181 0.30068767601220142 0 0.32444746619650061 0.30262805966017142 0 0.30735454767048181 0.30068767601220142 0 0.32747213727780139 0.29221965693505242 0 0.32444746619650061 0.30262805966017142 0 0.32724015265191281 0.31289755466364988 0 0.32444746619650061 0.30262805966017142 0 0.3357230271858066 0.30470735102978203 0 0.32747213727780139 0.29221965693505242 0 0.32444746619650061 0.30262805966017142 0 0.3357230271858066 0.30470735102978203 0 0.3357230271858066 0.30470735102978203 0 0.34020923224047839 0.2927165096550125 0 0.35066929387108908 0.30280868159240881 0 0.33035937820584488 0.279399603078268 0 0.33112315678774978 0.28595724017973673 0 0.33659123350658809 0.28125674720841148 0 0.32747213727780139 0.29221965693505242 0 0.33112315678774978 0.28595724017973673 0 0.34020923224047839 0.2927165096550125 0 0.32747213727780139 0.29221965693505242 0 0.3357230271858066 0.30470735102978203 0 0.34020923224047839 0.2927165096550125 0 0.33112315678774978 0.28595724017973673 0 0.34020923224047839 0.2927165096550125 0 0.33659123350658809 0.28125674720841148 0 0.34020923224047839 0.2927165096550125 0 0.33659123350658809 0.28125674720841148 0 0.34407584444350481 0.28446156744932077 0 0.34407584444350481 0.28446156744932077 0 0.35240908282584671 0.28808694170752758 0 0.3497515651494032 0.27732847869222971 0 0.35240908282584671 0.28808694170752758 0 0.35066929387108908 0.30280868159240881 0 0.36691515065587149 0.29462854382694659 0 0.34020923224047839 0.2927165096550125 0 0.34407584444350481 0.28446156744932077 0 0.35240908282584671 0.28808694170752758 0 0.34020923224047839 0.2927165096550125 0 0.35240908282584671 0.28808694170752758 0 0.35066929387108908 0.30280868159240881 0 0.34712575763334352 0.32510743331509878 0 0.3357230271858066 0.30470735102978203 0 0.35066929387108908 0.30280868159240881 0 0.36118971487449758 0.31504690262895102 0 0.36691515065587149 0.29462854382694659 0 0.37542481911830478 0.31106244188061788 0 0.36118971487449758 0.31504690262895102 0 0.35066929387108908 0.30280868159240881 0 0.36691515065587149 0.29462854382694659 0 0.35240908282584671 0.28808694170752758 0 0.36691515065587149 0.29462854382694659 0 0.36283341059473301 0.27657786902924753 0 0.36691515065587149 0.29462854382694659 0 0.36283341059473301 0.27657786902924753 0 0.3826218149273396 0.28444839098845598 0 0.36283341059473301 0.27657786902924753 0 0.36849373491056697 0.26164027851453708 0 0.37865656683264559 0.27261510040475567 0 0.36283341059473301 0.27657786902924753 0 0.3826218149273396 0.28444839098845598 0 0.36283341059473301 0.27657786902924753 0 0.37865656683264559 0.27261510040475567 0 0.3826218149273396 0.28444839098845598 0 0.36283341059473301 0.27657786902924753 0 0.36849373491056697 0.26164027851453708 0 0.35422363889973862 0.25501737052983459 0 0.38058004259589451 0.26049308008921862 0 0.36932371894765859 0.24662362348609121 0 0.36849373491056697 0.26164027851453708 0 0.38058004259589451 0.26049308008921862 0 0.36932371894765859 0.24662362348609121 0 0.35422363889973862 0.25501737052983459 0 0.36932371894765859 0.24662362348609121 0 0.36849373491056697 0.26164027851453708 0 0.35422363889973862 0.25501737052983459 0 0.36932371894765859 0.24662362348609121 0 0.33912355885182038 0.26341111757358121 0 0.35422363889973862 0.25501737052983459 0 0.34242532483264748 0.2437425965290515 0 0.33912355885182038 0.26341111757358121 0 0.35422363889973862 0.25501737052983459 0 0.33912355885182038 0.26341111757358121 0 0.34304500626212642 0.26870734707003913 0 0.35422363889973862 0.25501737052983459 0 0.34304500626212642 0.26870734707003913 0 0.36283341059473301 0.27657786902924753 0 0.35422363889973862 0.25501737052983459 0 0.34304500626212642 0.26870734707003913 0 0.36283341059473301 0.27657786902924753 0 0.3497515651494032 0.27732847869222971 0 0.34304500626212642 0.26870734707003913 0 0.3497515651494032 0.27732847869222971 0 0.34304500626212642 0.26870734707003913 0 0.36283341059473301 0.27657786902924753 0 0.34186892067264862 0.27696522167406912 0 0.34407584444350481 0.28446156744932077 0 0.3497515651494032 0.27732847869222971 0 0.34186892067264862 0.27696522167406912 0 0.34304500626212642 0.26870734707003913 0 0.3497515651494032 0.27732847869222971 0 0.35240908282584671 0.28808694170752758 0 0.36283341059473301 0.27657786902924753 0 0.3497515651494032 0.27732847869222971 0 0.3946880504259852 0.27583621654739038 0 0.38663851201382071 0.25865476135483972 0 0.40954228439379547 0.27213426797659612 0 0.3946880504259852 0.27583621654739038 0 0.38663851201382071 0.25865476135483972 0 0.3946880504259852 0.27583621654739038 0 0.41511516902780898 0.28639244622093002 0 0.39694891646985792 0.28066195519726239 0 0.3946880504259852 0.27583621654739038 0 0.41511516902780898 0.28639244622093002 0 0.39183636624413037 0.27436253669234578 0 0.3946880504259852 0.27583621654739038 0 0.38663851201382071 0.25865476135483972 0 0.39183636624413037 0.27436253669234578 0 0.39694891646985792 0.28066195519726239 0 0.3946880504259852 0.27583621654739038 0 0.39183636624413037 0.27436253669234578 0 0.3946880504259852 0.27583621654739038 0 0.39183636624413037 0.27436253669234578 0 0.39694891646985792 0.28066195519726239 0 0.39183636624413037 0.27436253669234578 0 0.39694891646985792 0.28066195519726239 0 0.39055057114344172 0.27970818860621921 0 0.39694891646985792 0.28066195519726239 0 0.3946880504259852 0.27583621654739038 0 0.38663851201382071 0.25865476135483972 0 0.41412833772902058 0.2567079335919053 0 0.40418435892776822 0.24441781281166741 0 0.38663851201382071 0.25865476135483972 0 0.40954228439379547 0.27213426797659612 0 0.41412833772902058 0.2567079335919053 0 0.38663851201382071 0.25865476135483972 0 0.378588973601656 0.2414733061622891 0 0.38663851201382071 0.25865476135483972 0 0.38058004259589451 0.26049308008921862 0 0.378588973601656 0.2414733061622891 0 0.39183636624413037 0.27436253669234578 0 0.38663851201382071 0.25865476135483972 0 0.38058004259589451 0.26049308008921862 0 0.36849373491056697 0.26164027851453708 0 0.38058004259589451 0.26049308008921862 0 0.37865656683264559 0.27261510040475567 0 0.39183636624413037 0.27436253669234578 0 0.38058004259589451 0.26049308008921862 0 0.37865656683264559 0.27261510040475567 0 0.39183636624413037 0.27436253669234578 0 0.38058004259589451 0.26049308008921862 0 0.37865656683264559 0.27261510040475567 0 0.39055057114344172 0.27970818860621921 0 0.3826218149273396 0.28444839098845598 0 0.39183636624413037 0.27436253669234578 0 0.37865656683264559 0.27261510040475567 0 0.39055057114344172 0.27970818860621921 0 0.36691515065587149 0.29462854382694659 0 0.3826218149273396 0.28444839098845598 0 0.38880870927890188 0.30291661182026702 0 0.36691515065587149 0.29462854382694659 0 0.37542481911830478 0.31106244188061788 0 0.38880870927890188 0.30291661182026702 0 0.37542481911830478 0.31106244188061788 0 0.38880870927890188 0.30291661182026702 0 0.39337855997354221 0.3220363629149432 0 0.38880870927890188 0.30291661182026702 0 0.40241021925994591 0.29231891294766549 0 0.41210169173840749 0.31300501836297379 0 0.39055057114344172 0.27970818860621921 0 0.3826218149273396 0.28444839098845598 0 0.40241021925994591 0.29231891294766549 0 0.3826218149273396 0.28444839098845598 0 0.40241021925994591 0.29231891294766549 0 0.3826218149273396 0.28444839098845598 0 0.38880870927890188 0.30291661182026702 0 0.40241021925994591 0.29231891294766549 0 0.39694891646985792 0.28066195519726239 0 0.39055057114344172 0.27970818860621921 0 0.40241021925994591 0.29231891294766549 0 0.39694891646985792 0.28066195519726239 0 0.40241021925994591 0.29231891294766549 0 0.40831595038647389 0.29466782323549018 0 0.40241021925994591 0.29231891294766549 0 0.40831595038647389 0.29466782323549018 0 0.39694891646985792 0.28066195519726239 0 0.40241021925994591 0.29231891294766549 0 0.39694891646985792 0.28066195519726239 0 0.40831595038647389 0.29466782323549018 0 0.41511516902780898 0.28639244622093002 0 0.40831595038647389 0.29466782323549018 0 0.43315902297475978 0.30454875881037802 0 0.39694891646985792 0.28066195519726239 0 0.41511516902780898 0.28639244622093002 0 0.40831595038647389 0.29466782323549018 0 0.40241021925994591 0.29231891294766549 0 0.40831595038647389 0.29466782323549018 0 0.4081891685902071 0.29968948420852909 0 0.40241021925994591 0.29231891294766549 0 0.41210169173840749 0.31300501836297379 0 0.40831595038647389 0.29466782323549018 0 0.43315902297475978 0.30454875881037802 0 0.4081891685902071 0.29968948420852909 0 0.4215109746114819 0.31604343094409099 0 0.40241021925994591 0.29231891294766549 0 0.4081891685902071 0.29968948420852909 0 0.41210169173840749 0.31300501836297379 0 0.40831595038647389 0.29466782323549018 0 0.41432128669001628 0.30206728631526869 0 0.43315902297475978 0.30454875881037802 0 0.4081891685902071 0.29968948420852909 0 0.41210169173840749 0.31300501836297379 0 0.4215109746114819 0.31604343094409099 0 0.4081891685902071 0.29968948420852909 0 0.41432128669001628 0.30206728631526869 0 0.4215109746114819 0.31604343094409099 0 0.40831595038647389 0.29466782323549018 0 0.41432128669001628 0.30206728631526869 0 0.40831595038647389 0.29466782323549018 0 0.4081891685902071 0.29968948420852909 0 0.41432128669001628 0.30206728631526869 0 0.41432128669001628 0.30206728631526869 0 0.42543854775926032 0.30919523936234961 0 0.4215109746114819 0.31604343094409099 0 0.41432128669001628 0.30206728631526869 0 0.42543854775926032 0.30919523936234961 0 0.43315902297475978 0.30454875881037802 0 0.43315902297475978 0.30454875881037802 0 0.44185048333613192 0.31298100368693538 0 0.43276290676078311 0.31412148137966101 0 0.42543854775926032 0.30919523936234961 0 0.43315902297475978 0.30454875881037802 0 0.43276290676078311 0.31412148137966101 0 0.41511516902780898 0.28639244622093002 0 0.4355422876296321 0.29694867589447121 0 0.41511516902780898 0.28639244622093002 0 0.4355422876296321 0.29694867589447121 0 0.43315902297475978 0.30454875881037802 0 0.4355422876296321 0.29694867589447121 0 0.4272605682480447 0.27204764844858909 0 0.44679301426055862 0.27906462877526722 0 0.41511516902780898 0.28639244622093002 0 0.4355422876296321 0.29694867589447121 0 0.4272605682480447 0.27204764844858909 0 0.4272605682480447 0.27204764844858909 0 0.43761662228966258 0.25062435198252192 0 0.44679301426055862 0.27906462877526722 0 0.4272605682480447 0.27204764844858909 0 0.40954228439379547 0.27213426797659612 0 0.41412833772902058 0.2567079335919053 0 0.41511516902780898 0.28639244622093002 0 0.4272605682480447 0.27204764844858909 0 0.40954228439379547 0.27213426797659612 0 0.3946880504259852 0.27583621654739038 0 0.41511516902780898 0.28639244622093002 0 0.40954228439379547 0.27213426797659612 0 0.41412833772902058 0.2567079335919053 0 0.43761662228966258 0.25062435198252192 0 0.41887843647872591 0.24294735935182671 0 0.4272605682480447 0.27204764844858909 0 0.41412833772902058 0.2567079335919053 0 0.43761662228966258 0.25062435198252192 0 0.43761662228966258 0.25062435198252192 0 0.44679301426055862 0.27906462877526722 0 0.43761662228966258 0.25062435198252192 0 0.44679301426055862 0.27906462877526722 0 0.45330158921245622 0.2573151343135 0 0.44679301426055862 0.27906462877526722 0 0.46476117993978089 0.26994298195004779 0 0.45330158921245622 0.2573151343135 0 0.44679301426055862 0.27906462877526722 0 0.46476117993978089 0.26994298195004779 0 0.4630496642773268 0.29340165190250472 0 0.46476117993978089 0.26994298195004779 0 0.45330158921245622 0.2573151343135 0 0.46647269560223498 0.24648431199759091 0 0.46476117993978089 0.26994298195004779 0 0.46647269560223498 0.24648431199759091 0 0.48412133235874172 0.25038907708322911 0 0.48237626942745598 0.27820247522369501 0 0.46476117993978089 0.26994298195004779 0 0.48412133235874172 0.25038907708322911 0 0.46647269560223498 0.24648431199759091 0 0.46476117993978089 0.26994298195004779 0 0.48237626942745598 0.27820247522369501 0 0.47108353013520948 0.2837301434377153 0 0.46476117993978089 0.26994298195004779 0 0.48412133235874172 0.25038907708322911 0 0.48237626942745598 0.27820247522369501 0 0.48412133235874172 0.25038907708322911 0 0.48237626942745598 0.27820247522369501 0 0.5 0.27599458335945809 0 0.48412133235874172 0.25038907708322911 0 0.5 0.27599458335945809 0 0.5 0.24836481013999009 0 0.5 0.30362435657892622 0 0.4806312064961703 0.30601587336416097 0 0.48987933751526452 0.31868090781152719 0 0.48237626942745598 0.27820247522369501 0 0.5 0.27599458335945809 0 0.5 0.30362435657892622 0 0.48237626942745598 0.27820247522369501 0 0.5 0.30362435657892622 0 0.4806312064961703 0.30601587336416097 0 0.48237626942745598 0.27820247522369501 0 0.4806312064961703 0.30601587336416097 0 0.48237626942745598 0.27820247522369501 0 0.47335641403376938 0.29304919356258929 0 0.4806312064961703 0.30601587336416097 0 0.48237626942745598 0.27820247522369501 0 0.47108353013520948 0.2837301434377153 0 0.47335641403376938 0.29304919356258929 0 0.47108353013520948 0.2837301434377153 0 0.47335641403376938 0.29304919356258929 0 0.4630496642773268 0.29340165190250472 0 0.47335641403376938 0.29304919356258929 0 0.46964139983268399 0.30389582388487052 0 0.4806312064961703 0.30601587336416097 0 0.46964139983268399 0.30389582388487052 0 0.4806312064961703 0.30601587336416097 0 0.47390117130948051 0.31677159825753959 0 0.45596940623145499 0.30750490556801258 0 0.47390117130948051 0.31677159825753959 0 0.46964139983268399 0.30389582388487052 0 0.45596940623145499 0.30750490556801258 0 0.47390117130948051 0.31677159825753959 0 0.46964139983268399 0.30389582388487052 0 0.45596940623145499 0.30750490556801258 0 0.4630496642773268 0.29340165190250472 0 0.45596940623145499 0.30750490556801258 0 0.45818471121169652 0.31437077256870782 0 0.46476117993978089 0.26994298195004779 0 0.4630496642773268 0.29340165190250472 0 0.46476117993978089 0.26994298195004779 0 0.47108353013520948 0.2837301434377153 0 0.4630496642773268 0.29340165190250472 0 0.44679301426055862 0.27906462877526722 0 0.45596940623145499 0.30750490556801258 0 0.4630496642773268 0.29340165190250472 0 0.47335641403376938 0.29304919356258929 0 0.46964139983268399 0.30389582388487052 0 0.4630496642773268 0.29340165190250472 0 0.4355422876296321 0.29694867589447121 0 0.44679301426055862 0.27906462877526722 0 0.45596940623145499 0.30750490556801258 0 0.44679301426055862 0.27906462877526722 0 0.45596940623145499 0.30750490556801258 0 0.4355422876296321 0.29694867589447121 0 0.45596940623145499 0.30750490556801258 0 0.43315902297475978 0.30454875881037802 0 0.44185048333613192 0.31298100368693538 0 0.45818471121169652 0.31437077256870782 0 0.43315902297475978 0.30454875881037802 0 0.45596940623145499 0.30750490556801258 0 0.45818471121169652 0.31437077256870782 0 0.43315902297475978 0.30454875881037802 0 0.45818471121169652 0.31437077256870782 0 0.4355422876296321 0.29694867589447121 0 0.43315902297475978 0.30454875881037802 0 0.45596940623145499 0.30750490556801258 0 0.44347790804593862 0.31882408017243669 0 0.44185048333613192 0.31298100368693538 0 0.43276290676078311 0.31412148137966101 0 0.44347790804593862 0.31882408017243669 0 0.44185048333613192 0.31298100368693538 0 0.45818471121169652 0.31437077256870782 0 0.44347790804593862 0.31882408017243669 0 0.44682024834126349 0.33002422293565509 0 0.43588096367844481 0.32228211862229927 0 0.44347790804593862 0.31882408017243669 0 0.45283527089612913 0.32348166749629309 0 0.44682024834126349 0.33002422293565509 0 0.44347790804593862 0.31882408017243669 0 0.45283527089612913 0.32348166749629309 0 0.45818471121169652 0.31437077256870782 0 0.44682024834126349 0.33002422293565509 0 0.44815458665403157 0.3487513244152145 0 0.43483278063275671 0.33239737767965277 0 0.44682024834126349 0.33002422293565509 0 0.45740799369236879 0.3334860642525046 0 0.44815458665403157 0.3487513244152145 0 0.44815458665403157 0.3487513244152145 0 0.43483278063275671 0.33239737767965277 0 0.44682024834126349 0.33002422293565509 0 0.43483278063275671 0.33239737767965277 0 0.43588096367844481 0.32228211862229927 0 0.45283527089612913 0.32348166749629309 0 0.44682024834126349 0.33002422293565509 0 0.45740799369236879 0.3334860642525046 0 0.45740799369236879 0.3334860642525046 0 0.46337452279864821 0.34361478161246239 0 0.44815458665403157 0.3487513244152145 0 0.45740799369236879 0.3334860642525046 0 0.46858560826801782 0.33351385559559282 0 0.46170346223917968 0.32527639359097738 0 0.46858560826801782 0.33351385559559282 0 0.46170346223917968 0.32527639359097738 0 0.47154706836977051 0.32639838380328923 0 0.45740799369236879 0.3334860642525046 0 0.46858560826801782 0.33351385559559282 0 0.46337452279864821 0.34361478161246239 0 0.45818471121169652 0.31437077256870782 0 0.46170346223917968 0.32527639359097738 0 0.47390117130948051 0.31677159825753959 0 0.45596940623145499 0.30750490556801258 0 0.45818471121169652 0.31437077256870782 0 0.47390117130948051 0.31677159825753959 0 0.45818471121169652 0.31437077256870782 0 0.46170346223917968 0.32527639359097738 0 0.45283527089612913 0.32348166749629309 0 0.45740799369236879 0.3334860642525046 0 0.46170346223917968 0.32527639359097738 0 0.45283527089612913 0.32348166749629309 0 0.45818471121169652 0.31437077256870782 0 0.46170346223917968 0.32527639359097738 0 0.4806312064961703 0.30601587336416097 0 0.47390117130948051 0.31677159825753959 0 0.47940816664490749 0.32550909261429112 0 0.4806312064961703 0.30601587336416097 0 0.47940816664490749 0.32550909261429112 0 0.4806312064961703 0.30601587336416097 0 0.47940816664490749 0.32550909261429112 0 0.48987933751526452 0.31868090781152719 0 0.47940816664490749 0.32550909261429112 0 0.47888614356488451 0.33382927150462688 0 0.48987933751526452 0.31868090781152719 0 0.46170346223917968 0.32527639359097738 0 0.47390117130948051 0.31677159825753959 0 0.47154706836977051 0.32639838380328923 0 0.47390117130948051 0.31677159825753959 0 0.47940816664490749 0.32550909261429112 0 0.47154706836977051 0.32639838380328923 0 0.46858560826801782 0.33351385559559282 0 0.47859445894326053 0.33847823880969719 0 0.47888614356488451 0.33382927150462688 0 0.46858560826801782 0.33351385559559282 0 0.47154706836977051 0.32639838380328923 0 0.47888614356488451 0.33382927150462688 0 0.46337452279864821 0.34361478161246239 0 0.47859445894326053 0.33847823880969719 0 0.46858560826801782 0.33351385559559282 0 0.46337452279864821 0.34361478161246239 0 0.47859445894326053 0.33847823880969719 0 0.47859445894326053 0.33847823880969719 0 0.47888614356488451 0.33382927150462688 0 0.47940816664490749 0.32550909261429112 0 0.47154706836977051 0.32639838380328923 0 0.47888614356488451 0.33382927150462688 0 0.47940816664490749 0.32550909261429112 0 0.47888614356488451 0.33382927150462688 0 0.47859445894326053 0.33847823880969719 0 0.47888614356488451 0.33382927150462688 0 0.50000000000000266 0.33125412979839419 0 0.47859445894326053 0.33847823880969719 0 0.50000000000000266 0.33125412979839419 0 0.5 0.35392711886147149 0 0.47859445894326053 0.33847823880969719 0 0.50000000000000266 0.33125412979839419 0 0.5 0.30362435657892622 0 0.50000000000000266 0.33125412979839419 0 0.48987933751526452 0.31868090781152719 0 0.47888614356488451 0.33382927150462688 0 0.50000000000000266 0.33125412979839419 0 0.48987933751526452 0.31868090781152719 0 0.5 0.35392711886147149 0 0.47857374701597322 0.3611038802445613 0 0.5 0.37660010792454879 0 0.47857374701597322 0.3611038802445613 0 0.47831367332304991 0.38381030335568489 0 0.5 0.37660010792454879 0 0.47859445894326053 0.33847823880969719 0 0.5 0.35392711886147149 0 0.47857374701597322 0.3611038802445613 0 0.47859445894326053 0.33847823880969719 0 0.47857374701597322 0.3611038802445613 0 0.47859445894326053 0.33847823880969719 0 0.47683869124124822 0.36646225317535969 0 0.47859445894326053 0.33847823880969719 0 0.46891624699057532 0.35199753277636281 0 0.47683869124124822 0.36646225317535969 0 0.47859445894326053 0.33847823880969719 0 0.47857374701597322 0.3611038802445613 0 0.47683869124124822 0.36646225317535969 0 0.46337452279864821 0.34361478161246239 0 0.47859445894326053 0.33847823880969719 0 0.46891624699057532 0.35199753277636281 0 0.47857374701597322 0.3611038802445613 0 0.47683869124124822 0.36646225317535969 0 0.47831367332304991 0.38381030335568489 0 0.47857374701597322 0.3611038802445613 0 0.47831367332304991 0.38381030335568489 0 0.47683869124124822 0.36646225317535969 0 0.45685731497915011 0.35943485750793253 0 0.46596254876632681 0.37686163176330018 0 0.45685731497915011 0.35943485750793253 0 0.4393325051230641 0.37112822693326758 0 0.46596254876632681 0.37686163176330018 0 0.46891624699057532 0.35199753277636281 0 0.47683869124124822 0.36646225317535969 0 0.45685731497915011 0.35943485750793253 0 0.46337452279864821 0.34361478161246239 0 0.45685731497915011 0.35943485750793253 0 0.44815458665403157 0.3487513244152145 0 0.46337452279864821 0.34361478161246239 0 0.46891624699057532 0.35199753277636281 0 0.45685731497915011 0.35943485750793253 0 0.46337452279864821 0.34361478161246239 0 0.44815458665403157 0.3487513244152145 0 0.44815458665403157 0.3487513244152145 0 0.43148463669533499 0.35437722919358888 0 0.44815458665403157 0.3487513244152145 0 0.43148463669533499 0.35437722919358888 0 0.43483278063275671 0.33239737767965277 0 0.44815458665403157 0.3487513244152145 0 0.44353456677185521 0.35871372636293147 0 0.43148463669533499 0.35437722919358888 0 0.45685731497915011 0.35943485750793253 0 0.44815458665403157 0.3487513244152145 0 0.45685731497915011 0.35943485750793253 0 0.44815458665403157 0.3487513244152145 0 0.44353456677185521 0.35871372636293147 0 0.4393325051230641 0.37112822693326758 0 0.46596254876632681 0.37686163176330018 0 0.45685731497915011 0.35943485750793253 0 0.44353456677185521 0.35871372636293147 0 0.4393325051230641 0.37112822693326758 0 0.44353456677185521 0.35871372636293147 0 0.4393325051230641 0.37112822693326758 0 0.43148463669533499 0.35437722919358888 0 0.4393325051230641 0.37112822693326758 0 0.41124032888987883 0.36508002734856049 0 0.4393325051230641 0.37112822693326758 0 0.41284781900119633 0.36066692784169219 0 0.43148463669533499 0.35437722919358888 0 0.4393325051230641 0.37112822693326758 0 0.43148463669533499 0.35437722919358888 0 0.4393325051230641 0.37112822693326758 0 0.41124032888987883 0.36508002734856049 0 0.42239772260987429 0.38019828976108799 0 0.4393325051230641 0.37112822693326758 0 0.41124032888987883 0.36508002734856049 0 0.41284781900119633 0.36066692784169219 0 0.41284781900119633 0.36066692784169219 0 0.4188463355958692 0.34768500521195089 0 0.43148463669533499 0.35437722919358888 0 0.40757603066906212 0.35124411838589248 0 0.4188463355958692 0.34768500521195089 0 0.42179316421687058 0.33369112377828158 0 0.41124032888987883 0.36508002734856049 0 0.41284781900119633 0.36066692784169219 0 0.40757603066906212 0.35124411838589248 0 0.41284781900119633 0.36066692784169219 0 0.40757603066906212 0.35124411838589248 0 0.4188463355958692 0.34768500521195089 0 0.43148463669533499 0.35437722919358888 0 0.42179316421687058 0.33369112377828158 0 0.4188463355958692 0.34768500521195089 0 0.43148463669533499 0.35437722919358888 0 0.42179316421687058 0.33369112377828158 0 0.41284781900119633 0.36066692784169219 0 0.43148463669533499 0.35437722919358888 0 0.43148463669533499 0.35437722919358888 0 0.43483278063275671 0.33239737767965277 0 0.42179316421687058 0.33369112377828158 0 0.43483278063275671 0.33239737767965277 0 0.4215109746114819 0.31604343094409099 0 0.42179316421687058 0.33369112377828158 0 0.43483278063275671 0.33239737767965277 0 0.43588096367844481 0.32228211862229927 0 0.4215109746114819 0.31604343094409099 0 0.43483278063275671 0.33239737767965277 0 0.4215109746114819 0.31604343094409099 0 0.43276290676078311 0.31412148137966101 0 0.43588096367844481 0.32228211862229927 0 0.4215109746114819 0.31604343094409099 0 0.44347790804593862 0.31882408017243669 0 0.43276290676078311 0.31412148137966101 0 0.43588096367844481 0.32228211862229927 0 0.42543854775926032 0.30919523936234961 0 0.43276290676078311 0.31412148137966101 0 0.4215109746114819 0.31604343094409099 0 0.41210169173840749 0.31300501836297379 0 0.42179316421687058 0.33369112377828158 0 0.41210169173840749 0.31300501836297379 0 0.4215109746114819 0.31604343094409099 0 0.42179316421687058 0.33369112377828158 0 0.41210169173840749 0.31300501836297379 0 0.42179316421687058 0.33369112377828158 0 0.39337855997354221 0.3220363629149432 0 0.40757603066906212 0.35124411838589248 0 0.42179316421687058 0.33369112377828158 0 0.39758038365387338 0.34130979837097408 0 0.39758038365387338 0.34130979837097408 0 0.39337855997354221 0.3220363629149432 0 0.38354677721397618 0.33870636750258232 0 0.42179316421687058 0.33369112377828158 0 0.39758038365387338 0.34130979837097408 0 0.39337855997354221 0.3220363629149432 0 0.38880870927890188 0.30291661182026702 0 0.41210169173840749 0.31300501836297379 0 0.39337855997354221 0.3220363629149432 0 0.37542481911830478 0.31106244188061788 0 0.39337855997354221 0.3220363629149432 0 0.37841764990076138 0.32649699848163211 0 0.36701136261477407 0.33731731196654768 0 0.37841764990076138 0.32649699848163211 0 0.38354677721397618 0.33870636750258232 0 0.39337855997354221 0.3220363629149432 0 0.37841764990076138 0.32649699848163211 0 0.38354677721397618 0.33870636750258232 0 0.36701136261477407 0.33731731196654768 0 0.38354677721397618 0.33870636750258232 0 0.38314815265668428 0.35903182776389608 0 0.39758038365387338 0.34130979837097408 0 0.38354677721397618 0.33870636750258232 0 0.38314815265668428 0.35903182776389608 0 0.37155154671428559 0.38224959154127691 0 0.38314815265668428 0.35903182776389608 0 0.39345639299652813 0.37353847329098649 0 0.41124032888987883 0.36508002734856049 0 0.38314815265668428 0.35903182776389608 0 0.41124032888987883 0.36508002734856049 0 0.38314815265668428 0.35903182776389608 0 0.39345639299652813 0.37353847329098649 0 0.41124032888987883 0.36508002734856049 0 0.39345639299652813 0.37353847329098649 0 0.40725503975609451 0.38088993342454219 0 0.40757603066906212 0.35124411838589248 0 0.39758038365387338 0.34130979837097408 0 0.38314815265668428 0.35903182776389608 0 0.41124032888987883 0.36508002734856049 0 0.40757603066906212 0.35124411838589248 0 0.38314815265668428 0.35903182776389608 0 0.40113932193509211 0.40621618956823158 0 0.3898339949193611 0.38843711362809819 0 0.40725503975609451 0.38088993342454219 0 0.39345639299652813 0.37353847329098649 0 0.3898339949193611 0.38843711362809819 0 0.40725503975609451 0.38088993342454219 0 0.37155154671428559 0.38224959154127691 0 0.39345639299652813 0.37353847329098649 0 0.3898339949193611 0.38843711362809819 0 0.37155154671428559 0.38224959154127691 0 0.3898339949193611 0.38843711362809819 0 0.37951547016484832 0.40521641817248771 0 0.40113932193509211 0.40621618956823158 0 0.3898339949193611 0.38843711362809819 0 0.37951547016484832 0.40521641817248771 0 0.37063340713274329 0.42699576663325872 0 0.37951547016484832 0.40521641817248771 0 0.3991391747549709 0.4279050716081006 0 0.37063340713274329 0.42699576663325872 0 0.3991391747549709 0.4279050716081006 0 0.3816306129578409 0.44606872067474312 0 0.37063340713274329 0.42699576663325872 0 0.3991391747549709 0.4279050716081006 0 0.40113932193509211 0.40621618956823158 0 0.3991391747549709 0.4279050716081006 0 0.41779698657345932 0.41374899811937488 0 0.40113932193509211 0.40621618956823158 0 0.37951547016484832 0.40521641817248771 0 0.3991391747549709 0.4279050716081006 0 0.3991391747549709 0.4279050716081006 0 0.41779698657345932 0.41374899811937488 0 0.41922770446010682 0.43980827577046061 0 0.43790362068841188 0.42106146842995062 0 0.43663653647058043 0.44329385395825421 0 0.41922770446010682 0.43980827577046061 0 0.41779698657345932 0.41374899811937488 0 0.43790362068841188 0.42106146842995062 0 0.41922770446010682 0.43980827577046061 0 0.41779698657345932 0.41374899811937488 0 0.43169109540876471 0.40260667472705503 0 0.43790362068841188 0.42106146842995062 0 0.41779698657345932 0.41374899811937488 0 0.43169109540876471 0.40260667472705503 0 0.41926174560983109 0.39485627543683649 0 0.43169109540876471 0.40260667472705503 0 0.41926174560983109 0.39485627543683649 0 0.43322115572839881 0.38888850696382549 0 0.40113932193509211 0.40621618956823158 0 0.41926174560983109 0.39485627543683649 0 0.40725503975609451 0.38088993342454219 0 0.40113932193509211 0.40621618956823158 0 0.41779698657345932 0.41374899811937488 0 0.41926174560983109 0.39485627543683649 0 0.41124032888987883 0.36508002734856049 0 0.40725503975609451 0.38088993342454219 0 0.42239772260987429 0.38019828976108799 0 0.41926174560983109 0.39485627543683649 0 0.40725503975609451 0.38088993342454219 0 0.42239772260987429 0.38019828976108799 0 0.4393325051230641 0.37112822693326758 0 0.42239772260987429 0.38019828976108799 0 0.43322115572839881 0.38888850696382549 0 0.41926174560983109 0.39485627543683649 0 0.42239772260987429 0.38019828976108799 0 0.43322115572839881 0.38888850696382549 0 0.4393325051230641 0.37112822693326758 0 0.45079793493907272 0.38816576444120648 0 0.45743313186883022 0.38263374914471598 0 0.4393325051230641 0.37112822693326758 0 0.43322115572839881 0.38888850696382549 0 0.45027196844372208 0.39447812468528748 0 0.4393325051230641 0.37112822693326758 0 0.45027196844372208 0.39447812468528748 0 0.4393325051230641 0.37112822693326758 0 0.45079793493907272 0.38816576444120648 0 0.45027196844372208 0.39447812468528748 0 0.43169109540876471 0.40260667472705503 0 0.45027196844372208 0.39447812468528748 0 0.43790362068841188 0.42106146842995062 0 0.43169109540876471 0.40260667472705503 0 0.43322115572839881 0.38888850696382549 0 0.45027196844372208 0.39447812468528748 0 0.45027196844372208 0.39447812468528748 0 0.46206254538815372 0.40529802317394581 0 0.46121143176440399 0.41782802243729578 0 0.45079793493907272 0.38816576444120648 0 0.46206254538815372 0.40529802317394581 0 0.45079793493907272 0.38816576444120648 0 0.46304741535700378 0.39143806220659683 0 0.46206254538815372 0.40529802317394581 0 0.45079793493907272 0.38816576444120648 0 0.45027196844372208 0.39447812468528748 0 0.46206254538815372 0.40529802317394581 0 0.45027196844372208 0.39447812468528748 0 0.46121143176440399 0.41782802243729578 0 0.46304741535700378 0.39143806220659683 0 0.46206254538815372 0.40529802317394581 0 0.47508292353924148 0.39444626754102252 0 0.4393325051230641 0.37112822693326758 0 0.45743313186883022 0.38263374914471598 0 0.46596254876632681 0.37686163176330018 0 0.45079793493907272 0.38816576444120648 0 0.46304741535700378 0.39143806220659683 0 0.45743313186883022 0.38263374914471598 0 0.46304741535700378 0.39143806220659683 0 0.45743313186883022 0.38263374914471598 0 0.46802525515870708 0.3855750603791977 0 0.46304741535700378 0.39143806220659683 0 0.46802525515870708 0.3855750603791977 0 0.47508292353924148 0.39444626754102252 0 0.45743313186883022 0.38263374914471598 0 0.46802525515870708 0.3855750603791977 0 0.46596254876632681 0.37686163176330018 0 0.47683869124124822 0.36646225317535969 0 0.46802525515870708 0.3855750603791977 0 0.47508292353924148 0.39444626754102252 0 0.47683869124124822 0.36646225317535969 0 0.47508292353924148 0.39444626754102252 0 0.47683869124124822 0.36646225317535969 0 0.47831367332304991 0.38381030335568489 0 0.47508292353924148 0.39444626754102252 0 0.47683869124124822 0.36646225317535969 0 0.46802525515870708 0.3855750603791977 0 0.46596254876632681 0.37686163176330018 0 0.47831367332304991 0.38381030335568489 0 0.4780535996301265 0.40651672646680859 0 0.47831367332304991 0.38381030335568489 0 0.47508292353924148 0.39444626754102252 0 0.4780535996301265 0.40651672646680859 0 0.47831367332304991 0.38381030335568489 0 0.5 0.39927309698762609 0 0.4780535996301265 0.40651672646680859 0 0.47831367332304991 0.38381030335568489 0 0.5 0.39927309698762609 0 0.5 0.37660010792454879 0 0.50000000000000022 0.42194608605070349 0 0.48942581350386932 0.44691460558936308 0 0.50000000000000022 0.42194608605070349 0 0.48942581350386932 0.44691460558936308 0 0.5 0.44247144496673291 0 0.50000000000000022 0.42194608605070349 0 0.47779352593720092 0.42922314957793217 0 0.48942581350386932 0.44691460558936308 0 0.50000000000000022 0.42194608605070349 0 0.4780535996301265 0.40651672646680859 0 0.47779352593720092 0.42922314957793217 0 0.5 0.39927309698762609 0 0.50000000000000022 0.42194608605070349 0 0.4780535996301265 0.40651672646680859 0 0.47508292353924148 0.39444626754102252 0 0.4780535996301265 0.40651672646680859 0 0.47332715583723473 0.42243028190668519 0 0.4780535996301265 0.40651672646680859 0 0.47779352593720092 0.42922314957793217 0 0.4780535996301265 0.40651672646680859 0 0.47332715583723473 0.42243028190668519 0 0.47779352593720092 0.42922314957793217 0 0.47508292353924148 0.39444626754102252 0 0.47332715583723473 0.42243028190668519 0 0.46206254538815372 0.40529802317394581 0 0.47508292353924148 0.39444626754102252 0 0.47332715583723473 0.42243028190668519 0 0.47332715583723473 0.42243028190668519 0 0.47215089508509273 0.44117792018930108 0 0.47779352593720092 0.42922314957793217 0 0.47774791993367849 0.43320490259877198 0 0.48942581350386932 0.44691460558936308 0 0.47332715583723473 0.42243028190668519 0 0.47774791993367849 0.43320490259877198 0 0.47215089508509273 0.44117792018930108 0 0.47332715583723473 0.42243028190668519 0 0.46121143176440399 0.41782802243729578 0 0.47215089508509273 0.44117792018930108 0 0.47332715583723473 0.42243028190668519 0 0.47779352593720092 0.42922314957793217 0 0.47774791993367849 0.43320490259877198 0 0.47332715583723473 0.42243028190668519 0 0.47779352593720092 0.42922314957793217 0 0.47779352593720092 0.42922314957793217 0 0.47774791993367849 0.43320490259877198 0 0.46121143176440399 0.41782802243729578 0 0.47215089508509273 0.44117792018930108 0 0.46121143176440399 0.41782802243729578 0 0.45276919855310388 0.43608739197035068 0 0.47215089508509273 0.44117792018930108 0 0.46206254538815372 0.40529802317394581 0 0.47332715583723473 0.42243028190668519 0 0.46206254538815372 0.40529802317394581 0 0.47332715583723473 0.42243028190668519 0 0.46121143176440399 0.41782802243729578 0 0.45027196844372208 0.39447812468528748 0 0.46121143176440399 0.41782802243729578 0 0.43790362068841188 0.42106146842995062 0 0.43790362068841188 0.42106146842995062 0 0.45276919855310388 0.43608739197035068 0 0.43663653647058043 0.44329385395825421 0 0.46121143176440399 0.41782802243729578 0 0.43790362068841188 0.42106146842995062 0 0.45276919855310388 0.43608739197035068 0 0.45276919855310388 0.43608739197035068 0 0.45174497862262591 0.45936260167358389 0 0.43663653647058043 0.44329385395825421 0 0.45174497862262591 0.45936260167358389 0 0.4319138012985031 0.46002697027327072 0 0.43663653647058043 0.44329385395825421 0 0.45174497862262591 0.45936260167358389 0 0.4464691829929186 0.4795517081764889 0 0.4319138012985031 0.46002697027327072 0 0.45174497862262591 0.45936260167358389 0 0.47090084586889358 0.46110162375447461 0 0.46965079665268789 0.48102532731964792 0 0.45174497862262591 0.45936260167358389 0 0.47215089508509273 0.44117792018930108 0 0.47090084586889358 0.46110162375447461 0 0.45276919855310388 0.43608739197035068 0 0.45174497862262591 0.45936260167358389 0 0.47215089508509273 0.44117792018930108 0 0.47215089508509273 0.44117792018930108 0 0.48250013548912313 0.463268007989872 0 0.47215089508509273 0.44117792018930108 0 0.48250013548912313 0.463268007989872 0 0.48942581350386932 0.44691460558936308 0 0.47774791993367849 0.43320490259877198 0 0.47215089508509273 0.44117792018930108 0 0.48942581350386932 0.44691460558936308 0 0.47779352593720092 0.42922314957793217 0 0.48942581350386932 0.44691460558936308 0 0.47215089508509273 0.44117792018930108 0 0.47090084586889358 0.46110162375447461 0 0.47215089508509273 0.44117792018930108 0 0.47090084586889358 0.46110162375447461 0 0.48250013548912313 0.463268007989872 0 0.47090084586889358 0.46110162375447461 0 0.48250013548912313 0.463268007989872 0 0.47505034365526128 0.47034198147645928 0 0.48250013548912313 0.463268007989872 0 0.48942581350386932 0.44691460558936308 0 0.50000000000000178 0.46299680388276221 0 0.48942581350386932 0.44691460558936308 0 0.48250013548912313 0.463268007989872 0 0.50000000000000178 0.46299680388276221 0 0.48942581350386932 0.44691460558936308 0 0.50000000000000178 0.46299680388276221 0 0.48942581350386932 0.44691460558936308 0 0.5 0.44247144496673291 0 0.4997091307300251 0.4999999999999889 0 0.49146926285550202 0.48241229329807023 0 0.48408471104080869 0.5 0 0.49146926285550202 0.48241229329807023 0 0.47780376139544928 0.49088970900007378 0 0.48408471104080869 0.5 0 0.4997091307300251 0.4999999999999889 0 0.49146926285550202 0.48241229329807023 0 0.4997091307300251 0.4999999999999889 0 0.50000000000000444 0.48295457899678718 0 0.49146926285550202 0.48241229329807023 0 0.48250013548912313 0.463268007989872 0 0.50000000000000178 0.46299680388276221 0 0.49146926285550202 0.48241229329807023 0 0.50000000000000178 0.46299680388276221 0 0.50000000000000444 0.48295457899678718 0 0.49146926285550202 0.48241229329807023 0 0.50000000000000444 0.48295457899678718 0 0.49146926285550202 0.48241229329807023 0 0.48250013548912313 0.463268007989872 0 0.49146926285550202 0.48241229329807023 0 0.48250013548912313 0.463268007989872 0 0.47505034365526128 0.47034198147645928 0 0.47559280639506979 0.47957808361681081 0 0.48250013548912313 0.463268007989872 0 0.49146926285550202 0.48241229329807023 0 0.47559280639506979 0.47957808361681081 0 0.48250013548912313 0.463268007989872 0 0.47559280639506979 0.47957808361681081 0 0.47090084586889358 0.46110162375447461 0 0.47505034365526128 0.47034198147645928 0 0.46965079665268789 0.48102532731964792 0 0.49146926285550202 0.48241229329807023 0 0.46965079665268789 0.48102532731964792 0 0.49146926285550202 0.48241229329807023 0 0.47559280639506979 0.47957808361681081 0 0.46965079665268789 0.48102532731964792 0 0.47090084586889358 0.46110162375447461 0 0.46965079665268789 0.48102532731964792 0 0.47505034365526128 0.47034198147645928 0 0.47559280639506979 0.47957808361681081 0 0.46965079665268789 0.48102532731964792 0 0.49146926285550202 0.48241229329807023 0 0.46965079665268789 0.48102532731964792 0 0.47780376139544928 0.49088970900007378 0 0.46965079665268789 0.48102532731964792 0 0.47780376139544928 0.49088970900007378 0 0.46846029135159239 0.49999999999998362 0 0.46965079665268789 0.48102532731964792 0 0.46846029135159239 0.49999999999998362 0 0.47780376139544928 0.49088970900007378 0 0.48408471104080869 0.5 0 0.46846029135159239 0.49999999999998362 0 0.46965079665268789 0.48102532731964792 0 0.46846029135159239 0.49999999999998362 0 0.45667740151597708 0.49014425887403001 0 0.46846029135159239 0.49999999999998362 0 0.45667740151597708 0.49014425887403001 0 0.44212933506671093 0.5 0 0.45174497862262591 0.45936260167358389 0 0.46965079665268789 0.48102532731964792 0 0.4464691829929186 0.4795517081764889 0 0.46965079665268789 0.48102532731964792 0 0.45667740151597708 0.49014425887403001 0 0.4464691829929186 0.4795517081764889 0 0.46965079665268789 0.48102532731964792 0 0.4464691829929186 0.4795517081764889 0 0.45667740151597708 0.49014425887403001 0 0.4464691829929186 0.4795517081764889 0 0.44212933506671093 0.5 0 0.44212933506671093 0.5 0 0.41579837878182951 0.5 0 0.42328756933314909 0.47807808903333598 0 0.4464691829929186 0.4795517081764889 0 0.44212933506671093 0.5 0 0.42328756933314909 0.47807808903333598 0 0.41579837878182951 0.5 0 0.42328756933314909 0.47807808903333598 0 0.40096871514772542 0.49002373171422342 0 0.42328756933314909 0.47807808903333598 0 0.40602147149675988 0.46701445631162908 0 0.40010595567337981 0.47660446989018329 0 0.42328756933314909 0.47807808903333598 0 0.40096871514772542 0.49002373171422342 0 0.40010595567337981 0.47660446989018329 0 0.42328756933314909 0.47807808903333598 0 0.40010595567337981 0.47660446989018329 0 0.4464691829929186 0.4795517081764889 0 0.42328756933314909 0.47807808903333598 0 0.4464691829929186 0.4795517081764889 0 0.42328756933314909 0.47807808903333598 0 0.4319138012985031 0.46002697027327072 0 0.42328756933314909 0.47807808903333598 0 0.4319138012985031 0.46002697027327072 0 0.41411683591163811 0.46006729302750071 0 0.4319138012985031 0.46002697027327072 0 0.43663653647058043 0.44329385395825421 0 0.41922770446010682 0.43980827577046061 0 0.41922770446010682 0.43980827577046061 0 0.41411683591163811 0.46006729302750071 0 0.39881826724031549 0.45259024895190642 0 0.4319138012985031 0.46002697027327072 0 0.41922770446010682 0.43980827577046061 0 0.41411683591163811 0.46006729302750071 0 0.42328756933314909 0.47807808903333598 0 0.41411683591163811 0.46006729302750071 0 0.40602147149675988 0.46701445631162908 0 0.41411683591163811 0.46006729302750071 0 0.40602147149675988 0.46701445631162908 0 0.39881826724031549 0.45259024895190642 0 0.40602147149675988 0.46701445631162908 0 0.39377872932531721 0.46773218065521932 0 0.39881826724031549 0.45259024895190642 0 0.39377872932531721 0.46773218065521932 0 0.39881826724031549 0.45259024895190642 0 0.38432598423217562 0.45851242696133021 0 0.3991391747549709 0.4279050716081006 0 0.39881826724031549 0.45259024895190642 0 0.3816306129578409 0.44606872067474312 0 0.3991391747549709 0.4279050716081006 0 0.41922770446010682 0.43980827577046061 0 0.39881826724031549 0.45259024895190642 0 0.39881826724031549 0.45259024895190642 0 0.3816306129578409 0.44606872067474312 0 0.38432598423217562 0.45851242696133021 0 0.37471811207274758 0.46842092516576977 0 0.39377872932531721 0.46773218065521932 0 0.38432598423217562 0.45851242696133021 0 0.37471811207274758 0.46842092516576977 0 0.39377872932531721 0.46773218065521932 0 0.37188241952350898 0.45839592287978098 0 0.3816306129578409 0.44606872067474312 0 0.38432598423217562 0.45851242696133021 0 0.37471811207274758 0.46842092516576977 0 0.37188241952350898 0.45839592287978098 0 0.38432598423217562 0.45851242696133021 0 0.37471811207274758 0.46842092516576977 0 0.39377872932531721 0.46773218065521932 0 0.37692434201361041 0.47513085074703049 0 0.39377872932531721 0.46773218065521932 0 0.37692434201361041 0.47513085074703049 0 0.40010595567337981 0.47660446989018329 0 0.37692434201361041 0.47513085074703049 0 0.38769432237657869 0.48518862266283441 0 0.40010595567337981 0.47660446989018329 0 0.37692434201361041 0.47513085074703049 0 0.40010595567337981 0.47660446989018329 0 0.37692434201361041 0.47513085074703049 0 0.37773733934697717 0.48397856100248571 0 0.38769432237657869 0.48518862266283441 0 0.36313646621206641 0.5 0 0.37900129705842062 0.49402662384127838 0 0.38946742249694788 0.5 0 0.37773733934697717 0.48397856100248571 0 0.37900129705842062 0.49402662384127838 0 0.38769432237657869 0.48518862266283441 0 0.37900129705842062 0.49402662384127838 0 0.38946742249694788 0.5 0 0.38769432237657869 0.48518862266283441 0 0.38946742249694788 0.5 0 0.38769432237657869 0.48518862266283441 0 0.40096871514772542 0.49002373171422342 0 0.41579837878182951 0.5 0 0.38946742249694788 0.5 0 0.40096871514772542 0.49002373171422342 0 0.40602147149675988 0.46701445631162908 0 0.39377872932531721 0.46773218065521932 0 0.40010595567337981 0.47660446989018329 0 0.38769432237657869 0.48518862266283441 0 0.40096871514772542 0.49002373171422342 0 0.40010595567337981 0.47660446989018329 0 0.33483749359932857 0.084417113520110415 0 0.32758295642101731 0.098825354564395784 0 0.33483749359932857 0.084417113520110415 0 0.33154631252806249 0.064898469195271313 0 0.34521292290709471 0.063810466572172236 0 0.33483749359932857 0.084417113520110415 0 0.35030010256712041 0.078461632868030512 0 0.34521292290709471 0.063810466572172236 0 0.33483749359932857 0.084417113520110415 0 0.34521292290709471 0.063810466572172236 0 0.33483749359932857 0.084417113520110415 0 0.33154631252806249 0.064898469195271313 0 0.31992136420720962 0.073490947155235506 0 0.33483749359932857 0.084417113520110415 0 0.33154631252806249 0.064898469195271313 0 0.31992136420720962 0.073490947155235506 0 0.32192402692088451 0.056765541633913272 0 0.31116970639102409 0.059973962389319888 0 0.33154631252806249 0.064898469195271313 0 0.31992136420720962 0.073490947155235506 0 0.32192402692088451 0.056765541633913272 0 0.31992136420720962 0.073490947155235506 0 0.31116970639102409 0.059973962389319888 0 0.30663480280757449 0.067772750335656523 0 0.31992136420720962 0.073490947155235506 0 0.31269348220182502 0.082000211601863743 0 0.32131100219299158 0.086687931383507916 0 0.32131100219299158 0.086687931383507916 0 0.32758295642101731 0.098825354564395784 0 0.30939490343370762 0.093781009373615776 0 0.33483749359932857 0.084417113520110415 0 0.31992136420720962 0.073490947155235506 0 0.32131100219299158 0.086687931383507916 0 0.33483749359932857 0.084417113520110415 0 0.32131100219299158 0.086687931383507916 0 0.32758295642101731 0.098825354564395784 0 0.31269348220182502 0.082000211601863743 0 0.32131100219299158 0.086687931383507916 0 0.30939490343370762 0.093781009373615776 0 0.31864314789402742 0.113521060252134 0 0.30939490343370762 0.093781009373615776 0 0.32758295642101731 0.098825354564395784 0 0.31864314789402742 0.113521060252134 0 0.30939490343370762 0.093781009373615776 0 0.32758295642101731 0.098825354564395784 0 0.3203284192427025 0.1132335956086795 0 0.32758295642101731 0.098825354564395784 0 0.31864314789402742 0.113521060252134 0 0.3203284192427025 0.1132335956086795 0 0.3203284192427025 0.1132335956086795 0 0.32396834943556041 0.1248875146986642 0 0.33915496478891211 0.1100222633759121 0 0.31630610931683151 0.1212223079885736 0 0.31938568044953858 0.1151059697436356 0 0.32396834943556041 0.1248875146986642 0 0.31630610931683151 0.1212223079885736 0 0.32396834943556041 0.1248875146986642 0 0.31630610931683151 0.1212223079885736 0 0.31938568044953858 0.1151059697436356 0 0.31630610931683151 0.1212223079885736 0 0.31864314789402742 0.113521060252134 0 0.30505265242160329 0.1158392548493714 0 0.31630610931683151 0.1212223079885736 0 0.31938568044953858 0.1151059697436356 0 0.31864314789402742 0.113521060252134 0 0.31938568044953858 0.1151059697436356 0 0.3203284192427025 0.1132335956086795 0 0.31864314789402742 0.113521060252134 0 0.3203284192427025 0.1132335956086795 0 0.31938568044953858 0.1151059697436356 0 0.31864314789402742 0.113521060252134 0 0.3203284192427025 0.1132335956086795 0 0.31938568044953858 0.1151059697436356 0 0.31864314789402742 0.113521060252134 0 0.31938568044953858 0.1151059697436356 0 0.3203284192427025 0.1132335956086795 0 0.32396834943556041 0.1248875146986642 0 0.31938568044953858 0.1151059697436356 0 0.32396834943556041 0.1248875146986642 0 0.33915496478891211 0.1100222633759121 0 0.34321379296915311 0.13409350768316261 0 0.32396834943556041 0.1248875146986642 0 0.33915496478891211 0.1100222633759121 0 0.34321379296915311 0.13409350768316261 0 0.3203284192427025 0.1132335956086795 0 0.33915496478891211 0.1100222633759121 0 0.33483749359932857 0.084417113520110415 0 0.32758295642101731 0.098825354564395784 0 0.33915496478891211 0.1100222633759121 0 0.32758295642101731 0.098825354564395784 0 0.3203284192427025 0.1132335956086795 0 0.33915496478891211 0.1100222633759121 0 0.33483749359932857 0.084417113520110415 0 0.33915496478891211 0.1100222633759121 0 0.33483749359932857 0.084417113520110415 0 0.33915496478891211 0.1100222633759121 0 0.35169674072975449 0.091877804844412728 0 0.33915496478891211 0.1100222633759121 0 0.35942109918724557 0.10656537371618791 0 0.35169674072975449 0.091877804844412728 0 0.33915496478891211 0.1100222633759121 0 0.35942109918724557 0.10656537371618791 0 0.35942109918724557 0.10656537371618791 0 0.36481103161310913 0.09132767560818357 0 0.35169674072975449 0.091877804844412728 0 0.33915496478891211 0.1100222633759121 0 0.35399869438917481 0.1219080370722023 0 0.34321379296915311 0.13409350768316261 0 0.33915496478891211 0.1100222633759121 0 0.35399869438917481 0.1219080370722023 0 0.35942109918724557 0.10656537371618791 0 0.35399869438917481 0.1219080370722023 0 0.37024643177976341 0.1228084938099806 0 0.35942109918724557 0.10656537371618791 0 0.37024643177976341 0.1228084938099806 0 0.37968723358557949 0.1031084840564665 0 0.37024643177976341 0.1228084938099806 0 0.35942109918724557 0.10656537371618791 0 0.37968723358557949 0.1031084840564665 0 0.35942109918724557 0.10656537371618791 0 0.37285208850655238 0.096496024901164948 0 0.37968723358557949 0.1031084840564665 0 0.35942109918724557 0.10656537371618791 0 0.37968723358557949 0.1031084840564665 0 0.35942109918724557 0.10656537371618791 0 0.37285208850655238 0.096496024901164948 0 0.36481103161310913 0.09132767560818357 0 0.37215165871465189 0.078948867584241494 0 0.36481103161310913 0.09132767560818357 0 0.37558552895051028 0.088946101461699845 0 0.37285208850655238 0.096496024901164948 0 0.36481103161310913 0.09132767560818357 0 0.37558552895051028 0.088946101461699845 0 0.37215165871465189 0.078948867584241494 0 0.36165575262280952 0.080472769978050918 0 0.36481103161310913 0.09132767560818357 0 0.36165575262280952 0.080472769978050918 0 0.36481103161310913 0.09132767560818357 0 0.35169674072975449 0.091877804844412728 0 0.33483749359932857 0.084417113520110415 0 0.35169674072975449 0.091877804844412728 0 0.35030010256712041 0.078461632868030512 0 0.36165575262280952 0.080472769978050918 0 0.35169674072975449 0.091877804844412728 0 0.35030010256712041 0.078461632868030512 0 0.35030010256712041 0.078461632868030512 0 0.34521292290709471 0.063810466572172236 0 0.36281327578226807 0.0680717423517649 0 0.36165575262280952 0.080472769978050918 0 0.35030010256712041 0.078461632868030512 0 0.36281327578226807 0.0680717423517649 0 0.36281327578226807 0.0680717423517649 0 0.3799463339813246 0.057940819005673293 0 0.36281327578226807 0.0680717423517649 0 0.37842087522265277 0.067159713933203302 0 0.3799463339813246 0.057940819005673293 0 0.37215165871465189 0.078948867584241494 0 0.36165575262280952 0.080472769978050918 0 0.36281327578226807 0.0680717423517649 0 0.37215165871465189 0.078948867584241494 0 0.36281327578226807 0.0680717423517649 0 0.37842087522265277 0.067159713933203302 0 0.36281327578226807 0.0680717423517649 0 0.36822426491959181 0.056464482147487199 0 0.3799463339813246 0.057940819005673293 0 0.36281327578226807 0.0680717423517649 0 0.36822426491959181 0.056464482147487199 0 0.36032135503432322 0.055219366383124913 0 0.36822426491959181 0.056464482147487199 0 0.36032135503432322 0.055219366383124913 0 0.36981609488045142 0.044626000849385797 0 0.36032135503432322 0.055219366383124913 0 0.36981609488045142 0.044626000849385797 0 0.35558835221485868 0.043203819624233093 0 0.36822426491959181 0.056464482147487199 0 0.36981609488045142 0.044626000849385797 0 0.3799463339813246 0.057940819005673293 0 0.36981609488045142 0.044626000849385797 0 0.3799463339813246 0.057940819005673293 0 0.36981609488045142 0.044626000849385797 0 0.37219582013524471 0.033797194025992641 0 0.38261346494514198 0.041156982035331337 0 0.36981609488045142 0.044626000849385797 0 0.37219582013524471 0.033797194025992641 0 0.35968585577957679 0.031311182693099363 0 0.36981609488045142 0.044626000849385797 0 0.35968585577957679 0.031311182693099363 0 0.36981609488045142 0.044626000849385797 0 0.35968585577957679 0.031311182693099363 0 0.35558835221485868 0.043203819624233093 0 0.35968585577957679 0.031311182693099363 0 0.35558835221485868 0.043203819624233093 0 0.33262559886621101 0.03015671644699815 0 0.34521292290709471 0.063810466572172236 0 0.36032135503432322 0.055219366383124913 0 0.35558835221485868 0.043203819624233093 0 0.34521292290709471 0.063810466572172236 0 0.36281327578226807 0.0680717423517649 0 0.36032135503432322 0.055219366383124913 0 0.34521292290709471 0.063810466572172236 0 0.35558835221485868 0.043203819624233093 0 0.34521292290709471 0.063810466572172236 0 0.35558835221485868 0.043203819624233093 0 0.34045119324570777 0.049467675532267899 0 0.36491130761458568 0.0093151723393397456 0 0.37915319675336823 0.015039813914909489 0 0.3738576177168153 -0.004268612177127571 0 0.36491130761458568 0.0093151723393397456 0 0.36629522817474292 0.023804747793502931 0 0.34782428851163788 0.015720769707922352 0 0.36491130761458568 0.0093151723393397456 0 0.36629522817474292 0.023804747793502931 0 0.37915319675336823 0.015039813914909489 0 0.37219582013524471 0.033797194025992641 0 0.36629522817474292 0.023804747793502931 0 0.38039569086213249 0.028084558762593359 0 0.37219582013524471 0.033797194025992641 0 0.35968585577957679 0.031311182693099363 0 0.36629522817474292 0.023804747793502931 0 0.35968585577957679 0.031311182693099363 0 0.34782428851163788 0.015720769707922352 0 0.33262559886621101 0.03015671644699815 0 0.35968585577957679 0.031311182693099363 0 0.36629522817474292 0.023804747793502931 0 0.34782428851163788 0.015720769707922352 0 0.35968585577957679 0.031311182693099363 0 0.33262559886621101 0.03015671644699815 0 0.35968585577957679 0.031311182693099363 0 0.34782428851163788 0.015720769707922352 0 0.34782428851163788 0.015720769707922352 0 0.33596272124369791 0.0001303567227463748 0 0.35570265241411442 -0.0062775346211684721 0 0.36491130761458568 0.0093151723393397456 0 0.34782428851163788 0.015720769707922352 0 0.35570265241411442 -0.0062775346211684721 0 0.34782428851163788 0.015720769707922352 0 0.33596272124369791 0.0001303567227463748 0 0.31968214520403521 0.01240594876365271 0 0.34782428851163788 0.015720769707922352 0 0.33596272124369791 0.0001303567227463748 0 0.34782428851163788 0.015720769707922352 0 0.33262559886621101 0.03015671644699815 0 0.31968214520403521 0.01240594876365271 0 0.33262559886621101 0.03015671644699815 0 0.30556534195284513 0.029002250200895929 0 0.33262559886621101 0.03015671644699815 0 0.31968214520403521 0.01240594876365271 0 0.30556534195284513 0.029002250200895929 0 0.33154631252806249 0.064898469195271313 0 0.32825513145679908 0.045379824870431809 0 0.33154631252806249 0.064898469195271313 0 0.34045119324570777 0.049467675532267899 0 0.32825513145679908 0.045379824870431809 0 0.33154631252806249 0.064898469195271313 0 0.34521292290709471 0.063810466572172236 0 0.34045119324570777 0.049467675532267899 0 0.33262559886621101 0.03015671644699815 0 0.34045119324570777 0.049467675532267899 0 0.32825513145679908 0.045379824870431809 0 0.35558835221485868 0.043203819624233093 0 0.33262559886621101 0.03015671644699815 0 0.34045119324570777 0.049467675532267899 0 0.33262559886621101 0.03015671644699815 0 0.32825513145679908 0.045379824870431809 0 0.31079672136449848 0.043875475694490837 0 0.33262559886621101 0.03015671644699815 0 0.31079672136449848 0.043875475694490837 0 0.30556534195284513 0.029002250200895929 0 0.33154631252806249 0.064898469195271313 0 0.32825513145679908 0.045379824870431809 0 0.32192402692088451 0.056765541633913272 0 0.32192402692088451 0.056765541633913272 0 0.31116970639102409 0.059973962389319888 0 0.31079672136449848 0.043875475694490837 0 0.32825513145679908 0.045379824870431809 0 0.32192402692088451 0.056765541633913272 0 0.31079672136449848 0.043875475694490837 0 0.31079672136449848 0.043875475694490837 0 0.2976660253749927 0.068746133768792489 0 0.31116970639102409 0.059973962389319888 0 0.31079672136449848 0.043875475694490837 0 0.2976660253749927 0.068746133768792489 0 0.31079672136449848 0.043875475694490837 0 0.28808555520723372 0.048296958861794748 0 0.2976660253749927 0.068746133768792489 0 0.31079672136449848 0.043875475694490837 0 0.28808555520723372 0.048296958861794748 0 0.30556534195284513 0.029002250200895929 0 0.28808555520723372 0.048296958861794748 0 0.27850508503947913 0.027847783954795272 0 0.28808555520723372 0.048296958861794748 0 0.30556534195284513 0.029002250200895929 0 0.27850508503947913 0.027847783954795272 0 0.28808555520723372 0.048296958861794748 0 0.28549790637890943 0.065802441648609697 0 0.2976660253749927 0.068746133768792489 0 0.28808555520723372 0.048296958861794748 0 0.2736075961696659 0.054463291324741328 0 0.28549790637890943 0.065802441648609697 0 0.28808555520723372 0.048296958861794748 0 0.2976660253749927 0.068746133768792489 0 0.31968214520403521 0.01240594876365271 0 0.28915807743379518 0.010654615332489851 0 0.30331726517711732 -0.0052925995653069144 0 0.31968214520403521 0.01240594876365271 0 0.30556534195284513 0.029002250200895929 0 0.28915807743379518 0.010654615332489851 0 0.30556534195284513 0.029002250200895929 0 0.27850508503947913 0.027847783954795272 0 0.30556534195284513 0.029002250200895929 0 0.28915807743379518 0.010654615332489851 0 0.27850508503947913 0.027847783954795272 0 0.28915807743379518 0.010654615332489851 0 0.26912945415269579 0.0078358312520530049 0 0.28055238580901859 -0.0097180551089432275 0 0.28915807743379518 0.010654615332489851 0 0.26912945415269579 0.0078358312520530049 0 0.27850508503947913 0.027847783954795272 0 0.26912945415269579 0.0078358312520530049 0 0.27850508503947913 0.027847783954795272 0 0.26341055036065131 0.01777119503039468 0 0.27850508503947913 0.027847783954795272 0 0.25509449926346622 0.026849022887357851 0 0.26341055036065131 0.01777119503039468 0 0.26912945415269579 0.0078358312520530049 0 0.27850508503947913 0.027847783954795272 0 0.27850508503947913 0.027847783954795272 0 0.25509449926346622 0.026849022887357851 0 0.24225955866535909 0.01542126388595547 0 0.25509449926346622 0.026849022887357851 0 0.25742416126469281 0.0073364507183336647 0 0.25509449926346622 0.026849022887357851 0 0.25742416126469281 0.0073364507183336647 0 0.25509449926346622 0.026849022887357851 0 0.26341055036065131 0.01777119503039468 0 0.25742416126469281 0.0073364507183336647 0 0.26912945415269579 0.0078358312520530049 0 0.25742416126469281 0.0073364507183336647 0 0.25975382326591612 -0.01217612145069095 0 0.26912945415269579 0.0078358312520530049 0 0.26341055036065131 0.01777119503039468 0 0.25742416126469281 0.0073364507183336647 0 0.2736075961696659 0.054463291324741328 0 0.26957104646354962 0.065075847282366026 0 0.28549790637890943 0.065802441648609697 0 0.28808555520723372 0.048296958861794748 0 0.2736075961696659 0.054463291324741328 0 0.26777247789070302 0.04117353981108017 0 0.2736075961696659 0.054463291324741328 0 0.26777247789070302 0.04117353981108017 0 0.26163433993617691 0.054508589637887919 0 0.2736075961696659 0.054463291324741328 0 0.26163433993617691 0.054508589637887919 0 0.26957104646354962 0.065075847282366026 0 0.28808555520723372 0.048296958861794748 0 0.27850508503947913 0.027847783954795272 0 0.26777247789070302 0.04117353981108017 0 0.27850508503947913 0.027847783954795272 0 0.25509449926346622 0.026849022887357851 0 0.26777247789070302 0.04117353981108017 0 0.26777247789070302 0.04117353981108017 0 0.25357027357901851 0.039615494441644902 0 0.26163433993617691 0.054508589637887919 0 0.25509449926346622 0.026849022887357851 0 0.26777247789070302 0.04117353981108017 0 0.25357027357901851 0.039615494441644902 0 0.24688176197826031 0.035227469018283497 0 0.25509449926346622 0.026849022887357851 0 0.25357027357901851 0.039615494441644902 0 0.25509449926346622 0.026849022887357851 0 0.25357027357901851 0.039615494441644902 0 0.24670767730800799 0.051526191952567371 0 0.26163433993617691 0.054508589637887919 0 0.25857696820611659 0.075197173014929092 0 0.24670767730800799 0.051526191952567371 0 0.25357027357901851 0.039615494441644902 0 0.26163433993617691 0.054508589637887919 0 0.24670767730800799 0.051526191952567371 0 0.25857696820611659 0.075197173014929092 0 0.26163433993617691 0.054508589637887919 0 0.25857696820611659 0.075197173014929092 0 0.26957104646354962 0.065075847282366026 0 0.24115454607952511 0.095329602446818137 0 0.26210996879929749 0.082243052238262226 0 0.24628835692018061 0.082167537972379481 0 0.25857696820611659 0.075197173014929092 0 0.26210996879929749 0.082243052238262226 0 0.26210996879929749 0.082243052238262226 0 0.27079709793527579 0.099567833560858882 0 0.25805432677232298 0.097712209542652528 0 0.24115454607952511 0.095329602446818137 0 0.26210996879929749 0.082243052238262226 0 0.25805432677232298 0.097712209542652528 0 0.25857696820611659 0.075197173014929092 0 0.26210996879929749 0.082243052238262226 0 0.26932584796168763 0.077736774019956448 0 0.25857696820611659 0.075197173014929092 0 0.26210996879929749 0.082243052238262226 0 0.26210996879929749 0.082243052238262226 0 0.27464360616523809 0.085133768272443969 0 0.27079709793527579 0.099567833560858882 0 0.26210996879929749 0.082243052238262226 0 0.27079709793527579 0.099567833560858882 0 0.26210996879929749 0.082243052238262226 0 0.27464360616523809 0.085133768272443969 0 0.26932584796168763 0.077736774019956448 0 0.26210996879929749 0.082243052238262226 0 0.26932584796168763 0.077736774019956448 0 0.27464360616523809 0.085133768272443969 0 0.276684454790741 0.074693533499687187 0 0.28229198294805358 0.082612812477982037 0 0.27464360616523809 0.085133768272443969 0 0.26932584796168763 0.077736774019956448 0 0.276684454790741 0.074693533499687187 0 0.27464360616523809 0.085133768272443969 0 0.28229198294805358 0.082612812477982037 0 0.28304792946086998 0.09643405415535039 0 0.27464360616523809 0.085133768272443969 0 0.28304792946086998 0.09643405415535039 0 0.27079709793527579 0.099567833560858882 0 0.26957104646354962 0.065075847282366026 0 0.276684454790741 0.074693533499687187 0 0.28549790637890943 0.065802441648609697 0 0.25857696820611659 0.075197173014929092 0 0.276684454790741 0.074693533499687187 0 0.25857696820611659 0.075197173014929092 0 0.26957104646354962 0.065075847282366026 0 0.276684454790741 0.074693533499687187 0 0.25857696820611659 0.075197173014929092 0 0.26932584796168763 0.077736774019956448 0 0.276684454790741 0.074693533499687187 0 0.276684454790741 0.074693533499687187 0 0.29479194137536552 0.074189893984447364 0 0.276684454790741 0.074693533499687187 0 0.29479194137536552 0.074189893984447364 0 0.28229198294805358 0.082612812477982037 0 0.276684454790741 0.074693533499687187 0 0.28549790637890943 0.065802441648609697 0 0.29479194137536552 0.074189893984447364 0 0.28549790637890943 0.065802441648609697 0 0.29479194137536552 0.074189893984447364 0 0.2976660253749927 0.068746133768792489 0 0.29479194137536552 0.074189893984447364 0 0.2976660253749927 0.068746133768792489 0 0.29479194137536552 0.074189893984447364 0 0.28229198294805358 0.082612812477982037 0 0.28304792946086998 0.09643405415535039 0 0.29479194137536552 0.074189893984447364 0 0.28304792946086998 0.09643405415535039 0 0.29479194137536552 0.074189893984447364 0 0.29558962388171361 0.088833298326720919 0 0.28304792946086998 0.09643405415535039 0 0.29479194137536552 0.074189893984447364 0 0.29558962388171361 0.088833298326720919 0 0.30014665897338672 0.074040958495097939 0 0.30014665897338672 0.074040958495097939 0 0.30939490343370762 0.093781009373615776 0 0.29558962388171361 0.088833298326720919 0 0.30014665897338672 0.074040958495097939 0 0.30939490343370762 0.093781009373615776 0 0.31269348220182502 0.082000211601863743 0 0.30014665897338672 0.074040958495097939 0 0.30939490343370762 0.093781009373615776 0 0.31992136420720962 0.073490947155235506 0 0.30014665897338672 0.074040958495097939 0 0.31992136420720962 0.073490947155235506 0 0.31269348220182502 0.082000211601863743 0 0.30014665897338672 0.074040958495097939 0 0.31992136420720962 0.073490947155235506 0 0.30663480280757449 0.067772750335656523 0 0.30014665897338672 0.074040958495097939 0 0.31116970639102409 0.059973962389319888 0 0.30663480280757449 0.067772750335656523 0 0.2976660253749927 0.068746133768792489 0 0.30663480280757449 0.067772750335656523 0 0.2976660253749927 0.068746133768792489 0 0.30014665897338672 0.074040958495097939 0 0.2976660253749927 0.068746133768792489 0 0.30014665897338672 0.074040958495097939 0 0.29479194137536552 0.074189893984447364 0 0.2976660253749927 0.068746133768792489 0 0.30014665897338672 0.074040958495097939 0 0.29479194137536552 0.074189893984447364 0 0.30014665897338672 0.074040958495097939 0 0.30505265242160329 0.1158392548493714 0 0.28878256332304503 0.1186145203076012 0 0.29906009057940269 0.12978726605792809 0 0.30505265242160329 0.1158392548493714 0 0.28878256332304503 0.1186145203076012 0 0.31864314789402742 0.113521060252134 0 0.30505265242160329 0.1158392548493714 0 0.30134550371564089 0.10365297107733019 0 0.31630610931683151 0.1212223079885736 0 0.30505265242160329 0.1158392548493714 0 0.29906009057940269 0.12978726605792809 0 0.30505265242160329 0.1158392548493714 0 0.28953133701708861 0.1084146859910592 0 0.31630610931683151 0.1212223079885736 0 0.30505265242160329 0.1158392548493714 0 0.31864314789402742 0.113521060252134 0 0.30505265242160329 0.1158392548493714 0 0.31864314789402742 0.113521060252134 0 0.30939490343370762 0.093781009373615776 0 0.30134550371564089 0.10365297107733019 0 0.29558962388171361 0.088833298326720919 0 0.30939490343370762 0.093781009373615776 0 0.30134550371564089 0.10365297107733019 0 0.30505265242160329 0.1158392548493714 0 0.30134550371564089 0.10365297107733019 0 0.28953133701708861 0.1084146859910592 0 0.30134550371564089 0.10365297107733019 0 0.28953133701708861 0.1084146859910592 0 0.29237859851882819 0.09933375238761516 0 0.28304792946086998 0.09643405415535039 0 0.28430509643168139 0.1104341428748961 0 0.27999039619729121 0.1131101434859864 0 0.29558962388171361 0.088833298326720919 0 0.30134550371564089 0.10365297107733019 0 0.29237859851882819 0.09933375238761516 0 0.29558962388171361 0.088833298326720919 0 0.29237859851882819 0.09933375238761516 0 0.28304792946086998 0.09643405415535039 0 0.28953133701708861 0.1084146859910592 0 0.29237859851882819 0.09933375238761516 0 0.28304792946086998 0.09643405415535039 0 0.28953133701708861 0.1084146859910592 0 0.28304792946086998 0.09643405415535039 0 0.28430509643168139 0.1104341428748961 0 0.30505265242160329 0.1158392548493714 0 0.28953133701708861 0.1084146859910592 0 0.28878256332304503 0.1186145203076012 0 0.28953133701708861 0.1084146859910592 0 0.28430509643168139 0.1104341428748961 0 0.28878256332304503 0.1186145203076012 0 0.28430509643168139 0.1104341428748961 0 0.28878256332304503 0.1186145203076012 0 0.27999039619729121 0.1131101434859864 0 0.28878256332304503 0.1186145203076012 0 0.28164808691183768 0.12586801812263959 0 0.28885231501441672 0.12749902795663409 0 0.28304792946086998 0.09643405415535039 0 0.27999039619729121 0.1131101434859864 0 0.27130391754637312 0.11867821432625281 0 0.28878256332304503 0.1186145203076012 0 0.27251247422448682 0.1213897857658315 0 0.28164808691183768 0.12586801812263959 0 0.27999039619729121 0.1131101434859864 0 0.27251247422448682 0.1213897857658315 0 0.27130391754637312 0.11867821432625281 0 0.28878256332304503 0.1186145203076012 0 0.27999039619729121 0.1131101434859864 0 0.27251247422448682 0.1213897857658315 0 0.28878256332304503 0.1186145203076012 0 0.27251247422448682 0.1213897857658315 0 0.26849892863629798 0.11451548675393949 0 0.27130391754637312 0.11867821432625281 0 0.27157580453504981 0.10873736543680169 0 0.26849892863629798 0.11451548675393949 0 0.27157580453504981 0.10873736543680169 0 0.26419154574536291 0.1126414741414752 0 0.26849892863629798 0.11451548675393949 0 0.26692444671840643 0.11800489311122821 0 0.26419154574536291 0.1126414741414752 0 0.26849892863629798 0.11451548675393949 0 0.26692444671840643 0.11800489311122821 0 0.27130391754637312 0.11867821432625281 0 0.26692444671840643 0.11800489311122821 0 0.26920156231863041 0.1214425623709041 0 0.27130391754637312 0.11867821432625281 0 0.26692444671840643 0.11800489311122821 0 0.26920156231863041 0.1214425623709041 0 0.26540067744718521 0.123253471751486 0 0.26920156231863041 0.1214425623709041 0 0.26540067744718521 0.123253471751486 0 0.26986629565670062 0.12588644689972209 0 0.26920156231863041 0.1214425623709041 0 0.27251247422448682 0.1213897857658315 0 0.26986629565670062 0.12588644689972209 0 0.26920156231863041 0.1214425623709041 0 0.27251247422448682 0.1213897857658315 0 0.27130391754637312 0.11867821432625281 0 0.28304792946086998 0.09643405415535039 0 0.27130391754637312 0.11867821432625281 0 0.27157580453504981 0.10873736543680169 0 0.28304792946086998 0.09643405415535039 0 0.27130391754637312 0.11867821432625281 0 0.28304792946086998 0.09643405415535039 0 0.27157580453504981 0.10873736543680169 0 0.27079709793527579 0.099567833560858882 0 0.27157580453504981 0.10873736543680169 0 0.27079709793527579 0.099567833560858882 0 0.26463251233820201 0.10510064255819319 0 0.27157580453504981 0.10873736543680169 0 0.26463251233820201 0.10510064255819319 0 0.26419154574536291 0.1126414741414752 0 0.24115454607952511 0.095329602446818137 0 0.25805432677232298 0.097712209542652528 0 0.25348076198986558 0.1105559123977594 0 0.27079709793527579 0.099567833560858882 0 0.25805432677232298 0.097712209542652528 0 0.26463251233820201 0.10510064255819319 0 0.25805432677232298 0.097712209542652528 0 0.26463251233820201 0.10510064255819319 0 0.25348076198986558 0.1105559123977594 0 0.26075250330063982 0.1186353684830076 0 0.25439465536503902 0.1213235842408209 0 0.25980802526129532 0.1253922456631209 0 0.26075250330063982 0.1186353684830076 0 0.26540067744718521 0.123253471751486 0 0.25980802526129532 0.1253922456631209 0 0.26692444671840643 0.11800489311122821 0 0.26075250330063982 0.1186353684830076 0 0.26540067744718521 0.123253471751486 0 0.26075250330063982 0.1186353684830076 0 0.26419154574536291 0.1126414741414752 0 0.25348076198986558 0.1105559123977594 0 0.26692444671840643 0.11800489311122821 0 0.26075250330063982 0.1186353684830076 0 0.26419154574536291 0.1126414741414752 0 0.26463251233820201 0.10510064255819319 0 0.26419154574536291 0.1126414741414752 0 0.25348076198986558 0.1105559123977594 0 0.26075250330063982 0.1186353684830076 0 0.25348076198986558 0.1105559123977594 0 0.25439465536503902 0.1213235842408209 0 0.2461092204160209 0.12279952171658361 0 0.25439465536503902 0.1213235842408209 0 0.25182276585737318 0.12923487294363301 0 0.2461092204160209 0.12279952171658361 0 0.25348076198986558 0.1105559123977594 0 0.25439465536503902 0.1213235842408209 0 0.25182276585737318 0.12923487294363301 0 0.26022812692947322 0.13337483059123961 0 0.25980802526129532 0.1253922456631209 0 0.25439465536503902 0.1213235842408209 0 0.25182276585737318 0.12923487294363301 0 0.25980802526129532 0.1253922456631209 0 0.25377450394376672 0.13612830189693589 0 0.26022812692947322 0.13337483059123961 0 0.25824078901747388 0.1423429786083176 0 0.24657939787599439 0.1393859283567242 0 0.25182276585737318 0.12923487294363301 0 0.25377450394376672 0.13612830189693589 0 0.25182276585737318 0.12923487294363301 0 0.25377450394376672 0.13612830189693589 0 0.26022812692947322 0.13337483059123961 0 0.24657939787599439 0.1393859283567242 0 0.25377450394376672 0.13612830189693589 0 0.25824078901747388 0.1423429786083176 0 0.26022812692947322 0.13337483059123961 0 0.270577910394801 0.13414447346615921 0 0.25824078901747388 0.1423429786083176 0 0.26022812692947322 0.13337483059123961 0 0.25980802526129532 0.1253922456631209 0 0.26512517247637513 0.1287765893251735 0 0.26022812692947322 0.13337483059123961 0 0.26512517247637513 0.1287765893251735 0 0.270577910394801 0.13414447346615921 0 0.26540067744718521 0.123253471751486 0 0.25980802526129532 0.1253922456631209 0 0.26512517247637513 0.1287765893251735 0 0.26986629565670062 0.12588644689972209 0 0.270577910394801 0.13414447346615921 0 0.27559272056433343 0.12863721310717199 0 0.26540067744718521 0.123253471751486 0 0.26512517247637513 0.1287765893251735 0 0.26986629565670062 0.12588644689972209 0 0.26512517247637513 0.1287765893251735 0 0.26986629565670062 0.12588644689972209 0 0.270577910394801 0.13414447346615921 0 0.27251247422448682 0.1213897857658315 0 0.26986629565670062 0.12588644689972209 0 0.27559272056433343 0.12863721310717199 0 0.270577910394801 0.13414447346615921 0 0.27559272056433343 0.12863721310717199 0 0.28335883563384101 0.13589734128150779 0 0.270577910394801 0.13414447346615921 0 0.27193473598116641 0.148976326011591 0 0.28335883563384101 0.13589734128150779 0 0.27559272056433343 0.12863721310717199 0 0.28164808691183768 0.12586801812263959 0 0.28335883563384101 0.13589734128150779 0 0.27251247422448682 0.1213897857658315 0 0.27559272056433343 0.12863721310717199 0 0.28164808691183768 0.12586801812263959 0 0.27193473598116641 0.148976326011591 0 0.27838750392498318 0.161252909845845 0 0.28633711451472099 0.15117668012959901 0 0.27193473598116641 0.148976326011591 0 0.28335883563384101 0.13589734128150779 0 0.28633711451472099 0.15117668012959901 0 0.270577910394801 0.13414447346615921 0 0.27193473598116641 0.148976326011591 0 0.25824078901747388 0.1423429786083176 0 0.27193473598116641 0.148976326011591 0 0.26105688366233248 0.1529081168003503 0 0.26423818111726621 0.1642229035167018 0 0.24657939787599439 0.1393859283567242 0 0.25824078901747388 0.1423429786083176 0 0.25076961036854689 0.15660723377399119 0 0.27193473598116641 0.148976326011591 0 0.26105688366233248 0.1529081168003503 0 0.25824078901747388 0.1423429786083176 0 0.26105688366233248 0.1529081168003503 0 0.25824078901747388 0.1423429786083176 0 0.25076961036854689 0.15660723377399119 0 0.25007349048874872 0.16739368446153899 0 0.26423818111726621 0.1642229035167018 0 0.25935905753740091 0.18094155703567161 0 0.25076961036854689 0.15660723377399119 0 0.25007349048874872 0.16739368446153899 0 0.26423818111726621 0.1642229035167018 0 0.26105688366233248 0.1529081168003503 0 0.25076961036854689 0.15660723377399119 0 0.26423818111726621 0.1642229035167018 0 0.24565130564131499 0.1834963333921539 0 0.25935905753740091 0.18094155703567161 0 0.25862748892604659 0.19060445671459461 0 0.25935905753740091 0.18094155703567161 0 0.28223346846594588 0.18889400231284939 0 0.26423818111726621 0.1642229035167018 0 0.25935905753740091 0.18094155703567161 0 0.27569635662452457 0.17390786870837319 0 0.25935905753740091 0.18094155703567161 0 0.25862748892604659 0.19060445671459461 0 0.28223346846594588 0.18889400231284939 0 0.25935905753740091 0.18094155703567161 0 0.27569635662452457 0.17390786870837319 0 0.28223346846594588 0.18889400231284939 0 0.27193473598116641 0.148976326011591 0 0.26423818111726621 0.1642229035167018 0 0.27838750392498318 0.161252909845845 0 0.26423818111726621 0.1642229035167018 0 0.27569635662452457 0.17390786870837319 0 0.27838750392498318 0.161252909845845 0 0.27569635662452457 0.17390786870837319 0 0.27838750392498318 0.161252909845845 0 0.29359101541624077 0.16633677087142401 0 0.27838750392498318 0.161252909845845 0 0.29359101541624077 0.16633677087142401 0 0.28633711451472099 0.15117668012959901 0 0.29359101541624077 0.16633677087142401 0 0.28223346846594588 0.18889400231284939 0 0.27569635662452457 0.17390786870837319 0 0.29359101541624077 0.16633677087142401 0 0.28223346846594588 0.18889400231284939 0 0.29359101541624077 0.16633677087142401 0 0.29514993367601872 0.1813857052180661 0 0.28223346846594588 0.18889400231284939 0 0.29359101541624077 0.16633677087142401 0 0.30784610416222757 0.1828151326039883 0 0.31687921568634408 0.17056436206926509 0 0.29359101541624077 0.16633677087142401 0 0.29514993367601872 0.1813857052180661 0 0.30784610416222757 0.1828151326039883 0 0.29514993367601872 0.1813857052180661 0 0.30784610416222757 0.1828151326039883 0 0.29538523075144069 0.19346630234718659 0 0.30784610416222757 0.1828151326039883 0 0.30948257169850713 0.19220335228631161 0 0.31844587105964212 0.18501284237839741 0 0.29359101541624077 0.16633677087142401 0 0.31237814699886313 0.15575242875546971 0 0.31687921568634408 0.17056436206926509 0 0.29359101541624077 0.16633677087142401 0 0.30494856236653622 0.14377953942999891 0 0.29359101541624077 0.16633677087142401 0 0.30494856236653622 0.14377953942999891 0 0.31237814699886313 0.15575242875546971 0 0.31630610931683151 0.1212223079885736 0 0.30494856236653622 0.14377953942999891 0 0.29906009057940269 0.12978726605792809 0 0.31630610931683151 0.1212223079885736 0 0.30494856236653622 0.14377953942999891 0 0.30494856236653622 0.14377953942999891 0 0.29906009057940269 0.12978726605792809 0 0.28335883563384101 0.13589734128150779 0 0.29906009057940269 0.12978726605792809 0 0.28885231501441672 0.12749902795663409 0 0.28335883563384101 0.13589734128150779 0 0.28878256332304503 0.1186145203076012 0 0.29906009057940269 0.12978726605792809 0 0.28885231501441672 0.12749902795663409 0 0.28164808691183768 0.12586801812263959 0 0.28885231501441672 0.12749902795663409 0 0.28335883563384101 0.13589734128150779 0 0.30494856236653622 0.14377953942999891 0 0.28335883563384101 0.13589734128150779 0 0.28633711451472099 0.15117668012959901 0 0.29359101541624077 0.16633677087142401 0 0.30494856236653622 0.14377953942999891 0 0.28633711451472099 0.15117668012959901 0 0.28276787437026069 0.25041466503740861 0 0.27396346421493112 0.23430875670349721 0 0.28513411016741519 0.23850881796487899 0 0.26635104178176788 0.25262954423305578 0 0.27396346421493112 0.23430875670349721 0 0.26635104178176788 0.25262954423305578 0 0.28276787437026069 0.25041466503740861 0 0.27396346421493112 0.23430875670349721 0 0.26635104178176788 0.25262954423305578 0 0.25649998866544099 0.24000328340968119 0 0.27396346421493112 0.23430875670349721 0 0.26635104178176788 0.25262954423305578 0 0.25649998866544099 0.24000328340968119 0 0.24924586184957531 0.25441070943284838 0 0.26635104178176788 0.25262954423305578 0 0.25649998866544099 0.24000328340968119 0 0.24924586184957531 0.25441070943284838 0 0.25649998866544099 0.24000328340968119 0 0.25649998866544099 0.24000328340968119 0 0.25755850841830308 0.22735974245020379 0 0.25026085623467398 0.22245649446486629 0 0.25649998866544099 0.24000328340968119 0 0.25755850841830308 0.22735974245020379 0 0.26934969072452147 0.21448248172878431 0 0.25649998866544099 0.24000328340968119 0 0.27070984577291168 0.22631121636220841 0 0.26934969072452147 0.21448248172878431 0 0.25649998866544099 0.24000328340968119 0 0.26934969072452147 0.21448248172878431 0 0.25026085623467398 0.22245649446486629 0 0.25515183186744977 0.221961978201346 0 0.25313928369662853 0.2187235404071764 0 0.24915236946045161 0.21535571836731099 0 0.25026085623467398 0.22245649446486629 0 0.25313928369662853 0.2187235404071764 0 0.25755850841830308 0.22735974245020379 0 0.25026085623467398 0.22245649446486629 0 0.25515183186744977 0.221961978201346 0 0.25755850841830308 0.22735974245020379 0 0.25515183186744977 0.221961978201346 0 0.25983036355430328 0.22091586997512541 0 0.25515183186744977 0.221961978201346 0 0.25705978577107008 0.21868298526635899 0 0.25313928369662853 0.2187235404071764 0 0.25515183186744977 0.221961978201346 0 0.25983036355430328 0.22091586997512541 0 0.25705978577107008 0.21868298526635899 0 0.25983036355430328 0.22091586997512541 0 0.26161653099566401 0.21767307401347699 0 0.25705978577107008 0.21868298526635899 0 0.25755850841830308 0.22735974245020379 0 0.25983036355430328 0.22091586997512541 0 0.26934969072452147 0.21448248172878431 0 0.25649998866544099 0.24000328340968119 0 0.27070984577291168 0.22631121636220841 0 0.27396346421493112 0.23430875670349721 0 0.27070984577291168 0.22631121636220841 0 0.26934969072452147 0.21448248172878431 0 0.2707815704359976 0.21573874922645181 0 0.27070984577291168 0.22631121636220841 0 0.27396346421493112 0.23430875670349721 0 0.28316547044567891 0.22660383164348549 0 0.27396346421493112 0.23430875670349721 0 0.28316547044567891 0.22660383164348549 0 0.28513411016741519 0.23850881796487899 0 0.27070984577291168 0.22631121636220841 0 0.2707815704359976 0.21573874922645181 0 0.28316547044567891 0.22660383164348549 0 0.2707815704359976 0.21573874922645181 0 0.28316547044567891 0.22660383164348549 0 0.2791345879562066 0.21113770667288109 0 0.2707815704359976 0.21573874922645181 0 0.28765004241782222 0.21749065908076309 0 0.2791345879562066 0.21113770667288109 0 0.26934969072452147 0.21448248172878431 0 0.28445634781148871 0.20219428837879791 0 0.2791345879562066 0.21113770667288109 0 0.26934969072452147 0.21448248172878431 0 0.2707815704359976 0.21573874922645181 0 0.26934969072452147 0.21448248172878431 0 0.2707815704359976 0.21573874922645181 0 0.2454275566270771 0.20281680800347529 0 0.26934969072452147 0.21448248172878431 0 0.2454275566270771 0.20281680800347529 0 0.26934969072452147 0.21448248172878431 0 0.25583633698051539 0.21094822516271239 0 0.24935432255528769 0.19693943608502659 0 0.26934969072452147 0.21448248172878431 0 0.25983036355430328 0.22091586997512541 0 0.26934969072452147 0.21448248172878431 0 0.26161653099566401 0.21767307401347699 0 0.26934969072452147 0.21448248172878431 0 0.26028263686238162 0.2138848344925246 0 0.25583633698051539 0.21094822516271239 0 0.26934969072452147 0.21448248172878431 0 0.26271719992433001 0.2156014119491953 0 0.26028263686238162 0.2138848344925246 0 0.24935432255528769 0.19693943608502659 0 0.26934969072452147 0.21448248172878431 0 0.25784763214611739 0.2015553498090443 0 0.26934969072452147 0.21448248172878431 0 0.26271719992433001 0.2156014119491953 0 0.26161653099566401 0.21767307401347699 0 0.24935432255528769 0.19693943608502659 0 0.2454275566270771 0.20281680800347529 0 0.26934969072452147 0.21448248172878431 0 0.26028263686238162 0.2138848344925246 0 0.25983089673676762 0.21594627846285411 0 0.25693910798130343 0.2142518338797105 0 0.25983089673676762 0.21594627846285411 0 0.25705978577107008 0.21868298526635899 0 0.25693910798130343 0.2142518338797105 0 0.26161653099566401 0.21767307401347699 0 0.25983089673676762 0.21594627846285411 0 0.25705978577107008 0.21868298526635899 0 0.26271719992433001 0.2156014119491953 0 0.26028263686238162 0.2138848344925246 0 0.25983089673676762 0.21594627846285411 0 0.26271719992433001 0.2156014119491953 0 0.26161653099566401 0.21767307401347699 0 0.25983089673676762 0.21594627846285411 0 0.25705978577107008 0.21868298526635899 0 0.25407157514949702 0.2151605257359997 0 0.25693910798130343 0.2142518338797105 0 0.25705978577107008 0.21868298526635899 0 0.25407157514949702 0.2151605257359997 0 0.25313928369662853 0.2187235404071764 0 0.26028263686238162 0.2138848344925246 0 0.25583633698051539 0.21094822516271239 0 0.25693910798130343 0.2142518338797105 0 0.25407157514949702 0.2151605257359997 0 0.25583633698051539 0.21094822516271239 0 0.25693910798130343 0.2142518338797105 0 0.24915236946045161 0.21535571836731099 0 0.25407157514949702 0.2151605257359997 0 0.25094803567465412 0.21004140379938599 0 0.25407157514949702 0.2151605257359997 0 0.25583633698051539 0.21094822516271239 0 0.25094803567465412 0.21004140379938599 0 0.24915236946045161 0.21535571836731099 0 0.25407157514949702 0.2151605257359997 0 0.25313928369662853 0.2187235404071764 0 0.2454275566270771 0.20281680800347529 0 0.25583633698051539 0.21094822516271239 0 0.25094803567465412 0.21004140379938599 0 0.24935432255528769 0.19693943608502659 0 0.25784763214611739 0.2015553498090443 0 0.24935432255528769 0.19693943608502659 0 0.25784763214611739 0.2015553498090443 0 0.25862748892604659 0.19060445671459461 0 0.24935432255528769 0.19693943608502659 0 0.24565130564131499 0.1834963333921539 0 0.25862748892604659 0.19060445671459461 0 0.26934969072452147 0.21448248172878431 0 0.28223346846594588 0.18889400231284939 0 0.26934969072452147 0.21448248172878431 0 0.28223346846594588 0.18889400231284939 0 0.28445634781148871 0.20219428837879791 0 0.25784763214611739 0.2015553498090443 0 0.25862748892604659 0.19060445671459461 0 0.28223346846594588 0.18889400231284939 0 0.26934969072452147 0.21448248172878431 0 0.25784763214611739 0.2015553498090443 0 0.28223346846594588 0.18889400231284939 0 0.28223346846594588 0.18889400231284939 0 0.28445634781148871 0.20219428837879791 0 0.29538523075144069 0.19346630234718659 0 0.28223346846594588 0.18889400231284939 0 0.29538523075144069 0.19346630234718659 0 0.28445634781148871 0.20219428837879791 0 0.29538523075144069 0.19346630234718659 0 0.29542826158758811 0.20619217977982759 0 0.29514993367601872 0.1813857052180661 0 0.28223346846594588 0.18889400231284939 0 0.29538523075144069 0.19346630234718659 0 0.30784610416222757 0.1828151326039883 0 0.29538523075144069 0.19346630234718659 0 0.30948257169850713 0.19220335228631161 0 0.30948257169850713 0.19220335228631161 0 0.30348824523487877 0.20086683877902081 0 0.31627388865682188 0.19915256235216361 0 0.29538523075144069 0.19346630234718659 0 0.30348824523487877 0.20086683877902081 0 0.29542826158758811 0.20619217977982759 0 0.29538523075144069 0.19346630234718659 0 0.30948257169850713 0.19220335228631161 0 0.30348824523487877 0.20086683877902081 0 0.30348824523487877 0.20086683877902081 0 0.30087127348003612 0.2133197971296146 0 0.29542826158758811 0.20619217977982759 0 0.30087127348003612 0.2133197971296146 0 0.29542826158758811 0.20619217977982759 0 0.30348824523487877 0.20086683877902081 0 0.30087127348003612 0.2133197971296146 0 0.31627388865682188 0.19915256235216361 0 0.2791345879562066 0.21113770667288109 0 0.30087127348003612 0.2133197971296146 0 0.28765004241782222 0.21749065908076309 0 0.2791345879562066 0.21113770667288109 0 0.30087127348003612 0.2133197971296146 0 0.29542826158758811 0.20619217977982759 0 0.30087127348003612 0.2133197971296146 0 0.28765004241782222 0.21749065908076309 0 0.29535233599869443 0.22064780710061779 0 0.2791345879562066 0.21113770667288109 0 0.30087127348003612 0.2133197971296146 0 0.2791345879562066 0.21113770667288109 0 0.28445634781148871 0.20219428837879791 0 0.29542826158758811 0.20619217977982759 0 0.2707815704359976 0.21573874922645181 0 0.28316547044567891 0.22660383164348549 0 0.29211044421817622 0.22660923527425059 0 0.2707815704359976 0.21573874922645181 0 0.29211044421817622 0.22660923527425059 0 0.2707815704359976 0.21573874922645181 0 0.28765004241782222 0.21749065908076309 0 0.29211044421817622 0.22660923527425059 0 0.28316547044567891 0.22660383164348549 0 0.29554937045536062 0.2374689140605187 0 0.28513411016741519 0.23850881796487899 0 0.28316547044567891 0.22660383164348549 0 0.29554937045536062 0.2374689140605187 0 0.28316547044567891 0.22660383164348549 0 0.29211044421817622 0.22660923527425059 0 0.29554937045536062 0.2374689140605187 0 0.28765004241782222 0.21749065908076309 0 0.29211044421817622 0.22660923527425059 0 0.29535233599869443 0.22064780710061779 0 0.29211044421817622 0.22660923527425059 0 0.29535233599869443 0.22064780710061779 0 0.3025792305793979 0.22397816859500611 0 0.29211044421817622 0.22660923527425059 0 0.31343931800035463 0.23747972132204989 0 0.30087127348003612 0.2133197971296146 0 0.29535233599869443 0.22064780710061779 0 0.3025792305793979 0.22397816859500611 0 0.29211044421817622 0.22660923527425059 0 0.3025792305793979 0.22397816859500611 0 0.31343931800035463 0.23747972132204989 0 0.30087127348003612 0.2133197971296146 0 0.3025792305793979 0.22397816859500611 0 0.31241183359144009 0.2284321463402478 0 0.30087127348003612 0.2133197971296146 0 0.31241183359144009 0.2284321463402478 0 0.3025792305793979 0.22397816859500611 0 0.31241183359144009 0.2284321463402478 0 0.31343931800035463 0.23747972132204989 0 0.30277157268214849 0.239341295210515 0 0.29972105135729787 0.24731396504540271 0 0.29554937045536062 0.2374689140605187 0 0.29211044421817622 0.22660923527425059 0 0.30277157268214849 0.239341295210515 0 0.31343931800035463 0.23747972132204989 0 0.30277157268214849 0.239341295210515 0 0.30959430955757972 0.24797104421956531 0 0.31343931800035463 0.23747972132204989 0 0.30277157268214849 0.239341295210515 0 0.30959430955757972 0.24797104421956531 0 0.29972105135729787 0.24731396504540271 0 0.29395634980609342 0.25347798679437261 0 0.29972105135729787 0.24731396504540271 0 0.29142575123128561 0.24543686978051629 0 0.29972105135729787 0.24731396504540271 0 0.29142575123128561 0.24543686978051629 0 0.29554937045536062 0.2374689140605187 0 0.28276787437026069 0.25041466503740861 0 0.29395634980609342 0.25347798679437261 0 0.29142575123128561 0.24543686978051629 0 0.29211044421817622 0.22660923527425059 0 0.30277157268214849 0.239341295210515 0 0.29554937045536062 0.2374689140605187 0 0.29142575123128561 0.24543686978051629 0 0.29554937045536062 0.2374689140605187 0 0.28513411016741519 0.23850881796487899 0 0.28276787437026069 0.25041466503740861 0 0.29142575123128561 0.24543686978051629 0 0.28513411016741519 0.23850881796487899 0 0.32975590232202212 0.2511441829190228 0 0.34242532483264748 0.2437425965290515 0 0.33331074487245638 0.23403867874107931 0 0.32975590232202212 0.2511441829190228 0 0.33331074487245638 0.23403867874107931 0 0.32975590232202212 0.2511441829190228 0 0.32395239370284518 0.24354449555088009 0 0.33331074487245638 0.23403867874107931 0 0.34242532483264748 0.2437425965290515 0 0.33331074487245638 0.23403867874107931 0 0.34324337404687549 0.2289593622611962 0 0.32975590232202212 0.2511441829190228 0 0.32395239370284518 0.24354449555088009 0 0.32975590232202212 0.2511441829190228 0 0.32395239370284518 0.24354449555088009 0 0.32321984768261802 0.24799016297425749 0 0.32395239370284518 0.24354449555088009 0 0.32321984768261802 0.24799016297425749 0 0.31691136486740829 0.2446674795999278 0 0.32395239370284518 0.24354449555088009 0 0.32321984768261802 0.24799016297425749 0 0.30959430955757972 0.24797104421956531 0 0.31691136486740829 0.2446674795999278 0 0.31343931800035463 0.23747972132204989 0 0.31688290666958718 0.2524294299713844 0 0.32321984768261802 0.24799016297425749 0 0.31691136486740829 0.2446674795999278 0 0.31688290666958718 0.2524294299713844 0 0.30959430955757972 0.24797104421956531 0 0.31691136486740829 0.2446674795999278 0 0.31241183359144009 0.2284321463402478 0 0.32395239370284518 0.24354449555088009 0 0.32395239370284518 0.24354449555088009 0 0.31691136486740829 0.2446674795999278 0 0.31343931800035463 0.23747972132204989 0 0.31241183359144009 0.2284321463402478 0 0.32395239370284518 0.24354449555088009 0 0.31343931800035463 0.23747972132204989 0 0.32395239370284518 0.24354449555088009 0 0.32847611621520612 0.21609097693188931 0 0.31241183359144009 0.2284321463402478 0 0.32395239370284518 0.24354449555088009 0 0.32847611621520612 0.21609097693188931 0 0.30087127348003612 0.2133197971296146 0 0.31241183359144009 0.2284321463402478 0 0.32847611621520612 0.21609097693188931 0 0.33331074487245638 0.23403867874107931 0 0.34324337404687549 0.2289593622611962 0 0.33686558742288941 0.21693317456313549 0 0.32395239370284518 0.24354449555088009 0 0.33331074487245638 0.23403867874107931 0 0.32847611621520612 0.21609097693188931 0 0.33331074487245638 0.23403867874107931 0 0.33686558742288941 0.21693317456313549 0 0.33331074487245638 0.23403867874107931 0 0.33686558742288941 0.21693317456313549 0 0.32847611621520612 0.21609097693188931 0 0.34324337404687549 0.2289593622611962 0 0.33686558742288941 0.21693317456313549 0 0.34596890242170358 0.21784703315311249 0 0.33462977113134512 0.20967209960820249 0 0.32847611621520612 0.21609097693188931 0 0.3333361709323599 0.1865963290391098 0 0.33686558742288941 0.21693317456313549 0 0.33857020545468253 0.20873074352689361 0 0.33462977113134512 0.20967209960820249 0 0.33857020545468253 0.20873074352689361 0 0.34596890242170358 0.21784703315311249 0 0.33686558742288941 0.21693317456313549 0 0.33857020545468253 0.20873074352689361 0 0.34596890242170358 0.21784703315311249 0 0.33686558742288941 0.21693317456313549 0 0.33857020545468253 0.20873074352689361 0 0.33686558742288941 0.21693317456313549 0 0.34596890242170358 0.21784703315311249 0 0.33686558742288941 0.21693317456313549 0 0.33462977113134512 0.20967209960820249 0 0.32847611621520612 0.21609097693188931 0 0.33686558742288941 0.21693317456313549 0 0.32847611621520612 0.21609097693188931 0 0.30087127348003612 0.2133197971296146 0 0.32847611621520612 0.21609097693188931 0 0.30087127348003612 0.2133197971296146 0 0.32847611621520612 0.21609097693188931 0 0.31627388865682188 0.19915256235216361 0 0.32847611621520612 0.21609097693188931 0 0.31627388865682188 0.19915256235216361 0 0.3333361709323599 0.1865963290391098 0 0.31627388865682188 0.19915256235216361 0 0.31844587105964212 0.18501284237839741 0 0.3333361709323599 0.1865963290391098 0 0.30948257169850713 0.19220335228631161 0 0.31627388865682188 0.19915256235216361 0 0.31844587105964212 0.18501284237839741 0 0.32847611621520612 0.21609097693188931 0 0.3333361709323599 0.1865963290391098 0 0.33857020545468253 0.20873074352689361 0 0.34185555607606788 0.19292200432597159 0 0.35048162318568388 0.20718537598423301 0 0.33857020545468253 0.20873074352689361 0 0.34185555607606788 0.19292200432597159 0 0.3333361709323599 0.1865963290391098 0 0.33857020545468253 0.20873074352689361 0 0.33462977113134512 0.20967209960820249 0 0.3333361709323599 0.1865963290391098 0 0.33857020545468253 0.20873074352689361 0 0.34185555607606788 0.19292200432597159 0 0.34185555607606788 0.19292200432597159 0 0.35742981505192373 0.19630983020631779 0 0.34514090669745418 0.17711326512504971 0 0.34185555607606788 0.19292200432597159 0 0.35742981505192373 0.19630983020631779 0 0.35048162318568388 0.20718537598423301 0 0.35742981505192373 0.19630983020631779 0 0.35139351625075171 0.18342556379614861 0 0.35742981505192373 0.19630983020631779 0 0.35139351625075171 0.18342556379614861 0 0.3606497796283894 0.18287230419915931 0 0.35742981505192373 0.19630983020631779 0 0.37113646064022188 0.20010486602238239 0 0.36985258259709092 0.18631356824788611 0 0.35742981505192373 0.19630983020631779 0 0.3606497796283894 0.18287230419915931 0 0.36985258259709092 0.18631356824788611 0 0.37113646064022188 0.20010486602238239 0 0.36858363692406482 0.22011726870885909 0 0.37584758221803538 0.21041255236408449 0 0.35742981505192373 0.19630983020631779 0 0.36858363692406482 0.22011726870885909 0 0.35742981505192373 0.19630983020631779 0 0.37113646064022188 0.20010486602238239 0 0.36858363692406482 0.22011726870885909 0 0.36858363692406482 0.22011726870885909 0 0.3788429030020144 0.2211471702813016 0 0.37584758221803538 0.21041255236408449 0 0.35048162318568388 0.20718537598423301 0 0.34596890242170358 0.21784703315311249 0 0.36858363692406482 0.22011726870885909 0 0.35742981505192373 0.19630983020631779 0 0.35048162318568388 0.20718537598423301 0 0.36858363692406482 0.22011726870885909 0 0.33857020545468253 0.20873074352689361 0 0.35048162318568388 0.20718537598423301 0 0.34596890242170358 0.21784703315311249 0 0.34596890242170358 0.21784703315311249 0 0.36858363692406482 0.22011726870885909 0 0.34596890242170358 0.21784703315311249 0 0.35764631068468089 0.232235328319602 0 0.36858363692406482 0.22011726870885909 0 0.34324337404687549 0.2289593622611962 0 0.34596890242170358 0.21784703315311249 0 0.35764631068468089 0.232235328319602 0 0.34596890242170358 0.21784703315311249 0 0.35764631068468089 0.232235328319602 0 0.36858363692406482 0.22011726870885909 0 0.36853566003950911 0.23511238166921319 0 0.378588973601656 0.2414733061622891 0 0.36858363692406482 0.22011726870885909 0 0.378588973601656 0.2414733061622891 0 0.36858363692406482 0.22011726870885909 0 0.3788429030020144 0.2211471702813016 0 0.35764631068468089 0.232235328319602 0 0.36858363692406482 0.22011726870885909 0 0.36853566003950911 0.23511238166921319 0 0.35764631068468089 0.232235328319602 0 0.36853566003950911 0.23511238166921319 0 0.36932371894765859 0.24662362348609121 0 0.35422363889973862 0.25501737052983459 0 0.35764631068468089 0.232235328319602 0 0.36932371894765859 0.24662362348609121 0 0.35764631068468089 0.232235328319602 0 0.36932371894765859 0.24662362348609121 0 0.36853566003950911 0.23511238166921319 0 0.36932371894765859 0.24662362348609121 0 0.378588973601656 0.2414733061622891 0 0.36932371894765859 0.24662362348609121 0 0.378588973601656 0.2414733061622891 0 0.35422363889973862 0.25501737052983459 0 0.34242532483264748 0.2437425965290515 0 0.35764631068468089 0.232235328319602 0 0.34242532483264748 0.2437425965290515 0 0.34324337404687549 0.2289593622611962 0 0.35764631068468089 0.232235328319602 0 0.33512217130768818 0.14869495320121229 0 0.34321379296915311 0.13409350768316261 0 0.34736784138561189 0.15872946413568309 0 0.33512217130768818 0.14869495320121229 0 0.32555640666235353 0.15724719766813219 0 0.33890513520737042 0.15676955591870759 0 0.33512217130768818 0.14869495320121229 0 0.33890513520737042 0.15676955591870759 0 0.34736784138561189 0.15872946413568309 0 0.33512217130768818 0.14869495320121229 0 0.33890513520737042 0.15676955591870759 0 0.32396834943556041 0.1248875146986642 0 0.33512217130768818 0.14869495320121229 0 0.32396834943556041 0.1248875146986642 0 0.33512217130768818 0.14869495320121229 0 0.34321379296915311 0.13409350768316261 0 0.32396834943556041 0.1248875146986642 0 0.34321379296915311 0.13409350768316261 0 0.32396834943556041 0.1248875146986642 0 0.33512217130768818 0.14869495320121229 0 0.32091553486284119 0.1408342737385283 0 0.31630610931683151 0.1212223079885736 0 0.32396834943556041 0.1248875146986642 0 0.32091553486284119 0.1408342737385283 0 0.31630610931683151 0.1212223079885736 0 0.30494856236653622 0.14377953942999891 0 0.32091553486284119 0.1408342737385283 0 0.30494856236653622 0.14377953942999891 0 0.31237814699886313 0.15575242875546971 0 0.32091553486284119 0.1408342737385283 0 0.33512217130768818 0.14869495320121229 0 0.32091553486284119 0.1408342737385283 0 0.32555640666235353 0.15724719766813219 0 0.31237814699886313 0.15575242875546971 0 0.32091553486284119 0.1408342737385283 0 0.32555640666235353 0.15724719766813219 0 0.31237814699886313 0.15575242875546971 0 0.31687921568634408 0.17056436206926509 0 0.32555640666235353 0.15724719766813219 0 0.31687921568634408 0.17056436206926509 0 0.32555640666235353 0.15724719766813219 0 0.32914317231579759 0.16995999044405841 0 0.31687921568634408 0.17056436206926509 0 0.31844587105964212 0.18501284237839741 0 0.3244511074985359 0.1780333809827076 0 0.30784610416222757 0.1828151326039883 0 0.31687921568634408 0.17056436206926509 0 0.31844587105964212 0.18501284237839741 0 0.31687921568634408 0.17056436206926509 0 0.3244511074985359 0.1780333809827076 0 0.32914317231579759 0.16995999044405841 0 0.31844587105964212 0.18501284237839741 0 0.3244511074985359 0.1780333809827076 0 0.3333361709323599 0.1865963290391098 0 0.34185555607606788 0.19292200432597159 0 0.3333361709323599 0.1865963290391098 0 0.34514090669745418 0.17711326512504971 0 0.3333361709323599 0.1865963290391098 0 0.33890513520737042 0.15676955591870759 0 0.34627599317980601 0.17250239170376511 0 0.3244511074985359 0.1780333809827076 0 0.3333361709323599 0.1865963290391098 0 0.32914317231579759 0.16995999044405841 0 0.34185555607606788 0.19292200432597159 0 0.34514090669745418 0.17711326512504971 0 0.3333361709323599 0.1865963290391098 0 0.34514090669745418 0.17711326512504971 0 0.34627599317980601 0.17250239170376511 0 0.3333361709323599 0.1865963290391098 0 0.32914317231579759 0.16995999044405841 0 0.33890513520737042 0.15676955591870759 0 0.3333361709323599 0.1865963290391098 0 0.33890513520737042 0.15676955591870759 0 0.33890513520737042 0.15676955591870759 0 0.34627599317980601 0.17250239170376511 0 0.32555640666235353 0.15724719766813219 0 0.32914317231579759 0.16995999044405841 0 0.33890513520737042 0.15676955591870759 0 0.34736784138561189 0.15872946413568309 0 0.35139351625075171 0.18342556379614861 0 0.33890513520737042 0.15676955591870759 0 0.34736784138561189 0.15872946413568309 0 0.34627599317980601 0.17250239170376511 0 0.34736784138561189 0.15872946413568309 0 0.35139351625075171 0.18342556379614861 0 0.34627599317980601 0.17250239170376511 0 0.34736784138561189 0.15872946413568309 0 0.3501700091587146 0.1647017280484836 0 0.35139351625075171 0.18342556379614861 0 0.3501700091587146 0.1647017280484836 0 0.35747856821933782 0.1739819090105644 0 0.36140259866133401 0.16784051670594649 0 0.3501700091587146 0.1647017280484836 0 0.36256009460767441 0.1608608808615497 0 0.36140259866133401 0.16784051670594649 0 0.3501700091587146 0.1647017280484836 0 0.36256009460767441 0.1608608808615497 0 0.36313889922033371 0.15353416452359439 0 0.35742981505192373 0.19630983020631779 0 0.35139351625075171 0.18342556379614861 0 0.34514090669745418 0.17711326512504971 0 0.3501700091587146 0.1647017280484836 0 0.35139351625075171 0.18342556379614861 0 0.35747856821933782 0.1739819090105644 0 0.35139351625075171 0.18342556379614861 0 0.34514090669745418 0.17711326512504971 0 0.34627599317980601 0.17250239170376511 0 0.35139351625075171 0.18342556379614861 0 0.34627599317980601 0.17250239170376511 0 0.35139351625075171 0.18342556379614861 0 0.35747856821933782 0.1739819090105644 0 0.3606497796283894 0.18287230419915931 0 0.3606497796283894 0.18287230419915931 0 0.36696604247152492 0.1743907929428242 0 0.36985258259709092 0.18631356824788611 0 0.35747856821933782 0.1739819090105644 0 0.3606497796283894 0.18287230419915931 0 0.36696604247152492 0.1743907929428242 0 0.35747856821933782 0.1739819090105644 0 0.36696604247152492 0.1743907929428242 0 0.36140259866133401 0.16784051670594649 0 0.36696604247152492 0.1743907929428242 0 0.36985258259709092 0.18631356824788611 0 0.38210163403596009 0.17718187998586671 0 0.36256009460767441 0.1608608808615497 0 0.37032751572771372 0.15583066665228429 0 0.36313889922033371 0.15353416452359439 0 0.36256009460767441 0.1608608808615497 0 0.36140259866133401 0.16784051670594649 0 0.36933128657331771 0.16513803789021839 0 0.36696604247152492 0.1743907929428242 0 0.36140259866133401 0.16784051670594649 0 0.36933128657331771 0.16513803789021839 0 0.36933128657331771 0.16513803789021839 0 0.37828477377907038 0.16203102217992721 0 0.3765875575594273 0.16939345358271191 0 0.36696604247152492 0.1743907929428242 0 0.36933128657331771 0.16513803789021839 0 0.3765875575594273 0.16939345358271191 0 0.36933128657331771 0.16513803789021839 0 0.37032751572771372 0.15583066665228429 0 0.37828477377907038 0.16203102217992721 0 0.36256009460767441 0.1608608808615497 0 0.36933128657331771 0.16513803789021839 0 0.37032751572771372 0.15583066665228429 0 0.36080562997394727 0.14250850356349479 0 0.37854507616054878 0.15099410779794459 0 0.36080562997394727 0.14250850356349479 0 0.37499003855381302 0.13726283652907731 0 0.37854507616054878 0.15099410779794459 0 0.36723403462800469 0.14680481054856739 0 0.37854507616054878 0.15099410779794459 0 0.36723403462800469 0.14680481054856739 0 0.36080562997394727 0.14250850356349479 0 0.37854507616054878 0.15099410779794459 0 0.37032751572771372 0.15583066665228429 0 0.36723403462800469 0.14680481054856739 0 0.37854507616054878 0.15099410779794459 0 0.36723403462800469 0.14680481054856739 0 0.36080562997394727 0.14250850356349479 0 0.36313889922033371 0.15353416452359439 0 0.37032751572771372 0.15583066665228429 0 0.36723403462800469 0.14680481054856739 0 0.36313889922033371 0.15353416452359439 0 0.34321379296915311 0.13409350768316261 0 0.34736784138561189 0.15872946413568309 0 0.36080562997394727 0.14250850356349479 0 0.3501700091587146 0.1647017280484836 0 0.36080562997394727 0.14250850356349479 0 0.3501700091587146 0.1647017280484836 0 0.36080562997394727 0.14250850356349479 0 0.36313889922033371 0.15353416452359439 0 0.34321379296915311 0.13409350768316261 0 0.34736784138561189 0.15872946413568309 0 0.34736784138561189 0.15872946413568309 0 0.3501700091587146 0.1647017280484836 0 0.36080562997394727 0.14250850356349479 0 0.34321379296915311 0.13409350768316261 0 0.36080562997394727 0.14250850356349479 0 0.35399869438917481 0.1219080370722023 0 0.34321379296915311 0.13409350768316261 0 0.36080562997394727 0.14250850356349479 0 0.35399869438917481 0.1219080370722023 0 0.37024643177976341 0.1228084938099806 0 0.36080562997394727 0.14250850356349479 0 0.37024643177976341 0.1228084938099806 0 0.36080562997394727 0.14250850356349479 0 0.37499003855381302 0.13726283652907731 0 0.37024643177976341 0.1228084938099806 0 0.36080562997394727 0.14250850356349479 0 0.38752175601251521 0.13961595134488011 0 0.38336316861955078 0.12660846451652299 0 0.39574100909009341 0.1208397880668846 0 0.37024643177976341 0.1228084938099806 0 0.37499003855381302 0.13726283652907731 0 0.38336316861955078 0.12660846451652299 0 0.37499003855381302 0.13726283652907731 0 0.38752175601251521 0.13961595134488011 0 0.38336316861955078 0.12660846451652299 0 0.40200111142085521 0.14024164487536389 0 0.42024075907098862 0.1234839746754401 0 0.39574100909009341 0.1208397880668846 0 0.40200111142085521 0.14024164487536389 0 0.39574100909009341 0.1208397880668846 0 0.38752175601251521 0.13961595134488011 0 0.40200111142085521 0.14024164487536389 0 0.39574100909009341 0.1208397880668846 0 0.40200111142085521 0.14024164487536389 0 0.3869211347148257 0.15409636844839819 0 0.40912479590572648 0.16231999104632711 0 0.40200111142085521 0.14024164487536389 0 0.40912479590572648 0.16231999104632711 0 0.38752175601251521 0.13961595134488011 0 0.40200111142085521 0.14024164487536389 0 0.3869211347148257 0.15409636844839819 0 0.40200111142085521 0.14024164487536389 0 0.3869211347148257 0.15409636844839819 0 0.38752175601251521 0.13961595134488011 0 0.3869211347148257 0.15409636844839819 0 0.37854507616054878 0.15099410779794459 0 0.37499003855381302 0.13726283652907731 0 0.38752175601251521 0.13961595134488011 0 0.37854507616054878 0.15099410779794459 0 0.3869211347148257 0.15409636844839819 0 0.37854507616054878 0.15099410779794459 0 0.38246564449786719 0.15286949843498271 0 0.37854507616054878 0.15099410779794459 0 0.37828477377907038 0.16203102217992721 0 0.3869211347148257 0.15409636844839819 0 0.38246564449786719 0.15286949843498271 0 0.37854507616054878 0.15099410779794459 0 0.38246564449786719 0.15286949843498271 0 0.37854507616054878 0.15099410779794459 0 0.37032751572771372 0.15583066665228429 0 0.37854507616054878 0.15099410779794459 0 0.37828477377907038 0.16203102217992721 0 0.3869211347148257 0.15409636844839819 0 0.38246564449786719 0.15286949843498271 0 0.37828477377907038 0.16203102217992721 0 0.3869211347148257 0.15409636844839819 0 0.37828477377907038 0.16203102217992721 0 0.3765875575594273 0.16939345358271191 0 0.38748237949609232 0.16403213560662031 0 0.38210163403596009 0.17718187998586671 0 0.37828477377907038 0.16203102217992721 0 0.3765875575594273 0.16939345358271191 0 0.38748237949609232 0.16403213560662031 0 0.38748237949609232 0.16403213560662031 0 0.38210163403596009 0.17718187998586671 0 0.39336406162745219 0.17136740534701461 0 0.3869211347148257 0.15409636844839819 0 0.37828477377907038 0.16203102217992721 0 0.38748237949609232 0.16403213560662031 0 0.36985258259709092 0.18631356824788611 0 0.38210163403596009 0.17718187998586671 0 0.38440209092165972 0.19148650078321791 0 0.36696604247152492 0.1743907929428242 0 0.3765875575594273 0.16939345358271191 0 0.38210163403596009 0.17718187998586671 0 0.38210163403596009 0.17718187998586671 0 0.3971317681530247 0.1826603854722694 0 0.38440209092165972 0.19148650078321791 0 0.3971317681530247 0.1826603854722694 0 0.41556327404340632 0.1822746857608103 0 0.40344022044588579 0.1941084061363253 0 0.3971317681530247 0.1826603854722694 0 0.39336406162745219 0.17136740534701461 0 0.40912479590572648 0.16231999104632711 0 0.38210163403596009 0.17718187998586671 0 0.3971317681530247 0.1826603854722694 0 0.39336406162745219 0.17136740534701461 0 0.3869211347148257 0.15409636844839819 0 0.38748237949609232 0.16403213560662031 0 0.40912479590572648 0.16231999104632711 0 0.3869211347148257 0.15409636844839819 0 0.40912479590572648 0.16231999104632711 0 0.38748237949609232 0.16403213560662031 0 0.39336406162745219 0.17136740534701461 0 0.40912479590572648 0.16231999104632711 0 0.40912479590572648 0.16231999104632711 0 0.4244927912928475 0.168011871906146 0 0.41995767490706309 0.14652725333721889 0 0.40912479590572648 0.16231999104632711 0 0.41556327404340632 0.1822746857608103 0 0.4244927912928475 0.168011871906146 0 0.40912479590572648 0.16231999104632711 0 0.4244927912928475 0.168011871906146 0 0.3971317681530247 0.1826603854722694 0 0.40912479590572648 0.16231999104632711 0 0.41556327404340632 0.1822746857608103 0 0.40912479590572648 0.16231999104632711 0 0.41556327404340632 0.1822746857608103 0 0.42798445754862358 0.18372281650691261 0 0.4244927912928475 0.168011871906146 0 0.43986078667996847 0.17370375276596511 0 0.41556327404340632 0.1822746857608103 0 0.42798445754862358 0.18372281650691261 0 0.4244927912928475 0.168011871906146 0 0.42798445754862358 0.18372281650691261 0 0.43800368354580899 0.19239439162634811 0 0.43986078667996847 0.17370375276596511 0 0.4244927912928475 0.168011871906146 0 0.44344292902218507 0.16160964081929399 0 0.43986078667996847 0.17370375276596511 0 0.4244927912928475 0.168011871906146 0 0.43663800479356057 0.14934831331516621 0 0.44344292902218507 0.16160964081929399 0 0.4244927912928475 0.168011871906146 0 0.43986078667996847 0.17370375276596511 0 0.4244927912928475 0.168011871906146 0 0.43663800479356057 0.14934831331516621 0 0.41995767490706309 0.14652725333721889 0 0.43663800479356057 0.14934831331516621 0 0.43547908869100882 0.13002271502298279 0 0.41995767490706309 0.14652725333721889 0 0.43547908869100882 0.13002271502298279 0 0.41995767490706309 0.14652725333721889 0 0.42024075907098862 0.1234839746754401 0 0.40200111142085521 0.14024164487536389 0 0.42024075907098862 0.1234839746754401 0 0.40200111142085521 0.14024164487536389 0 0.41995767490706309 0.14652725333721889 0 0.42024075907098862 0.1234839746754401 0 0.40200111142085521 0.14024164487536389 0 0.40912479590572648 0.16231999104632711 0 0.41995767490706309 0.14652725333721889 0 0.38663851201382071 0.25865476135483972 0 0.40418435892776822 0.24441781281166741 0 0.39125283132328131 0.24410893159101729 0 0.40418435892776822 0.24441781281166741 0 0.39569945943031198 0.23196202613029079 0 0.41166679002056011 0.23133525318919651 0 0.40418435892776822 0.24441781281166741 0 0.39125283132328131 0.24410893159101729 0 0.39569945943031198 0.23196202613029079 0 0.38058004259589451 0.26049308008921862 0 0.36932371894765859 0.24662362348609121 0 0.378588973601656 0.2414733061622891 0 0.39125283132328131 0.24410893159101729 0 0.378588973601656 0.2414733061622891 0 0.39569945943031198 0.23196202613029079 0 0.38663851201382071 0.25865476135483972 0 0.39125283132328131 0.24410893159101729 0 0.378588973601656 0.2414733061622891 0 0.378588973601656 0.2414733061622891 0 0.39569945943031198 0.23196202613029079 0 0.36858363692406482 0.22011726870885909 0 0.378588973601656 0.2414733061622891 0 0.3788429030020144 0.2211471702813016 0 0.378588973601656 0.2414733061622891 0 0.38625836140698078 0.2281332280556595 0 0.3788429030020144 0.2211471702813016 0 0.378588973601656 0.2414733061622891 0 0.38625836140698078 0.2281332280556595 0 0.39569945943031198 0.23196202613029079 0 0.38625836140698078 0.2281332280556595 0 0.3788429030020144 0.2211471702813016 0 0.38974613929147123 0.2185609016920784 0 0.38625836140698078 0.2281332280556595 0 0.39569945943031198 0.23196202613029079 0 0.38974613929147123 0.2185609016920784 0 0.39569945943031198 0.23196202613029079 0 0.41280994525896808 0.22245074609829271 0 0.39569945943031198 0.23196202613029079 0 0.40053570215891798 0.2187732742664473 0 0.41280994525896808 0.22245074609829271 0 0.39569945943031198 0.23196202613029079 0 0.40053570215891798 0.2187732742664473 0 0.38974613929147123 0.2185609016920784 0 0.40053570215891798 0.2187732742664473 0 0.39629953406111501 0.2094712172205174 0 0.40701743082119468 0.2094066048393752 0 0.39629953406111501 0.2094712172205174 0 0.40344022044588579 0.1941084061363253 0 0.40701743082119468 0.2094066048393752 0 0.40053570215891798 0.2187732742664473 0 0.39629953406111501 0.2094712172205174 0 0.38974613929147123 0.2185609016920784 0 0.39629953406111501 0.2094712172205174 0 0.38974613929147123 0.2185609016920784 0 0.38502767194033161 0.21082856139952 0 0.3788429030020144 0.2211471702813016 0 0.38974613929147123 0.2185609016920784 0 0.38502767194033161 0.21082856139952 0 0.3788429030020144 0.2211471702813016 0 0.37584758221803538 0.21041255236408449 0 0.38502767194033161 0.21082856139952 0 0.37584758221803538 0.21041255236408449 0 0.38502767194033161 0.21082856139952 0 0.37917879747998751 0.20263305225437009 0 0.37113646064022188 0.20010486602238239 0 0.37584758221803538 0.21041255236408449 0 0.37917879747998751 0.20263305225437009 0 0.38502767194033161 0.21082856139952 0 0.39022933379216718 0.20123720977384921 0 0.37917879747998751 0.20263305225437009 0 0.39629953406111501 0.2094712172205174 0 0.38502767194033161 0.21082856139952 0 0.39022933379216718 0.20123720977384921 0 0.39022933379216718 0.20123720977384921 0 0.37917879747998751 0.20263305225437009 0 0.38440209092165972 0.19148650078321791 0 0.37113646064022188 0.20010486602238239 0 0.37917879747998751 0.20263305225437009 0 0.38440209092165972 0.19148650078321791 0 0.37113646064022188 0.20010486602238239 0 0.36985258259709092 0.18631356824788611 0 0.38440209092165972 0.19148650078321791 0 0.39022933379216718 0.20123720977384921 0 0.38440209092165972 0.19148650078321791 0 0.40344022044588579 0.1941084061363253 0 0.3971317681530247 0.1826603854722694 0 0.38440209092165972 0.19148650078321791 0 0.40344022044588579 0.1941084061363253 0 0.39629953406111501 0.2094712172205174 0 0.39022933379216718 0.20123720977384921 0 0.40344022044588579 0.1941084061363253 0 0.40344022044588579 0.1941084061363253 0 0.42200175218108649 0.2022293804752934 0 0.40701743082119468 0.2094066048393752 0 0.41556327404340632 0.1822746857608103 0 0.42798445754862358 0.18372281650691261 0 0.42200175218108649 0.2022293804752934 0 0.41556327404340632 0.1822746857608103 0 0.42200175218108649 0.2022293804752934 0 0.41556327404340632 0.1822746857608103 0 0.40344022044588579 0.1941084061363253 0 0.42200175218108649 0.2022293804752934 0 0.42200175218108649 0.2022293804752934 0 0.44916797862295449 0.2108755236412265 0 0.43800368354580899 0.19239439162634811 0 0.42798445754862358 0.18372281650691261 0 0.42200175218108649 0.2022293804752934 0 0.43800368354580899 0.19239439162634811 0 0.42200175218108649 0.2022293804752934 0 0.42844023031876682 0.22218407518977651 0 0.42200175218108649 0.2022293804752934 0 0.42844023031876682 0.22218407518977651 0 0.44916797862295449 0.2108755236412265 0 0.42200175218108649 0.2022293804752934 0 0.40701743082119468 0.2094066048393752 0 0.41280994525896808 0.22245074609829271 0 0.42200175218108649 0.2022293804752934 0 0.41280994525896808 0.22245074609829271 0 0.42844023031876682 0.22218407518977651 0 0.40053570215891798 0.2187732742664473 0 0.40701743082119468 0.2094066048393752 0 0.41280994525896808 0.22245074609829271 0 0.39569945943031198 0.23196202613029079 0 0.41280994525896808 0.22245074609829271 0 0.41166679002056011 0.23133525318919651 0 0.41166679002056011 0.23133525318919651 0 0.42844023031876682 0.22218407518977651 0 0.41280994525896808 0.22245074609829271 0 0.41166679002056011 0.23133525318919651 0 0.42844023031876682 0.22218407518977651 0 0.41166679002056011 0.23133525318919651 0 0.42844023031876682 0.22218407518977651 0 0.41887843647872591 0.24294735935182671 0 0.43761662228966258 0.25062435198252192 0 0.42844023031876682 0.22218407518977651 0 0.43761662228966258 0.25062435198252192 0 0.42844023031876682 0.22218407518977651 0 0.41887843647872591 0.24294735935182671 0 0.40418435892776822 0.24441781281166741 0 0.41166679002056011 0.23133525318919651 0 0.41887843647872591 0.24294735935182671 0 0.41412833772902058 0.2567079335919053 0 0.40418435892776822 0.24441781281166741 0 0.41887843647872591 0.24294735935182671 0 0.46647269560223498 0.24648431199759091 0 0.46818421126468918 0.22302564204513389 0 0.45330158921245622 0.2573151343135 0 0.46647269560223498 0.24648431199759091 0 0.4498822179662062 0.23348212117260461 0 0.43761662228966258 0.25062435198252192 0 0.45330158921245622 0.2573151343135 0 0.4498822179662062 0.23348212117260461 0 0.43761662228966258 0.25062435198252192 0 0.42844023031876682 0.22218407518977651 0 0.4498822179662062 0.23348212117260461 0 0.42844023031876682 0.22218407518977651 0 0.4498822179662062 0.23348212117260461 0 0.44916797862295449 0.2108755236412265 0 0.46647269560223498 0.24648431199759091 0 0.4498822179662062 0.23348212117260461 0 0.46818421126468918 0.22302564204513389 0 0.4498822179662062 0.23348212117260461 0 0.46818421126468918 0.22302564204513389 0 0.44916797862295449 0.2108755236412265 0 0.46818421126468918 0.22302564204513389 0 0.44916797862295449 0.2108755236412265 0 0.46989572692714249 0.1995669720926769 0 0.44916797862295449 0.2108755236412265 0 0.46989572692714249 0.1995669720926769 0 0.42844023031876682 0.22218407518977651 0 0.44916797862295449 0.2108755236412265 0 0.44916797862295449 0.2108755236412265 0 0.43800368354580899 0.19239439162634811 0 0.455326578203119 0.18620163650020469 0 0.44916797862295449 0.2108755236412265 0 0.46989572692714249 0.1995669720926769 0 0.455326578203119 0.18620163650020469 0 0.48328074349891859 0.19226443504626001 0 0.48761145822131302 0.19476228080229729 0 0.48138454890643179 0.17913508028345609 0 0.48328074349891859 0.19226443504626001 0 0.48761145822131302 0.19476228080229729 0 0.48069283500606791 0.2047006821103956 0 0.46989572692714249 0.1995669720926769 0 0.48328074349891859 0.19226443504626001 0 0.48069283500606791 0.2047006821103956 0 0.46989572692714249 0.1995669720926769 0 0.48328074349891859 0.19226443504626001 0 0.46989572692714249 0.1995669720926769 0 0.48328074349891859 0.19226443504626001 0 0.47657566991999389 0.18630810245028251 0 0.5 0.1931052637010541 0 0.48761145822131302 0.19476228080229729 0 0.5 0.2207350369205221 0 0.48761145822131302 0.19476228080229729 0 0.48586639529002729 0.2225756789427632 0 0.48761145822131302 0.19476228080229729 0 0.5 0.2207350369205221 0 0.48586639529002729 0.2225756789427632 0 0.48761145822131302 0.19476228080229729 0 0.48069283500606791 0.2047006821103956 0 0.48586639529002729 0.2225756789427632 0 0.46818421126468918 0.22302564204513389 0 0.46989572692714249 0.1995669720926769 0 0.47657294913559212 0.2136537230155614 0 0.47657294913559212 0.2136537230155614 0 0.48069283500606791 0.2047006821103956 0 0.48586639529002729 0.2225756789427632 0 0.46818421126468918 0.22302564204513389 0 0.46989572692714249 0.1995669720926769 0 0.46989572692714249 0.1995669720926769 0 0.47657294913559212 0.2136537230155614 0 0.48069283500606791 0.2047006821103956 0 0.46818421126468918 0.22302564204513389 0 0.47657294913559212 0.2136537230155614 0 0.48586639529002729 0.2225756789427632 0 0.46818421126468918 0.22302564204513389 0 0.48586639529002729 0.2225756789427632 0 0.47616115862892328 0.2356186775171793 0 0.5 0.2207350369205221 0 0.48586639529002729 0.2225756789427632 0 0.5 0.24836481013999009 0 0.48412133235874172 0.25038907708322911 0 0.48586639529002729 0.2225756789427632 0 0.48412133235874172 0.25038907708322911 0 0.48586639529002729 0.2225756789427632 0 0.5 0.24836481013999009 0 0.48412133235874172 0.25038907708322911 0 0.46647269560223498 0.24648431199759091 0 0.47616115862892328 0.2356186775171793 0 0.48412133235874172 0.25038907708322911 0 0.48586639529002729 0.2225756789427632 0 0.47616115862892328 0.2356186775171793 0 0.46647269560223498 0.24648431199759091 0 0.46818421126468918 0.22302564204513389 0 0.47616115862892328 0.2356186775171793 0 0.4590664042670965 0.14589871250329001 0 0.4635247455507191 0.15422310313114951 0 0.4563796429463759 0.15937652171506289 0 0.4590664042670965 0.14589871250329001 0 0.44920008767933822 0.15039802850042161 0 0.4563796429463759 0.15937652171506289 0 0.4635247455507191 0.15422310313114951 0 0.46506534122158288 0.16265230564144811 0 0.47358759376782111 0.14896487266479719 0 0.4590664042670965 0.14589871250329001 0 0.4635247455507191 0.15422310313114951 0 0.47358759376782111 0.14896487266479719 0 0.4590664042670965 0.14589871250329001 0 0.46619005819430909 0.13519224431625401 0 0.47358759376782111 0.14896487266479719 0 0.45047345736747307 0.13575695414929481 0 0.46115533931384189 0.12176959511985019 0 0.44816107712235648 0.1189491540819143 0 0.4590664042670965 0.14589871250329001 0 0.46619005819430909 0.13519224431625401 0 0.45047345736747307 0.13575695414929481 0 0.46619005819430909 0.13519224431625401 0 0.45047345736747307 0.13575695414929481 0 0.46115533931384189 0.12176959511985019 0 0.46619005819430909 0.13519224431625401 0 0.47077760242136663 0.1239263104772973 0 0.46115533931384189 0.12176959511985019 0 0.43547908869100882 0.13002271502298279 0 0.45047345736747307 0.13575695414929481 0 0.44816107712235648 0.1189491540819143 0 0.43663800479356057 0.14934831331516621 0 0.43547908869100882 0.13002271502298279 0 0.45047345736747307 0.13575695414929481 0 0.43663800479356057 0.14934831331516621 0 0.45047345736747307 0.13575695414929481 0 0.44920008767933822 0.15039802850042161 0 0.4590664042670965 0.14589871250329001 0 0.45047345736747307 0.13575695414929481 0 0.44920008767933822 0.15039802850042161 0 0.43663800479356057 0.14934831331516621 0 0.44920008767933822 0.15039802850042161 0 0.44344292902218507 0.16160964081929399 0 0.44344292902218507 0.16160964081929399 0 0.43986078667996847 0.17370375276596511 0 0.45702888781230711 0.17150068748276309 0 0.44344292902218507 0.16160964081929399 0 0.4563796429463759 0.15937652171506289 0 0.45702888781230711 0.17150068748276309 0 0.44920008767933822 0.15039802850042161 0 0.44344292902218507 0.16160964081929399 0 0.4563796429463759 0.15937652171506289 0 0.43800368354580899 0.19239439162634811 0 0.43986078667996847 0.17370375276596511 0 0.455326578203119 0.18620163650020469 0 0.43986078667996847 0.17370375276596511 0 0.455326578203119 0.18620163650020469 0 0.45702888781230711 0.17150068748276309 0 0.46989572692714249 0.1995669720926769 0 0.455326578203119 0.18620163650020469 0 0.47174166034748222 0.17426592237873709 0 0.455326578203119 0.18620163650020469 0 0.45702888781230711 0.17150068748276309 0 0.47174166034748222 0.17426592237873709 0 0.4563796429463759 0.15937652171506289 0 0.45702888781230711 0.17150068748276309 0 0.46506534122158288 0.16265230564144811 0 0.45702888781230711 0.17150068748276309 0 0.46506534122158288 0.16265230564144811 0 0.47174166034748222 0.17426592237873709 0 0.4635247455507191 0.15422310313114951 0 0.4563796429463759 0.15937652171506289 0 0.46506534122158288 0.16265230564144811 0 0.47174166034748222 0.17426592237873709 0 0.47358759376782111 0.14896487266479719 0 0.47839674202618648 0.1635659757520021 0 0.47174166034748222 0.17426592237873709 0 0.47358759376782111 0.14896487266479719 0 0.46506534122158288 0.16265230564144811 0 0.47174166034748222 0.17426592237873709 0 0.47358759376782111 0.14896487266479719 0 0.47839674202618648 0.1635659757520021 0 0.48138454890643179 0.17913508028345609 0 0.48935652115259859 0.16694888266183139 0 0.47839674202618648 0.1635659757520021 0 0.48935652115259859 0.16694888266183139 0 0.48409843476034958 0.1515260014210279 0 0.46989572692714249 0.1995669720926769 0 0.47174166034748222 0.17426592237873709 0 0.46989572692714249 0.1995669720926769 0 0.47174166034748222 0.17426592237873709 0 0.47657566991999389 0.18630810245028251 0 0.47839674202618648 0.1635659757520021 0 0.47174166034748222 0.17426592237873709 0 0.48138454890643179 0.17913508028345609 0 0.47174166034748222 0.17426592237873709 0 0.48138454890643179 0.17913508028345609 0 0.47657566991999389 0.18630810245028251 0 0.48328074349891859 0.19226443504626001 0 0.48138454890643179 0.17913508028345609 0 0.47657566991999389 0.18630810245028251 0 0.48761145822131302 0.19476228080229729 0 0.48138454890643179 0.17913508028345609 0 0.48935652115259859 0.16694888266183139 0 0.5 0.1931052637010541 0 0.48761145822131302 0.19476228080229729 0 0.48935652115259859 0.16694888266183139 0 0.48761145822131302 0.19476228080229729 0 0.48935652115259859 0.16694888266183139 0 0.5 0.1931052637010541 0 0.5 0.16547549048158611 0 0.48935652115259859 0.16694888266183139 0 0.5 0.16547549048158611 0 0.48935652115259859 0.16694888266183139 0 0.49110158408388438 0.13913548452136559 0 0.48935652115259859 0.16694888266183139 0 0.48409843476034958 0.1515260014210279 0 0.49110158408388438 0.13913548452136559 0 0.5 0.16547549048158611 0 0.5 0.137845717262118 0 0.49110158408388438 0.13913548452136559 0 0.48935652115259859 0.16694888266183139 0 0.49110158408388438 0.13913548452136559 0 0.48409843476034958 0.1515260014210279 0 0.47851166698882658 0.1377814271866506 0 0.49110158408388438 0.13913548452136559 0 0.47839674202618648 0.1635659757520021 0 0.48409843476034958 0.1515260014210279 0 0.47851166698882658 0.1377814271866506 0 0.47839674202618648 0.1635659757520021 0 0.47851166698882658 0.1377814271866506 0 0.47839674202618648 0.1635659757520021 0 0.47358759376782111 0.14896487266479719 0 0.47851166698882658 0.1377814271866506 0 0.46619005819430909 0.13519224431625401 0 0.47358759376782111 0.14896487266479719 0 0.47851166698882658 0.1377814271866506 0 0.46619005819430909 0.13519224431625401 0 0.47851166698882658 0.1377814271866506 0 0.47077760242136663 0.1239263104772973 0 0.48527162250983691 0.12505896917755371 0 0.49110158408388438 0.13913548452136559 0 0.49284664701517 0.1113220863808996 0 0.5 0.137845717262118 0 0.49110158408388438 0.13913548452136559 0 0.49284664701517 0.1113220863808996 0 0.49110158408388438 0.13913548452136559 0 0.49284664701517 0.1113220863808996 0 0.47851166698882658 0.1377814271866506 0 0.48527162250983691 0.12505896917755371 0 0.49110158408388438 0.13913548452136559 0 0.5 0.137845717262118 0 0.5 0.11021594404264989 0 0.49284664701517 0.1113220863808996 0 0.48527162250983691 0.12505896917755371 0 0.49284664701517 0.1113220863808996 0 0.47862659195146662 0.11199687862129901 0 0.49284664701517 0.1113220863808996 0 0.4945917099464559 0.083508688240433684 0 0.5 0.11021594404264989 0 0.49284664701517 0.1113220863808996 0 0.4945917099464559 0.083508688240433684 0 0.49284664701517 0.1113220863808996 0 0.48541798349298959 0.098906037704802288 0 0.4945917099464559 0.083508688240433684 0 0.49284664701517 0.1113220863808996 0 0.48541798349298959 0.098906037704802288 0 0.47862659195146662 0.11199687862129901 0 0.47862659195146662 0.11199687862129901 0 0.47874151691410399 0.086212330055947334 0 0.47461186650072801 0.09709608173364323 0 0.47443907984933797 0.1051131441074387 0 0.46714403903665319 0.088190566288148031 0 0.47443907984933797 0.1051131441074387 0 0.46714403903665319 0.088190566288148031 0 0.48541798349298959 0.098906037704802288 0 0.47862659195146662 0.11199687862129901 0 0.47874151691410399 0.086212330055947334 0 0.47461186650072801 0.09709608173364323 0 0.47862659195146662 0.11199687862129901 0 0.47874151691410399 0.086212330055947334 0 0.47461186650072801 0.09709608173364323 0 0.47443907984933797 0.1051131441074387 0 0.47862659195146662 0.11199687862129901 0 0.46923729426835409 0.1130920480566765 0 0.47077760242136663 0.1239263104772973 0 0.47862659195146662 0.11199687862129901 0 0.47443907984933797 0.1051131441074387 0 0.46923729426835409 0.1130920480566765 0 0.47862659195146662 0.11199687862129901 0 0.47851166698882658 0.1377814271866506 0 0.47077760242136663 0.1239263104772973 0 0.47862659195146662 0.11199687862129901 0 0.47851166698882658 0.1377814271866506 0 0.48527162250983691 0.12505896917755371 0 0.47862659195146662 0.11199687862129901 0 0.47851166698882658 0.1377814271866506 0 0.47862659195146662 0.11199687862129901 0 0.49999999999999722 0.08258617082318187 0 0.4945917099464559 0.083508688240433684 0 0.49639447329763597 0.054775641460008358 0 0.4945917099464559 0.083508688240433684 0 0.49639447329763597 0.054775641460008358 0 0.4945917099464559 0.083508688240433684 0 0.4819140069428729 0.062282020943584468 0 0.49639447329763597 0.054775641460008358 0 0.4945917099464559 0.083508688240433684 0 0.47878599972034208 0.076232173862272129 0 0.4819140069428729 0.062282020943584468 0 0.49999999999999722 0.08258617082318187 0 0.49639447329763597 0.054775641460008358 0 0.5 0.054160629848507218 0 0.4945917099464559 0.083508688240433684 0 0.47874151691410399 0.086212330055947334 0 0.48541798349298959 0.098906037704802288 0 0.4945917099464559 0.083508688240433684 0 0.47874151691410399 0.086212330055947334 0 0.5 0.11021594404264989 0 0.49999999999999722 0.08258617082318187 0 0.4945917099464559 0.083508688240433684 0 0.49999999999999722 0.08258617082318187 0 0.4945917099464559 0.083508688240433684 0 0.4945917099464559 0.083508688240433684 0 0.47874151691410399 0.086212330055947334 0 0.47878599972034208 0.076232173862272129 0 0.47874151691410399 0.086212330055947334 0 0.46714403903665319 0.088190566288148031 0 0.47874151691410399 0.086212330055947334 0 0.47040151400564473 0.083410484277634228 0 0.46714403903665319 0.088190566288148031 0 0.47461186650072801 0.09709608173364323 0 0.47874151691410399 0.086212330055947334 0 0.46714403903665319 0.088190566288148031 0 0.47874151691410399 0.086212330055947334 0 0.47040151400564473 0.083410484277634228 0 0.47357737158905061 0.080264540505065485 0 0.47357737158905061 0.080264540505065485 0 0.47274933190748458 0.076062332782640324 0 0.46780881589218448 0.079780838323736294 0 0.47040151400564473 0.083410484277634228 0 0.47357737158905061 0.080264540505065485 0 0.46780881589218448 0.079780838323736294 0 0.47874151691410399 0.086212330055947334 0 0.47878599972034208 0.076232173862272129 0 0.47874151691410399 0.086212330055947334 0 0.47357737158905061 0.080264540505065485 0 0.47878599972034208 0.076232173862272129 0 0.47878599972034208 0.076232173862272129 0 0.47274933190748458 0.076062332782640324 0 0.47082514042836132 0.067971778439487388 0 0.47274933190748458 0.076062332782640324 0 0.47082514042836132 0.067971778439487388 0 0.46780881589218448 0.079780838323736294 0 0.47357737158905061 0.080264540505065485 0 0.47878599972034208 0.076232173862272129 0 0.47274933190748458 0.076062332782640324 0 0.47878599972034208 0.076232173862272129 0 0.47082514042836132 0.067971778439487388 0 0.4819140069428729 0.062282020943584468 0 0.456247829584146 0.062914223478015868 0 0.45400944014466782 0.078973734162567144 0 0.46473582659623103 0.082604146215274371 0 0.456247829584146 0.062914223478015868 0 0.46780881589218448 0.079780838323736294 0 0.46473582659623103 0.082604146215274371 0 0.456247829584146 0.062914223478015868 0 0.46473582659623103 0.082604146215274371 0 0.47082514042836132 0.067971778439487388 0 0.456247829584146 0.062914223478015868 0 0.46780881589218448 0.079780838323736294 0 0.45400944014466782 0.078973734162567144 0 0.46473582659623103 0.082604146215274371 0 0.45672005437125429 0.089968634275591736 0 0.47040151400564473 0.083410484277634228 0 0.46780881589218448 0.079780838323736294 0 0.46473582659623103 0.082604146215274371 0 0.46780881589218448 0.079780838323736294 0 0.46473582659623103 0.082604146215274371 0 0.47040151400564473 0.083410484277634228 0 0.46473582659623103 0.082604146215274371 0 0.46714403903665319 0.088190566288148031 0 0.46473582659623103 0.082604146215274371 0 0.46714403903665319 0.088190566288148031 0 0.46473582659623103 0.082604146215274371 0 0.46714403903665319 0.088190566288148031 0 0.45672005437125429 0.089968634275591736 0 0.46714403903665319 0.088190566288148031 0 0.45672005437125429 0.089968634275591736 0 0.46714403903665319 0.088190566288148031 0 0.45672005437125429 0.089968634275591736 0 0.46304209408661079 0.095587291200544974 0 0.46473582659623103 0.082604146215274371 0 0.45672005437125429 0.089968634275591736 0 0.45672005437125429 0.089968634275591736 0 0.44292045171840128 0.076678174609247612 0 0.43430700516728021 0.093791733269861621 0 0.45672005437125429 0.089968634275591736 0 0.43430700516728021 0.093791733269861621 0 0.45400944014466782 0.078973734162567144 0 0.45672005437125429 0.089968634275591736 0 0.44292045171840128 0.076678174609247612 0 0.456247829584146 0.062914223478015868 0 0.45400944014466782 0.078973734162567144 0 0.44292045171840128 0.076678174609247612 0 0.456247829584146 0.062914223478015868 0 0.44292045171840128 0.076678174609247612 0 0.43751795476330879 0.055763835413043923 0 0.46115533931384189 0.12176959511985019 0 0.46038596313359148 0.1036173883458672 0 0.44816107712235648 0.1189491540819143 0 0.46923729426835409 0.1130920480566765 0 0.46115533931384189 0.12176959511985019 0 0.46038596313359148 0.1036173883458672 0 0.46923729426835409 0.1130920480566765 0 0.47077760242136663 0.1239263104772973 0 0.46115533931384189 0.12176959511985019 0 0.47443907984933797 0.1051131441074387 0 0.46923729426835409 0.1130920480566765 0 0.46038596313359148 0.1036173883458672 0 0.47443907984933797 0.1051131441074387 0 0.46714403903665319 0.088190566288148031 0 0.46304209408661079 0.095587291200544974 0 0.47443907984933797 0.1051131441074387 0 0.46304209408661079 0.095587291200544974 0 0.46038596313359148 0.1036173883458672 0 0.45672005437125429 0.089968634275591736 0 0.46304209408661079 0.095587291200544974 0 0.46038596313359148 0.1036173883458672 0 0.45672005437125429 0.089968634275591736 0 0.43848040672112221 0.10672630447551661 0 0.43430700516728021 0.093791733269861621 0 0.45672005437125429 0.089968634275591736 0 0.43848040672112221 0.10672630447551661 0 0.45672005437125429 0.089968634275591736 0 0.46038596313359148 0.1036173883458672 0 0.43848040672112221 0.10672630447551661 0 0.43547908869100882 0.13002271502298279 0 0.43848040672112221 0.10672630447551661 0 0.44816107712235648 0.1189491540819143 0 0.46038596313359148 0.1036173883458672 0 0.43848040672112221 0.10672630447551661 0 0.44816107712235648 0.1189491540819143 0 0.43848040672112221 0.10672630447551661 0 0.42024075907098862 0.1234839746754401 0 0.42515003671080059 0.10456687022217841 0 0.43848040672112221 0.10672630447551661 0 0.42024075907098862 0.1234839746754401 0 0.43547908869100882 0.13002271502298279 0 0.43848040672112221 0.10672630447551661 0 0.42024075907098862 0.1234839746754401 0 0.42024075907098862 0.1234839746754401 0 0.41189395596330619 0.097614832264133145 0 0.39574100909009341 0.1208397880668846 0 0.42024075907098862 0.1234839746754401 0 0.41189395596330619 0.097614832264133145 0 0.42515003671080059 0.10456687022217841 0 0.41189395596330619 0.097614832264133145 0 0.42515003671080059 0.10456687022217841 0 0.43430700516728021 0.093791733269861621 0 0.41189395596330619 0.097614832264133145 0 0.43430700516728021 0.093791733269861621 0 0.43848040672112221 0.10672630447551661 0 0.42515003671080059 0.10456687022217841 0 0.43430700516728021 0.093791733269861621 0 0.41189395596330619 0.097614832264133145 0 0.43430700516728021 0.093791733269861621 0 0.42048429453065939 0.080623140408621535 0 0.44292045171840128 0.076678174609247612 0 0.43430700516728021 0.093791733269861621 0 0.42048429453065939 0.080623140408621535 0 0.44292045171840128 0.076678174609247612 0 0.42424804889982048 0.065426101700308367 0 0.43751795476330879 0.055763835413043923 0 0.44292045171840128 0.076678174609247612 0 0.42424804889982048 0.065426101700308367 0 0.42048429453065939 0.080623140408621535 0 0.42048429453065939 0.080623140408621535 0 0.40442596791382002 0.083343980594271283 0 0.40511033752132819 0.066884020013907267 0 0.42424804889982048 0.065426101700308367 0 0.42048429453065939 0.080623140408621535 0 0.40511033752132819 0.066884020013907267 0 0.41189395596330619 0.097614832264133145 0 0.42048429453065939 0.080623140408621535 0 0.40442596791382002 0.083343980594271283 0 0.41189395596330619 0.097614832264133145 0 0.40442596791382002 0.083343980594271283 0 0.395384077952457 0.089814872659339864 0 0.40442596791382002 0.083343980594271283 0 0.39482724903340061 0.079371470439645556 0 0.395384077952457 0.089814872659339864 0 0.39482724903340061 0.079371470439645556 0 0.395384077952457 0.089814872659339864 0 0.38395089099099178 0.084298822595804374 0 0.40442596791382002 0.083343980594271283 0 0.39482724903340061 0.079371470439645556 0 0.40511033752132819 0.066884020013907267 0 0.39482724903340061 0.079371470439645556 0 0.40511033752132819 0.066884020013907267 0 0.3898699380775868 0.070984043620709911 0 0.40511033752132819 0.066884020013907267 0 0.3898699380775868 0.070984043620709911 0 0.3936427552977666 0.060525515111951138 0 0.37215165871465189 0.078948867584241494 0 0.37842087522265277 0.067159713933203302 0 0.38395089099099178 0.084298822595804374 0 0.37842087522265277 0.067159713933203302 0 0.38395089099099178 0.084298822595804374 0 0.3898699380775868 0.070984043620709911 0 0.37842087522265277 0.067159713933203302 0 0.38395089099099178 0.084298822595804374 0 0.3898699380775868 0.070984043620709911 0 0.3799463339813246 0.057940819005673293 0 0.3898699380775868 0.070984043620709911 0 0.3799463339813246 0.057940819005673293 0 0.3936427552977666 0.060525515111951138 0 0.3898699380775868 0.070984043620709911 0 0.37842087522265277 0.067159713933203302 0 0.3799463339813246 0.057940819005673293 0 0.395384077952457 0.089814872659339864 0 0.38395089099099178 0.084298822595804374 0 0.38948090675933228 0.1014379312584049 0 0.38395089099099178 0.084298822595804374 0 0.38948090675933228 0.1014379312584049 0 0.38475554919631771 0.092532489663286782 0 0.38395089099099178 0.084298822595804374 0 0.38948090675933228 0.1014379312584049 0 0.39482724903340061 0.079371470439645556 0 0.3898699380775868 0.070984043620709911 0 0.38395089099099178 0.084298822595804374 0 0.37215165871465189 0.078948867584241494 0 0.38395089099099178 0.084298822595804374 0 0.37558552895051028 0.088946101461699845 0 0.38475554919631771 0.092532489663286782 0 0.38395089099099178 0.084298822595804374 0 0.37558552895051028 0.088946101461699845 0 0.37285208850655238 0.096496024901164948 0 0.38475554919631771 0.092532489663286782 0 0.37558552895051028 0.088946101461699845 0 0.38475554919631771 0.092532489663286782 0 0.37968723358557949 0.1031084840564665 0 0.37285208850655238 0.096496024901164948 0 0.38475554919631771 0.092532489663286782 0 0.37968723358557949 0.1031084840564665 0 0.38475554919631771 0.092532489663286782 0 0.38948090675933228 0.1014379312584049 0 0.37968723358557949 0.1031084840564665 0 0.38948090675933228 0.1014379312584049 0 0.37968723358557949 0.1031084840564665 0 0.38370374996686391 0.11496063234165189 0 0.38948090675933228 0.1014379312584049 0 0.37968723358557949 0.1031084840564665 0 0.38948090675933228 0.1014379312584049 0 0.38370374996686391 0.11496063234165189 0 0.39574100909009341 0.1208397880668846 0 0.37024643177976341 0.1228084938099806 0 0.37968723358557949 0.1031084840564665 0 0.38370374996686391 0.11496063234165189 0 0.37024643177976341 0.1228084938099806 0 0.38336316861955078 0.12660846451652299 0 0.38370374996686391 0.11496063234165189 0 0.38336316861955078 0.12660846451652299 0 0.38370374996686391 0.11496063234165189 0 0.39574100909009341 0.1208397880668846 0 0.38948090675933228 0.1014379312584049 0 0.39574100909009341 0.1208397880668846 0 0.41189395596330619 0.097614832264133145 0 0.38948090675933228 0.1014379312584049 0 0.41189395596330619 0.097614832264133145 0 0.395384077952457 0.089814872659339864 0 0.38948090675933228 0.1014379312584049 0 0.41189395596330619 0.097614832264133145 0 0.38948090675933228 0.1014379312584049 0 0.39574100909009341 0.1208397880668846 0 0.39999075456705019 0.02934179217231617 0 0.38946858158488262 0.0039612245988322903 0 0.41338291642589359 0.014099925906150281 0 0.39999075456705019 0.02934179217231617 0 0.38946858158488262 0.0039612245988322903 0 0.38946858158488262 0.0039612245988322903 0 0.41338291642589359 0.014099925906150281 0 0.41302051867945477 -0.0059717909655199412 0 0.38946858158488262 0.0039612245988322903 0 0.37915319675336823 0.015039813914909489 0 0.3738576177168153 -0.004268612177127571 0 0.39999075456705019 0.02934179217231617 0 0.37915319675336823 0.015039813914909489 0 0.38039569086213249 0.028084558762593359 0 0.39999075456705019 0.02934179217231617 0 0.38039569086213249 0.028084558762593359 0 0.39044523837544881 0.035355236154904338 0 0.39999075456705019 0.02934179217231617 0 0.38946858158488262 0.0039612245988322903 0 0.37915319675336823 0.015039813914909489 0 0.36629522817474292 0.023804747793502931 0 0.37915319675336823 0.015039813914909489 0 0.38039569086213249 0.028084558762593359 0 0.37219582013524471 0.033797194025992641 0 0.38039569086213249 0.028084558762593359 0 0.38261346494514198 0.041156982035331337 0 0.38039569086213249 0.028084558762593359 0 0.38261346494514198 0.041156982035331337 0 0.39044523837544881 0.035355236154904338 0 0.3799463339813246 0.057940819005673293 0 0.39964441161082659 0.04629317780751422 0 0.38261346494514198 0.041156982035331337 0 0.3799463339813246 0.057940819005673293 0 0.39964441161082659 0.04629317780751422 0 0.36981609488045142 0.044626000849385797 0 0.38261346494514198 0.041156982035331337 0 0.3799463339813246 0.057940819005673293 0 0.3799463339813246 0.057940819005673293 0 0.3936427552977666 0.060525515111951138 0 0.39964441161082659 0.04629317780751422 0 0.40511033752132819 0.066884020013907267 0 0.3936427552977666 0.060525515111951138 0 0.39964441161082659 0.04629317780751422 0 0.39999075456705019 0.02934179217231617 0 0.39044523837544881 0.035355236154904338 0 0.39964441161082659 0.04629317780751422 0 0.38261346494514198 0.041156982035331337 0 0.39044523837544881 0.035355236154904338 0 0.39964441161082659 0.04629317780751422 0 0.39964441161082659 0.04629317780751422 0 0.41934248924032808 0.034645536609353857 0 0.39999075456705019 0.02934179217231617 0 0.39964441161082659 0.04629317780751422 0 0.41934248924032808 0.034645536609353857 0 0.39964441161082659 0.04629317780751422 0 0.41934248924032808 0.034645536609353857 0 0.41979572212394728 0.050676435689729238 0 0.40511033752132819 0.066884020013907267 0 0.39964441161082659 0.04629317780751422 0 0.41979572212394728 0.050676435689729238 0 0.42424804889982048 0.065426101700308367 0 0.40511033752132819 0.066884020013907267 0 0.41979572212394728 0.050676435689729238 0 0.41979572212394728 0.050676435689729238 0 0.43501066723391019 0.036105086021602922 0 0.43751795476330879 0.055763835413043923 0 0.42424804889982048 0.065426101700308367 0 0.41979572212394728 0.050676435689729238 0 0.43751795476330879 0.055763835413043923 0 0.41934248924032808 0.034645536609353857 0 0.41979572212394728 0.050676435689729238 0 0.43501066723391019 0.036105086021602922 0 0.41934248924032808 0.034645536609353857 0 0.4257576505595802 0.019175780584254089 0 0.43955725492658898 0.022692373359261799 0 0.43501066723391019 0.036105086021602922 0 0.43955725492658898 0.022692373359261799 0 0.41934248924032808 0.034645536609353857 0 0.43955725492658898 0.022692373359261799 0 0.41934248924032808 0.034645536609353857 0 0.43501066723391019 0.036105086021602922 0 0.43955725492658898 0.022692373359261799 0 0.41934248924032808 0.034645536609353857 0 0.4257576505595802 0.019175780584254089 0 0.41338291642589359 0.014099925906150281 0 0.39999075456705019 0.02934179217231617 0 0.41934248924032808 0.034645536609353857 0 0.41338291642589359 0.014099925906150281 0 0.41338291642589359 0.014099925906150281 0 0.43126462970226959 0.0049597644103186664 0 0.41302051867945477 -0.0059717909655199412 0 0.4257576505595802 0.019175780584254089 0 0.41338291642589359 0.014099925906150281 0 0.43126462970226959 0.0049597644103186664 0 0.4257576505595802 0.019175780584254089 0 0.43126462970226959 0.0049597644103186664 0 0.43955725492658898 0.022692373359261799 0 0.43126462970226959 0.0049597644103186664 0 0.43955725492658898 0.022692373359261799 0 0.43126462970226959 0.0049597644103186664 0 0.44723804234407388 3.3579200931159459e-05 0 0.43955725492658898 0.022692373359261799 0 0.44723804234407388 3.3579200931159459e-05 0 0.45209714725082439 0.01527742814463133 0 0.43955725492658898 0.022692373359261799 0 0.44723804234407388 3.3579200931159459e-05 0 0.43955725492658898 0.022692373359261799 0 0.43955725492658898 0.022692373359261799 0 0.45048795011224663 0.02686699417458235 0 0.44775983257206081 0.043224300740757428 0 0.45209714725082439 0.01527742814463133 0 0.43955725492658898 0.022692373359261799 0 0.45209714725082439 0.01527742814463133 0 0.43955725492658898 0.022692373359261799 0 0.45048795011224663 0.02686699417458235 0 0.45209714725082439 0.01527742814463133 0 0.45048795011224663 0.02686699417458235 0 0.47141119738310822 0.019676376630093188 0 0.45048795011224663 0.02686699417458235 0 0.47439059054789751 0.039259698530621841 0 0.47141119738310822 0.019676376630093188 0 0.45209714725082439 0.01527742814463133 0 0.46134943791370853 0.0047504983885005101 0 0.47141119738310822 0.019676376630093188 0 0.44723804234407388 3.3579200931159459e-05 0 0.45209714725082439 0.01527742814463133 0 0.46134943791370853 0.0047504983885005101 0 0.456247829584146 0.062914223478015868 0 0.44775983257206081 0.043224300740757428 0 0.456247829584146 0.062914223478015868 0 0.43751795476330879 0.055763835413043923 0 0.44775983257206081 0.043224300740757428 0 0.43955725492658898 0.022692373359261799 0 0.44775983257206081 0.043224300740757428 0 0.43501066723391019 0.036105086021602922 0 0.43751795476330879 0.055763835413043923 0 0.44775983257206081 0.043224300740757428 0 0.43501066723391019 0.036105086021602922 0 0.43955725492658898 0.022692373359261799 0 0.44775983257206081 0.043224300740757428 0 0.45048795011224663 0.02686699417458235 0 0.44775983257206081 0.043224300740757428 0 0.47439059054789751 0.039259698530621841 0 0.44775983257206081 0.043224300740757428 0 0.46616437142405159 0.053442746784946482 0 0.47439059054789751 0.039259698530621841 0 0.456247829584146 0.062914223478015868 0 0.44775983257206081 0.043224300740757428 0 0.46616437142405159 0.053442746784946482 0 0.47082514042836132 0.067971778439487388 0 0.456247829584146 0.062914223478015868 0 0.46616437142405159 0.053442746784946482 0 0.47082514042836132 0.067971778439487388 0 0.46616437142405159 0.053442746784946482 0 0.4819140069428729 0.062282020943584468 0 0.4819140069428729 0.062282020943584468 0 0.47439059054789751 0.039259698530621841 0 0.49639447329763597 0.054775641460008358 0 0.46616437142405159 0.053442746784946482 0 0.4819140069428729 0.062282020943584468 0 0.47439059054789751 0.039259698530621841 0 0.49639447329763597 0.054775641460008358 0 0.49819723664881632 0.026042594679582951 0 0.47439059054789751 0.039259698530621841 0 0.49639447329763597 0.054775641460008358 0 0.49819723664881632 0.026042594679582951 0 0.5 0.054160629848507218 0 0.49819723664881632 0.026042594679582951 0 0.5 0.02573508887383236 0 0.49639447329763597 0.054775641460008358 0 0.5 0.054160629848507218 0 0.49819723664881632 0.026042594679582951 0 0.46134943791370853 0.0047504983885005101 0 0.47464831310884248 0.00016796968758280909 0 0.47141119738310822 0.019676376630093188 0 0.47464831310884248 0.00016796968758280909 0 0.47141119738310822 0.019676376630093188 0 0.48696935039161432 0.011286432368040319 0 0.47439059054789751 0.039259698530621841 0 0.47141119738310822 0.019676376630093188 0 0.49819723664881632 0.026042594679582951 0 0.49819723664881632 0.026042594679582951 0 0.5 0.02573508887383236 0 0.49999999999999822 -0.0026904521008423552 0 0.47141119738310822 0.019676376630093188 0 0.49819723664881632 0.026042594679582951 0 0.48696935039161432 0.011286432368040319 0 0.49819723664881632 0.026042594679582951 0 0.49999999999999822 -0.0026904521008423552 0 0.47464831310884248 0.00016796968758280909 0 0.48696935039161432 0.011286432368040319 0 0.49999999999999822 -0.0026904521008423552 0 0.49819723664881632 0.026042594679582951 0 0.48696935039161432 0.011286432368040319 0 0.49999999999999822 -0.0026904521008423552 0 0.47464831310884248 0.00016796968758280909 0 0.49999999999999822 -0.0026904521008423552 0 0.4813541417851338 -0.018308582994744201 0 0.47464831310884248 0.00016796968758280909 0 0.4813541417851338 -0.018308582994744201 0 0.46459158969292969 -0.01055006048421395 0 0.4813541417851338 -0.018308582994744201 0 0.46459158969292969 -0.01055006048421395 0 0.46804077324426191 -0.027318612230154301 0 0.4813541417851338 -0.018308582994744201 0 0.47778280313533622 -0.039809065928519058 0 0.46804077324426191 -0.027318612230154301 0 0.4813541417851338 -0.018308582994744201 0 0.5 -0.027373799057003771 0 0.47778280313533622 -0.039809065928519058 0 0.49999999999999822 -0.0026904521008423552 0 0.4813541417851338 -0.018308582994744201 0 0.5 -0.027373799057003771 0 0.5 -0.027373799057003771 0 0.5 -0.052057146013165252 0 0.47778280313533622 -0.039809065928519058 0 0.5 -0.052057146013165252 0 0.4729148758540338 -0.049556000010722072 0 0.48271107741736552 -0.062998672759842944 0 0.5 -0.052057146013165252 0 0.4729148758540338 -0.049556000010722072 0 0.47778280313533622 -0.039809065928519058 0 0.4729148758540338 -0.049556000010722072 0 0.46652313559077879 -0.060063135576112009 0 0.48271107741736552 -0.062998672759842944 0 0.47778280313533622 -0.039809065928519058 0 0.46259961717904152 -0.045284009115730592 0 0.46804077324426191 -0.027318612230154301 0 0.4729148758540338 -0.049556000010722072 0 0.47778280313533622 -0.039809065928519058 0 0.46259961717904152 -0.045284009115730592 0 0.47778280313533622 -0.039809065928519058 0 0.46259961717904152 -0.045284009115730592 0 0.46259961717904152 -0.045284009115730592 0 0.44592774687565773 -0.038304174651733212 0 0.45491882976155767 -0.022625214957399699 0 0.46259961717904152 -0.045284009115730592 0 0.45491882976155767 -0.022625214957399699 0 0.46259961717904152 -0.045284009115730592 0 0.46804077324426191 -0.027318612230154301 0 0.45491882976155767 -0.022625214957399699 0 0.4729148758540338 -0.049556000010722072 0 0.46259961717904152 -0.045284009115730592 0 0.46652313559077879 -0.060063135576112009 0 0.46259961717904152 -0.045284009115730592 0 0.46652313559077879 -0.060063135576112009 0 0.45266952216988249 -0.059131787211089359 0 0.46259961717904152 -0.045284009115730592 0 0.43754712774115367 -0.054317749252053932 0 0.46259961717904152 -0.045284009115730592 0 0.43754712774115367 -0.054317749252053932 0 0.45266952216988249 -0.059131787211089359 0 0.46259961717904152 -0.045284009115730592 0 0.43754712774115367 -0.054317749252053932 0 0.44592774687565773 -0.038304174651733212 0 0.44592774687565773 -0.038304174651733212 0 0.45491882976155767 -0.022625214957399699 0 0.43280750031677678 -0.017797967147077941 0 0.44723804234407388 3.3579200931159459e-05 0 0.45491882976155767 -0.022625214957399699 0 0.44723804234407388 3.3579200931159459e-05 0 0.45491882976155767 -0.022625214957399699 0 0.43280750031677678 -0.017797967147077941 0 0.44723804234407388 3.3579200931159459e-05 0 0.46459158969292969 -0.01055006048421395 0 0.45491882976155767 -0.022625214957399699 0 0.44723804234407388 3.3579200931159459e-05 0 0.46134943791370853 0.0047504983885005101 0 0.46459158969292969 -0.01055006048421395 0 0.46134943791370853 0.0047504983885005101 0 0.47464831310884248 0.00016796968758280909 0 0.46459158969292969 -0.01055006048421395 0 0.46459158969292969 -0.01055006048421395 0 0.46804077324426191 -0.027318612230154301 0 0.45491882976155767 -0.022625214957399699 0 0.48050208680218681 -0.1182835017847277 0 0.46442503025909121 -0.10907969535257619 0 0.46385687996953689 -0.1282317786652073 0 0.48050208680218681 -0.1182835017847277 0 0.5 -0.1029626217301577 0 0.5 -0.12918475049098879 0 0.48050208680218681 -0.1182835017847277 0 0.5 -0.1029626217301577 0 0.48221251512954499 -0.092910094160951195 0 0.48221251512954499 -0.092910094160951195 0 0.4646281921197673 -0.089822745220971195 0 0.46442503025909121 -0.10907969535257619 0 0.48050208680218681 -0.1182835017847277 0 0.48221251512954499 -0.092910094160951195 0 0.46442503025909121 -0.10907969535257619 0 0.48221251512954499 -0.092910094160951195 0 0.46442503025909121 -0.10907969535257619 0 0.48221251512954499 -0.092910094160951195 0 0.47495621354787382 -0.07748337962591445 0 0.4646281921197673 -0.089822745220971195 0 0.5 -0.1029626217301577 0 0.48221251512954499 -0.092910094160951195 0 0.49999999999999922 -0.07674049296932671 0 0.48221251512954499 -0.092910094160951195 0 0.49999999999999922 -0.07674049296932671 0 0.47495621354787382 -0.07748337962591445 0 0.48221251512954499 -0.092910094160951195 0 0.49999999999999922 -0.07674049296932671 0 0.5 -0.052057146013165252 0 0.49999999999999922 -0.07674049296932671 0 0.48271107741736552 -0.062998672759842944 0 0.49999999999999922 -0.07674049296932671 0 0.47495621354787382 -0.07748337962591445 0 0.48271107741736552 -0.062998672759842944 0 0.46652313559077879 -0.060063135576112009 0 0.47495621354787382 -0.07748337962591445 0 0.48271107741736552 -0.062998672759842944 0 0.46652313559077879 -0.060063135576112009 0 0.47495621354787382 -0.07748337962591445 0 0.45602940751837667 -0.076007510552390078 0 0.46652313559077879 -0.060063135576112009 0 0.45266952216988249 -0.059131787211089359 0 0.45602940751837667 -0.076007510552390078 0 0.43754712774115367 -0.054317749252053932 0 0.45266952216988249 -0.059131787211089359 0 0.43219598881669108 -0.075029890540612376 0 0.45266952216988249 -0.059131787211089359 0 0.45602940751837667 -0.076007510552390078 0 0.43219598881669108 -0.075029890540612376 0 0.45602940751837667 -0.076007510552390078 0 0.44592873971488622 -0.092529291809570494 0 0.43219598881669108 -0.075029890540612376 0 0.47495621354787382 -0.07748337962591445 0 0.45602940751837667 -0.076007510552390078 0 0.4646281921197673 -0.089822745220971195 0 0.45602940751837667 -0.076007510552390078 0 0.44592873971488622 -0.092529291809570494 0 0.4646281921197673 -0.089822745220971195 0 0.44592873971488622 -0.092529291809570494 0 0.4646281921197673 -0.089822745220971195 0 0.46442503025909121 -0.10907969535257619 0 0.44592873971488622 -0.092529291809570494 0 0.46442503025909121 -0.10907969535257619 0 0.4366385058986238 -0.1086537713026329 0 0.46442503025909121 -0.10907969535257619 0 0.4366385058986238 -0.1086537713026329 0 0.44663754538863742 -0.12524929654420119 0 0.46442503025909121 -0.10907969535257619 0 0.44663754538863742 -0.12524929654420119 0 0.46442503025909121 -0.10907969535257619 0 0.46385687996953689 -0.1282317786652073 0 0.44663754538863742 -0.12524929654420119 0 0.40995839594710992 -0.1209134298594471 0 0.42598759425215799 -0.11940928524243399 0 0.4144689993270137 -0.1065021061289604 0 0.40995839594710992 -0.1209134298594471 0 0.42598759425215799 -0.11940928524243399 0 0.42268949967717462 -0.13218444754753181 0 0.42598759425215799 -0.11940928524243399 0 0.4366385058986238 -0.1086537713026329 0 0.44663754538863742 -0.12524929654420119 0 0.42598759425215799 -0.11940928524243399 0 0.4366385058986238 -0.1086537713026329 0 0.4144689993270137 -0.1065021061289604 0 0.4366385058986238 -0.1086537713026329 0 0.4144689993270137 -0.1065021061289604 0 0.42696575071785281 -0.093722877257969101 0 0.44592873971488622 -0.092529291809570494 0 0.4366385058986238 -0.1086537713026329 0 0.42696575071785281 -0.093722877257969101 0 0.4144689993270137 -0.1065021061289604 0 0.42696575071785281 -0.093722877257969101 0 0.4055965198320492 -0.085899326508069376 0 0.42696575071785281 -0.093722877257969101 0 0.43219598881669108 -0.075029890540612376 0 0.4055965198320492 -0.085899326508069376 0 0.44592873971488622 -0.092529291809570494 0 0.42696575071785281 -0.093722877257969101 0 0.43219598881669108 -0.075029890540612376 0 0.43754712774115367 -0.054317749252053932 0 0.43219598881669108 -0.075029890540612376 0 0.41249463830326588 -0.063351489388377549 0 0.43219598881669108 -0.075029890540612376 0 0.41249463830326588 -0.063351489388377549 0 0.4055965198320492 -0.085899326508069376 0 0.41249463830326588 -0.063351489388377549 0 0.3874421488653782 -0.072385229524701181 0 0.4055965198320492 -0.085899326508069376 0 0.41249463830326588 -0.063351489388377549 0 0.3874421488653782 -0.072385229524701181 0 0.3874421488653782 -0.072385229524701181 0 0.38068250715432339 -0.089956622118686991 0 0.36238965942749052 -0.081418969661024798 0 0.3874421488653782 -0.072385229524701181 0 0.38068250715432339 -0.089956622118686991 0 0.4055965198320492 -0.085899326508069376 0 0.38068250715432339 -0.089956622118686991 0 0.4055965198320492 -0.085899326508069376 0 0.39094517410344359 -0.1034688755680841 0 0.4144689993270137 -0.1065021061289604 0 0.4055965198320492 -0.085899326508069376 0 0.39094517410344359 -0.1034688755680841 0 0.38068250715432339 -0.089956622118686991 0 0.39094517410344359 -0.1034688755680841 0 0.37326840566133468 -0.1035330532126524 0 0.39094517410344359 -0.1034688755680841 0 0.37030972864660971 -0.12158277342734899 0 0.39094517410344359 -0.1034688755680841 0 0.39193838726317642 -0.1204903344663196 0 0.37030972864660971 -0.12158277342734899 0 0.39094517410344359 -0.1034688755680841 0 0.37030972864660971 -0.12158277342734899 0 0.37326840566133468 -0.1035330532126524 0 0.4144689993270137 -0.1065021061289604 0 0.39094517410344359 -0.1034688755680841 0 0.39193838726317642 -0.1204903344663196 0 0.40995839594710992 -0.1209134298594471 0 0.39193838726317642 -0.1204903344663196 0 0.40107417029805159 -0.12789820224764609 0 0.4144689993270137 -0.1065021061289604 0 0.39193838726317642 -0.1204903344663196 0 0.40995839594710992 -0.1209134298594471 0 0.4144689993270137 -0.1065021061289604 0 0.39193838726317642 -0.1204903344663196 0 0.4131021505695639 -0.026289618326543591 0 0.41302051867945477 -0.0059717909655199412 0 0.43280750031677678 -0.017797967147077941 0 0.4131021505695639 -0.026289618326543591 0 0.41302051867945477 -0.0059717909655199412 0 0.3979337366961847 -0.017690348169954039 0 0.43126462970226959 0.0049597644103186664 0 0.41302051867945477 -0.0059717909655199412 0 0.43280750031677678 -0.017797967147077941 0 0.43126462970226959 0.0049597644103186664 0 0.44723804234407388 3.3579200931159459e-05 0 0.43280750031677678 -0.017797967147077941 0 0.4131021505695639 -0.026289618326543591 0 0.43280750031677678 -0.017797967147077941 0 0.42228996955309661 -0.041780967336820997 0 0.43754712774115367 -0.054317749252053932 0 0.44592774687565773 -0.038304174651733212 0 0.42228996955309661 -0.041780967336820997 0 0.44592774687565773 -0.038304174651733212 0 0.43280750031677678 -0.017797967147077941 0 0.42228996955309661 -0.041780967336820997 0 0.43754712774115367 -0.054317749252053932 0 0.41249463830326588 -0.063351489388377549 0 0.42228996955309661 -0.041780967336820997 0 0.43754712774115367 -0.054317749252053932 0 0.41249463830326588 -0.063351489388377549 0 0.41249463830326588 -0.063351489388377549 0 0.42228996955309661 -0.041780967336820997 0 0.39690407580453108 -0.041858701070087052 0 0.4131021505695639 -0.026289618326543591 0 0.42228996955309661 -0.041780967336820997 0 0.39690407580453108 -0.041858701070087052 0 0.41249463830326588 -0.063351489388377549 0 0.3874421488653782 -0.072385229524701181 0 0.39690407580453108 -0.041858701070087052 0 0.3874421488653782 -0.072385229524701181 0 0.39690407580453108 -0.041858701070087052 0 0.36842423562054721 -0.046799910548135509 0 0.39690407580453108 -0.041858701070087052 0 0.37894640860271489 -0.02141934297465159 0 0.36842423562054721 -0.046799910548135509 0 0.39690407580453108 -0.041858701070087052 0 0.37894640860271489 -0.02141934297465159 0 0.3979337366961847 -0.017690348169954039 0 0.4131021505695639 -0.026289618326543591 0 0.39690407580453108 -0.041858701070087052 0 0.3979337366961847 -0.017690348169954039 0 0.38946858158488262 0.0039612245988322903 0 0.41302051867945477 -0.0059717909655199412 0 0.3979337366961847 -0.017690348169954039 0 0.38946858158488262 0.0039612245988322903 0 0.37894640860271489 -0.02141934297465159 0 0.38946858158488262 0.0039612245988322903 0 0.37894640860271489 -0.02141934297465159 0 0.3979337366961847 -0.017690348169954039 0 0.38946858158488262 0.0039612245988322903 0 0.37894640860271489 -0.02141934297465159 0 0.3738576177168153 -0.004268612177127571 0 0.36491130761458568 0.0093151723393397456 0 0.3738576177168153 -0.004268612177127571 0 0.35570265241411442 -0.0062775346211684721 0 0.37894640860271489 -0.02141934297465159 0 0.3738576177168153 -0.004268612177127571 0 0.35570265241411442 -0.0062775346211684721 0 0.37894640860271489 -0.02141934297465159 0 0.35131089734139281 -0.027856078465287631 0 0.35570265241411442 -0.0062775346211684721 0 0.35131089734139281 -0.027856078465287631 0 0.35570265241411442 -0.0062775346211684721 0 0.33710532586795711 -0.01556500750112098 0 0.33596272124369791 0.0001303567227463748 0 0.33710532586795711 -0.01556500750112098 0 0.32137195505421529 -0.015898243580391651 0 0.33596272124369791 0.0001303567227463748 0 0.35570265241411442 -0.0062775346211684721 0 0.33710532586795711 -0.01556500750112098 0 0.35131089734139281 -0.027856078465287631 0 0.33710532586795711 -0.01556500750112098 0 0.32425986246392052 -0.033691065944433669 0 0.32137195505421529 -0.015898243580391651 0 0.32425986246392052 -0.033691065944433669 0 0.30304225727946682 -0.02535223790687419 0 0.33710532586795711 -0.01556500750112098 0 0.32137195505421529 -0.015898243580391651 0 0.32425986246392052 -0.033691065944433669 0 0.33596272124369791 0.0001303567227463748 0 0.31968214520403521 0.01240594876365271 0 0.32137195505421529 -0.015898243580391651 0 0.31968214520403521 0.01240594876365271 0 0.32137195505421529 -0.015898243580391651 0 0.30331726517711732 -0.0052925995653069144 0 0.32030355653188702 -0.05725166213107484 0 0.32425986246392052 -0.033691065944433669 0 0.29867885146125989 -0.049668753681997399 0 0.32030355653188702 -0.05725166213107484 0 0.32425986246392052 -0.033691065944433669 0 0.34309779243078797 -0.048398593716100273 0 0.35131089734139281 -0.027856078465287631 0 0.32425986246392052 -0.033691065944433669 0 0.34309779243078797 -0.048398593716100273 0 0.32030355653188702 -0.05725166213107484 0 0.34309779243078797 -0.048398593716100273 0 0.33770070380708511 -0.071657215654201856 0 0.34309779243078797 -0.048398593716100273 0 0.35981090803025773 -0.064131983820832725 0 0.33770070380708511 -0.071657215654201856 0 0.34309779243078797 -0.048398593716100273 0 0.36842423562054721 -0.046799910548135509 0 0.35981090803025773 -0.064131983820832725 0 0.35131089734139281 -0.027856078465287631 0 0.34309779243078797 -0.048398593716100273 0 0.36842423562054721 -0.046799910548135509 0 0.37894640860271489 -0.02141934297465159 0 0.36842423562054721 -0.046799910548135509 0 0.37894640860271489 -0.02141934297465159 0 0.35131089734139281 -0.027856078465287631 0 0.36842423562054721 -0.046799910548135509 0 0.3874421488653782 -0.072385229524701181 0 0.36842423562054721 -0.046799910548135509 0 0.35981090803025773 -0.064131983820832725 0 0.3874421488653782 -0.072385229524701181 0 0.36238965942749052 -0.081418969661024798 0 0.3874421488653782 -0.072385229524701181 0 0.35981090803025773 -0.064131983820832725 0 0.36238965942749052 -0.081418969661024798 0 0.38068250715432339 -0.089956622118686991 0 0.36238965942749052 -0.081418969661024798 0 0.36409199720690433 -0.095681774737570238 0 0.36238965942749052 -0.081418969661024798 0 0.36409199720690433 -0.095681774737570238 0 0.34546968846554549 -0.095229354556319909 0 0.36238965942749052 -0.081418969661024798 0 0.34546968846554549 -0.095229354556319909 0 0.33770070380708511 -0.071657215654201856 0 0.35981090803025773 -0.064131983820832725 0 0.36238965942749052 -0.081418969661024798 0 0.33770070380708511 -0.071657215654201856 0 0.37030972864660971 -0.12158277342734899 0 0.35864972532582717 -0.1082708741391671 0 0.35270467429094532 -0.1221809499246168 0 0.37030972864660971 -0.12158277342734899 0 0.37326840566133468 -0.1035330532126524 0 0.35864972532582717 -0.1082708741391671 0 0.38068250715432339 -0.089956622118686991 0 0.37326840566133468 -0.1035330532126524 0 0.36409199720690433 -0.095681774737570238 0 0.37326840566133468 -0.1035330532126524 0 0.36409199720690433 -0.095681774737570238 0 0.35864972532582717 -0.1082708741391671 0 0.34546968846554549 -0.095229354556319909 0 0.35864972532582717 -0.1082708741391671 0 0.34294639117940018 -0.11280983110214531 0 0.36409199720690433 -0.095681774737570238 0 0.34546968846554549 -0.095229354556319909 0 0.35864972532582717 -0.1082708741391671 0 0.35270467429094532 -0.1221809499246168 0 0.34294639117940018 -0.11280983110214531 0 0.33957265430573391 -0.12882843274053801 0 0.35864972532582717 -0.1082708741391671 0 0.35270467429094532 -0.1221809499246168 0 0.34294639117940018 -0.11280983110214531 0 0.33016819469832481 -0.1208417154969389 0 0.34294639117940018 -0.11280983110214531 0 0.33957265430573391 -0.12882843274053801 0 0.33016819469832481 -0.1208417154969389 0 0.34294639117940018 -0.11280983110214531 0 0.32769568290445639 -0.1073333741862998 0 0.34546968846554549 -0.095229354556319909 0 0.32769568290445639 -0.1073333741862998 0 0.32263745585332132 -0.090347527371993988 0 0.34546968846554549 -0.095229354556319909 0 0.34294639117940018 -0.11280983110214531 0 0.32769568290445639 -0.1073333741862998 0 0.32769568290445639 -0.1073333741862998 0 0.32263745585332132 -0.090347527371993988 0 0.31044808981387351 -0.1023541886390722 0 0.32769568290445639 -0.1073333741862998 0 0.31612964921238501 -0.1196432655785709 0 0.31044808981387351 -0.1023541886390722 0 0.33016819469832481 -0.1208417154969389 0 0.32769568290445639 -0.1073333741862998 0 0.31612964921238501 -0.1196432655785709 0 0.34546968846554549 -0.095229354556319909 0 0.33770070380708511 -0.071657215654201856 0 0.32263745585332132 -0.090347527371993988 0 0.33770070380708511 -0.071657215654201856 0 0.32263745585332132 -0.090347527371993988 0 0.31744785123368657 -0.074342041775325371 0 0.32263745585332132 -0.090347527371993988 0 0.31744785123368657 -0.074342041775325371 0 0.30842090686536239 -0.08547218332314277 0 0.32263745585332132 -0.090347527371993988 0 0.30842090686536239 -0.08547218332314277 0 0.31044808981387351 -0.1023541886390722 0 0.32030355653188702 -0.05725166213107484 0 0.33770070380708511 -0.071657215654201856 0 0.31744785123368657 -0.074342041775325371 0 0.32030355653188702 -0.05725166213107484 0 0.31744785123368657 -0.074342041775325371 0 0.30084089948473991 -0.06971982864394019 0 0.31744785123368657 -0.074342041775325371 0 0.30084089948473991 -0.06971982864394019 0 0.30842090686536239 -0.08547218332314277 0 0.30842090686536239 -0.08547218332314277 0 0.29073023794119079 -0.090597330185382186 0 0.31044808981387351 -0.1023541886390722 0 0.30084089948473991 -0.06971982864394019 0 0.30842090686536239 -0.08547218332314277 0 0.29073023794119079 -0.090597330185382186 0 0.30084089948473991 -0.06971982864394019 0 0.29073023794119079 -0.090597330185382186 0 0.30084089948473991 -0.06971982864394019 0 0.28248876695596542 -0.072559449331426981 0 0.29867885146125989 -0.049668753681997399 0 0.30084089948473991 -0.06971982864394019 0 0.29073023794119079 -0.090597330185382186 0 0.28248876695596542 -0.072559449331426981 0 0.31612964921238501 -0.1196432655785709 0 0.29837461280501337 -0.11555904865269639 0 0.31612964921238501 -0.1196432655785709 0 0.29837461280501337 -0.11555904865269639 0 0.30506738055812971 -0.13323484281089171 0 0.31612964921238501 -0.1196432655785709 0 0.29837461280501337 -0.11555904865269639 0 0.31044808981387351 -0.1023541886390722 0 0.29073023794119079 -0.090597330185382186 0 0.29837461280501337 -0.11555904865269639 0 0.31044808981387351 -0.1023541886390722 0 0.29073023794119079 -0.090597330185382186 0 0.28061957639764129 -0.111474831726824 0 0.29073023794119079 -0.090597330185382186 0 0.28061957639764129 -0.111474831726824 0 0.27270611142763368 -0.097127294431259989 0 0.29073023794119079 -0.090597330185382186 0 0.29837461280501337 -0.11555904865269639 0 0.28061957639764129 -0.111474831726824 0 0.29837461280501337 -0.11555904865269639 0 0.28061957639764129 -0.111474831726824 0 0.29837461280501337 -0.11555904865269639 0 0.28061957639764129 -0.111474831726824 0 0.28814445963684759 -0.1289282632534639 0 0.28061957639764129 -0.111474831726824 0 0.26981366613272401 -0.13378795211373509 0 0.28814445963684759 -0.1289282632534639 0 0.28061957639764129 -0.111474831726824 0 0.25606864185944761 -0.11970051334451839 0 0.26981366613272401 -0.13378795211373509 0 0.28061957639764129 -0.111474831726824 0 0.26981366613272401 -0.13378795211373509 0 0.28061957639764129 -0.111474831726824 0 0.27270611142763368 -0.097127294431259989 0 0.25625738108487128 -0.10587076039939911 0 0.28061957639764129 -0.111474831726824 0 0.25625738108487128 -0.10587076039939911 0 0.28061957639764129 -0.111474831726824 0 0.25625738108487128 -0.10587076039939911 0 0.25476581338464049 -0.1098221843338807 0 0.27270611142763368 -0.097127294431259989 0 0.25625738108487128 -0.10587076039939911 0 0.26577571867695132 -0.080655017948012359 0 0.25625738108487128 -0.10587076039939911 0 0.25476581338464049 -0.1098221843338807 0 0.28061957639764129 -0.111474831726824 0 0.25476581338464049 -0.1098221843338807 0 0.25606864185944761 -0.11970051334451839 0 0.25606864185944761 -0.11970051334451839 0 0.25593704552769991 -0.12197827163917919 0 0.26577571867695132 -0.080655017948012359 0 0.26136864054719189 -0.063255566305099778 0 0.27529405626903147 -0.055439275496625549 0 0.26577571867695132 -0.080655017948012359 0 0.27529405626903147 -0.055439275496625549 0 0.28248876695596542 -0.072559449331426981 0 0.26577571867695132 -0.080655017948012359 0 0.27529405626903147 -0.055439275496625549 0 0.29073023794119079 -0.090597330185382186 0 0.27270611142763368 -0.097127294431259989 0 0.26577571867695132 -0.080655017948012359 0 0.29073023794119079 -0.090597330185382186 0 0.28248876695596542 -0.072559449331426981 0 0.26577571867695132 -0.080655017948012359 0 0.25625738108487128 -0.10587076039939911 0 0.26577571867695132 -0.080655017948012359 0 0.24869579831717939 -0.091408590214736116 0 0.25625738108487128 -0.10587076039939911 0 0.26577571867695132 -0.080655017948012359 0 0.26577571867695132 -0.080655017948012359 0 0.25346028161667972 -0.074294168239470521 0 0.24869579831717939 -0.091408590214736116 0 0.26577571867695132 -0.080655017948012359 0 0.25346028161667972 -0.074294168239470521 0 0.26136864054719189 -0.063255566305099778 0 0.25346028161667972 -0.074294168239470521 0 0.26136864054719189 -0.063255566305099778 0 0.24868712167772811 -0.061280815743001343 0 0.26362602449556938 -0.044608554098389132 0 0.24868712167772811 -0.061280815743001343 0 0.24713171562943309 -0.039117564013920858 0 0.26136864054719189 -0.063255566305099778 0 0.26362602449556938 -0.044608554098389132 0 0.24868712167772811 -0.061280815743001343 0 0.26136864054719189 -0.063255566305099778 0 0.27529405626903147 -0.055439275496625549 0 0.26362602449556938 -0.044608554098389132 0 0.27529405626903147 -0.055439275496625549 0 0.26362602449556938 -0.044608554098389132 0 0.28481239386111168 -0.030223533045238719 0 0.27529405626903147 -0.055439275496625549 0 0.28481239386111168 -0.030223533045238719 0 0.26362602449556938 -0.044608554098389132 0 0.26168992388074291 -0.028392337774540019 0 0.28481239386111168 -0.030223533045238719 0 0.26362602449556938 -0.044608554098389132 0 0.26168992388074291 -0.028392337774540019 0 0.24713171562943309 -0.039117564013920858 0 0.26362602449556938 -0.044608554098389132 0 0.26168992388074291 -0.028392337774540019 0 0.26168992388074291 -0.028392337774540019 0 0.25975382326591612 -0.01217612145069095 0 0.27111002849966293 -0.019043957977226779 0 0.26168992388074291 -0.028392337774540019 0 0.25975382326591612 -0.01217612145069095 0 0.24713171562943309 -0.039117564013920858 0 0.25975382326591612 -0.01217612145069095 0 0.24713171562943309 -0.039117564013920858 0 0.26168992388074291 -0.028392337774540019 0 0.25975382326591612 -0.01217612145069095 0 0.26912945415269579 0.0078358312520530049 0 0.25975382326591612 -0.01217612145069095 0 0.25742416126469281 0.0073364507183336647 0 0.25975382326591612 -0.01217612145069095 0 0.25742416126469281 0.0073364507183336647 0 0.25975382326591612 -0.01217612145069095 0 0.246759296357245 -0.002510635819166105 0 0.26912945415269579 0.0078358312520530049 0 0.25975382326591612 -0.01217612145069095 0 0.28055238580901859 -0.0097180551089432275 0 0.25975382326591612 -0.01217612145069095 0 0.28055238580901859 -0.0097180551089432275 0 0.27111002849966293 -0.019043957977226779 0 0.28055238580901859 -0.0097180551089432275 0 0.27111002849966293 -0.019043957977226779 0 0.28481239386111168 -0.030223533045238719 0 0.26168992388074291 -0.028392337774540019 0 0.27111002849966293 -0.019043957977226779 0 0.28481239386111168 -0.030223533045238719 0 0.28055238580901859 -0.0097180551089432275 0 0.28481239386111168 -0.030223533045238719 0 0.30304225727946682 -0.02535223790687419 0 0.28915807743379518 0.010654615332489851 0 0.28055238580901859 -0.0097180551089432275 0 0.30331726517711732 -0.0052925995653069144 0 0.28055238580901859 -0.0097180551089432275 0 0.30331726517711732 -0.0052925995653069144 0 0.30304225727946682 -0.02535223790687419 0 0.32137195505421529 -0.015898243580391651 0 0.30331726517711732 -0.0052925995653069144 0 0.30304225727946682 -0.02535223790687419 0 0.32425986246392052 -0.033691065944433669 0 0.30304225727946682 -0.02535223790687419 0 0.29867885146125989 -0.049668753681997399 0 0.32030355653188702 -0.05725166213107484 0 0.30084089948473991 -0.06971982864394019 0 0.29867885146125989 -0.049668753681997399 0 0.28248876695596542 -0.072559449331426981 0 0.27529405626903147 -0.055439275496625549 0 0.29867885146125989 -0.049668753681997399 0 0.27529405626903147 -0.055439275496625549 0 0.28481239386111168 -0.030223533045238719 0 0.29867885146125989 -0.049668753681997399 0 0.28481239386111168 -0.030223533045238719 0 0.30304225727946682 -0.02535223790687419 0 0.29867885146125989 -0.049668753681997399 0 0.29497532672148807 -0.20330004905006399 0 0.30572190681136868 -0.2127261397612748 0 0.28968512484027992 -0.22001324101018321 0 0.29497532672148807 -0.20330004905006399 0 0.28183488117348388 -0.205807002344982 0 0.28968512484027992 -0.22001324101018321 0 0.29497532672148807 -0.20330004905006399 0 0.28183488117348388 -0.205807002344982 0 0.28991896102056208 -0.1907833872724421 0 0.28183488117348388 -0.205807002344982 0 0.28991896102056208 -0.1907833872724421 0 0.27447219158370539 -0.19223384803060961 0 0.28991896102056208 -0.1907833872724421 0 0.30811922196755648 -0.19404612466760671 0 0.30236716118794171 -0.18018190632585501 0 0.29497532672148807 -0.20330004905006399 0 0.28991896102056208 -0.1907833872724421 0 0.30811922196755648 -0.19404612466760671 0 0.29497532672148807 -0.20330004905006399 0 0.30811922196755648 -0.19404612466760671 0 0.30572190681136868 -0.2127261397612748 0 0.30811922196755648 -0.19404612466760671 0 0.30572190681136868 -0.2127261397612748 0 0.32009740456185232 -0.20452606018481331 0 0.30572190681136868 -0.2127261397612748 0 0.30140725575014898 -0.2341096608688627 0 0.3182308647369525 -0.22497850976778511 0 0.30572190681136868 -0.2127261397612748 0 0.30140725575014898 -0.2341096608688627 0 0.28968512484027992 -0.22001324101018321 0 0.30140725575014898 -0.2341096608688627 0 0.31981317519911578 -0.24287448387094759 0 0.30089510905897687 -0.25399374763568749 0 0.30140725575014898 -0.2341096608688627 0 0.2833683716688068 -0.23780745418527879 0 0.30089510905897687 -0.25399374763568749 0 0.30140725575014898 -0.2341096608688627 0 0.2833683716688068 -0.23780745418527879 0 0.28968512484027992 -0.22001324101018321 0 0.2833683716688068 -0.23780745418527879 0 0.28968512484027992 -0.22001324101018321 0 0.27202042465755111 -0.22541088673943069 0 0.2833683716688068 -0.23780745418527879 0 0.27202042465755111 -0.22541088673943069 0 0.27202042465755111 -0.22541088673943069 0 0.26067247764629708 -0.21301431929358089 0 0.2833683716688068 -0.23780745418527879 0 0.27202042465755111 -0.22541088673943069 0 0.27189979870818792 -0.24802525381391011 0 0.2833683716688068 -0.23780745418527879 0 0.27189979870818792 -0.24802525381391011 0 0.28155802245106398 -0.26123087154921087 0 0.27202042465755111 -0.22541088673943069 0 0.27189979870818792 -0.24802525381391011 0 0.2589261248120231 -0.2398023966073263 0 0.27202042465755111 -0.22541088673943069 0 0.2589261248120231 -0.2398023966073263 0 0.26067247764629708 -0.21301431929358089 0 0.2589261248120231 -0.2398023966073263 0 0.26067247764629708 -0.21301431929358089 0 0.2589261248120231 -0.2398023966073263 0 0.26067247764629708 -0.21301431929358089 0 0.24847730535194609 -0.21581642753600219 0 0.26067247764629708 -0.21301431929358089 0 0.26169813641390283 -0.19728128652679949 0 0.26067247764629708 -0.21301431929358089 0 0.26169813641390283 -0.19728128652679949 0 0.25127085086622042 -0.20274392409661049 0 0.26067247764629708 -0.21301431929358089 0 0.26945204021131802 -0.20641380952294941 0 0.26169813641390283 -0.19728128652679949 0 0.25210222211090488 -0.21027452840459429 0 0.26067247764629708 -0.21301431929358089 0 0.24847730535194609 -0.21581642753600219 0 0.26067247764629708 -0.21301431929358089 0 0.25127085086622042 -0.20274392409661049 0 0.25210222211090488 -0.21027452840459429 0 0.26067247764629708 -0.21301431929358089 0 0.25127085086622042 -0.20274392409661049 0 0.25210222211090488 -0.21027452840459429 0 0.25127085086622042 -0.20274392409661049 0 0.24826203757697859 -0.20904635146702549 0 0.28183488117348388 -0.205807002344982 0 0.27202042465755111 -0.22541088673943069 0 0.26945204021131802 -0.20641380952294941 0 0.27202042465755111 -0.22541088673943069 0 0.26067247764629708 -0.21301431929358089 0 0.26945204021131802 -0.20641380952294941 0 0.28183488117348388 -0.205807002344982 0 0.28968512484027992 -0.22001324101018321 0 0.27202042465755111 -0.22541088673943069 0 0.27447219158370539 -0.19223384803060961 0 0.26169813641390283 -0.19728128652679949 0 0.26630342158388198 -0.18038007347436491 0 0.28183488117348388 -0.205807002344982 0 0.26945204021131802 -0.20641380952294941 0 0.27447219158370539 -0.19223384803060961 0 0.26945204021131802 -0.20641380952294941 0 0.27447219158370539 -0.19223384803060961 0 0.26169813641390283 -0.19728128652679949 0 0.25127085086622042 -0.20274392409661049 0 0.25282624908671331 -0.1758220399441334 0 0.26169813641390283 -0.19728128652679949 0 0.25127085086622042 -0.20274392409661049 0 0.25282624908671331 -0.1758220399441334 0 0.25282624908671331 -0.1758220399441334 0 0.262268654965153 -0.16286169691259811 0 0.26630342158388198 -0.18038007347436491 0 0.26169813641390283 -0.19728128652679949 0 0.25282624908671331 -0.1758220399441334 0 0.26630342158388198 -0.18038007347436491 0 0.25282624908671331 -0.1758220399441334 0 0.262268654965153 -0.16286169691259811 0 0.25438164730720608 -0.14890015579165641 0 0.25282624908671331 -0.1758220399441334 0 0.25438164730720608 -0.14890015579165641 0 0.262268654965153 -0.16286169691259811 0 0.28025187586993588 -0.17370149595768389 0 0.27443668267264693 -0.15454447875135899 0 0.27447219158370539 -0.19223384803060961 0 0.26630342158388198 -0.18038007347436491 0 0.28025187586993588 -0.17370149595768389 0 0.262268654965153 -0.16286169691259811 0 0.26630342158388198 -0.18038007347436491 0 0.28025187586993588 -0.17370149595768389 0 0.25593704552769991 -0.12197827163917919 0 0.26347723407631018 -0.14687204848618371 0 0.26981366613272401 -0.13378795211373509 0 0.25593704552769991 -0.12197827163917919 0 0.25438164730720608 -0.14890015579165641 0 0.25593704552769991 -0.12197827163917919 0 0.25438164730720608 -0.14890015579165641 0 0.26347723407631018 -0.14687204848618371 0 0.25606864185944761 -0.11970051334451839 0 0.25593704552769991 -0.12197827163917919 0 0.26981366613272401 -0.13378795211373509 0 0.25593704552769991 -0.12197827163917919 0 0.26981366613272401 -0.13378795211373509 0 0.262268654965153 -0.16286169691259811 0 0.25438164730720608 -0.14890015579165641 0 0.26347723407631018 -0.14687204848618371 0 0.26981366613272401 -0.13378795211373509 0 0.2921370271655151 -0.15278622038230039 0 0.26347723407631018 -0.14687204848618371 0 0.27443668267264693 -0.15454447875135899 0 0.26981366613272401 -0.13378795211373509 0 0.262268654965153 -0.16286169691259811 0 0.26347723407631018 -0.14687204848618371 0 0.27443668267264693 -0.15454447875135899 0 0.27443668267264693 -0.15454447875135899 0 0.26981366613272401 -0.13378795211373509 0 0.2921370271655151 -0.15278622038230039 0 0.26347723407631018 -0.14687204848618371 0 0.26981366613272401 -0.13378795211373509 0 0.26981366613272401 -0.13378795211373509 0 0.28814445963684759 -0.1289282632534639 0 0.2921370271655151 -0.15278622038230039 0 0.28814445963684759 -0.1289282632534639 0 0.2921370271655151 -0.15278622038230039 0 0.30506738055812971 -0.13323484281089171 0 0.2921370271655151 -0.15278622038230039 0 0.30506738055812971 -0.13323484281089171 0 0.3136509096799191 -0.14837727372465589 0 0.2921370271655151 -0.15278622038230039 0 0.31553194954252151 -0.16605881396654121 0 0.3136509096799191 -0.14837727372465589 0 0.29837461280501337 -0.11555904865269639 0 0.28814445963684759 -0.1289282632534639 0 0.30506738055812971 -0.13323484281089171 0 0.28991896102056208 -0.1907833872724421 0 0.28025187586993588 -0.17370149595768389 0 0.30236716118794171 -0.18018190632585501 0 0.28991896102056208 -0.1907833872724421 0 0.27447219158370539 -0.19223384803060961 0 0.28025187586993588 -0.17370149595768389 0 0.28025187586993588 -0.17370149595768389 0 0.27443668267264693 -0.15454447875135899 0 0.2921370271655151 -0.15278622038230039 0 0.28025187586993588 -0.17370149595768389 0 0.2921370271655151 -0.15278622038230039 0 0.30236716118794171 -0.18018190632585501 0 0.2921370271655151 -0.15278622038230039 0 0.30236716118794171 -0.18018190632585501 0 0.31553194954252151 -0.16605881396654121 0 0.30811922196755648 -0.19404612466760671 0 0.30236716118794171 -0.18018190632585501 0 0.32395291188944919 -0.181476487289704 0 0.30236716118794171 -0.18018190632585501 0 0.32395291188944919 -0.181476487289704 0 0.31553194954252151 -0.16605881396654121 0 0.32395291188944919 -0.181476487289704 0 0.31553194954252151 -0.16605881396654121 0 0.33718902950676821 -0.17139485115809061 0 0.31553194954252151 -0.16605881396654121 0 0.32903883773294201 -0.15781056914587871 0 0.3136509096799191 -0.14837727372465589 0 0.31553194954252151 -0.16605881396654121 0 0.32903883773294201 -0.15781056914587871 0 0.33718902950676821 -0.17139485115809061 0 0.32903883773294201 -0.15781056914587871 0 0.3435369671428446 -0.1614746897500825 0 0.33718902950676821 -0.17139485115809061 0 0.32395291188944919 -0.181476487289704 0 0.34408752785075158 -0.18504890046611741 0 0.32395291188944919 -0.181476487289704 0 0.33718902950676821 -0.17139485115809061 0 0.34408752785075158 -0.18504890046611741 0 0.33016819469832481 -0.1208417154969389 0 0.31612964921238501 -0.1196432655785709 0 0.32449659588964858 -0.13559367387714069 0 0.31612964921238501 -0.1196432655785709 0 0.30506738055812971 -0.13323484281089171 0 0.32449659588964858 -0.13559367387714069 0 0.30506738055812971 -0.13323484281089171 0 0.32449659588964858 -0.13559367387714069 0 0.3136509096799191 -0.14837727372465589 0 0.32903883773294201 -0.15781056914587871 0 0.32449659588964858 -0.13559367387714069 0 0.3136509096799191 -0.14837727372465589 0 0.32903883773294201 -0.15781056914587871 0 0.3435369671428446 -0.1614746897500825 0 0.34687716313550138 -0.1484667911410382 0 0.32903883773294201 -0.15781056914587871 0 0.3356955927795251 -0.14048233676254279 0 0.34967428318977589 -0.13969667128661381 0 0.32903883773294201 -0.15781056914587871 0 0.34967428318977589 -0.13969667128661381 0 0.32903883773294201 -0.15781056914587871 0 0.34967428318977589 -0.13969667128661381 0 0.34687716313550138 -0.1484667911410382 0 0.32903883773294201 -0.15781056914587871 0 0.32449659588964858 -0.13559367387714069 0 0.3356955927795251 -0.14048233676254279 0 0.32449659588964858 -0.13559367387714069 0 0.3356955927795251 -0.14048233676254279 0 0.33957265430573391 -0.12882843274053801 0 0.3356955927795251 -0.14048233676254279 0 0.33957265430573391 -0.12882843274053801 0 0.34967428318977589 -0.13969667128661381 0 0.33016819469832481 -0.1208417154969389 0 0.32449659588964858 -0.13559367387714069 0 0.33957265430573391 -0.12882843274053801 0 0.37030972864660971 -0.12158277342734899 0 0.35270467429094532 -0.1221809499246168 0 0.34967428318977589 -0.13969667128661381 0 0.35270467429094532 -0.1221809499246168 0 0.33957265430573391 -0.12882843274053801 0 0.34967428318977589 -0.13969667128661381 0 0.34967428318977589 -0.13969667128661381 0 0.34687716313550138 -0.1484667911410382 0 0.36940777519933887 -0.1344785628036789 0 0.34687716313550138 -0.1484667911410382 0 0.356292811919459 -0.14965866959245949 0 0.36940777519933887 -0.1344785628036789 0 0.34687716313550138 -0.1484667911410382 0 0.36940777519933887 -0.1344785628036789 0 0.3435369671428446 -0.1614746897500825 0 0.34687716313550138 -0.1484667911410382 0 0.35396421934632211 -0.15844110316285431 0 0.356292811919459 -0.14965866959245949 0 0.35396421934632211 -0.15844110316285431 0 0.36284663507048742 -0.15664710282366681 0 0.34687716313550138 -0.1484667911410382 0 0.356292811919459 -0.14965866959245949 0 0.35396421934632211 -0.15844110316285431 0 0.36956359185504972 -0.15266547680653689 0 0.36354925805501997 -0.14771545787473009 0 0.36284663507048742 -0.15664710282366681 0 0.356292811919459 -0.14965866959245949 0 0.36354925805501997 -0.14771545787473009 0 0.36284663507048742 -0.15664710282366681 0 0.37155692692458397 -0.1438425667155139 0 0.36354925805501997 -0.14771545787473009 0 0.36940777519933887 -0.1344785628036789 0 0.36956359185504972 -0.15266547680653689 0 0.37155692692458397 -0.1438425667155139 0 0.37799314034178988 -0.14776214853816699 0 0.36956359185504972 -0.15266547680653689 0 0.37155692692458397 -0.1438425667155139 0 0.36354925805501997 -0.14771545787473009 0 0.356292811919459 -0.14965866959245949 0 0.36354925805501997 -0.14771545787473009 0 0.36940777519933887 -0.1344785628036789 0 0.37030972864660971 -0.12158277342734899 0 0.34967428318977589 -0.13969667128661381 0 0.37030972864660971 -0.12158277342734899 0 0.34967428318977589 -0.13969667128661381 0 0.36940777519933887 -0.1344785628036789 0 0.37155692692458397 -0.1438425667155139 0 0.36940777519933887 -0.1344785628036789 0 0.38213642477486282 -0.13826493549022739 0 0.35211102374781728 -0.17880575375278929 0 0.34408752785075158 -0.18504890046611741 0 0.36249196295040781 -0.18602233996708181 0 0.34408752785075158 -0.18504890046611741 0 0.36422214381205398 -0.18862131364253101 0 0.34408752785075158 -0.18504890046611741 0 0.36249196295040781 -0.18602233996708181 0 0.36422214381205398 -0.18862131364253101 0 0.35211102374781728 -0.17880575375278929 0 0.35206398864105132 -0.1690887437355213 0 0.36327333895047148 -0.17705672819637569 0 0.35211102374781728 -0.17880575375278929 0 0.36327333895047148 -0.17705672819637569 0 0.36249196295040781 -0.18602233996708181 0 0.33718902950676821 -0.17139485115809061 0 0.35211102374781728 -0.17880575375278929 0 0.34408752785075158 -0.18504890046611741 0 0.33718902950676821 -0.17139485115809061 0 0.35211102374781728 -0.17880575375278929 0 0.35206398864105132 -0.1690887437355213 0 0.3435369671428446 -0.1614746897500825 0 0.33718902950676821 -0.17139485115809061 0 0.35206398864105132 -0.1690887437355213 0 0.3435369671428446 -0.1614746897500825 0 0.35396421934632211 -0.15844110316285431 0 0.35206398864105132 -0.1690887437355213 0 0.35396421934632211 -0.15844110316285431 0 0.35206398864105132 -0.1690887437355213 0 0.36256824895379502 -0.16616060911667641 0 0.35206398864105132 -0.1690887437355213 0 0.36256824895379502 -0.16616060911667641 0 0.36327333895047148 -0.17705672819637569 0 0.36256824895379502 -0.16616060911667641 0 0.37203696986797091 -0.17221914810896921 0 0.36327333895047148 -0.17705672819637569 0 0.36256824895379502 -0.16616060911667641 0 0.36284663507048742 -0.15664710282366681 0 0.37128338581303022 -0.16227477744690549 0 0.35396421934632211 -0.15844110316285431 0 0.36256824895379502 -0.16616060911667641 0 0.36284663507048742 -0.15664710282366681 0 0.36956359185504972 -0.15266547680653689 0 0.36284663507048742 -0.15664710282366681 0 0.37128338581303022 -0.16227477744690549 0 0.36956359185504972 -0.15266547680653689 0 0.37128338581303022 -0.16227477744690549 0 0.38086563525042011 -0.15704741439186479 0 0.37128338581303022 -0.16227477744690549 0 0.37203696986797091 -0.17221914810896921 0 0.38049079824853038 -0.16815705894046121 0 0.36256824895379502 -0.16616060911667641 0 0.37128338581303022 -0.16227477744690549 0 0.37203696986797091 -0.17221914810896921 0 0.37203696986797091 -0.17221914810896921 0 0.36327333895047148 -0.17705672819637569 0 0.37305375470337732 -0.18182414774985539 0 0.36327333895047148 -0.17705672819637569 0 0.36249196295040781 -0.18602233996708181 0 0.36576030010407762 -0.18338113238896089 0 0.36249196295040781 -0.18602233996708181 0 0.36576030010407762 -0.18338113238896089 0 0.36422214381205398 -0.18862131364253101 0 0.36249196295040781 -0.18602233996708181 0 0.36422214381205398 -0.18862131364253101 0 0.36327333895047148 -0.17705672819637569 0 0.36576030010407762 -0.18338113238896089 0 0.37305375470337732 -0.18182414774985539 0 0.36576030010407762 -0.18338113238896089 0 0.37305375470337732 -0.18182414774985539 0 0.36422214381205398 -0.18862131364253101 0 0.36422214381205398 -0.18862131364253101 0 0.36493458435682341 -0.2037469881303495 0 0.37899283140708939 -0.21080895256442941 0 0.36422214381205398 -0.18862131364253101 0 0.37899283140708939 -0.21080895256442941 0 0.36422214381205398 -0.18862131364253101 0 0.36493458435682341 -0.2037469881303495 0 0.35606677580972412 -0.1943028071708621 0 0.36493458435682341 -0.2037469881303495 0 0.34922596783028143 -0.21461489047404589 0 0.36446804948195888 -0.21913787461160869 0 0.36493458435682341 -0.2037469881303495 0 0.36446804948195888 -0.21913787461160869 0 0.37899283140708939 -0.21080895256442941 0 0.36493458435682341 -0.2037469881303495 0 0.34922596783028143 -0.21461489047404589 0 0.35102284721926769 -0.19979402644445041 0 0.34922596783028143 -0.21461489047404589 0 0.35102284721926769 -0.19979402644445041 0 0.33660333240971019 -0.20003882220559049 0 0.34408752785075158 -0.18504890046611741 0 0.36422214381205398 -0.18862131364253101 0 0.35606677580972412 -0.1943028071708621 0 0.36493458435682341 -0.2037469881303495 0 0.35606677580972412 -0.1943028071708621 0 0.35102284721926769 -0.19979402644445041 0 0.34408752785075158 -0.18504890046611741 0 0.35102284721926769 -0.19979402644445041 0 0.33660333240971019 -0.20003882220559049 0 0.34408752785075158 -0.18504890046611741 0 0.35606677580972412 -0.1943028071708621 0 0.35102284721926769 -0.19979402644445041 0 0.32395291188944919 -0.181476487289704 0 0.34408752785075158 -0.18504890046611741 0 0.33660333240971019 -0.20003882220559049 0 0.34922596783028143 -0.21461489047404589 0 0.33660333240971019 -0.20003882220559049 0 0.33201692624077139 -0.2148199648508759 0 0.33660333240971019 -0.20003882220559049 0 0.33201692624077139 -0.2148199648508759 0 0.32009740456185232 -0.20452606018481331 0 0.33201692624077139 -0.2148199648508759 0 0.32009740456185232 -0.20452606018481331 0 0.3182308647369525 -0.22497850976778511 0 0.30572190681136868 -0.2127261397612748 0 0.32009740456185232 -0.20452606018481331 0 0.3182308647369525 -0.22497850976778511 0 0.30811922196755648 -0.19404612466760671 0 0.32395291188944919 -0.181476487289704 0 0.32009740456185232 -0.20452606018481331 0 0.32395291188944919 -0.181476487289704 0 0.33660333240971019 -0.20003882220559049 0 0.32009740456185232 -0.20452606018481331 0 0.30140725575014898 -0.2341096608688627 0 0.31981317519911578 -0.24287448387094759 0 0.3182308647369525 -0.22497850976778511 0 0.31981317519911578 -0.24287448387094759 0 0.3182308647369525 -0.22497850976778511 0 0.33592706166506092 -0.22994154162214481 0 0.34922596783028143 -0.21461489047404589 0 0.33201692624077139 -0.2148199648508759 0 0.33592706166506092 -0.22994154162214481 0 0.33201692624077139 -0.2148199648508759 0 0.3182308647369525 -0.22497850976778511 0 0.33592706166506092 -0.22994154162214481 0 0.31981317519911578 -0.24287448387094759 0 0.33592706166506092 -0.22994154162214481 0 0.34198429267542441 -0.24930844878601471 0 0.33592706166506092 -0.22994154162214481 0 0.34198429267542441 -0.24930844878601471 0 0.36613640271634179 -0.2357918474831934 0 0.34198429267542441 -0.24930844878601471 0 0.36613640271634179 -0.2357918474831934 0 0.35473584003328418 -0.26401768568109518 0 0.34922596783028143 -0.21461489047404589 0 0.33592706166506092 -0.22994154162214481 0 0.36613640271634179 -0.2357918474831934 0 0.34922596783028143 -0.21461489047404589 0 0.36446804948195888 -0.21913787461160869 0 0.36613640271634179 -0.2357918474831934 0 0.36446804948195888 -0.21913787461160869 0 0.36613640271634179 -0.2357918474831934 0 0.37899283140708939 -0.21080895256442941 0 0.36613640271634179 -0.2357918474831934 0 0.39376351900212492 -0.23299659148632759 0 0.38932877852108783 -0.25195924155336757 0 0.39376351900212492 -0.23299659148632759 0 0.38932877852108783 -0.25195924155336757 0 0.4085342065971605 -0.25518423040822602 0 0.39376351900212492 -0.23299659148632759 0 0.4085342065971605 -0.25518423040822602 0 0.39376351900212492 -0.23299659148632759 0 0.39683934802637461 -0.21318700036231969 0 0.409189367054895 -0.22229414401634531 0 0.39376351900212492 -0.23299659148632759 0 0.37899283140708939 -0.21080895256442941 0 0.39376351900212492 -0.23299659148632759 0 0.37899283140708939 -0.21080895256442941 0 0.39683934802637461 -0.21318700036231969 0 0.36613640271634179 -0.2357918474831934 0 0.39376351900212492 -0.23299659148632759 0 0.37899283140708939 -0.21080895256442941 0 0.37899283140708939 -0.21080895256442941 0 0.39209673194548372 -0.19356700250624431 0 0.39683934802637461 -0.21318700036231969 0 0.36422214381205398 -0.18862131364253101 0 0.39209673194548372 -0.19356700250624431 0 0.36422214381205398 -0.18862131364253101 0 0.37899283140708939 -0.21080895256442941 0 0.39209673194548372 -0.19356700250624431 0 0.37305375470337732 -0.18182414774985539 0 0.36422214381205398 -0.18862131364253101 0 0.39209673194548372 -0.19356700250624431 0 0.39209673194548372 -0.19356700250624431 0 0.41997132007891341 -0.19851269136995781 0 0.39209673194548372 -0.19356700250624431 0 0.39683934802637461 -0.21318700036231969 0 0.40761713999187998 -0.20831248459928239 0 0.39683934802637461 -0.21318700036231969 0 0.40761713999187998 -0.20831248459928239 0 0.409189367054895 -0.22229414401634531 0 0.40761713999187998 -0.20831248459928239 0 0.41998893285373318 -0.2140015847415449 0 0.409189367054895 -0.22229414401634531 0 0.40761713999187998 -0.20831248459928239 0 0.41998893285373318 -0.2140015847415449 0 0.41997132007891341 -0.19851269136995781 0 0.39209673194548372 -0.19356700250624431 0 0.41997132007891341 -0.19851269136995781 0 0.40888276981438981 -0.18380101781738051 0 0.39209673194548372 -0.19356700250624431 0 0.40761713999187998 -0.20831248459928239 0 0.41997132007891341 -0.19851269136995781 0 0.41997132007891341 -0.19851269136995781 0 0.40888276981438981 -0.18380101781738051 0 0.42086253972432208 -0.18625469437091549 0 0.41997132007891341 -0.19851269136995781 0 0.43340986288514932 -0.19150472004611829 0 0.42086253972432208 -0.18625469437091549 0 0.41997132007891341 -0.19851269136995781 0 0.43340986288514932 -0.19150472004611829 0 0.43276884761356033 -0.2046115044174841 0 0.41998893285373318 -0.2140015847415449 0 0.43276884761356033 -0.2046115044174841 0 0.44200317102818432 -0.21952410527893221 0 0.41998893285373318 -0.2140015847415449 0 0.44200317102818432 -0.21952410527893221 0 0.41998893285373318 -0.2140015847415449 0 0.41997132007891341 -0.19851269136995781 0 0.43276884761356033 -0.2046115044174841 0 0.42870993676498859 -0.22587590916949571 0 0.43577041208285611 -0.23880669329599641 0 0.41682930855652378 -0.2376632684354088 0 0.42870993676498859 -0.22587590916949571 0 0.43577041208285611 -0.23880669329599641 0 0.44200317102818432 -0.21952410527893221 0 0.41998893285373318 -0.2140015847415449 0 0.42870993676498859 -0.22587590916949571 0 0.44200317102818432 -0.21952410527893221 0 0.43577041208285611 -0.23880669329599641 0 0.44379501503143759 -0.25204911479759817 0 0.42953765313752668 -0.2580892813130603 0 0.43577041208285611 -0.23880669329599641 0 0.42953765313752668 -0.2580892813130603 0 0.43577041208285611 -0.23880669329599641 0 0.41682930855652378 -0.2376632684354088 0 0.42953765313752668 -0.2580892813130603 0 0.39376351900212492 -0.23299659148632759 0 0.41682930855652378 -0.2376632684354088 0 0.4085342065971605 -0.25518423040822602 0 0.39376351900212492 -0.23299659148632759 0 0.41682930855652378 -0.2376632684354088 0 0.409189367054895 -0.22229414401634531 0 0.41998893285373318 -0.2140015847415449 0 0.42870993676498859 -0.22587590916949571 0 0.409189367054895 -0.22229414401634531 0 0.42870993676498859 -0.22587590916949571 0 0.41682930855652378 -0.2376632684354088 0 0.409189367054895 -0.22229414401634531 0 0.40107417029805159 -0.12789820224764609 0 0.39480498775326378 -0.13539537102475019 0 0.40759491022865629 -0.1347936736400672 0 0.40995839594710992 -0.1209134298594471 0 0.40107417029805159 -0.12789820224764609 0 0.40759491022865629 -0.1347936736400672 0 0.39480498775326378 -0.13539537102475019 0 0.39899828300566159 -0.14428187578032681 0 0.40759491022865629 -0.1347936736400672 0 0.39193838726317642 -0.1204903344663196 0 0.40107417029805159 -0.12789820224764609 0 0.39480498775326378 -0.13539537102475019 0 0.39193838726317642 -0.1204903344663196 0 0.36940777519933887 -0.1344785628036789 0 0.39193838726317642 -0.1204903344663196 0 0.37030972864660971 -0.12158277342734899 0 0.36940777519933887 -0.1344785628036789 0 0.39193838726317642 -0.1204903344663196 0 0.36940777519933887 -0.1344785628036789 0 0.38213642477486282 -0.13826493549022739 0 0.39193838726317642 -0.1204903344663196 0 0.39480498775326378 -0.13539537102475019 0 0.38213642477486282 -0.13826493549022739 0 0.39480498775326378 -0.13539537102475019 0 0.38213642477486282 -0.13826493549022739 0 0.38903051860953269 -0.1479189121569979 0 0.38213642477486282 -0.13826493549022739 0 0.38903051860953269 -0.1479189121569979 0 0.37799314034178988 -0.14776214853816699 0 0.37155692692458397 -0.1438425667155139 0 0.38213642477486282 -0.13826493549022739 0 0.37799314034178988 -0.14776214853816699 0 0.36956359185504972 -0.15266547680653689 0 0.37799314034178988 -0.14776214853816699 0 0.38086563525042011 -0.15704741439186479 0 0.38903051860953269 -0.1479189121569979 0 0.37799314034178988 -0.14776214853816699 0 0.38086563525042011 -0.15704741439186479 0 0.38903051860953269 -0.1479189121569979 0 0.38921139138230082 -0.15657158339527921 0 0.38086563525042011 -0.15704741439186479 0 0.38903051860953269 -0.1479189121569979 0 0.39778628264578869 -0.1571764879959919 0 0.38921139138230082 -0.15657158339527921 0 0.38903051860953269 -0.1479189121569979 0 0.39899828300566159 -0.14428187578032681 0 0.39778628264578869 -0.1571764879959919 0 0.39480498775326378 -0.13539537102475019 0 0.38903051860953269 -0.1479189121569979 0 0.39899828300566159 -0.14428187578032681 0 0.39899828300566159 -0.14428187578032681 0 0.40826600041827238 -0.14358100919115049 0 0.40759491022865629 -0.1347936736400672 0 0.39899828300566159 -0.14428187578032681 0 0.40485968958436258 -0.1488704754900966 0 0.40826600041827238 -0.14358100919115049 0 0.40485968958436258 -0.1488704754900966 0 0.39778628264578869 -0.1571764879959919 0 0.41010965119479942 -0.15585297321535829 0 0.39899828300566159 -0.14428187578032681 0 0.40485968958436258 -0.1488704754900966 0 0.39778628264578869 -0.1571764879959919 0 0.39778628264578869 -0.1571764879959919 0 0.38933550291534208 -0.16471816122531169 0 0.3989982544556453 -0.1741320479057259 0 0.39778628264578869 -0.1571764879959919 0 0.3989982544556453 -0.1741320479057259 0 0.40723242376154939 -0.16458839442427889 0 0.39778628264578869 -0.1571764879959919 0 0.40723242376154939 -0.16458839442427889 0 0.41010965119479942 -0.15585297321535829 0 0.38933550291534208 -0.16471816122531169 0 0.38869843533909371 -0.17487712534678521 0 0.3989982544556453 -0.1741320479057259 0 0.39778628264578869 -0.1571764879959919 0 0.38921139138230082 -0.15657158339527921 0 0.38933550291534208 -0.16471816122531169 0 0.38921139138230082 -0.15657158339527921 0 0.38086563525042011 -0.15704741439186479 0 0.38933550291534208 -0.16471816122531169 0 0.38086563525042011 -0.15704741439186479 0 0.38049079824853038 -0.16815705894046121 0 0.38933550291534208 -0.16471816122531169 0 0.37128338581303022 -0.16227477744690549 0 0.38086563525042011 -0.15704741439186479 0 0.38049079824853038 -0.16815705894046121 0 0.38049079824853038 -0.16815705894046121 0 0.38933550291534208 -0.16471816122531169 0 0.38869843533909371 -0.17487712534678521 0 0.39209673194548372 -0.19356700250624431 0 0.38869843533909371 -0.17487712534678521 0 0.38072486030532537 -0.17780572712293069 0 0.37305375470337732 -0.18182414774985539 0 0.39209673194548372 -0.19356700250624431 0 0.38072486030532537 -0.17780572712293069 0 0.38049079824853038 -0.16815705894046121 0 0.38869843533909371 -0.17487712534678521 0 0.38072486030532537 -0.17780572712293069 0 0.37203696986797091 -0.17221914810896921 0 0.37305375470337732 -0.18182414774985539 0 0.38072486030532537 -0.17780572712293069 0 0.37203696986797091 -0.17221914810896921 0 0.38049079824853038 -0.16815705894046121 0 0.38072486030532537 -0.17780572712293069 0 0.39209673194548372 -0.19356700250624431 0 0.38869843533909371 -0.17487712534678521 0 0.3989982544556453 -0.1741320479057259 0 0.39209673194548372 -0.19356700250624431 0 0.3989982544556453 -0.1741320479057259 0 0.40888276981438981 -0.18380101781738051 0 0.41259050747135212 -0.17354849852203491 0 0.42086253972432208 -0.18625469437091549 0 0.42827542751135977 -0.1755659678426047 0 0.3989982544556453 -0.1741320479057259 0 0.40888276981438981 -0.18380101781738051 0 0.41259050747135212 -0.17354849852203491 0 0.40888276981438981 -0.18380101781738051 0 0.41259050747135212 -0.17354849852203491 0 0.42086253972432208 -0.18625469437091549 0 0.43340986288514932 -0.19150472004611829 0 0.42086253972432208 -0.18625469437091549 0 0.42827542751135977 -0.1755659678426047 0 0.43340986288514932 -0.19150472004611829 0 0.42827542751135977 -0.1755659678426047 0 0.44846179877264092 -0.183406930301246 0 0.42827542751135977 -0.1755659678426047 0 0.43222250581474891 -0.1610129067731926 0 0.41913648989225588 -0.16267679192089071 0 0.43222250581474891 -0.1610129067731926 0 0.41913648989225588 -0.16267679192089071 0 0.42488315628620099 -0.15560748031394769 0 0.41913648989225588 -0.16267679192089071 0 0.41010965119479942 -0.15585297321535829 0 0.41868351144467408 -0.1535724696792273 0 0.41913648989225588 -0.16267679192089071 0 0.41868351144467408 -0.1535724696792273 0 0.42488315628620099 -0.15560748031394769 0 0.41259050747135212 -0.17354849852203491 0 0.42827542751135977 -0.1755659678426047 0 0.41913648989225588 -0.16267679192089071 0 0.3989982544556453 -0.1741320479057259 0 0.41259050747135212 -0.17354849852203491 0 0.40723242376154939 -0.16458839442427889 0 0.41259050747135212 -0.17354849852203491 0 0.41913648989225588 -0.16267679192089071 0 0.40723242376154939 -0.16458839442427889 0 0.41913648989225588 -0.16267679192089071 0 0.40723242376154939 -0.16458839442427889 0 0.41010965119479942 -0.15585297321535829 0 0.41010965119479942 -0.15585297321535829 0 0.4129595098401655 -0.14823321978166479 0 0.41868351144467408 -0.1535724696792273 0 0.40485968958436258 -0.1488704754900966 0 0.41010965119479942 -0.15585297321535829 0 0.4129595098401655 -0.14823321978166479 0 0.40485968958436258 -0.1488704754900966 0 0.40826600041827238 -0.14358100919115049 0 0.4129595098401655 -0.14823321978166479 0 0.40826600041827238 -0.14358100919115049 0 0.4129595098401655 -0.14823321978166479 0 0.41691760943251599 -0.14172580126359699 0 0.4129595098401655 -0.14823321978166479 0 0.41691760943251599 -0.14172580126359699 0 0.41904338830735371 -0.14735650544666981 0 0.41691760943251599 -0.14172580126359699 0 0.41904338830735371 -0.14735650544666981 0 0.42310348344701859 -0.14263257157531131 0 0.41904338830735371 -0.14735650544666981 0 0.41868351144467408 -0.1535724696792273 0 0.42418183730887182 -0.1494363177597324 0 0.4129595098401655 -0.14823321978166479 0 0.41904338830735371 -0.14735650544666981 0 0.41868351144467408 -0.1535724696792273 0 0.43222250581474891 -0.1610129067731926 0 0.42488315628620099 -0.15560748031394769 0 0.42831114605944909 -0.15141622938567059 0 0.41868351144467408 -0.1535724696792273 0 0.42488315628620099 -0.15560748031394769 0 0.42418183730887182 -0.1494363177597324 0 0.42488315628620099 -0.15560748031394769 0 0.42418183730887182 -0.1494363177597324 0 0.42831114605944909 -0.15141622938567059 0 0.42418183730887182 -0.1494363177597324 0 0.42831114605944909 -0.15141622938567059 0 0.42733753061622548 -0.1460751782137483 0 0.43222250581474891 -0.1610129067731926 0 0.42831114605944909 -0.15141622938567059 0 0.43224112574760482 -0.1454718746122009 0 0.43224112574760482 -0.1454718746122009 0 0.42885006051818347 -0.14141889773582619 0 0.42733753061622548 -0.1460751782137483 0 0.42885006051818347 -0.14141889773582619 0 0.42733753061622548 -0.1460751782137483 0 0.42310348344701859 -0.14263257157531131 0 0.42831114605944909 -0.15141622938567059 0 0.43224112574760482 -0.1454718746122009 0 0.42733753061622548 -0.1460751782137483 0 0.42418183730887182 -0.1494363177597324 0 0.42733753061622548 -0.1460751782137483 0 0.42310348344701859 -0.14263257157531131 0 0.41904338830735371 -0.14735650544666981 0 0.42418183730887182 -0.1494363177597324 0 0.42310348344701859 -0.14263257157531131 0 0.42885006051818347 -0.14141889773582619 0 0.42310348344701859 -0.14263257157531131 0 0.42268949967717462 -0.13218444754753181 0 0.42598759425215799 -0.11940928524243399 0 0.42268949967717462 -0.13218444754753181 0 0.44663754538863742 -0.12524929654420119 0 0.42885006051818347 -0.14141889773582619 0 0.42268949967717462 -0.13218444754753181 0 0.44663754538863742 -0.12524929654420119 0 0.43224112574760482 -0.1454718746122009 0 0.42885006051818347 -0.14141889773582619 0 0.44663754538863742 -0.12524929654420119 0 0.41691760943251599 -0.14172580126359699 0 0.42268949967717462 -0.13218444754753181 0 0.40759491022865629 -0.1347936736400672 0 0.41691760943251599 -0.14172580126359699 0 0.42310348344701859 -0.14263257157531131 0 0.42268949967717462 -0.13218444754753181 0 0.40826600041827238 -0.14358100919115049 0 0.41691760943251599 -0.14172580126359699 0 0.40759491022865629 -0.1347936736400672 0 0.40995839594710992 -0.1209134298594471 0 0.42268949967717462 -0.13218444754753181 0 0.40759491022865629 -0.1347936736400672 0 0.46385687996953689 -0.1282317786652073 0 0.45227261633931082 -0.14449657678228969 0 0.47544712105845832 -0.14404982286224169 0 0.46385687996953689 -0.1282317786652073 0 0.44663754538863742 -0.12524929654420119 0 0.45227261633931082 -0.14449657678228969 0 0.42885006051818347 -0.14141889773582619 0 0.44663754538863742 -0.12524929654420119 0 0.43224112574760482 -0.1454718746122009 0 0.44663754538863742 -0.12524929654420119 0 0.45227261633931082 -0.14449657678228969 0 0.43224112574760482 -0.1454718746122009 0 0.45250540264483391 -0.16666746655292189 0 0.43224112574760482 -0.1454718746122009 0 0.45227261633931082 -0.14449657678228969 0 0.45250540264483391 -0.16666746655292189 0 0.45227261633931082 -0.14449657678228969 0 0.45250540264483391 -0.16666746655292189 0 0.47544712105845832 -0.14404982286224169 0 0.42827542751135977 -0.1755659678426047 0 0.43222250581474891 -0.1610129067731926 0 0.45250540264483391 -0.16666746655292189 0 0.43222250581474891 -0.1610129067731926 0 0.43224112574760482 -0.1454718746122009 0 0.45250540264483391 -0.16666746655292189 0 0.42827542751135977 -0.1755659678426047 0 0.45250540264483391 -0.16666746655292189 0 0.44846179877264092 -0.183406930301246 0 0.45250540264483391 -0.16666746655292189 0 0.44846179877264092 -0.183406930301246 0 0.47276967954206273 -0.18786305849364249 0 0.45250540264483391 -0.16666746655292189 0 0.47276967954206273 -0.18786305849364249 0 0.45250540264483391 -0.16666746655292189 0 0.4806448387593304 -0.16963037666256761 0 0.47276967954206273 -0.18786305849364249 0 0.4806448387593304 -0.16963037666256761 0 0.47276967954206273 -0.18786305849364249 0 0.48833538920823139 -0.19326602942673651 0 0.5 -0.18162900801265119 0 0.4806448387593304 -0.16963037666256761 0 0.48833538920823139 -0.19326602942673651 0 0.4806448387593304 -0.16963037666256761 0 0.47544712105845832 -0.14404982286224169 0 0.5 -0.15540687925182001 0 0.5 -0.18162900801265119 0 0.4806448387593304 -0.16963037666256761 0 0.5 -0.15540687925182001 0 0.45250540264483391 -0.16666746655292189 0 0.4806448387593304 -0.16963037666256761 0 0.47544712105845832 -0.14404982286224169 0 0.47544712105845832 -0.14404982286224169 0 0.5 -0.15540687925182001 0 0.5 -0.12918475049098879 0 0.48050208680218681 -0.1182835017847277 0 0.47544712105845832 -0.14404982286224169 0 0.5 -0.12918475049098879 0 0.48050208680218681 -0.1182835017847277 0 0.46385687996953689 -0.1282317786652073 0 0.47544712105845832 -0.14404982286224169 0 0.45455925349782378 -0.2400900069645476 0 0.44200317102818432 -0.21952410527893221 0 0.47100158551409421 -0.22679868540662229 0 0.44200317102818432 -0.21952410527893221 0 0.47100158551409421 -0.22679868540662229 0 0.44200317102818432 -0.21952410527893221 0 0.45875525617209478 -0.21331086267871069 0 0.47100158551409421 -0.22679868540662229 0 0.45455925349782378 -0.2400900069645476 0 0.47100158551409421 -0.22679868540662229 0 0.47500016860264521 -0.25209104298406593 0 0.45455925349782378 -0.2400900069645476 0 0.47500016860264521 -0.25209104298406593 0 0.4585285156158021 -0.25681146088319362 0 0.43577041208285611 -0.23880669329599641 0 0.45455925349782378 -0.2400900069645476 0 0.44379501503143759 -0.25204911479759817 0 0.45455925349782378 -0.2400900069645476 0 0.4585285156158021 -0.25681146088319362 0 0.44379501503143759 -0.25204911479759817 0 0.43577041208285611 -0.23880669329599641 0 0.45455925349782378 -0.2400900069645476 0 0.44200317102818432 -0.21952410527893221 0 0.43577041208285611 -0.23880669329599641 0 0.44200317102818432 -0.21952410527893221 0 0.43276884761356033 -0.2046115044174841 0 0.44200317102818432 -0.21952410527893221 0 0.44847095122182079 -0.19951442065086711 0 0.44200317102818432 -0.21952410527893221 0 0.44847095122182079 -0.19951442065086711 0 0.45875525617209478 -0.21331086267871069 0 0.44200317102818432 -0.21952410527893221 0 0.44847095122182079 -0.19951442065086711 0 0.43340986288514932 -0.19150472004611829 0 0.43276884761356033 -0.2046115044174841 0 0.44847095122182079 -0.19951442065086711 0 0.43340986288514932 -0.19150472004611829 0 0.44846179877264092 -0.183406930301246 0 0.44847095122182079 -0.19951442065086711 0 0.44846179877264092 -0.183406930301246 0 0.44847095122182079 -0.19951442065086711 0 0.47276967954206273 -0.18786305849364249 0 0.44847095122182079 -0.19951442065086711 0 0.47354531692427998 -0.20740623937842109 0 0.47276967954206273 -0.18786305849364249 0 0.45875525617209478 -0.21331086267871069 0 0.47354531692427998 -0.20740623937842109 0 0.47100158551409421 -0.22679868540662229 0 0.44847095122182079 -0.19951442065086711 0 0.45875525617209478 -0.21331086267871069 0 0.47354531692427998 -0.20740623937842109 0 0.47354531692427998 -0.20740623937842109 0 0.49303395643929171 -0.20905865043436331 0 0.47100158551409421 -0.22679868540662229 0 0.47276967954206273 -0.18786305849364249 0 0.49303395643929171 -0.20905865043436331 0 0.47354531692427998 -0.20740623937842109 0 0.47276967954206273 -0.18786305849364249 0 0.49303395643929171 -0.20905865043436331 0 0.5 -0.18162900801265119 0 0.48833538920823139 -0.19326602942673651 0 0.5 -0.2078511367734823 0 0.47276967954206273 -0.18786305849364249 0 0.48833538920823139 -0.19326602942673651 0 0.49303395643929171 -0.20905865043436331 0 0.5 -0.2078511367734823 0 0.49303395643929171 -0.20905865043436331 0 0.50000000000000377 -0.23407326553431351 0 0.48833538920823139 -0.19326602942673651 0 0.5 -0.2078511367734823 0 0.49303395643929171 -0.20905865043436331 0 0.49303395643929171 -0.20905865043436331 0 0.50000000000000377 -0.23407326553431351 0 0.47100158551409421 -0.22679868540662229 0 0.50000000000000377 -0.23407326553431351 0 0.47100158551409421 -0.22679868540662229 0 0.50000000000000377 -0.23407326553431351 0 0.47100158551409421 -0.22679868540662229 0 0.47500016860264521 -0.25209104298406593 0 0.50000000000000377 -0.23407326553431351 0 0.49999999999999267 -0.25782986628892679 0 0.47500016860264521 -0.25209104298406593 0 0.49999999999999267 -0.25782986628892679 0 0.47824486246821152 -0.27810391492402159 0 0.47500016860264521 -0.25209104298406593 0 0.49999999999999267 -0.25782986628892679 0 0.47824486246821152 -0.27810391492402159 0 0.49999999999999267 -0.25782986628892679 0 0.47824486246821152 -0.27810391492402159 0 0.5 -0.28759794679673911 0 0.47824486246821152 -0.27810391492402159 0 0.47500016860264521 -0.25209104298406593 0 0.46214335765928372 -0.27323887624480381 0 0.47500016860264521 -0.25209104298406593 0 0.4585285156158021 -0.25681146088319362 0 0.46214335765928372 -0.27323887624480381 0 0.4585285156158021 -0.25681146088319362 0 0.46214335765928372 -0.27323887624480381 0 0.44497405652383859 -0.27491689543752068 0 0.44497405652383859 -0.27491689543752068 0 0.44379501503143759 -0.25204911479759817 0 0.42953765313752668 -0.2580892813130603 0 0.4585285156158021 -0.25681146088319362 0 0.44497405652383859 -0.27491689543752068 0 0.44379501503143759 -0.25204911479759817 0 0.45648972493643369 -0.29837796355912011 0 0.43473458740465593 -0.31865201219421868 0 0.43799261909993131 -0.29943488669070611 0 0.45648972493643369 -0.29837796355912011 0 0.43473458740465593 -0.31865201219421868 0 0.45648972493643369 -0.29837796355912011 0 0.45419627636937171 -0.31959205494333143 0 0.43473458740465593 -0.31865201219421868 0 0.44497405652383859 -0.27491689543752068 0 0.43799261909993131 -0.29943488669070611 0 0.45648972493643369 -0.29837796355912011 0 0.47824486246821152 -0.27810391492402159 0 0.45648972493643369 -0.29837796355912011 0 0.47824486246821152 -0.27810391492402159 0 0.46214335765928372 -0.27323887624480381 0 0.45648972493643369 -0.29837796355912011 0 0.46214335765928372 -0.27323887624480381 0 0.44497405652383859 -0.27491689543752068 0 0.45648972493643369 -0.29837796355912011 0 0.45648972493643369 -0.29837796355912011 0 0.45419627636937171 -0.31959205494333143 0 0.46872364959887042 -0.31636939876438602 0 0.45648972493643369 -0.29837796355912011 0 0.48162855918712522 -0.30454833521441638 0 0.46872364959887042 -0.31636939876438602 0 0.47824486246821152 -0.27810391492402159 0 0.45648972493643369 -0.29837796355912011 0 0.48162855918712522 -0.30454833521441638 0 0.47824486246821152 -0.27810391492402159 0 0.48162855918712522 -0.30454833521441638 0 0.5 -0.28759794679673911 0 0.48162855918712522 -0.30454833521441638 0 0.5 -0.28759794679673911 0 0.5 -0.31736602730455138 0 0.48162855918712522 -0.30454833521441638 0 0.5 -0.31736602730455138 0 0.48164353698453061 -0.32778979282067239 0 0.5 -0.31736602730455138 0 0.48164353698453061 -0.32778979282067239 0 0.5 -0.34713410781236381 0 0.48164353698453061 -0.32778979282067239 0 0.5 -0.34713410781236381 0 0.47465777358317007 -0.34940007558599051 0 0.48164353698453061 -0.32778979282067239 0 0.47465777358317007 -0.34940007558599051 0 0.46485123953801782 -0.33192081224232711 0 0.48162855918712522 -0.30454833521441638 0 0.48164353698453061 -0.32778979282067239 0 0.46872364959887042 -0.31636939876438602 0 0.48164353698453061 -0.32778979282067239 0 0.46872364959887042 -0.31636939876438602 0 0.46485123953801782 -0.33192081224232711 0 0.5 -0.34713410781236381 0 0.47879580736863459 -0.371049180350637 0 0.5 -0.37690218832017608 0 0.5 -0.34713410781236381 0 0.47465777358317007 -0.34940007558599051 0 0.47879580736863459 -0.371049180350637 0 0.47465777358317007 -0.34940007558599051 0 0.47879580736863459 -0.371049180350637 0 0.46074877569132722 -0.36451658648935648 0 0.47879580736863459 -0.371049180350637 0 0.46074877569132722 -0.36451658648935648 0 0.45556428736393301 -0.38720244263304793 0 0.47465777358317007 -0.34940007558599051 0 0.46074877569132722 -0.36451658648935648 0 0.45693450938015567 -0.34706808129118349 0 0.46074877569132722 -0.36451658648935648 0 0.45693450938015567 -0.34706808129118349 0 0.43837190756355088 -0.35479591210669292 0 0.45693450938015567 -0.34706808129118349 0 0.43837190756355088 -0.35479591210669292 0 0.44604285052471249 -0.3347070200315504 0 0.46074877569132722 -0.36451658648935648 0 0.43837190756355088 -0.35479591210669292 0 0.4434715783202316 -0.37390891700863782 0 0.45419627636937171 -0.31959205494333143 0 0.46872364959887042 -0.31636939876438602 0 0.46485123953801782 -0.33192081224232711 0 0.47465777358317007 -0.34940007558599051 0 0.45693450938015567 -0.34706808129118349 0 0.46485123953801782 -0.33192081224232711 0 0.45419627636937171 -0.31959205494333143 0 0.46485123953801782 -0.33192081224232711 0 0.44604285052471249 -0.3347070200315504 0 0.45693450938015567 -0.34706808129118349 0 0.46485123953801782 -0.33192081224232711 0 0.44604285052471249 -0.3347070200315504 0 0.43837190756355088 -0.35479591210669292 0 0.44604285052471249 -0.3347070200315504 0 0.42975219404958548 -0.33950780780095507 0 0.45419627636937171 -0.31959205494333143 0 0.44604285052471249 -0.3347070200315504 0 0.43473458740465593 -0.31865201219421868 0 0.43473458740465593 -0.31865201219421868 0 0.41209848157866102 -0.33974705283714651 0 0.42064260321988378 -0.32225511918081179 0 0.43473458740465593 -0.31865201219421868 0 0.42064260321988378 -0.32225511918081179 0 0.42428576763081749 -0.31063049362338963 0 0.44604285052471249 -0.3347070200315504 0 0.43473458740465593 -0.31865201219421868 0 0.42975219404958548 -0.33950780780095507 0 0.43473458740465593 -0.31865201219421868 0 0.41209848157866102 -0.33974705283714651 0 0.43473458740465593 -0.31865201219421868 0 0.42975219404958548 -0.33950780780095507 0 0.41209848157866102 -0.33974705283714651 0 0.42975219404958548 -0.33950780780095507 0 0.41209848157866102 -0.33974705283714651 0 0.42129091085500392 -0.34790342794311951 0 0.42975219404958548 -0.33950780780095507 0 0.41209848157866102 -0.33974705283714651 0 0.41209848157866102 -0.33974705283714651 0 0.42064260321988378 -0.32225511918081179 0 0.41209848157866102 -0.33974705283714651 0 0.41230635553038192 -0.32811511630288598 0 0.42064260321988378 -0.32225511918081179 0 0.41209848157866102 -0.33974705283714651 0 0.4090229085753801 -0.3355115614475761 0 0.39820777136252478 -0.33424059673082362 0 0.41209848157866102 -0.33974705283714651 0 0.4090229085753801 -0.3355115614475761 0 0.41230635553038192 -0.32811511630288598 0 0.4090229085753801 -0.3355115614475761 0 0.41230635553038192 -0.32811511630288598 0 0.40494262109434198 -0.32981628816661079 0 0.40701754919289679 -0.32496600817852039 0 0.41230635553038192 -0.32811511630288598 0 0.41049426071335471 -0.31700284592459049 0 0.40701754919289679 -0.32496600817852039 0 0.41230635553038192 -0.32811511630288598 0 0.40494262109434198 -0.32981628816661079 0 0.41049426071335471 -0.31700284592459049 0 0.42064260321988378 -0.32225511918081179 0 0.42428576763081749 -0.31063049362338963 0 0.41230635553038192 -0.32811511630288598 0 0.41049426071335471 -0.31700284592459049 0 0.42064260321988378 -0.32225511918081179 0 0.43837190756355088 -0.35479591210669292 0 0.4434715783202316 -0.37390891700863782 0 0.42783864511997288 -0.37279889010966938 0 0.43837190756355088 -0.35479591210669292 0 0.42783864511997288 -0.37279889010966938 0 0.42071732462199252 -0.36016022819819737 0 0.43837190756355088 -0.35479591210669292 0 0.42975219404958548 -0.33950780780095507 0 0.42129091085500392 -0.34790342794311951 0 0.43837190756355088 -0.35479591210669292 0 0.42129091085500392 -0.34790342794311951 0 0.42071732462199252 -0.36016022819819737 0 0.41209848157866102 -0.33974705283714651 0 0.40045021812584042 -0.36618299826713002 0 0.41209848157866102 -0.33974705283714651 0 0.41327527435031619 -0.35526130158583902 0 0.40045021812584042 -0.36618299826713002 0 0.41209848157866102 -0.33974705283714651 0 0.42129091085500392 -0.34790342794311951 0 0.41327527435031619 -0.35526130158583902 0 0.41327527435031619 -0.35526130158583902 0 0.42071732462199252 -0.36016022819819737 0 0.4113126980000163 -0.36231966805996008 0 0.42129091085500392 -0.34790342794311951 0 0.41327527435031619 -0.35526130158583902 0 0.42071732462199252 -0.36016022819819737 0 0.42071732462199252 -0.36016022819819737 0 0.4113126980000163 -0.36231966805996008 0 0.41364646977261621 -0.37218563018249418 0 0.4113126980000163 -0.36231966805996008 0 0.41364646977261621 -0.37218563018249418 0 0.40045021812584042 -0.36618299826713002 0 0.41327527435031619 -0.35526130158583902 0 0.4113126980000163 -0.36231966805996008 0 0.40045021812584042 -0.36618299826713002 0 0.42783864511997288 -0.37279889010966938 0 0.42071732462199252 -0.36016022819819737 0 0.41364646977261621 -0.37218563018249418 0 0.40045021812584042 -0.36618299826713002 0 0.38865817942383118 -0.36923274744768969 0 0.38429866423071068 -0.38063839360942903 0 0.41364646977261621 -0.37218563018249418 0 0.40045021812584042 -0.36618299826713002 0 0.40417453554799421 -0.38290446435925229 0 0.40045021812584042 -0.36618299826713002 0 0.39399410563914578 -0.35661888358378308 0 0.38865817942383118 -0.36923274744768969 0 0.41209848157866102 -0.33974705283714651 0 0.39399410563914578 -0.35661888358378308 0 0.41209848157866102 -0.33974705283714651 0 0.40045021812584042 -0.36618299826713002 0 0.39399410563914578 -0.35661888358378308 0 0.41209848157866102 -0.33974705283714651 0 0.39399410563914578 -0.35661888358378308 0 0.3974607722127132 -0.34773811595781512 0 0.3974607722127132 -0.34773811595781512 0 0.39319090152193148 -0.34535348197756133 0 0.39771233530658617 -0.34354327972786047 0 0.39399410563914578 -0.35661888358378308 0 0.3974607722127132 -0.34773811595781512 0 0.38988167286668901 -0.35005494811178661 0 0.3974607722127132 -0.34773811595781512 0 0.39319090152193148 -0.34535348197756133 0 0.38988167286668901 -0.35005494811178661 0 0.38988167286668901 -0.35005494811178661 0 0.36840262698596521 -0.36268104081258729 0 0.38988167286668901 -0.35005494811178661 0 0.38204203379785701 -0.36071139670964342 0 0.36840262698596521 -0.36268104081258729 0 0.38988167286668901 -0.35005494811178661 0 0.36840262698596521 -0.36268104081258729 0 0.37421559042340868 -0.34914018865551522 0 0.38988167286668901 -0.35005494811178661 0 0.38770882570173792 -0.34007758411278338 0 0.37421559042340868 -0.34914018865551522 0 0.39319090152193148 -0.34535348197756133 0 0.38988167286668901 -0.35005494811178661 0 0.38770882570173792 -0.34007758411278338 0 0.39399410563914578 -0.35661888358378308 0 0.38988167286668901 -0.35005494811178661 0 0.38204203379785701 -0.36071139670964342 0 0.39399410563914578 -0.35661888358378308 0 0.37588972969962792 -0.37349071433041681 0 0.39399410563914578 -0.35661888358378308 0 0.38204203379785701 -0.36071139670964342 0 0.37588972969962792 -0.37349071433041681 0 0.39399410563914578 -0.35661888358378308 0 0.37588972969962792 -0.37349071433041681 0 0.38865817942383118 -0.36923274744768969 0 0.38204203379785701 -0.36071139670964342 0 0.37588972969962792 -0.37349071433041681 0 0.36840262698596521 -0.36268104081258729 0 0.37588972969962792 -0.37349071433041681 0 0.38865817942383118 -0.36923274744768969 0 0.38429866423071068 -0.38063839360942903 0 0.41049426071335471 -0.31700284592459049 0 0.39763533441519477 -0.32482086843831193 0 0.3935598852731706 -0.31216692133113177 0 0.40701754919289679 -0.32496600817852039 0 0.41049426071335471 -0.31700284592459049 0 0.39763533441519477 -0.32482086843831193 0 0.40701754919289679 -0.32496600817852039 0 0.39763533441519477 -0.32482086843831193 0 0.40494262109434198 -0.32981628816661079 0 0.41209848157866102 -0.33974705283714651 0 0.39820777136252478 -0.33424059673082362 0 0.38770882570173792 -0.34007758411278338 0 0.41209848157866102 -0.33974705283714651 0 0.39771233530658617 -0.34354327972786047 0 0.38770882570173792 -0.34007758411278338 0 0.41209848157866102 -0.33974705283714651 0 0.38770882570173792 -0.34007758411278338 0 0.39763533441519477 -0.32482086843831193 0 0.40494262109434198 -0.32981628816661079 0 0.39820777136252478 -0.33424059673082362 0 0.4090229085753801 -0.3355115614475761 0 0.40494262109434198 -0.32981628816661079 0 0.39820777136252478 -0.33424059673082362 0 0.41209848157866102 -0.33974705283714651 0 0.3974607722127132 -0.34773811595781512 0 0.39771233530658617 -0.34354327972786047 0 0.39319090152193148 -0.34535348197756133 0 0.39771233530658617 -0.34354327972786047 0 0.38770882570173792 -0.34007758411278338 0 0.39763533441519477 -0.32482086843831193 0 0.39820777136252478 -0.33424059673082362 0 0.38811524130216929 -0.33069873403122713 0 0.39820777136252478 -0.33424059673082362 0 0.38811524130216929 -0.33069873403122713 0 0.38770882570173792 -0.34007758411278338 0 0.38811524130216929 -0.33069873403122713 0 0.38770882570173792 -0.34007758411278338 0 0.3633191698248146 -0.34040811538842569 0 0.38811524130216929 -0.33069873403122713 0 0.3795349150393289 -0.32407826915266419 0 0.3633191698248146 -0.34040811538842569 0 0.38770882570173792 -0.34007758411278338 0 0.3633191698248146 -0.34040811538842569 0 0.37421559042340868 -0.34914018865551522 0 0.38770882570173792 -0.34007758411278338 0 0.3633191698248146 -0.34040811538842569 0 0.3795349150393289 -0.32407826915266419 0 0.3935598852731706 -0.31216692133113177 0 0.36908857108534188 -0.31171233834703632 0 0.39763533441519477 -0.32482086843831193 0 0.38811524130216929 -0.33069873403122713 0 0.3795349150393289 -0.32407826915266419 0 0.39763533441519477 -0.32482086843831193 0 0.3795349150393289 -0.32407826915266419 0 0.3935598852731706 -0.31216692133113177 0 0.38813334639774177 -0.29687881615364298 0 0.3935598852731706 -0.31216692133113177 0 0.36908857108534188 -0.31171233834703632 0 0.38813334639774177 -0.29687881615364298 0 0.36908857108534188 -0.31171233834703632 0 0.38813334639774177 -0.29687881615364298 0 0.3935598852731706 -0.31216692133113177 0 0.41647288398806181 -0.29850838997054491 0 0.38813334639774177 -0.29687881615364298 0 0.38249229615847258 -0.27998617100482848 0 0.4013777343091201 -0.27664811973678899 0 0.38813334639774177 -0.29687881615364298 0 0.4013777343091201 -0.27664811973678899 0 0.41647288398806181 -0.29850838997054491 0 0.38813334639774177 -0.29687881615364298 0 0.38249229615847258 -0.27998617100482848 0 0.36187197490429501 -0.28780440654160111 0 0.36613640271634179 -0.2357918474831934 0 0.38932877852108783 -0.25195924155336757 0 0.37420173559392561 -0.26422388965182281 0 0.38249229615847258 -0.27998617100482848 0 0.38932877852108783 -0.25195924155336757 0 0.37420173559392561 -0.26422388965182281 0 0.38932877852108783 -0.25195924155336757 0 0.4013777343091201 -0.27664811973678899 0 0.4085342065971605 -0.25518423040822602 0 0.38249229615847258 -0.27998617100482848 0 0.38932877852108783 -0.25195924155336757 0 0.4013777343091201 -0.27664811973678899 0 0.4013777343091201 -0.27664811973678899 0 0.4085342065971605 -0.25518423040822602 0 0.42330489419219652 -0.27737186933012398 0 0.4085342065971605 -0.25518423040822602 0 0.42330489419219652 -0.27737186933012398 0 0.4085342065971605 -0.25518423040822602 0 0.42953765313752668 -0.2580892813130603 0 0.42330489419219652 -0.27737186933012398 0 0.41682930855652378 -0.2376632684354088 0 0.4085342065971605 -0.25518423040822602 0 0.42953765313752668 -0.2580892813130603 0 0.42953765313752668 -0.2580892813130603 0 0.42330489419219652 -0.27737186933012398 0 0.44497405652383859 -0.27491689543752068 0 0.42953765313752668 -0.2580892813130603 0 0.42330489419219652 -0.27737186933012398 0 0.44497405652383859 -0.27491689543752068 0 0.43799261909993131 -0.29943488669070611 0 0.42330489419219652 -0.27737186933012398 0 0.43799261909993131 -0.29943488669070611 0 0.42330489419219652 -0.27737186933012398 0 0.43799261909993131 -0.29943488669070611 0 0.42330489419219652 -0.27737186933012398 0 0.41647288398806181 -0.29850838997054491 0 0.43799261909993131 -0.29943488669070611 0 0.43473458740465593 -0.31865201219421868 0 0.42428576763081749 -0.31063049362338963 0 0.43799261909993131 -0.29943488669070611 0 0.42428576763081749 -0.31063049362338963 0 0.41647288398806181 -0.29850838997054491 0 0.41049426071335471 -0.31700284592459049 0 0.3935598852731706 -0.31216692133113177 0 0.41647288398806181 -0.29850838997054491 0 0.41049426071335471 -0.31700284592459049 0 0.42428576763081749 -0.31063049362338963 0 0.41647288398806181 -0.29850838997054491 0 0.4013777343091201 -0.27664811973678899 0 0.42330489419219652 -0.27737186933012398 0 0.41647288398806181 -0.29850838997054491 0 0.42330489419219652 -0.27737186933012398 0 0.41647288398806181 -0.29850838997054491 0 0.5 -0.5 0 0.47031118162960578 -0.48354129492005082 0 0.42463634431209618 -0.50000000000000233 0 0.44506717863437162 -0.47382767043639651 0 0.47031118162960578 -0.48354129492005082 0 0.42463634431209618 -0.50000000000000233 0 0.44506717863437162 -0.47382767043639651 0 0.47031118162960578 -0.48354129492005082 0 0.44506717863437162 -0.47382767043639651 0 0.45757761017621867 -0.46930123847325927 0 0.47031118162960578 -0.48354129492005082 0 0.45757761017621867 -0.46930123847325927 0 0.47878880508810873 -0.48263787441234218 0 0.5 -0.5 0 0.47031118162960578 -0.48354129492005082 0 0.47878880508810873 -0.48263787441234218 0 0.5 -0.5 0 0.49999999999999889 -0.4959745103514247 0 0.47878880508810873 -0.48263787441234218 0 0.49999999999999889 -0.4959745103514247 0 0.47878880508810873 -0.48263787441234218 0 0.49999999999999889 -0.4959745103514247 0 0.48718425520828162 -0.47156909403396902 0 0.5 -0.46620642984361249 0 0.49999999999999889 -0.4959745103514247 0 0.48718425520828162 -0.47156909403396902 0 0.47878880508810873 -0.48263787441234218 0 0.45757761017621867 -0.46930123847325927 0 0.47878880508810873 -0.48263787441234218 0 0.4766301845635294 -0.46253509853858749 0 0.45757761017621867 -0.46930123847325927 0 0.47031118162960578 -0.48354129492005082 0 0.47878880508810873 -0.48263787441234218 0 0.48718425520828162 -0.47156909403396902 0 0.47878880508810873 -0.48263787441234218 0 0.4766301845635294 -0.46253509853858749 0 0.48718425520828162 -0.47156909403396902 0 0.4766301845635294 -0.46253509853858749 0 0.48616815727895879 -0.45008685180869962 0 0.4766301845635294 -0.46253509853858749 0 0.46999319249194049 -0.4433411917856287 0 0.46526455940591888 -0.45792349759065709 0 0.48718425520828162 -0.47156909403396902 0 0.5 -0.46620642984361249 0 0.48616815727895879 -0.45008685180869962 0 0.5 -0.46620642984361249 0 0.48616815727895879 -0.45008685180869962 0 0.5 -0.43643834933580039 0 0.48616815727895879 -0.45008685180869962 0 0.46999319249194049 -0.4433411917856287 0 0.47950203530726399 -0.42317275499521051 0 0.4766301845635294 -0.46253509853858749 0 0.48616815727895879 -0.45008685180869962 0 0.46999319249194049 -0.4433411917856287 0 0.46999319249194049 -0.4433411917856287 0 0.45347116110744529 -0.43974209661634389 0 0.45697237835874482 -0.45233611381256761 0 0.46999319249194049 -0.4433411917856287 0 0.45697237835874482 -0.45233611381256761 0 0.46526455940591888 -0.45792349759065709 0 0.45757761017621867 -0.46930123847325927 0 0.45697237835874482 -0.45233611381256761 0 0.44785162162481551 -0.46197171880319249 0 0.45757761017621867 -0.46930123847325927 0 0.4766301845635294 -0.46253509853858749 0 0.46526455940591888 -0.45792349759065709 0 0.45757761017621867 -0.46930123847325927 0 0.45697237835874482 -0.45233611381256761 0 0.46526455940591888 -0.45792349759065709 0 0.45697237835874482 -0.45233611381256761 0 0.44785162162481551 -0.46197171880319249 0 0.44288544438084387 -0.4473336702312754 0 0.44506717863437162 -0.47382767043639651 0 0.45757761017621867 -0.46930123847325927 0 0.44785162162481551 -0.46197171880319249 0 0.44506717863437162 -0.47382767043639651 0 0.44785162162481551 -0.46197171880319249 0 0.43595574568289902 -0.45884820485818689 0 0.44785162162481551 -0.46197171880319249 0 0.44288544438084387 -0.4473336702312754 0 0.43595574568289902 -0.45884820485818689 0 0.45347116110744529 -0.43974209661634389 0 0.44288544438084387 -0.4473336702312754 0 0.4394124841841594 -0.43106242962264479 0 0.45347116110744529 -0.43974209661634389 0 0.45697237835874482 -0.45233611381256761 0 0.44288544438084387 -0.4473336702312754 0 0.45347116110744529 -0.43974209661634389 0 0.4394124841841594 -0.43106242962264479 0 0.45809230612153812 -0.42463707762960268 0 0.4394124841841594 -0.43106242962264479 0 0.44235453117967632 -0.40939887129468011 0 0.45809230612153812 -0.42463707762960268 0 0.46295662571977919 -0.4079176115459775 0 0.45809230612153812 -0.42463707762960268 0 0.47950203530726399 -0.42317275499521051 0 0.44235453117967632 -0.40939887129468011 0 0.46295662571977919 -0.4079176115459775 0 0.45809230612153812 -0.42463707762960268 0 0.46999319249194049 -0.4433411917856287 0 0.45347116110744529 -0.43974209661634389 0 0.45809230612153812 -0.42463707762960268 0 0.46999319249194049 -0.4433411917856287 0 0.45809230612153812 -0.42463707762960268 0 0.47950203530726399 -0.42317275499521051 0 0.47950203530726399 -0.42317275499521051 0 0.5 -0.43643834933580039 0 0.5 -0.40667026882798818 0 0.48616815727895879 -0.45008685180869962 0 0.47950203530726399 -0.42317275499521051 0 0.5 -0.43643834933580039 0 0.47950203530726399 -0.42317275499521051 0 0.5 -0.40667026882798818 0 0.47926996862648519 -0.39517691117734638 0 0.46295662571977919 -0.4079176115459775 0 0.47950203530726399 -0.42317275499521051 0 0.47926996862648519 -0.39517691117734638 0 0.5 -0.40667026882798818 0 0.47926996862648519 -0.39517691117734638 0 0.5 -0.37690218832017608 0 0.47879580736863459 -0.371049180350637 0 0.47926996862648519 -0.39517691117734638 0 0.5 -0.37690218832017608 0 0.47879580736863459 -0.371049180350637 0 0.47926996862648519 -0.39517691117734638 0 0.45556428736393301 -0.38720244263304793 0 0.46074877569132722 -0.36451658648935648 0 0.4434715783202316 -0.37390891700863782 0 0.45556428736393301 -0.38720244263304793 0 0.44235453117967632 -0.40939887129468011 0 0.46295662571977919 -0.4079176115459775 0 0.45556428736393301 -0.38720244263304793 0 0.46295662571977919 -0.4079176115459775 0 0.47926996862648519 -0.39517691117734638 0 0.45556428736393301 -0.38720244263304793 0 0.44235453117967632 -0.40939887129468011 0 0.45556428736393301 -0.38720244263304793 0 0.43407308599551869 -0.38924912837438103 0 0.4434715783202316 -0.37390891700863782 0 0.45556428736393301 -0.38720244263304793 0 0.43407308599551869 -0.38924912837438103 0 0.42783864511997288 -0.37279889010966938 0 0.43407308599551869 -0.38924912837438103 0 0.4167515044459279 -0.38649352478761362 0 0.4434715783202316 -0.37390891700863782 0 0.42783864511997288 -0.37279889010966938 0 0.43407308599551869 -0.38924912837438103 0 0.44235453117967632 -0.40939887129468011 0 0.43407308599551869 -0.38924912837438103 0 0.42041584323967057 -0.40437926962382398 0 0.43407308599551869 -0.38924912837438103 0 0.42041584323967057 -0.40437926962382398 0 0.4167515044459279 -0.38649352478761362 0 0.42041584323967057 -0.40437926962382398 0 0.40154155791007978 -0.39669900723957952 0 0.40453993784230219 -0.41079184761833748 0 0.42041584323967057 -0.40437926962382398 0 0.4167515044459279 -0.38649352478761362 0 0.40154155791007978 -0.39669900723957952 0 0.4167515044459279 -0.38649352478761362 0 0.40417453554799421 -0.38290446435925229 0 0.40154155791007978 -0.39669900723957952 0 0.42783864511997288 -0.37279889010966938 0 0.41364646977261621 -0.37218563018249418 0 0.4167515044459279 -0.38649352478761362 0 0.41364646977261621 -0.37218563018249418 0 0.4167515044459279 -0.38649352478761362 0 0.40417453554799421 -0.38290446435925229 0 0.40045021812584042 -0.36618299826713002 0 0.38429866423071068 -0.38063839360942903 0 0.3882952161029527 -0.39262581107347222 0 0.40045021812584042 -0.36618299826713002 0 0.40417453554799421 -0.38290446435925229 0 0.3882952161029527 -0.39262581107347222 0 0.40045021812584042 -0.36618299826713002 0 0.3882952161029527 -0.39262581107347222 0 0.38429866423071068 -0.38063839360942903 0 0.3795305321292457 -0.39441820674292433 0 0.3882952161029527 -0.39262581107347222 0 0.38429866423071068 -0.38063839360942903 0 0.3795305321292457 -0.39441820674292433 0 0.37387864180877861 -0.38745716214161741 0 0.37588972969962792 -0.37349071433041681 0 0.38429866423071068 -0.38063839360942903 0 0.37387864180877861 -0.38745716214161741 0 0.37682936137276718 -0.40244226119665438 0 0.3795305321292457 -0.39441820674292433 0 0.3880341780996121 -0.40392533724026908 0 0.37682936137276718 -0.40244226119665438 0 0.3795305321292457 -0.39441820674292433 0 0.37102649209293509 -0.39572002517640992 0 0.3795305321292457 -0.39441820674292433 0 0.3882952161029527 -0.39262581107347222 0 0.3880341780996121 -0.40392533724026908 0 0.3880341780996121 -0.40392533724026908 0 0.40154155791007978 -0.39669900723957952 0 0.40453993784230219 -0.41079184761833748 0 0.40417453554799421 -0.38290446435925229 0 0.3882952161029527 -0.39262581107347222 0 0.40154155791007978 -0.39669900723957952 0 0.3882952161029527 -0.39262581107347222 0 0.3880341780996121 -0.40392533724026908 0 0.40154155791007978 -0.39669900723957952 0 0.3880341780996121 -0.40392533724026908 0 0.40453993784230219 -0.41079184761833748 0 0.39340026586034138 -0.41625589756210413 0 0.40453993784230219 -0.41079184761833748 0 0.39340026586034138 -0.41625589756210413 0 0.40530321580792389 -0.42681389438465489 0 0.3880341780996121 -0.40392533724026908 0 0.39340026586034138 -0.41625589756210413 0 0.38077468981958412 -0.41258831954115521 0 0.38077468981958412 -0.41258831954115521 0 0.38847493175446868 -0.42793409468930471 0 0.37398111607042622 -0.4112063460154331 0 0.37524722658792992 -0.42474725551155812 0 0.38847493175446868 -0.42793409468930471 0 0.37398111607042622 -0.4112063460154331 0 0.38847493175446868 -0.42793409468930471 0 0.37398111607042622 -0.4112063460154331 0 0.38077468981958412 -0.41258831954115521 0 0.38847493175446868 -0.42793409468930471 0 0.39340026586034138 -0.41625589756210413 0 0.38077468981958412 -0.41258831954115521 0 0.38847493175446868 -0.42793409468930471 0 0.37682936137276718 -0.40244226119665438 0 0.3880341780996121 -0.40392533724026908 0 0.38077468981958412 -0.41258831954115521 0 0.37682936137276718 -0.40244226119665438 0 0.38077468981958412 -0.41258831954115521 0 0.37398111607042622 -0.4112063460154331 0 0.37744046437995221 -0.43597268986650012 0 0.38847493175446868 -0.42793409468930471 0 0.3959736546538476 -0.44287826352000659 0 0.37744046437995221 -0.43597268986650012 0 0.37524722658792992 -0.42474725551155812 0 0.38847493175446868 -0.42793409468930471 0 0.39340026586034138 -0.41625589756210413 0 0.38847493175446868 -0.42793409468930471 0 0.40530321580792389 -0.42681389438465489 0 0.38847493175446868 -0.42793409468930471 0 0.40414905369680287 -0.44602407032102359 0 0.38847493175446868 -0.42793409468930471 0 0.3959736546538476 -0.44287826352000659 0 0.38847493175446868 -0.42793409468930471 0 0.40530321580792389 -0.42681389438465489 0 0.40414905369680287 -0.44602407032102359 0 0.41958809419304682 -0.43200005290032317 0 0.41626887011588998 -0.41632871012763473 0 0.42792387590057318 -0.42076986699207253 0 0.40530321580792389 -0.42681389438465489 0 0.41958809419304682 -0.43200005290032317 0 0.41626887011588998 -0.41632871012763473 0 0.40530321580792389 -0.42681389438465489 0 0.41958809419304682 -0.43200005290032317 0 0.40414905369680287 -0.44602407032102359 0 0.42041584323967057 -0.40437926962382398 0 0.40453993784230219 -0.41079184761833748 0 0.41626887011588998 -0.41632871012763473 0 0.40453993784230219 -0.41079184761833748 0 0.40530321580792389 -0.42681389438465489 0 0.41626887011588998 -0.41632871012763473 0 0.42041584323967057 -0.40437926962382398 0 0.41626887011588998 -0.41632871012763473 0 0.42792387590057318 -0.42076986699207253 0 0.4394124841841594 -0.43106242962264479 0 0.44235453117967632 -0.40939887129468011 0 0.42792387590057318 -0.42076986699207253 0 0.44235453117967632 -0.40939887129468011 0 0.42041584323967057 -0.40437926962382398 0 0.42792387590057318 -0.42076986699207253 0 0.4394124841841594 -0.43106242962264479 0 0.41958809419304682 -0.43200005290032317 0 0.42792387590057318 -0.42076986699207253 0 0.4394124841841594 -0.43106242962264479 0 0.41958809419304682 -0.43200005290032317 0 0.42707130110276742 -0.4466553402507325 0 0.44288544438084387 -0.4473336702312754 0 0.4394124841841594 -0.43106242962264479 0 0.42707130110276742 -0.4466553402507325 0 0.44288544438084387 -0.4473336702312754 0 0.42707130110276742 -0.4466553402507325 0 0.43595574568289902 -0.45884820485818689 0 0.42707130110276742 -0.4466553402507325 0 0.43595574568289902 -0.45884820485818689 0 0.41982317563913712 -0.46411404595274258 0 0.44506717863437162 -0.47382767043639651 0 0.43595574568289902 -0.45884820485818689 0 0.41982317563913712 -0.46411404595274258 0 0.41982317563913712 -0.46411404595274258 0 0.40347237755322662 -0.4578224323507083 0 0.41405436093266101 -0.47891121617535548 0 0.41982317563913712 -0.46411404595274258 0 0.40414905369680287 -0.44602407032102359 0 0.41982317563913712 -0.46411404595274258 0 0.40347237755322662 -0.4578224323507083 0 0.41982317563913712 -0.46411404595274258 0 0.40414905369680287 -0.44602407032102359 0 0.40347237755322662 -0.4578224323507083 0 0.40347237755322662 -0.4578224323507083 0 0.41405436093266101 -0.47891121617535548 0 0.41958809419304682 -0.43200005290032317 0 0.42707130110276742 -0.4466553402507325 0 0.40414905369680287 -0.44602407032102359 0 0.42707130110276742 -0.4466553402507325 0 0.41982317563913712 -0.46411404595274258 0 0.40414905369680287 -0.44602407032102359 0 0.37855287918256508 -0.44823367380320961 0 0.40347237755322662 -0.4578224323507083 0 0.38847493175446868 -0.42793409468930471 0 0.40414905369680287 -0.44602407032102359 0 0.3959736546538476 -0.44287826352000659 0 0.3959736546538476 -0.44287826352000659 0 0.37855287918256508 -0.44823367380320961 0 0.40347237755322662 -0.4578224323507083 0 0.40414905369680287 -0.44602407032102359 0 0.3959736546538476 -0.44287826352000659 0 0.40347237755322662 -0.4578224323507083 0 0.3959736546538476 -0.44287826352000659 0 0.40347237755322662 -0.4578224323507083 0 0.37744046437995221 -0.43597268986650012 0 0.3959736546538476 -0.44287826352000659 0 0.37855287918256508 -0.44823367380320961 0 0.37855287918256508 -0.44823367380320961 0 0.38899289103674789 -0.46241189778278941 0 0.40347237755322662 -0.4578224323507083 0 0.37892988886631368 -0.45917268423389701 0 0.38385784901469611 -0.47056090294680308 0 0.37356552797971271 -0.46702760113094932 0 0.37855287918256508 -0.44823367380320961 0 0.37892988886631368 -0.45917268423389701 0 0.38899289103674789 -0.46241189778278941 0 0.37892988886631368 -0.45917268423389701 0 0.38899289103674789 -0.46241189778278941 0 0.38385784901469611 -0.47056090294680308 0 0.38899289103674789 -0.46241189778278941 0 0.40347237755322662 -0.4578224323507083 0 0.39978294723758551 -0.47233528250231649 0 0.40347237755322662 -0.4578224323507083 0 0.39978294723758551 -0.47233528250231649 0 0.41405436093266101 -0.47891121617535548 0 0.39978294723758551 -0.47233528250231649 0 0.39937467446932878 -0.48374092297980642 0 0.41405436093266101 -0.47891121617535548 0 0.39937467446932878 -0.48374092297980642 0 0.39051167965797068 -0.47752520330663828 0 0.39013759127753622 -0.48969306363371551 0 0.39978294723758551 -0.47233528250231649 0 0.39937467446932878 -0.48374092297980642 0 0.39051167965797068 -0.47752520330663828 0 0.38899289103674789 -0.46241189778278941 0 0.39978294723758551 -0.47233528250231649 0 0.39051167965797068 -0.47752520330663828 0 0.38385784901469611 -0.47056090294680308 0 0.39051167965797068 -0.47752520330663828 0 0.37891353410801443 -0.47737816935841099 0 0.38899289103674789 -0.46241189778278941 0 0.38385784901469611 -0.47056090294680308 0 0.39051167965797068 -0.47752520330663828 0 0.38415926932172062 -0.48354577396255682 0 0.39051167965797068 -0.47752520330663828 0 0.37891353410801443 -0.47737816935841099 0 0.38415926932172062 -0.48354577396255682 0 0.39051167965797068 -0.47752520330663828 0 0.39013759127753622 -0.48969306363371551 0 0.38415926932172062 -0.48354577396255682 0 0.37623156529086932 -0.4825149560410531 0 0.37891353410801443 -0.47737816935841099 0 0.37623156529086932 -0.4825149560410531 0 0.37891353410801443 -0.47737816935841099 0 0.37069762797868461 -0.47732604528733469 0 0.38385784901469611 -0.47056090294680308 0 0.37891353410801443 -0.47737816935841099 0 0.37356552797971271 -0.46702760113094932 0 0.37942044380511591 -0.50000000000000089 0 0.39013759127753622 -0.48969306363371551 0 0.40202839405860602 -0.5 0 0.37942044380511591 -0.50000000000000089 0 0.37847163082776858 -0.48908093867398228 0 0.39013759127753622 -0.48969306363371551 0 0.38415926932172062 -0.48354577396255682 0 0.37623156529086932 -0.4825149560410531 0 0.37847163082776858 -0.48908093867398228 0 0.37942044380511591 -0.50000000000000089 0 0.37847163082776858 -0.48908093867398228 0 0.36816687139173132 -0.48506764434511562 0 0.38415926932172062 -0.48354577396255682 0 0.37847163082776858 -0.48908093867398228 0 0.39013759127753622 -0.48969306363371551 0 0.39937467446932878 -0.48374092297980642 0 0.40202839405860602 -0.5 0 0.41405436093266101 -0.47891121617535548 0 0.39937467446932878 -0.48374092297980642 0 0.39013759127753622 -0.48969306363371551 0 0.40202839405860602 -0.5 0 0.41405436093266101 -0.47891121617535548 0 0.42463634431209618 -0.50000000000000233 0 0.40202839405860602 -0.5 0 0.41405436093266101 -0.47891121617535548 0 0.42463634431209618 -0.50000000000000233 0 0.44506717863437162 -0.47382767043639651 0 0.41982317563913712 -0.46411404595274258 0 0.43282459370515791 -0.47911937364238449 0 0.41982317563913712 -0.46411404595274258 0 0.41405436093266101 -0.47891121617535548 0 0.43282459370515791 -0.47911937364238449 0 0.44506717863437162 -0.47382767043639651 0 0.41982317563913712 -0.46411404595274258 0 0.44506717863437162 -0.47382767043639651 0 0.43282459370515791 -0.47911937364238449 0 0.42463634431209618 -0.50000000000000233 0 0.41982317563913712 -0.46411404595274258 0 0.43282459370515791 -0.47911937364238449 0 0.41405436093266101 -0.47891121617535548 0 0.43282459370515791 -0.47911937364238449 0 0.42463634431209618 -0.50000000000000233 0 0.31468262084599907 -0.48723281049029388 0 0.34016252588205548 -0.48620132501179292 0 0.31468262084599907 -0.48723281049029388 0 0.32856051566852429 -0.49287238610213291 0 0.34016252588205548 -0.48620132501179292 0 0.32393608328506329 -0.5 0 0.32856051566852429 -0.49287238610213291 0 0.30888161573923351 -0.49056834103546432 0 0.31468262084599907 -0.48723281049029388 0 0.32856051566852429 -0.49287238610213291 0 0.30888161573923351 -0.49056834103546432 0 0.32856051566852429 -0.49287238610213291 0 0.30888161573923351 -0.49056834103546432 0 0.31468262084599907 -0.48723281049029388 0 0.32771202996280491 -0.46996752595140212 0 0.31091668461349969 -0.46744320646936383 0 0.31468262084599907 -0.48723281049029388 0 0.32771202996280491 -0.46996752595140212 0 0.34016252588205548 -0.48620132501179292 0 0.32771202996280491 -0.46996752595140212 0 0.34016252588205548 -0.48620132501179292 0 0.34780025283372162 -0.46596515695408092 0 0.32856051566852429 -0.49287238610213291 0 0.34016252588205548 -0.48620132501179292 0 0.35167826354508958 -0.5 0 0.32393608328506329 -0.5 0 0.32856051566852429 -0.49287238610213291 0 0.35167826354508958 -0.5 0 0.34016252588205548 -0.48620132501179292 0 0.35167826354508958 -0.5 0 0.36564243091811183 -0.48516983953329079 0 0.34016252588205548 -0.48620132501179292 0 0.36564243091811183 -0.48516983953329079 0 0.37942044380511591 -0.50000000000000089 0 0.35167826354508958 -0.5 0 0.36564243091811183 -0.48516983953329079 0 0.36564243091811183 -0.48516983953329079 0 0.36816687139173132 -0.48506764434511562 0 0.37623156529086932 -0.4825149560410531 0 0.37847163082776858 -0.48908093867398228 0 0.36816687139173132 -0.48506764434511562 0 0.37942044380511591 -0.50000000000000089 0 0.36564243091811183 -0.48516983953329079 0 0.36816687139173132 -0.48506764434511562 0 0.37942044380511591 -0.50000000000000089 0 0.36564243091811183 -0.48516983953329079 0 0.37891353410801443 -0.47737816935841099 0 0.37069762797868461 -0.47732604528733469 0 0.37356552797971271 -0.46702760113094932 0 0.37069762797868461 -0.47732604528733469 0 0.36407338130147682 -0.47015225523720389 0 0.37356552797971271 -0.46702760113094932 0 0.36564243091811183 -0.48516983953329079 0 0.36816687139173132 -0.48506764434511562 0 0.37069762797868461 -0.47732604528733469 0 0.37623156529086932 -0.4825149560410531 0 0.36816687139173132 -0.48506764434511562 0 0.37069762797868461 -0.47732604528733469 0 0.36564243091811183 -0.48516983953329079 0 0.37069762797868461 -0.47732604528733469 0 0.36407338130147682 -0.47015225523720389 0 0.34016252588205548 -0.48620132501179292 0 0.36564243091811183 -0.48516983953329079 0 0.34780025283372162 -0.46596515695408092 0 0.36564243091811183 -0.48516983953329079 0 0.34780025283372162 -0.46596515695408092 0 0.36564243091811183 -0.48516983953329079 0 0.36407338130147682 -0.47015225523720389 0 0.34780025283372162 -0.46596515695408092 0 0.36407338130147682 -0.47015225523720389 0 0.34780025283372162 -0.46596515695408092 0 0.36266106679715299 -0.45527263328036482 0 0.34780025283372162 -0.46596515695408092 0 0.36266106679715299 -0.45527263328036482 0 0.34799339286268399 -0.44959230247788318 0 0.37892988886631368 -0.45917268423389701 0 0.36266106679715299 -0.45527263328036482 0 0.37356552797971271 -0.46702760113094932 0 0.37855287918256508 -0.44823367380320961 0 0.37892988886631368 -0.45917268423389701 0 0.36266106679715299 -0.45527263328036482 0 0.36407338130147682 -0.47015225523720389 0 0.36266106679715299 -0.45527263328036482 0 0.37356552797971271 -0.46702760113094932 0 0.37744046437995221 -0.43597268986650012 0 0.37855287918256508 -0.44823367380320961 0 0.36264295680085568 -0.44008101532189581 0 0.37855287918256508 -0.44823367380320961 0 0.36266106679715299 -0.45527263328036482 0 0.36264295680085568 -0.44008101532189581 0 0.36264295680085568 -0.44008101532189581 0 0.34799339286268399 -0.44959230247788318 0 0.34690731129989888 -0.43550523027356469 0 0.36266106679715299 -0.45527263328036482 0 0.36264295680085568 -0.44008101532189581 0 0.34799339286268399 -0.44959230247788318 0 0.34799339286268399 -0.44959230247788318 0 0.3370508210230802 -0.44371861688960462 0 0.34690731129989888 -0.43550523027356469 0 0.3370508210230802 -0.44371861688960462 0 0.32991475416931609 -0.43331159768803418 0 0.34690731129989888 -0.43550523027356469 0 0.3370508210230802 -0.44371861688960462 0 0.32673839825993289 -0.44743586489272957 0 0.32991475416931609 -0.43331159768803418 0 0.3370508210230802 -0.44371861688960462 0 0.33363230531743188 -0.45513145223054852 0 0.32673839825993289 -0.44743586489272957 0 0.34799339286268399 -0.44959230247788318 0 0.3370508210230802 -0.44371861688960462 0 0.33363230531743188 -0.45513145223054852 0 0.32771202996280491 -0.46996752595140212 0 0.34780025283372162 -0.46596515695408092 0 0.33363230531743188 -0.45513145223054852 0 0.34780025283372162 -0.46596515695408092 0 0.34799339286268399 -0.44959230247788318 0 0.33363230531743188 -0.45513145223054852 0 0.32771202996280491 -0.46996752595140212 0 0.32192815621354282 -0.4569017222087382 0 0.31091668461349969 -0.46744320646936383 0 0.32771202996280491 -0.46996752595140212 0 0.33363230531743188 -0.45513145223054852 0 0.32192815621354282 -0.4569017222087382 0 0.32192815621354282 -0.4569017222087382 0 0.31116595457629342 -0.44811593544672212 0 0.31091668461349969 -0.46744320646936383 0 0.33363230531743188 -0.45513145223054852 0 0.32192815621354282 -0.4569017222087382 0 0.32673839825993289 -0.44743586489272957 0 0.32673839825993289 -0.44743586489272957 0 0.32991475416931609 -0.43331159768803418 0 0.31116595457629342 -0.44811593544672212 0 0.32991475416931609 -0.43331159768803418 0 0.31116595457629342 -0.44811593544672212 0 0.32192815621354282 -0.4569017222087382 0 0.32673839825993289 -0.44743586489272957 0 0.31116595457629342 -0.44811593544672212 0 0.32991475416931609 -0.43331159768803418 0 0.30898519123413598 -0.43584039448191503 0 0.31116595457629342 -0.44811593544672212 0 0.32433308452736398 -0.42153738515279959 0 0.32991475416931609 -0.43331159768803418 0 0.30898519123413598 -0.43584039448191503 0 0.32433308452736398 -0.42153738515279959 0 0.30898519123413598 -0.43584039448191503 0 0.32433308452736398 -0.42153738515279959 0 0.3110477456066979 -0.42583950349905503 0 0.30898519123413598 -0.43584039448191503 0 0.31450066150828732 -0.42021999414434957 0 0.32433308452736398 -0.42153738515279959 0 0.3110477456066979 -0.42583950349905503 0 0.31450066150828732 -0.42021999414434957 0 0.31551528878785889 -0.41035173224172677 0 0.32433308452736398 -0.42153738515279959 0 0.31551528878785889 -0.41035173224172677 0 0.32433308452736398 -0.42153738515279959 0 0.33968097782059342 -0.40723437582368582 0 0.31551528878785889 -0.41035173224172677 0 0.33968097782059342 -0.40723437582368582 0 0.32349082209521313 -0.40430789485799429 0 0.31551528878785889 -0.41035173224172677 0 0.33968097782059342 -0.40723437582368582 0 0.31551528878785889 -0.41035173224172677 0 0.31581635322752072 -0.40246478915636758 0 0.30644597488888331 -0.40621587784777319 0 0.32433308452736398 -0.42153738515279959 0 0.33564809256990308 -0.4201476546484666 0 0.33968097782059342 -0.40723437582368582 0 0.32433308452736398 -0.42153738515279959 0 0.33968097782059342 -0.40723437582368582 0 0.33564809256990308 -0.4201476546484666 0 0.33968097782059342 -0.40723437582368582 0 0.34866355376233882 -0.41850725992934629 0 0.32991475416931609 -0.43331159768803418 0 0.34690731129989888 -0.43550523027356469 0 0.34866355376233882 -0.41850725992934629 0 0.33564809256990308 -0.4201476546484666 0 0.32991475416931609 -0.43331159768803418 0 0.34866355376233882 -0.41850725992934629 0 0.32991475416931609 -0.43331159768803418 0 0.34866355376233882 -0.41850725992934629 0 0.32433308452736398 -0.42153738515279959 0 0.33564809256990308 -0.4201476546484666 0 0.32991475416931609 -0.43331159768803418 0 0.34690731129989888 -0.43550523027356469 0 0.35792566663208553 -0.42597060513283941 0 0.34866355376233882 -0.41850725992934629 0 0.36264295680085568 -0.44008101532189581 0 0.34690731129989888 -0.43550523027356469 0 0.35792566663208553 -0.42597060513283941 0 0.36264295680085568 -0.44008101532189581 0 0.35792566663208553 -0.42597060513283941 0 0.36701991645165122 -0.43001997241890971 0 0.35792566663208553 -0.42597060513283941 0 0.36701991645165122 -0.43001997241890971 0 0.36886436799803102 -0.41883774688574471 0 0.37524722658792992 -0.42474725551155812 0 0.36701991645165122 -0.43001997241890971 0 0.36886436799803102 -0.41883774688574471 0 0.37744046437995221 -0.43597268986650012 0 0.37524722658792992 -0.42474725551155812 0 0.36701991645165122 -0.43001997241890971 0 0.37744046437995221 -0.43597268986650012 0 0.36264295680085568 -0.44008101532189581 0 0.36701991645165122 -0.43001997241890971 0 0.36794135224102958 -0.41231154193281833 0 0.37398111607042622 -0.4112063460154331 0 0.36741235335536171 -0.40370292217065851 0 0.37524722658792992 -0.42474725551155812 0 0.37398111607042622 -0.4112063460154331 0 0.36886436799803102 -0.41883774688574471 0 0.36794135224102958 -0.41231154193281833 0 0.37398111607042622 -0.4112063460154331 0 0.36886436799803102 -0.41883774688574471 0 0.36794135224102958 -0.41231154193281833 0 0.36886436799803102 -0.41883774688574471 0 0.36150757154029961 -0.41549915265943688 0 0.35792566663208553 -0.42597060513283941 0 0.36886436799803102 -0.41883774688574471 0 0.36150757154029961 -0.41549915265943688 0 0.36794135224102958 -0.41231154193281833 0 0.36150757154029961 -0.41549915265943688 0 0.36741235335536171 -0.40370292217065851 0 0.33968097782059342 -0.40723437582368582 0 0.34866355376233882 -0.41850725992934629 0 0.36741235335536171 -0.40370292217065851 0 0.36150757154029961 -0.41549915265943688 0 0.34866355376233882 -0.41850725992934629 0 0.36741235335536171 -0.40370292217065851 0 0.34866355376233882 -0.41850725992934629 0 0.36741235335536171 -0.40370292217065851 0 0.35792566663208553 -0.42597060513283941 0 0.36150757154029961 -0.41549915265943688 0 0.34866355376233882 -0.41850725992934629 0 0.33968097782059342 -0.40723437582368582 0 0.36741235335536171 -0.40370292217065851 0 0.35778535376010989 -0.39036254507705048 0 0.33968097782059342 -0.40723437582368582 0 0.35778535376010989 -0.39036254507705048 0 0.33968097782059342 -0.40723437582368582 0 0.35778535376010989 -0.39036254507705048 0 0.34147506015878631 -0.39101012526992079 0 0.33968097782059342 -0.40723437582368582 0 0.36741235335536171 -0.40370292217065851 0 0.37102649209293509 -0.39572002517640992 0 0.37387864180877861 -0.38745716214161741 0 0.35778535376010989 -0.39036254507705048 0 0.37102649209293509 -0.39572002517640992 0 0.36741235335536171 -0.40370292217065851 0 0.35778535376010989 -0.39036254507705048 0 0.3795305321292457 -0.39441820674292433 0 0.37102649209293509 -0.39572002517640992 0 0.37387864180877861 -0.38745716214161741 0 0.37682936137276718 -0.40244226119665438 0 0.36741235335536171 -0.40370292217065851 0 0.37682936137276718 -0.40244226119665438 0 0.37398111607042622 -0.4112063460154331 0 0.36741235335536171 -0.40370292217065851 0 0.37682936137276718 -0.40244226119665438 0 0.37102649209293509 -0.39572002517640992 0 0.36741235335536171 -0.40370292217065851 0 0.37588972969962792 -0.37349071433041681 0 0.35778535376010989 -0.39036254507705048 0 0.37588972969962792 -0.37349071433041681 0 0.37387864180877861 -0.38745716214161741 0 0.35778535376010989 -0.39036254507705048 0 0.37588972969962792 -0.37349071433041681 0 0.36147429384848168 -0.37547754349235413 0 0.35778535376010989 -0.39036254507705048 0 0.36147429384848168 -0.37547754349235413 0 0.35778535376010989 -0.39036254507705048 0 0.3469235811052413 -0.37530713351338812 0 0.35778535376010989 -0.39036254507705048 0 0.3469235811052413 -0.37530713351338812 0 0.34147506015878631 -0.39101012526992079 0 0.3469235811052413 -0.37530713351338812 0 0.32544453522451522 -0.38793322621418541 0 0.32727306647066151 -0.3726077453073382 0 0.3469235811052413 -0.37530713351338812 0 0.34147506015878631 -0.39101012526992079 0 0.32544453522451522 -0.38793322621418541 0 0.3469235811052413 -0.37530713351338812 0 0.32544453522451522 -0.38793322621418541 0 0.33968097782059342 -0.40723437582368582 0 0.33252284882477628 -0.39762140554144648 0 0.32349082209521313 -0.40430789485799429 0 0.33252284882477628 -0.39762140554144648 0 0.34147506015878631 -0.39101012526992079 0 0.32544453522451522 -0.38793322621418541 0 0.33968097782059342 -0.40723437582368582 0 0.33252284882477628 -0.39762140554144648 0 0.34147506015878631 -0.39101012526992079 0 0.33252284882477628 -0.39762140554144648 0 0.32349082209521313 -0.40430789485799429 0 0.32544453522451522 -0.38793322621418541 0 0.32349082209521313 -0.40430789485799429 0 0.32544453522451522 -0.38793322621418541 0 0.31581635322752072 -0.40246478915636758 0 0.32544453522451522 -0.38793322621418541 0 0.3030848737701326 -0.40107697383916813 0 0.32349082209521313 -0.40430789485799429 0 0.31581635322752072 -0.40246478915636758 0 0.32544453522451522 -0.38793322621418541 0 0.32544453522451522 -0.38793322621418541 0 0.3030848737701326 -0.40107697383916813 0 0.31551528878785889 -0.41035173224172677 0 0.32349082209521313 -0.40430789485799429 0 0.31581635322752072 -0.40246478915636758 0 0.31609323574347231 -0.37917961911983 0 0.32544453522451522 -0.38793322621418541 0 0.3030848737701326 -0.40107697383916813 0 0.31609323574347231 -0.37917961911983 0 0.32544453522451522 -0.38793322621418541 0 0.32727306647066151 -0.3726077453073382 0 0.32544453522451522 -0.38793322621418541 0 0.32727306647066151 -0.3726077453073382 0 0.31609323574347231 -0.37917961911983 0 0.29541963424779588 -0.38607455112945882 0 0.29441015217897798 -0.36987758136220678 0 0.31609323574347231 -0.37917961911983 0 0.3030848737701326 -0.40107697383916813 0 0.29541963424779588 -0.38607455112945882 0 0.31609323574347231 -0.37917961911983 0 0.3030848737701326 -0.40107697383916813 0 0.31581635322752072 -0.40246478915636758 0 0.30644597488888331 -0.40621587784777319 0 0.3030848737701326 -0.40107697383916813 0 0.30644597488888331 -0.40621587784777319 0 0.30156625409505677 -0.4036333105844907 0 0.3030848737701326 -0.40107697383916813 0 0.30156625409505677 -0.4036333105844907 0 0.3030848737701326 -0.40107697383916813 0 0.30156625409505677 -0.4036333105844907 0 0.3030848737701326 -0.40107697383916813 0 0.28410071072771531 -0.41223649199242968 0 0.28739419150820078 -0.39611190064968987 0 0.2764065152598294 -0.40251178647620012 0 0.28410071072771531 -0.41223649199242968 0 0.3030848737701326 -0.40107697383916813 0 0.28739419150820078 -0.39611190064968987 0 0.29541963424779588 -0.38607455112945882 0 0.3030848737701326 -0.40107697383916813 0 0.28739419150820078 -0.39611190064968987 0 0.28410071072771531 -0.41223649199242968 0 0.28739419150820078 -0.39611190064968987 0 0.29541963424779588 -0.38607455112945882 0 0.27611571803819601 -0.38412668067639888 0 0.27611571803819601 -0.38412668067639888 0 0.29441015217897798 -0.36987758136220678 0 0.29541963424779588 -0.38607455112945882 0 0.27611571803819601 -0.38412668067639888 0 0.29441015217897798 -0.36987758136220678 0 0.27611571803819601 -0.38412668067639888 0 0.26378115915558642 -0.37816521096439121 0 0.27750567465892112 -0.36728802176556619 0 0.27611571803819601 -0.38412668067639888 0 0.26378115915558642 -0.37816521096439121 0 0.25782128389741388 -0.39837577999059098 0 0.26378115915558642 -0.37816521096439121 0 0.25010456026361699 -0.387916426720539 0 0.25782128389741388 -0.39837577999059098 0 0.26378115915558642 -0.37816521096439121 0 0.25010456026361699 -0.387916426720539 0 0.25833414573906599 -0.36911141348233317 0 0.25010456026361699 -0.387916426720539 0 0.25296770532430862 -0.35870308311809379 0 0.24950796068259801 -0.38427177524635697 0 0.25010456026361699 -0.387916426720539 0 0.25410033919995512 -0.41232680522923187 0 0.25010456026361699 -0.387916426720539 0 0.25410033919995512 -0.41232680522923187 0 0.2476131968138508 -0.41333639495609542 0 0.25010456026361699 -0.387916426720539 0 0.25782128389741388 -0.39837577999059098 0 0.25410033919995512 -0.41232680522923187 0 0.25782128389741388 -0.39837577999059098 0 0.2764065152598294 -0.40251178647620012 0 0.26590256855232169 -0.40920077016707651 0 0.27611571803819601 -0.38412668067639888 0 0.25782128389741388 -0.39837577999059098 0 0.2764065152598294 -0.40251178647620012 0 0.27611571803819601 -0.38412668067639888 0 0.25782128389741388 -0.39837577999059098 0 0.28739419150820078 -0.39611190064968987 0 0.27611571803819601 -0.38412668067639888 0 0.2764065152598294 -0.40251178647620012 0 0.2764065152598294 -0.40251178647620012 0 0.27578916092687361 -0.41412194356695792 0 0.28410071072771531 -0.41223649199242968 0 0.27578916092687361 -0.41412194356695792 0 0.27638024230515279 -0.42381582568294091 0 0.28644658557021258 -0.42037204614270229 0 0.27578916092687361 -0.41412194356695792 0 0.26705413252411642 -0.42184873144073498 0 0.26590256855232169 -0.40920077016707651 0 0.27578916092687361 -0.41412194356695792 0 0.26705413252411642 -0.42184873144073498 0 0.27638024230515279 -0.42381582568294091 0 0.2764065152598294 -0.40251178647620012 0 0.27578916092687361 -0.41412194356695792 0 0.26590256855232169 -0.40920077016707651 0 0.25782128389741388 -0.39837577999059098 0 0.26590256855232169 -0.40920077016707651 0 0.25410033919995512 -0.41232680522923187 0 0.26705413252411642 -0.42184873144073498 0 0.26590256855232169 -0.40920077016707651 0 0.25410033919995512 -0.41232680522923187 0 0.25410033919995512 -0.41232680522923187 0 0.25809611813629257 -0.43673718373792492 0 0.25410033919995512 -0.41232680522923187 0 0.25809611813629257 -0.43673718373792492 0 0.24638556821694479 -0.43216753212437159 0 0.26705413252411642 -0.42184873144073498 0 0.25410033919995512 -0.41232680522923187 0 0.25809611813629257 -0.43673718373792492 0 0.25809611813629257 -0.43673718373792492 0 0.25630688252550488 -0.43787138044207902 0 0.24638556821694479 -0.43216753212437159 0 0.26705413252411642 -0.42184873144073498 0 0.25809611813629257 -0.43673718373792492 0 0.27205636602410282 -0.43488986026027771 0 0.26705413252411642 -0.42184873144073498 0 0.27205636602410282 -0.43488986026027771 0 0.27638024230515279 -0.42381582568294091 0 0.27205636602410282 -0.43488986026027771 0 0.27638024230515279 -0.42381582568294091 0 0.28475346520918599 -0.43052693302969303 0 0.27205636602410282 -0.43488986026027771 0 0.28475346520918599 -0.43052693302969303 0 0.28368913989066408 -0.44229009225966393 0 0.28475346520918599 -0.43052693302969303 0 0.29535514403257401 -0.43625337066439329 0 0.28368913989066408 -0.44229009225966393 0 0.28475346520918599 -0.43052693302969303 0 0.29535514403257401 -0.43625337066439329 0 0.29443277457323042 -0.42571022228682037 0 0.28475346520918599 -0.43052693302969303 0 0.29443277457323042 -0.42571022228682037 0 0.28644658557021258 -0.42037204614270229 0 0.27638024230515279 -0.42381582568294091 0 0.28475346520918599 -0.43052693302969303 0 0.28644658557021258 -0.42037204614270229 0 0.30156625409505677 -0.4036333105844907 0 0.28410071072771531 -0.41223649199242968 0 0.2913495997551242 -0.41346908865976528 0 0.3030848737701326 -0.40107697383916813 0 0.28410071072771531 -0.41223649199242968 0 0.27578916092687361 -0.41412194356695792 0 0.28644658557021258 -0.42037204614270229 0 0.28410071072771531 -0.41223649199242968 0 0.28644658557021258 -0.42037204614270229 0 0.28410071072771531 -0.41223649199242968 0 0.2913495997551242 -0.41346908865976528 0 0.28644658557021258 -0.42037204614270229 0 0.2913495997551242 -0.41346908865976528 0 0.29863730477000561 -0.41835414643387131 0 0.29443277457323042 -0.42571022228682037 0 0.28644658557021258 -0.42037204614270229 0 0.29863730477000561 -0.41835414643387131 0 0.31551528878785889 -0.41035173224172677 0 0.30644597488888331 -0.40621587784777319 0 0.2913495997551242 -0.41346908865976528 0 0.31551528878785889 -0.41035173224172677 0 0.29863730477000561 -0.41835414643387131 0 0.30544227516360212 -0.42186764283834127 0 0.31551528878785889 -0.41035173224172677 0 0.2913495997551242 -0.41346908865976528 0 0.31551528878785889 -0.41035173224172677 0 0.2913495997551242 -0.41346908865976528 0 0.29863730477000561 -0.41835414643387131 0 0.30644597488888331 -0.40621587784777319 0 0.30156625409505677 -0.4036333105844907 0 0.2913495997551242 -0.41346908865976528 0 0.31450066150828732 -0.42021999414434957 0 0.31551528878785889 -0.41035173224172677 0 0.30544227516360212 -0.42186764283834127 0 0.30544227516360212 -0.42186764283834127 0 0.3110477456066979 -0.42583950349905503 0 0.30197751560010011 -0.42973210087786923 0 0.31450066150828732 -0.42021999414434957 0 0.30544227516360212 -0.42186764283834127 0 0.3110477456066979 -0.42583950349905503 0 0.3110477456066979 -0.42583950349905503 0 0.30898519123413598 -0.43584039448191503 0 0.30197751560010011 -0.42973210087786923 0 0.29535514403257401 -0.43625337066439329 0 0.29443277457323042 -0.42571022228682037 0 0.30197751560010011 -0.42973210087786923 0 0.29535514403257401 -0.43625337066439329 0 0.30898519123413598 -0.43584039448191503 0 0.30197751560010011 -0.42973210087786923 0 0.29443277457323042 -0.42571022228682037 0 0.29863730477000561 -0.41835414643387131 0 0.30544227516360212 -0.42186764283834127 0 0.29443277457323042 -0.42571022228682037 0 0.30544227516360212 -0.42186764283834127 0 0.30197751560010011 -0.42973210087786923 0 0.30898519123413598 -0.43584039448191503 0 0.31116595457629342 -0.44811593544672212 0 0.29363729794090798 -0.45014340381103041 0 0.29535514403257401 -0.43625337066439329 0 0.30898519123413598 -0.43584039448191503 0 0.29363729794090798 -0.45014340381103041 0 0.30898519123413598 -0.43584039448191503 0 0.29363729794090798 -0.45014340381103041 0 0.31091668461349969 -0.46744320646936383 0 0.29241715498327059 -0.4629202732054099 0 0.29755845196310432 -0.47548808878589061 0 0.31116595457629342 -0.44811593544672212 0 0.31091668461349969 -0.46744320646936383 0 0.29241715498327059 -0.4629202732054099 0 0.31116595457629342 -0.44811593544672212 0 0.29241715498327059 -0.4629202732054099 0 0.31116595457629342 -0.44811593544672212 0 0.29241715498327059 -0.4629202732054099 0 0.29363729794090798 -0.45014340381103041 0 0.29241715498327059 -0.4629202732054099 0 0.28383406158675378 -0.45565392584942987 0 0.29363729794090798 -0.45014340381103041 0 0.29241715498327059 -0.4629202732054099 0 0.28383406158675378 -0.45565392584942987 0 0.28057308356280902 -0.47157985779558931 0 0.28383406158675378 -0.45565392584942987 0 0.29363729794090798 -0.45014340381103041 0 0.28368913989066408 -0.44229009225966393 0 0.29535514403257401 -0.43625337066439329 0 0.29363729794090798 -0.45014340381103041 0 0.28368913989066408 -0.44229009225966393 0 0.27205636602410282 -0.43488986026027771 0 0.28368913989066408 -0.44229009225966393 0 0.27249850455046032 -0.44627305994315902 0 0.28383406158675378 -0.45565392584942987 0 0.28368913989066408 -0.44229009225966393 0 0.27249850455046032 -0.44627305994315902 0 0.25809611813629257 -0.43673718373792492 0 0.27205636602410282 -0.43488986026027771 0 0.27249850455046032 -0.44627305994315902 0 0.25809611813629257 -0.43673718373792492 0 0.27249850455046032 -0.44627305994315902 0 0.26209189707263009 -0.46114756224661779 0 0.25809611813629257 -0.43673718373792492 0 0.25630688252550488 -0.43787138044207902 0 0.26209189707263009 -0.46114756224661779 0 0.25809611813629257 -0.43673718373792492 0 0.26209189707263009 -0.46114756224661779 0 0.25630688252550488 -0.43787138044207902 0 0.26209189707263009 -0.46114756224661779 0 0.24515793962003959 -0.45099866929264792 0 0.25630688252550488 -0.43787138044207902 0 0.24515793962003959 -0.45099866929264792 0 0.26209189707263009 -0.46114756224661779 0 0.25469622777451911 -0.47488630923039699 0 0.24411925922930011 -0.46693144648706147 0 0.26209189707263009 -0.46114756224661779 0 0.24411925922930011 -0.46693144648706147 0 0.24515793962003959 -0.45099866929264792 0 0.28383406158675378 -0.45565392584942987 0 0.26209189707263009 -0.46114756224661779 0 0.28057308356280902 -0.47157985779558931 0 0.28383406158675378 -0.45565392584942987 0 0.27249850455046032 -0.44627305994315902 0 0.26209189707263009 -0.46114756224661779 0 0.28057308356280902 -0.47157985779558931 0 0.26608767600896749 -0.48555794075531072 0 0.28920271580994272 -0.48826429596879528 0 0.26209189707263009 -0.46114756224661779 0 0.28057308356280902 -0.47157985779558931 0 0.26608767600896749 -0.48555794075531072 0 0.26209189707263009 -0.46114756224661779 0 0.25469622777451911 -0.47488630923039699 0 0.26608767600896749 -0.48555794075531072 0 0.25469622777451911 -0.47488630923039699 0 0.26608767600896749 -0.48555794075531072 0 0.2430805788385616 -0.48286422368147519 0 0.26209189707263009 -0.46114756224661779 0 0.26608767600896749 -0.48555794075531072 0 0.26608767600896749 -0.48555794075531072 0 0.2430805788385616 -0.48286422368147519 0 0.26608767600896749 -0.48555794075531072 0 0.26667993415996932 -0.48917607025424581 0 0.24260556593646451 -0.4901506563522503 0 0.26667993415996932 -0.48917607025424581 0 0.24260556593646451 -0.4901506563522503 0 0.2468149306897599 -0.5 0 0.26608767600896749 -0.48555794075531072 0 0.24260556593646451 -0.4901506563522503 0 0.2430805788385616 -0.48286422368147519 0 0.26667993415996932 -0.48917607025424581 0 0.24260556593646451 -0.4901506563522503 0 0.26845172276501089 -0.49999999999999989 0 0.26667993415996932 -0.48917607025424581 0 0.2468149306897599 -0.5 0 0.26845172276501089 -0.49999999999999989 0 0.26667993415996932 -0.48917607025424581 0 0.28920271580994272 -0.48826429596879528 0 0.26608767600896749 -0.48555794075531072 0 0.26667993415996932 -0.48917607025424581 0 0.28920271580994272 -0.48826429596879528 0 0.26667993415996932 -0.48917607025424581 0 0.28920271580994272 -0.48826429596879528 0 0.26608767600896749 -0.48555794075531072 0 0.28920271580994272 -0.48826429596879528 0 0.26845172276501089 -0.49999999999999989 0 0.26667993415996932 -0.48917607025424581 0 0.26608767600896749 -0.48555794075531072 0 0.26667993415996932 -0.48917607025424581 0 0.26845172276501089 -0.49999999999999989 0 0.28920271580994272 -0.48826429596879528 0 0.29619390302503712 -0.5 0 0.29241715498327059 -0.4629202732054099 0 0.28057308356280902 -0.47157985779558931 0 0.29755845196310432 -0.47548808878589061 0 0.28057308356280902 -0.47157985779558931 0 0.28920271580994272 -0.48826429596879528 0 0.29755845196310432 -0.47548808878589061 0 0.31468262084599907 -0.48723281049029388 0 0.28920271580994272 -0.48826429596879528 0 0.29755845196310432 -0.47548808878589061 0 0.31468262084599907 -0.48723281049029388 0 0.31091668461349969 -0.46744320646936383 0 0.29755845196310432 -0.47548808878589061 0 0.28920271580994272 -0.48826429596879528 0 0.30888161573923351 -0.49056834103546432 0 0.31468262084599907 -0.48723281049029388 0 0.28920271580994272 -0.48826429596879528 0 0.30888161573923351 -0.49056834103546432 0 0.32393608328506329 -0.5 0 0.29619390302503712 -0.5 0 0.30888161573923351 -0.49056834103546432 0 0.31468262084599907 -0.48723281049029388 0 0.28920271580994272 -0.48826429596879528 0 0.28920271580994272 -0.48826429596879528 0 0.29619390302503712 -0.5 0 0.30888161573923351 -0.49056834103546432 0 0.33577871697557132 -0.30131928103424588 0 0.31785586713234132 -0.28919991090604769 0 0.33888150482549778 -0.27531386491013038 0 0.33577871697557132 -0.30131928103424588 0 0.33888150482549778 -0.27531386491013038 0 0.33577871697557132 -0.30131928103424588 0 0.35214887558571528 -0.3089021305360431 0 0.34165533048416591 -0.31809438127256778 0 0.33577871697557132 -0.30131928103424588 0 0.31612386469132681 -0.31223064437234899 0 0.31785586713234132 -0.28919991090604769 0 0.31785586713234132 -0.28919991090604769 0 0.32043446730813152 -0.26491499454519102 0 0.29970881352845752 -0.27614372273596421 0 0.31785586713234132 -0.28919991090604769 0 0.32043446730813152 -0.26491499454519102 0 0.33888150482549778 -0.27531386491013038 0 0.31981317519911578 -0.24287448387094759 0 0.32043446730813152 -0.26491499454519102 0 0.30089510905897687 -0.25399374763568749 0 0.31981317519911578 -0.24287448387094759 0 0.34198429267542441 -0.24930844878601471 0 0.32043446730813152 -0.26491499454519102 0 0.34198429267542441 -0.24930844878601471 0 0.32043446730813152 -0.26491499454519102 0 0.33888150482549778 -0.27531386491013038 0 0.34198429267542441 -0.24930844878601471 0 0.33888150482549778 -0.27531386491013038 0 0.33888150482549778 -0.27531386491013038 0 0.35473584003328418 -0.26401768568109518 0 0.36187197490429501 -0.28780440654160111 0 0.34198429267542441 -0.24930844878601471 0 0.33888150482549778 -0.27531386491013038 0 0.35473584003328418 -0.26401768568109518 0 0.36613640271634179 -0.2357918474831934 0 0.35473584003328418 -0.26401768568109518 0 0.37420173559392561 -0.26422388965182281 0 0.35473584003328418 -0.26401768568109518 0 0.37420173559392561 -0.26422388965182281 0 0.36187197490429501 -0.28780440654160111 0 0.38249229615847258 -0.27998617100482848 0 0.37420173559392561 -0.26422388965182281 0 0.36187197490429501 -0.28780440654160111 0 0.33577871697557132 -0.30131928103424588 0 0.33888150482549778 -0.27531386491013038 0 0.36187197490429501 -0.28780440654160111 0 0.33577871697557132 -0.30131928103424588 0 0.36187197490429501 -0.28780440654160111 0 0.35214887558571528 -0.3089021305360431 0 0.38813334639774177 -0.29687881615364298 0 0.36187197490429501 -0.28780440654160111 0 0.36908857108534188 -0.31171233834703632 0 0.36187197490429501 -0.28780440654160111 0 0.35214887558571528 -0.3089021305360431 0 0.36908857108534188 -0.31171233834703632 0 0.36908857108534188 -0.31171233834703632 0 0.36473458986684182 -0.32576482210257662 0 0.35004379577294192 -0.3265458605404295 0 0.36908857108534188 -0.31171233834703632 0 0.35004379577294192 -0.3265458605404295 0 0.3795349150393289 -0.32407826915266419 0 0.36908857108534188 -0.31171233834703632 0 0.36473458986684182 -0.32576482210257662 0 0.3795349150393289 -0.32407826915266419 0 0.36473458986684182 -0.32576482210257662 0 0.3633191698248146 -0.34040811538842569 0 0.36473458986684182 -0.32576482210257662 0 0.3633191698248146 -0.34040811538842569 0 0.35004379577294192 -0.3265458605404295 0 0.3633191698248146 -0.34040811538842569 0 0.35129936791730187 -0.34920138015797769 0 0.33892951394789139 -0.34073864666406928 0 0.3633191698248146 -0.34040811538842569 0 0.35004379577294192 -0.3265458605404295 0 0.34258828382670958 -0.3345797327257074 0 0.3633191698248146 -0.34040811538842569 0 0.33892951394789139 -0.34073864666406928 0 0.3633191698248146 -0.34040811538842569 0 0.34258828382670958 -0.3345797327257074 0 0.33892951394789139 -0.34073864666406928 0 0.35214887558571528 -0.3089021305360431 0 0.35004379577294192 -0.3265458605404295 0 0.34165533048416591 -0.31809438127256778 0 0.35214887558571528 -0.3089021305360431 0 0.36908857108534188 -0.31171233834703632 0 0.35004379577294192 -0.3265458605404295 0 0.37588972969962792 -0.37349071433041681 0 0.36147429384848168 -0.37547754349235413 0 0.36840262698596521 -0.36268104081258729 0 0.36840262698596521 -0.36268104081258729 0 0.36162952593610059 -0.35206271314032561 0 0.35091087452901282 -0.35888284068712167 0 0.36840262698596521 -0.36268104081258729 0 0.36162952593610059 -0.35206271314032561 0 0.37421559042340868 -0.34914018865551522 0 0.3633191698248146 -0.34040811538842569 0 0.36162952593610059 -0.35206271314032561 0 0.37421559042340868 -0.34914018865551522 0 0.3633191698248146 -0.34040811538842569 0 0.36162952593610059 -0.35206271314032561 0 0.35129936791730187 -0.34920138015797769 0 0.35129936791730187 -0.34920138015797769 0 0.34157162454695328 -0.3534980431982786 0 0.33892951394789139 -0.34073864666406928 0 0.35091087452901282 -0.35888284068712167 0 0.33915614887373591 -0.36351560542132361 0 0.34157162454695328 -0.3534980431982786 0 0.35129936791730187 -0.34920138015797769 0 0.35091087452901282 -0.35888284068712167 0 0.34157162454695328 -0.3534980431982786 0 0.36162952593610059 -0.35206271314032561 0 0.35129936791730187 -0.34920138015797769 0 0.35091087452901282 -0.35888284068712167 0 0.3469235811052413 -0.37530713351338812 0 0.36840262698596521 -0.36268104081258729 0 0.36147429384848168 -0.37547754349235413 0 0.3469235811052413 -0.37530713351338812 0 0.36840262698596521 -0.36268104081258729 0 0.3469235811052413 -0.37530713351338812 0 0.36840262698596521 -0.36268104081258729 0 0.35091087452901282 -0.35888284068712167 0 0.3469235811052413 -0.37530713351338812 0 0.35091087452901282 -0.35888284068712167 0 0.33915614887373591 -0.36351560542132361 0 0.3469235811052413 -0.37530713351338812 0 0.33915614887373591 -0.36351560542132361 0 0.32727306647066151 -0.3726077453073382 0 0.33915614887373591 -0.36351560542132361 0 0.32910159771681102 -0.35728226440049149 0 0.32727306647066151 -0.3726077453073382 0 0.32910159771681102 -0.35728226440049149 0 0.32727306647066151 -0.3726077453073382 0 0.32910159771681102 -0.35728226440049149 0 0.34157162454695328 -0.3534980431982786 0 0.33892951394789139 -0.34073864666406928 0 0.32910159771681102 -0.35728226440049149 0 0.33892951394789139 -0.34073864666406928 0 0.32910159771681102 -0.35728226440049149 0 0.33099902046054253 -0.34137938273382351 0 0.33347378872887429 -0.34081258324707259 0 0.32910159771681102 -0.35728226440049149 0 0.33099902046054253 -0.34137938273382351 0 0.32910159771681102 -0.35728226440049149 0 0.33892951394789139 -0.34073864666406928 0 0.33347378872887429 -0.34081258324707259 0 0.33915614887373591 -0.36351560542132361 0 0.32910159771681102 -0.35728226440049149 0 0.34157162454695328 -0.3534980431982786 0 0.31270458631976 -0.35562848204801473 0 0.33099902046054253 -0.34137938273382351 0 0.32910159771681102 -0.35728226440049149 0 0.31270458631976 -0.35562848204801473 0 0.33099902046054253 -0.34137938273382351 0 0.31609323574347231 -0.37917961911983 0 0.32910159771681102 -0.35728226440049149 0 0.32727306647066151 -0.3726077453073382 0 0.31609323574347231 -0.37917961911983 0 0.32910159771681102 -0.35728226440049149 0 0.31609323574347231 -0.37917961911983 0 0.32910159771681102 -0.35728226440049149 0 0.31270458631976 -0.35562848204801473 0 0.33577871697557132 -0.30131928103424588 0 0.33267592912564398 -0.32732469715836132 0 0.34165533048416591 -0.31809438127256778 0 0.33577871697557132 -0.30131928103424588 0 0.33267592912564398 -0.32732469715836132 0 0.33577871697557132 -0.30131928103424588 0 0.31612386469132681 -0.31223064437234899 0 0.33267592912564398 -0.32732469715836132 0 0.33267592912564398 -0.32732469715836132 0 0.3376293349609566 -0.32637993709375912 0 0.33267592912564398 -0.32732469715836132 0 0.34165533048416591 -0.31809438127256778 0 0.3376293349609566 -0.32637993709375912 0 0.35004379577294192 -0.3265458605404295 0 0.34165533048416591 -0.31809438127256778 0 0.3376293349609566 -0.32637993709375912 0 0.35004379577294192 -0.3265458605404295 0 0.3376293349609566 -0.32637993709375912 0 0.33099902046054253 -0.34137938273382351 0 0.35004379577294192 -0.3265458605404295 0 0.33099902046054253 -0.34137938273382351 0 0.35004379577294192 -0.3265458605404295 0 0.34258828382670958 -0.3345797327257074 0 0.33099902046054253 -0.34137938273382351 0 0.34258828382670958 -0.3345797327257074 0 0.33892951394789139 -0.34073864666406928 0 0.33347378872887429 -0.34081258324707259 0 0.34258828382670958 -0.3345797327257074 0 0.33892951394789139 -0.34073864666406928 0 0.33892951394789139 -0.34073864666406928 0 0.33347378872887429 -0.34081258324707259 0 0.34258828382670958 -0.3345797327257074 0 0.33099902046054253 -0.34137938273382351 0 0.33347378872887429 -0.34081258324707259 0 0.33267592912564398 -0.32732469715836132 0 0.3376293349609566 -0.32637993709375912 0 0.33099902046054253 -0.34137938273382351 0 0.33267592912564398 -0.32732469715836132 0 0.33099902046054253 -0.34137938273382351 0 0.31270458631976 -0.35562848204801473 0 0.33099902046054253 -0.34137938273382351 0 0.30747881398948862 -0.33213052751331562 0 0.33267592912564398 -0.32732469715836132 0 0.33099902046054253 -0.34137938273382351 0 0.30747881398948862 -0.33213052751331562 0 0.33267592912564398 -0.32732469715836132 0 0.30747881398948862 -0.33213052751331562 0 0.31612386469132681 -0.31223064437234899 0 0.33267592912564398 -0.32732469715836132 0 0.30747881398948862 -0.33213052751331562 0 0.31612386469132681 -0.31223064437234899 0 0.30747881398948862 -0.33213052751331562 0 0.29247400163069548 -0.32191737542865018 0 0.30747881398948862 -0.33213052751331562 0 0.2822816988533336 -0.33693635786827209 0 0.29124128323799631 -0.35264708283784058 0 0.30747881398948862 -0.33213052751331562 0 0.2822816988533336 -0.33693635786827209 0 0.30747881398948862 -0.33213052751331562 0 0.2822816988533336 -0.33693635786827209 0 0.29247400163069548 -0.32191737542865018 0 0.2822816988533336 -0.33693635786827209 0 0.29247400163069548 -0.32191737542865018 0 0.27867517925260737 -0.32254335426841579 0 0.29247400163069548 -0.32191737542865018 0 0.27867517925260737 -0.32254335426841579 0 0.28329216639869992 -0.30626021185412039 0 0.31270458631976 -0.35562848204801473 0 0.29124128323799631 -0.35264708283784058 0 0.29441015217897798 -0.36987758136220678 0 0.31609323574347231 -0.37917961911983 0 0.31270458631976 -0.35562848204801473 0 0.29441015217897798 -0.36987758136220678 0 0.31270458631976 -0.35562848204801473 0 0.29441015217897798 -0.36987758136220678 0 0.31270458631976 -0.35562848204801473 0 0.30747881398948862 -0.33213052751331562 0 0.29124128323799631 -0.35264708283784058 0 0.2822816988533336 -0.33693635786827209 0 0.29124128323799631 -0.35264708283784058 0 0.27227523304957402 -0.35247829070858222 0 0.29124128323799631 -0.35264708283784058 0 0.29441015217897798 -0.36987758136220678 0 0.27750567465892112 -0.36728802176556619 0 0.27611571803819601 -0.38412668067639888 0 0.29441015217897798 -0.36987758136220678 0 0.27750567465892112 -0.36728802176556619 0 0.26378115915558642 -0.37816521096439121 0 0.27750567465892112 -0.36728802176556619 0 0.26531080538618101 -0.36272951821737021 0 0.27750567465892112 -0.36728802176556619 0 0.27227523304957402 -0.35247829070858222 0 0.26531080538618101 -0.36272951821737021 0 0.29124128323799631 -0.35264708283784058 0 0.27750567465892112 -0.36728802176556619 0 0.27227523304957402 -0.35247829070858222 0 0.27227523304957402 -0.35247829070858222 0 0.26175164727160932 -0.35186617390480579 0 0.26531080538618101 -0.36272951821737021 0 0.25296770532430862 -0.35870308311809379 0 0.26175164727160932 -0.35186617390480579 0 0.25708458371717863 -0.34174218822322872 0 0.25296770532430862 -0.35870308311809379 0 0.2558308503850007 -0.32948973951564853 0 0.25296770532430862 -0.35870308311809379 0 0.25090099589146247 -0.36290339301375862 0 0.25229403110032672 -0.34153501078116022 0 0.25090099589146247 -0.36290339301375862 0 0.25229403110032672 -0.34153501078116022 0 0.27227523304957402 -0.35247829070858222 0 0.26175164727160932 -0.35186617390480579 0 0.25708458371717863 -0.34174218822322872 0 0.25296770532430862 -0.35870308311809379 0 0.26175164727160932 -0.35186617390480579 0 0.25954965028229698 -0.35934880736544472 0 0.26175164727160932 -0.35186617390480579 0 0.25954965028229698 -0.35934880736544472 0 0.26531080538618101 -0.36272951821737021 0 0.25010456026361699 -0.387916426720539 0 0.25296770532430862 -0.35870308311809379 0 0.25296770532430862 -0.35870308311809379 0 0.25090099589146247 -0.36290339301375862 0 0.24950796068259801 -0.38427177524635697 0 0.25010456026361699 -0.387916426720539 0 0.25296770532430862 -0.35870308311809379 0 0.25833414573906599 -0.36911141348233317 0 0.25090099589146247 -0.36290339301375862 0 0.24950796068259801 -0.38427177524635697 0 0.25954965028229698 -0.35934880736544472 0 0.26531080538618101 -0.36272951821737021 0 0.25833414573906599 -0.36911141348233317 0 0.25296770532430862 -0.35870308311809379 0 0.25954965028229698 -0.35934880736544472 0 0.25833414573906599 -0.36911141348233317 0 0.26378115915558642 -0.37816521096439121 0 0.26531080538618101 -0.36272951821737021 0 0.25833414573906599 -0.36911141348233317 0 0.2687742388813546 -0.31561570719321552 0 0.27867517925260737 -0.32254335426841579 0 0.28329216639869992 -0.30626021185412039 0 0.2687742388813546 -0.31561570719321552 0 0.27867517925260737 -0.32254335426841579 0 0.26655379049895311 -0.33198711899782068 0 0.2822816988533336 -0.33693635786827209 0 0.27227523304957402 -0.35247829070858222 0 0.25708458371717863 -0.34174218822322872 0 0.2822816988533336 -0.33693635786827209 0 0.27867517925260737 -0.32254335426841579 0 0.26655379049895311 -0.33198711899782068 0 0.2822816988533336 -0.33693635786827209 0 0.25708458371717863 -0.34174218822322872 0 0.2822816988533336 -0.33693635786827209 0 0.26655379049895311 -0.33198711899782068 0 0.25708458371717863 -0.34174218822322872 0 0.26655379049895311 -0.33198711899782068 0 0.25708458371717863 -0.34174218822322872 0 0.2558308503850007 -0.32948973951564853 0 0.25296770532430862 -0.35870308311809379 0 0.25708458371717863 -0.34174218822322872 0 0.2558308503850007 -0.32948973951564853 0 0.25296770532430862 -0.35870308311809379 0 0.25229403110032672 -0.34153501078116022 0 0.2558308503850007 -0.32948973951564853 0 0.25229403110032672 -0.34153501078116022 0 0.25368706630918952 -0.3201666285485617 0 0.25229403110032672 -0.34153501078116022 0 0.25368706630918952 -0.3201666285485617 0 0.24604594819970951 -0.33053580797219689 0 0.25229403110032672 -0.34153501078116022 0 0.2558308503850007 -0.32948973951564853 0 0.25368706630918952 -0.3201666285485617 0 0.2687742388813546 -0.31561570719321552 0 0.26655379049895311 -0.33198711899782068 0 0.25368706630918952 -0.3201666285485617 0 0.26655379049895311 -0.33198711899782068 0 0.2558308503850007 -0.32948973951564853 0 0.25368706630918952 -0.3201666285485617 0 0.26655379049895311 -0.33198711899782068 0 0.25368706630918952 -0.3201666285485617 0 0.2687742388813546 -0.31561570719321552 0 0.25368706630918952 -0.3201666285485617 0 0.25543341914346818 -0.2933785512348166 0 0.25368706630918952 -0.3201666285485617 0 0.25543341914346818 -0.2933785512348166 0 0.25543341914346818 -0.2933785512348166 0 0.27977338257320672 -0.28412115714759639 0 0.25717977197774572 -0.26659047392107138 0 0.25543341914346818 -0.2933785512348166 0 0.27977338257320672 -0.28412115714759639 0 0.28329216639869992 -0.30626021185412039 0 0.2687742388813546 -0.31561570719321552 0 0.25543341914346818 -0.2933785512348166 0 0.28329216639869992 -0.30626021185412039 0 0.29247400163069548 -0.32191737542865018 0 0.28329216639869992 -0.30626021185412039 0 0.29820468265912131 -0.29831217040745461 0 0.27977338257320672 -0.28412115714759639 0 0.28329216639869992 -0.30626021185412039 0 0.29820468265912131 -0.29831217040745461 0 0.27977338257320672 -0.28412115714759639 0 0.29820468265912131 -0.29831217040745461 0 0.29970881352845752 -0.27614372273596421 0 0.31785586713234132 -0.28919991090604769 0 0.29820468265912131 -0.29831217040745461 0 0.29970881352845752 -0.27614372273596421 0 0.31612386469132681 -0.31223064437234899 0 0.31785586713234132 -0.28919991090604769 0 0.29820468265912131 -0.29831217040745461 0 0.31612386469132681 -0.31223064437234899 0 0.29247400163069548 -0.32191737542865018 0 0.29820468265912131 -0.29831217040745461 0 0.32043446730813152 -0.26491499454519102 0 0.30089510905897687 -0.25399374763568749 0 0.29970881352845752 -0.27614372273596421 0 0.27977338257320672 -0.28412115714759639 0 0.29970881352845752 -0.27614372273596421 0 0.28155802245106398 -0.26123087154921087 0 0.2833683716688068 -0.23780745418527879 0 0.30089510905897687 -0.25399374763568749 0 0.28155802245106398 -0.26123087154921087 0 0.30089510905897687 -0.25399374763568749 0 0.29970881352845752 -0.27614372273596421 0 0.28155802245106398 -0.26123087154921087 0 0.27189979870818792 -0.24802525381391011 0 0.28155802245106398 -0.26123087154921087 0 0.25717977197774572 -0.26659047392107138 0 0.27977338257320672 -0.28412115714759639 0 0.28155802245106398 -0.26123087154921087 0 0.25717977197774572 -0.26659047392107138 0 0.25543341914346818 -0.2933785512348166 0 0.25717977197774572 -0.26659047392107138 0 0.2589261248120231 -0.2398023966073263 0 0.25717977197774572 -0.26659047392107138 0 0.24378841454228789 -0.25769232034337658 0 0.2589261248120231 -0.2398023966073263 0 0.25717977197774572 -0.26659047392107138 0 0.27189979870818792 -0.24802525381391011 0 0.2589261248120231 -0.2398023966073263 0 0.25717977197774572 -0.26659047392107138 0 0.25543341914346818 -0.2933785512348166 0 0.25717977197774572 -0.26659047392107138 0 0.23182173417131721 -0.27622588722069202 0 0.25717977197774572 -0.26659047392107138 0 0.24378841454228789 -0.25769232034337658 0 0.23182173417131721 -0.27622588722069202 0 0.23182173417131721 -0.27622588722069202 0 0.21847476971357641 -0.26594943373541391 0 0.21387332288218919 -0.28359026559967188 0 0.23182173417131721 -0.27622588722069202 0 0.21847476971357641 -0.26594943373541391 0 0.22722602720806551 -0.24815052362441711 0 0.21094443410414671 -0.25630480773426262 0 0.21847476971357641 -0.26594943373541391 0 0.22722602720806551 -0.24815052362441711 0 0.24378841454228789 -0.25769232034337658 0 0.23182173417131721 -0.27622588722069202 0 0.22722602720806551 -0.24815052362441711 0 0.23182173417131721 -0.27622588722069202 0 0.22722602720806551 -0.24815052362441711 0 0.21094443410414671 -0.25630480773426262 0 0.19976316981452161 -0.25032016006862512 0 0.20052439762951149 -0.26411182609116229 0 0.21094443410414671 -0.25630480773426262 0 0.21095423108235589 -0.26748908329012772 0 0.20052439762951149 -0.26411182609116229 0 0.21094443410414671 -0.25630480773426262 0 0.21847476971357641 -0.26594943373541391 0 0.21095423108235589 -0.26748908329012772 0 0.21847476971357641 -0.26594943373541391 0 0.21095423108235589 -0.26748908329012772 0 0.21387332288218919 -0.28359026559967188 0 0.20011428004928891 -0.27095001373769317 0 0.20052439762951149 -0.26411182609116229 0 0.21387332288218919 -0.28359026559967188 0 0.21095423108235589 -0.26748908329012772 0 0.20052439762951149 -0.26411182609116229 0 0.21387332288218919 -0.28359026559967188 0 0.20052439762951149 -0.26411182609116229 0 0.21387332288218919 -0.28359026559967188 0 0.20011428004928891 -0.27095001373769317 0 0.21387332288218919 -0.28359026559967188 0 0.20011428004928891 -0.27095001373769317 0 0.1944210724241402 -0.27706237253929078 0 0.1940152984997269 -0.26573482485638089 0 0.20011428004928891 -0.27095001373769317 0 0.1944210724241402 -0.27706237253929078 0 0.21387332288218919 -0.28359026559967188 0 0.20011428004928891 -0.27095001373769317 0 0.1940152984997269 -0.26573482485638089 0 0.20052439762951149 -0.26411182609116229 0 0.1944210724241402 -0.27706237253929078 0 0.18784127001886031 -0.27191652533110527 0 0.19507685344024919 -0.28538964666960642 0 0.1944210724241402 -0.27706237253929078 0 0.18784127001886031 -0.27191652533110527 0 0.1940152984997269 -0.26573482485638089 0 0.18784127001886031 -0.27191652533110527 0 0.18717547237683341 -0.2446333865826531 0 0.20052439762951149 -0.26411182609116229 0 0.18717547237683341 -0.2446333865826531 0 0.1940152984997269 -0.26573482485638089 0 0.20052439762951149 -0.26411182609116229 0 0.18717547237683341 -0.2446333865826531 0 0.19976316981452161 -0.25032016006862512 0 0.20052439762951149 -0.26411182609116229 0 0.18717547237683341 -0.2446333865826531 0 0.18784127001886031 -0.27191652533110527 0 0.1940152984997269 -0.26573482485638089 0 0.18717547237683341 -0.2446333865826531 0 0.19876033989151529 -0.31173999801669999 0 0.1885070676608876 -0.29919966407955728 0 0.18917286530291491 -0.3264828028280094 0 0.19876033989151529 -0.31173999801669999 0 0.1885070676608876 -0.29919966407955728 0 0.20598582175089611 -0.29990146400367201 0 0.1944210724241402 -0.27706237253929078 0 0.19507685344024919 -0.28538964666960642 0 0.21387332288218919 -0.28359026559967188 0 0.18784127001886031 -0.27191652533110527 0 0.1885070676608876 -0.29919966407955728 0 0.18784127001886031 -0.27191652533110527 0 0.1885070676608876 -0.29919966407955728 0 0.19507685344024919 -0.28538964666960642 0 0.1885070676608876 -0.29919966407955728 0 0.19507685344024919 -0.28538964666960642 0 0.20598582175089611 -0.29990146400367201 0 0.21387332288218919 -0.28359026559967188 0 0.20598582175089611 -0.29990146400367201 0 0.22645562065924929 -0.30195006022653531 0 0.19507685344024919 -0.28538964666960642 0 0.21387332288218919 -0.28359026559967188 0 0.20598582175089611 -0.29990146400367201 0 0.20598582175089611 -0.29990146400367201 0 0.22645562065924929 -0.30195006022653531 0 0.21389881087266829 -0.3161881241744684 0 0.19876033989151529 -0.31173999801669999 0 0.20598582175089611 -0.29990146400367201 0 0.21389881087266829 -0.3161881241744684 0 0.22645562065924929 -0.30195006022653531 0 0.23641744113456931 -0.30430125081696702 0 0.23903791843630959 -0.32030985485339852 0 0.22645562065924929 -0.30195006022653531 0 0.23903791843630959 -0.32030985485339852 0 0.22514538200837919 -0.29394575820831947 0 0.23641744113456931 -0.30430125081696702 0 0.22645562065924929 -0.30195006022653531 0 0.22514538200837919 -0.29394575820831947 0 0.23641744113456931 -0.30430125081696702 0 0.23182173417131721 -0.27622588722069202 0 0.21387332288218919 -0.28359026559967188 0 0.22514538200837919 -0.29394575820831947 0 0.21387332288218919 -0.28359026559967188 0 0.22645562065924929 -0.30195006022653531 0 0.22514538200837919 -0.29394575820831947 0 0.23182173417131721 -0.27622588722069202 0 0.22514538200837919 -0.29394575820831947 0 0.23641744113456931 -0.30430125081696702 0 0.23182173417131721 -0.27622588722069202 0 0.23641744113456931 -0.30430125081696702 0 0.21387332288218919 -0.28359026559967188 0 0.22645562065924929 -0.30195006022653531 0 0.21387332288218919 -0.28359026559967188 0 0.22514538200837919 -0.29394575820831947 0 0.25543341914346818 -0.2933785512348166 0 0.23182173417131721 -0.27622588722069202 0 0.23641744113456931 -0.30430125081696702 0 0.25368706630918952 -0.3201666285485617 0 0.23641744113456931 -0.30430125081696702 0 0.23641744113456931 -0.30430125081696702 0 0.23903791843630959 -0.32030985485339852 0 0.25368706630918952 -0.3201666285485617 0 0.25543341914346818 -0.2933785512348166 0 0.23641744113456931 -0.30430125081696702 0 0.25368706630918952 -0.3201666285485617 0 0.23641744113456931 -0.30430125081696702 0 0.23903791843630959 -0.32030985485339852 0 0.23903791843630959 -0.32030985485339852 0 0.24604594819970951 -0.33053580797219689 0 0.25368706630918952 -0.3201666285485617 0 0.23903791843630959 -0.32030985485339852 0 0.24604594819970951 -0.33053580797219689 0 0.23903791843630959 -0.32030985485339852 0 0.2425279325184059 -0.34163049498438458 0 0.23903791843630959 -0.32030985485339852 0 0.24604594819970951 -0.33053580797219689 0 0.2425279325184059 -0.34163049498438458 0 0.25229403110032672 -0.34153501078116022 0 0.24604594819970951 -0.33053580797219689 0 0.2425279325184059 -0.34163049498438458 0 0.23903791843630959 -0.32030985485339852 0 0.2425279325184059 -0.34163049498438458 0 0.21577597599564249 -0.33865910315674291 0 0.23903791843630959 -0.32030985485339852 0 0.21389881087266829 -0.3161881241744684 0 0.21577597599564249 -0.33865910315674291 0 0.22645562065924929 -0.30195006022653531 0 0.23903791843630959 -0.32030985485339852 0 0.21389881087266829 -0.3161881241744684 0 0.24601794660050169 -0.3629511351153708 0 0.22725103062157381 -0.35804028399242271 0 0.2305000617456866 -0.38167510490534268 0 0.24601794660050169 -0.3629511351153708 0 0.24950796068259801 -0.38427177524635697 0 0.25090099589146247 -0.36290339301375862 0 0.24601794660050169 -0.3629511351153708 0 0.24950796068259801 -0.38427177524635697 0 0.2425279325184059 -0.34163049498438458 0 0.24601794660050169 -0.3629511351153708 0 0.25090099589146247 -0.36290339301375862 0 0.25229403110032672 -0.34153501078116022 0 0.24601794660050169 -0.3629511351153708 0 0.25229403110032672 -0.34153501078116022 0 0.2425279325184059 -0.34163049498438458 0 0.24601794660050169 -0.3629511351153708 0 0.2425279325184059 -0.34163049498438458 0 0.24601794660050169 -0.3629511351153708 0 0.22725103062157381 -0.35804028399242271 0 0.2425279325184059 -0.34163049498438458 0 0.22725103062157381 -0.35804028399242271 0 0.21577597599564249 -0.33865910315674291 0 0.22725103062157381 -0.35804028399242271 0 0.2172853919300913 -0.3730477324075861 0 0.2305000617456866 -0.38167510490534268 0 0.2172853919300913 -0.3730477324075861 0 0.20853482229137499 -0.35718713468473962 0 0.19050446058696949 -0.38104908032491352 0 0.22725103062157381 -0.35804028399242271 0 0.2172853919300913 -0.3730477324075861 0 0.20853482229137499 -0.35718713468473962 0 0.20853482229137499 -0.35718713468473962 0 0.1898386629449422 -0.35376594157646152 0 0.21577597599564249 -0.33865910315674291 0 0.22725103062157381 -0.35804028399242271 0 0.20853482229137499 -0.35718713468473962 0 0.21577597599564249 -0.33865910315674291 0 0.20853482229137499 -0.35718713468473962 0 0.1898386629449422 -0.35376594157646152 0 0.19050446058696949 -0.38104908032491352 0 0.1898386629449422 -0.35376594157646152 0 0.19050446058696949 -0.38104908032491352 0 0.21389881087266829 -0.3161881241744684 0 0.21577597599564249 -0.33865910315674291 0 0.18917286530291491 -0.3264828028280094 0 0.1898386629449422 -0.35376594157646152 0 0.18917286530291491 -0.3264828028280094 0 0.1898386629449422 -0.35376594157646152 0 0.21577597599564249 -0.33865910315674291 0 0.18917286530291491 -0.3264828028280094 0 0.19876033989151529 -0.31173999801669999 0 0.21389881087266829 -0.3161881241744684 0 0.18917286530291491 -0.3264828028280094 0 0.1885070676608876 -0.29919966407955728 0 0.18917286530291491 -0.3264828028280094 0 0.18917286530291491 -0.3264828028280094 0 0.17560895918961089 -0.32043428838946258 0 0.17205261566268659 -0.33071732470351622 0 0.18917286530291491 -0.3264828028280094 0 0.17560895918961089 -0.32043428838946258 0 0.1768424475536918 -0.30829461696665711 0 0.17560895918961089 -0.32043428838946258 0 0.16436790823915051 -0.31624240905966811 0 0.1768424475536918 -0.30829461696665711 0 0.18917286530291491 -0.3264828028280094 0 0.17205261566268659 -0.33071732470351622 0 0.17342060271213269 -0.3460346454148906 0 0.1898386629449422 -0.35376594157646152 0 0.18917286530291491 -0.3264828028280094 0 0.17342060271213269 -0.3460346454148906 0 0.17205261566268659 -0.33071732470351622 0 0.17342060271213269 -0.3460346454148906 0 0.15593985999258 -0.3384171980353875 0 0.17205261566268659 -0.33071732470351622 0 0.16436790823915051 -0.31624240905966811 0 0.15593985999258 -0.3384171980353875 0 0.16436790823915051 -0.31624240905966811 0 0.15593985999258 -0.3384171980353875 0 0.15593985999258 -0.3384171980353875 0 0.15818162103511341 -0.31029355491381522 0 0.16436790823915051 -0.31624240905966811 0 0.15593985999258 -0.3384171980353875 0 0.15818162103511341 -0.31029355491381522 0 0.17560895918961089 -0.32043428838946258 0 0.17205261566268659 -0.33071732470351622 0 0.16436790823915051 -0.31624240905966811 0 0.1898386629449422 -0.35376594157646152 0 0.17239265778975371 -0.36111752360865862 0 0.19050446058696949 -0.38104908032491352 0 0.17239265778975371 -0.36111752360865862 0 0.19050446058696949 -0.38104908032491352 0 0.1693694648050485 -0.3790764622666159 0 0.1898386629449422 -0.35376594157646152 0 0.17239265778975371 -0.36111752360865862 0 0.17342060271213269 -0.3460346454148906 0 0.16203047145981461 -0.35297418568495681 0 0.1538720553718686 -0.36435849958119593 0 0.15593985999258 -0.3384171980353875 0 0.17342060271213269 -0.3460346454148906 0 0.16203047145981461 -0.35297418568495681 0 0.15593985999258 -0.3384171980353875 0 0.17239265778975371 -0.36111752360865862 0 0.16203047145981461 -0.35297418568495681 0 0.16319251317569361 -0.36172511650679828 0 0.17239265778975371 -0.36111752360865862 0 0.17342060271213269 -0.3460346454148906 0 0.16203047145981461 -0.35297418568495681 0 0.16447486808133749 -0.36845025715238189 0 0.1538720553718686 -0.36435849958119593 0 0.1518042507511575 -0.39029980112700452 0 0.17239265778975371 -0.36111752360865862 0 0.16447486808133749 -0.36845025715238189 0 0.1693694648050485 -0.3790764622666159 0 0.17239265778975371 -0.36111752360865862 0 0.16319251317569361 -0.36172511650679828 0 0.16447486808133749 -0.36845025715238189 0 0.16319251317569361 -0.36172511650679828 0 0.16447486808133749 -0.36845025715238189 0 0.1538720553718686 -0.36435849958119593 0 0.16203047145981461 -0.35297418568495681 0 0.16319251317569361 -0.36172511650679828 0 0.1538720553718686 -0.36435849958119593 0 0.15092401100395719 -0.36503302930611969 0 0.14863114801676211 -0.35764693438793421 0 0.1413224360409438 -0.3768766707404807 0 0.15092401100395719 -0.36503302930611969 0 0.1538720553718686 -0.36435849958119593 0 0.1518042507511575 -0.39029980112700452 0 0.14863114801676211 -0.35764693438793421 0 0.1413224360409438 -0.3768766707404807 0 0.14863114801676211 -0.35764693438793421 0 0.1353589651969539 -0.36388609149607432 0 0.1413224360409438 -0.3768766707404807 0 0.15092401100395719 -0.36503302930611969 0 0.1538720553718686 -0.36435849958119593 0 0.14863114801676211 -0.35764693438793421 0 0.1538720553718686 -0.36435849958119593 0 0.15593985999258 -0.3384171980353875 0 0.14863114801676211 -0.35764693438793421 0 0.15593985999258 -0.3384171980353875 0 0.14863114801676211 -0.35764693438793421 0 0.13924532799420769 -0.35123449604484591 0 0.15593985999258 -0.3384171980353875 0 0.1538720553718686 -0.36435849958119593 0 0.14863114801676211 -0.35764693438793421 0 0.15593985999258 -0.3384171980353875 0 0.14863114801676211 -0.35764693438793421 0 0.13924532799420769 -0.35123449604484591 0 0.1353589651969539 -0.36388609149607432 0 0.13924532799420769 -0.35123449604484591 0 0.1353589651969539 -0.36388609149607432 0 0.12248595515394239 -0.35642412791690747 0 0.13924532799420769 -0.35123449604484591 0 0.13381071161080019 -0.33979812838792622 0 0.12248595515394239 -0.35642412791690747 0 0.1353589651969539 -0.36388609149607432 0 0.1260893951315552 -0.37593936819085799 0 0.12248595515394239 -0.35642412791690747 0 0.1353589651969539 -0.36388609149607432 0 0.1413224360409438 -0.3768766707404807 0 0.1260893951315552 -0.37593936819085799 0 0.14367120278738391 -0.32488375142681652 0 0.15593985999258 -0.3384171980353875 0 0.15818162103511341 -0.31029355491381522 0 0.14367120278738391 -0.32488375142681652 0 0.1406281024718144 -0.31149293614162032 0 0.15818162103511341 -0.31029355491381522 0 0.14367120278738391 -0.32488375142681652 0 0.15593985999258 -0.3384171980353875 0 0.13381071161080019 -0.33979812838792622 0 0.13924532799420769 -0.35123449604484591 0 0.15593985999258 -0.3384171980353875 0 0.13381071161080019 -0.33979812838792622 0 0.14367120278738391 -0.32488375142681652 0 0.13381071161080019 -0.33979812838792622 0 0.12903476628711669 -0.3237943888649345 0 0.12903476628711669 -0.3237943888649345 0 0.1406281024718144 -0.31149293614162032 0 0.1225359174670846 -0.30506289077601773 0 0.14367120278738391 -0.32488375142681652 0 0.12903476628711669 -0.3237943888649345 0 0.1406281024718144 -0.31149293614162032 0 0.1406281024718144 -0.31149293614162032 0 0.14546522257967379 -0.29512875132432959 0 0.1225359174670846 -0.30506289077601773 0 0.1406281024718144 -0.31149293614162032 0 0.14546522257967379 -0.29512875132432959 0 0.15818162103511341 -0.31029355491381522 0 0.14546522257967379 -0.29512875132432959 0 0.135084183588249 -0.27827906031696398 0 0.1604233820776472 -0.28216991179224288 0 0.14546522257967379 -0.29512875132432959 0 0.15818162103511341 -0.31029355491381522 0 0.1604233820776472 -0.28216991179224288 0 0.14546522257967379 -0.29512875132432959 0 0.135084183588249 -0.27827906031696398 0 0.1225359174670846 -0.30506289077601773 0 0.135084183588249 -0.27827906031696398 0 0.1225359174670846 -0.30506289077601773 0 0.135084183588249 -0.27827906031696398 0 0.14763244970941339 -0.2514952298579104 0 0.1168930510602708 -0.2540822323424185 0 0.14763244970941339 -0.2514952298579104 0 0.1546219651512746 -0.26782461435903221 0 0.1640065910196048 -0.26107049623052231 0 0.135084183588249 -0.27827906031696398 0 0.14763244970941339 -0.2514952298579104 0 0.135084183588249 -0.27827906031696398 0 0.1546219651512746 -0.26782461435903221 0 0.1604233820776472 -0.28216991179224288 0 0.135084183588249 -0.27827906031696398 0 0.14763244970941339 -0.2514952298579104 0 0.1546219651512746 -0.26782461435903221 0 0.1546219651512746 -0.26782461435903221 0 0.1660446019873596 -0.27202525797521682 0 0.1604233820776472 -0.28216991179224288 0 0.1546219651512746 -0.26782461435903221 0 0.1660446019873596 -0.27202525797521682 0 0.1640065910196048 -0.26107049623052231 0 0.1660446019873596 -0.27202525797521682 0 0.17540606040261941 -0.28118744145315983 0 0.1604233820776472 -0.28216991179224288 0 0.14763244970941339 -0.2514952298579104 0 0.1640065910196048 -0.26107049623052231 0 0.17145580717169789 -0.24988436124947211 0 0.1660446019873596 -0.27202525797521682 0 0.1640065910196048 -0.26107049623052231 0 0.17532163382949589 -0.26345291147035488 0 0.1640065910196048 -0.26107049623052231 0 0.17532163382949589 -0.26345291147035488 0 0.17145580717169789 -0.24988436124947211 0 0.17532163382949589 -0.26345291147035488 0 0.18717547237683341 -0.2446333865826531 0 0.17145580717169789 -0.24988436124947211 0 0.18784127001886031 -0.27191652533110527 0 0.17532163382949589 -0.26345291147035488 0 0.18717547237683341 -0.2446333865826531 0 0.1660446019873596 -0.27202525797521682 0 0.17532163382949589 -0.26345291147035488 0 0.17540606040261941 -0.28118744145315983 0 0.18784127001886031 -0.27191652533110527 0 0.17532163382949589 -0.26345291147035488 0 0.17540606040261941 -0.28118744145315983 0 0.1885070676608876 -0.29919966407955728 0 0.17540606040261941 -0.28118744145315983 0 0.1727959564857206 -0.29406762008394849 0 0.18784127001886031 -0.27191652533110527 0 0.1885070676608876 -0.29919966407955728 0 0.17540606040261941 -0.28118744145315983 0 0.1885070676608876 -0.29919966407955728 0 0.1727959564857206 -0.29406762008394849 0 0.1768424475536918 -0.30829461696665711 0 0.1885070676608876 -0.29919966407955728 0 0.18917286530291491 -0.3264828028280094 0 0.1768424475536918 -0.30829461696665711 0 0.16436790823915051 -0.31624240905966811 0 0.1727959564857206 -0.29406762008394849 0 0.15818162103511341 -0.31029355491381522 0 0.16436790823915051 -0.31624240905966811 0 0.1727959564857206 -0.29406762008394849 0 0.1768424475536918 -0.30829461696665711 0 0.16436790823915051 -0.31624240905966811 0 0.1727959564857206 -0.29406762008394849 0 0.1727959564857206 -0.29406762008394849 0 0.15818162103511341 -0.31029355491381522 0 0.1604233820776472 -0.28216991179224288 0 0.15818162103511341 -0.31029355491381522 0 0.1604233820776472 -0.28216991179224288 0 0.17540606040261941 -0.28118744145315983 0 0.1727959564857206 -0.29406762008394849 0 0.1604233820776472 -0.28216991179224288 0 0.1882053851113786 -0.4890360466717214 0 0.19695058600564691 -0.47746323161413212 0 0.20354134653925771 -0.50000000000000022 0 0.1882053851113786 -0.4890360466717214 0 0.20354134653925771 -0.50000000000000022 0 0.17472106542852739 -0.5 0 0.19695058600564691 -0.47746323161413212 0 0.1937108504237883 -0.46264916046221349 0 0.1776085424720823 -0.4786809550727531 0 0.1882053851113786 -0.4890360466717214 0 0.19695058600564691 -0.47746323161413212 0 0.1776085424720823 -0.4786809550727531 0 0.19695058600564691 -0.47746323161413212 0 0.2121905776972752 -0.46982268304261732 0 0.1937108504237883 -0.46264916046221349 0 0.19695058600564691 -0.47746323161413212 0 0.2203544960555803 -0.48020340833565073 0 0.19695058600564691 -0.47746323161413212 0 0.2121905776972752 -0.46982268304261732 0 0.2203544960555803 -0.48020340833565073 0 0.20354134653925771 -0.50000000000000022 0 0.2203544960555803 -0.48020340833565073 0 0.19695058600564691 -0.47746323161413212 0 0.20354134653925771 -0.50000000000000022 0 0.2203544960555803 -0.48020340833565073 0 0.20354134653925771 -0.50000000000000022 0 0.2174910264465845 -0.4911673509885211 0 0.22517813861450869 -0.5 0 0.20354134653925771 -0.50000000000000022 0 0.2174910264465845 -0.4911673509885211 0 0.2203544960555803 -0.48020340833565073 0 0.2174910264465845 -0.4911673509885211 0 0.24260556593646451 -0.4901506563522503 0 0.2174910264465845 -0.4911673509885211 0 0.24260556593646451 -0.4901506563522503 0 0.2203544960555803 -0.48020340833565073 0 0.2174910264465845 -0.4911673509885211 0 0.22517813861450869 -0.5 0 0.24260556593646451 -0.4901506563522503 0 0.22517813861450869 -0.5 0 0.2421762869239095 -0.4967355566952964 0 0.24260556593646451 -0.4901506563522503 0 0.22517813861450869 -0.5 0 0.2421762869239095 -0.4967355566952964 0 0.2468149306897599 -0.5 0 0.24260556593646451 -0.4901506563522503 0 0.2430805788385616 -0.48286422368147519 0 0.2203544960555803 -0.48020340833565073 0 0.24260556593646451 -0.4901506563522503 0 0.2430805788385616 -0.48286422368147519 0 0.2421762869239095 -0.4967355566952964 0 0.24260556593646451 -0.4901506563522503 0 0.2468149306897599 -0.5 0 0.2421762869239095 -0.4967355566952964 0 0.24260556593646451 -0.4901506563522503 0 0.25469622777451911 -0.47488630923039699 0 0.2430805788385616 -0.48286422368147519 0 0.24411925922930011 -0.46693144648706147 0 0.2430805788385616 -0.48286422368147519 0 0.24411925922930011 -0.46693144648706147 0 0.2430805788385616 -0.48286422368147519 0 0.23576228221085491 -0.47407101258531009 0 0.24411925922930011 -0.46693144648706147 0 0.23576228221085491 -0.47407101258531009 0 0.23275621783781139 -0.4656010388141506 0 0.24411925922930011 -0.46693144648706147 0 0.2121905776972752 -0.46982268304261732 0 0.2203544960555803 -0.48020340833565073 0 0.23275621783781139 -0.4656010388141506 0 0.23576228221085491 -0.47407101258531009 0 0.2203544960555803 -0.48020340833565073 0 0.23275621783781139 -0.4656010388141506 0 0.2430805788385616 -0.48286422368147519 0 0.23576228221085491 -0.47407101258531009 0 0.2203544960555803 -0.48020340833565073 0 0.2430805788385616 -0.48286422368147519 0 0.2203544960555803 -0.48020340833565073 0 0.2203544960555803 -0.48020340833565073 0 0.23275621783781139 -0.4656010388141506 0 0.23275621783781139 -0.4656010388141506 0 0.24515793962003959 -0.45099866929264792 0 0.22375577220656401 -0.45170897835014101 0 0.2121905776972752 -0.46982268304261732 0 0.23275621783781139 -0.4656010388141506 0 0.22375577220656401 -0.45170897835014101 0 0.24411925922930011 -0.46693144648706147 0 0.24515793962003959 -0.45099866929264792 0 0.23275621783781139 -0.4656010388141506 0 0.24411925922930011 -0.46693144648706147 0 0.24515793962003959 -0.45099866929264792 0 0.23275621783781139 -0.4656010388141506 0 0.24515793962003959 -0.45099866929264792 0 0.24515793962003959 -0.45099866929264792 0 0.23443530096073159 -0.43930459093211999 0 0.24638556821694479 -0.43216753212437159 0 0.24515793962003959 -0.45099866929264792 0 0.23443530096073159 -0.43930459093211999 0 0.22375577220656401 -0.45170897835014101 0 0.25630688252550488 -0.43787138044207902 0 0.24515793962003959 -0.45099866929264792 0 0.24638556821694479 -0.43216753212437159 0 0.24515793962003959 -0.45099866929264792 0 0.24638556821694479 -0.43216753212437159 0 0.23443530096073159 -0.43930459093211999 0 0.22375577220656401 -0.45170897835014101 0 0.2211437049775169 -0.43533643665235222 0 0.20742727770065211 -0.44899279855728219 0 0.20252123284356441 -0.43444577506210652 0 0.2211437049775169 -0.43533643665235222 0 0.22375577220656401 -0.45170897835014101 0 0.20742727770065211 -0.44899279855728219 0 0.2211437049775169 -0.43533643665235222 0 0.20742727770065211 -0.44899279855728219 0 0.2211437049775169 -0.43533643665235222 0 0.2121905776972752 -0.46982268304261732 0 0.22375577220656401 -0.45170897835014101 0 0.20742727770065211 -0.44899279855728219 0 0.2121905776972752 -0.46982268304261732 0 0.20742727770065211 -0.44899279855728219 0 0.1937108504237883 -0.46264916046221349 0 0.20742727770065211 -0.44899279855728219 0 0.1937108504237883 -0.46264916046221349 0 0.2121905776972752 -0.46982268304261732 0 0.1937108504237883 -0.46264916046221349 0 0.20742727770065211 -0.44899279855728219 0 0.1937108504237883 -0.46264916046221349 0 0.19353461090755689 -0.44876041828416502 0 0.19353461090755689 -0.44876041828416502 0 0.20252123284356441 -0.43444577506210652 0 0.18664369127951849 -0.43784491335514131 0 0.20742727770065211 -0.44899279855728219 0 0.19353461090755689 -0.44876041828416502 0 0.20252123284356441 -0.43444577506210652 0 0.20252123284356441 -0.43444577506210652 0 0.19372152631554551 -0.41793731517247301 0 0.18664369127951849 -0.43784491335514131 0 0.20252123284356441 -0.43444577506210652 0 0.19372152631554551 -0.41793731517247301 0 0.2120855734367523 -0.42069232624703279 0 0.19372152631554551 -0.41793731517247301 0 0.21461598640114971 -0.40238978938303421 0 0.1918065058114419 -0.3989674611878522 0 0.19372152631554551 -0.41793731517247301 0 0.2120855734367523 -0.42069232624703279 0 0.21461598640114971 -0.40238978938303421 0 0.2120855734367523 -0.42069232624703279 0 0.22676962065984069 -0.41612442591271909 0 0.21461598640114971 -0.40238978938303421 0 0.20252123284356441 -0.43444577506210652 0 0.2120855734367523 -0.42069232624703279 0 0.2211437049775169 -0.43533643665235222 0 0.2120855734367523 -0.42069232624703279 0 0.2211437049775169 -0.43533643665235222 0 0.22676962065984069 -0.41612442591271909 0 0.2211437049775169 -0.43533643665235222 0 0.23573351978259399 -0.42631133824108769 0 0.22676962065984069 -0.41612442591271909 0 0.23443530096073159 -0.43930459093211999 0 0.2211437049775169 -0.43533643665235222 0 0.23573351978259399 -0.42631133824108769 0 0.23443530096073159 -0.43930459093211999 0 0.23573351978259399 -0.42631133824108769 0 0.24638556821694479 -0.43216753212437159 0 0.24638556821694479 -0.43216753212437159 0 0.24720574428714279 -0.41958648919415409 0 0.23573351978259399 -0.42631133824108769 0 0.24638556821694479 -0.43216753212437159 0 0.24720574428714279 -0.41958648919415409 0 0.25410033919995512 -0.41232680522923187 0 0.24638556821694479 -0.43216753212437159 0 0.24720574428714279 -0.41958648919415409 0 0.2476131968138508 -0.41333639495609542 0 0.24720574428714279 -0.41958648919415409 0 0.23842808455760969 -0.41552490180771567 0 0.2476131968138508 -0.41333639495609542 0 0.24720574428714279 -0.41958648919415409 0 0.25410033919995512 -0.41232680522923187 0 0.2476131968138508 -0.41333639495609542 0 0.24720574428714279 -0.41958648919415409 0 0.23573351978259399 -0.42631133824108769 0 0.24720574428714279 -0.41958648919415409 0 0.23842808455760969 -0.41552490180771567 0 0.2476131968138508 -0.41333639495609542 0 0.23842808455760969 -0.41552490180771567 0 0.23502214657037959 -0.40227914709337942 0 0.23842808455760969 -0.41552490180771567 0 0.22676962065984069 -0.41612442591271909 0 0.23502214657037959 -0.40227914709337942 0 0.22676962065984069 -0.41612442591271909 0 0.23502214657037959 -0.40227914709337942 0 0.21461598640114971 -0.40238978938303421 0 0.23573351978259399 -0.42631133824108769 0 0.23842808455760969 -0.41552490180771567 0 0.22676962065984069 -0.41612442591271909 0 0.23502214657037959 -0.40227914709337942 0 0.2305000617456866 -0.38167510490534268 0 0.21461598640114971 -0.40238978938303421 0 0.2476131968138508 -0.41333639495609542 0 0.23502214657037959 -0.40227914709337942 0 0.24950796068259801 -0.38427177524635697 0 0.2476131968138508 -0.41333639495609542 0 0.24950796068259801 -0.38427177524635697 0 0.25010456026361699 -0.387916426720539 0 0.2476131968138508 -0.41333639495609542 0 0.25010456026361699 -0.387916426720539 0 0.2476131968138508 -0.41333639495609542 0 0.24950796068259801 -0.38427177524635697 0 0.23502214657037959 -0.40227914709337942 0 0.24950796068259801 -0.38427177524635697 0 0.2305000617456866 -0.38167510490534268 0 0.24601794660050169 -0.3629511351153708 0 0.24950796068259801 -0.38427177524635697 0 0.2305000617456866 -0.38167510490534268 0 0.25010456026361699 -0.387916426720539 0 0.24950796068259801 -0.38427177524635697 0 0.2305000617456866 -0.38167510490534268 0 0.20729189231124029 -0.38693688276623961 0 0.21461598640114971 -0.40238978938303421 0 0.2172853919300913 -0.3730477324075861 0 0.2305000617456866 -0.38167510490534268 0 0.20729189231124029 -0.38693688276623961 0 0.2172853919300913 -0.3730477324075861 0 0.20729189231124029 -0.38693688276623961 0 0.19050446058696949 -0.38104908032491352 0 0.20729189231124029 -0.38693688276623961 0 0.21461598640114971 -0.40238978938303421 0 0.1918065058114419 -0.3989674611878522 0 0.20729189231124029 -0.38693688276623961 0 0.1918065058114419 -0.3989674611878522 0 0.19050446058696949 -0.38104908032491352 0 0.19050446058696949 -0.38104908032491352 0 0.17144511859132019 -0.39449525348155118 0 0.1693694648050485 -0.3790764622666159 0 0.1918065058114419 -0.3989674611878522 0 0.19050446058696949 -0.38104908032491352 0 0.17144511859132019 -0.39449525348155118 0 0.1918065058114419 -0.3989674611878522 0 0.17144511859132019 -0.39449525348155118 0 0.17326005066242639 -0.41099644599890178 0 0.17144511859132019 -0.39449525348155118 0 0.1567185433267991 -0.40664314912596539 0 0.17326005066242639 -0.41099644599890178 0 0.17144511859132019 -0.39449525348155118 0 0.1518042507511575 -0.39029980112700452 0 0.1567185433267991 -0.40664314912596539 0 0.16447486808133749 -0.36845025715238189 0 0.1693694648050485 -0.3790764622666159 0 0.1518042507511575 -0.39029980112700452 0 0.17144511859132019 -0.39449525348155118 0 0.1693694648050485 -0.3790764622666159 0 0.1518042507511575 -0.39029980112700452 0 0.15092401100395719 -0.36503302930611969 0 0.1413224360409438 -0.3768766707404807 0 0.136123490857887 -0.38881565264171902 0 0.1538720553718686 -0.36435849958119593 0 0.1518042507511575 -0.39029980112700452 0 0.15092401100395719 -0.36503302930611969 0 0.1518042507511575 -0.39029980112700452 0 0.136123490857887 -0.38881565264171902 0 0.15092401100395719 -0.36503302930611969 0 0.136123490857887 -0.38881565264171902 0 0.1413224360409438 -0.3768766707404807 0 0.136123490857887 -0.38881565264171902 0 0.1260893951315552 -0.37593936819085799 0 0.136123490857887 -0.38881565264171902 0 0.1260893951315552 -0.37593936819085799 0 0.12006043517291939 -0.39193490038897888 0 0.136123490857887 -0.38881565264171902 0 0.14260057597421491 -0.40396160837582662 0 0.1213229707118169 -0.41259827597731807 0 0.136123490857887 -0.38881565264171902 0 0.1213229707118169 -0.41259827597731807 0 0.136123490857887 -0.38881565264171902 0 0.1213229707118169 -0.41259827597731807 0 0.12006043517291939 -0.39193490038897888 0 0.1518042507511575 -0.39029980112700452 0 0.14260057597421491 -0.40396160837582662 0 0.1567185433267991 -0.40664314912596539 0 0.1518042507511575 -0.39029980112700452 0 0.136123490857887 -0.38881565264171902 0 0.14260057597421491 -0.40396160837582662 0 0.14245315756731591 -0.41840778553681113 0 0.15874810641435999 -0.42169800023569731 0 0.1567185433267991 -0.40664314912596539 0 0.14260057597421491 -0.40396160837582662 0 0.14245315756731591 -0.41840778553681113 0 0.1567185433267991 -0.40664314912596539 0 0.14245315756731591 -0.41840778553681113 0 0.12948126747816921 -0.42381167033557832 0 0.1213229707118169 -0.41259827597731807 0 0.14260057597421491 -0.40396160837582662 0 0.14245315756731591 -0.41840778553681113 0 0.1213229707118169 -0.41259827597731807 0 0.1313577323748438 -0.43087918881387383 0 0.1270052889454984 -0.43675517163752348 0 0.13915076818517469 -0.43019788173319812 0 0.1313577323748438 -0.43087918881387383 0 0.12948126747816921 -0.42381167033557832 0 0.12257580504639499 -0.43503571970517152 0 0.1313577323748438 -0.43087918881387383 0 0.1270052889454984 -0.43675517163752348 0 0.12257580504639499 -0.43503571970517152 0 0.1313577323748438 -0.43087918881387383 0 0.12948126747816921 -0.42381167033557832 0 0.13915076818517469 -0.43019788173319812 0 0.14245315756731591 -0.41840778553681113 0 0.12948126747816921 -0.42381167033557832 0 0.13915076818517469 -0.43019788173319812 0 0.1270052889454984 -0.43675517163752348 0 0.15682449011250851 -0.43730004249633209 0 0.13915076818517469 -0.43019788173319812 0 0.14929413056983981 -0.42690092750050967 0 0.15682449011250851 -0.43730004249633209 0 0.1270052889454984 -0.43675517163752348 0 0.13915076818517469 -0.43019788173319812 0 0.15682449011250851 -0.43730004249633209 0 0.14245315756731591 -0.41840778553681113 0 0.14929413056983981 -0.42690092750050967 0 0.15874810641435999 -0.42169800023569731 0 0.14245315756731591 -0.41840778553681113 0 0.13915076818517469 -0.43019788173319812 0 0.14929413056983981 -0.42690092750050967 0 0.14929413056983981 -0.42690092750050967 0 0.15682449011250851 -0.43730004249633209 0 0.15874810641435999 -0.42169800023569731 0 0.15682449011250851 -0.43730004249633209 0 0.15874810641435999 -0.42169800023569731 0 0.17383957295687169 -0.42515534345170908 0 0.15874810641435999 -0.42169800023569731 0 0.1567185433267991 -0.40664314912596539 0 0.17326005066242639 -0.41099644599890178 0 0.15874810641435999 -0.42169800023569731 0 0.17326005066242639 -0.41099644599890178 0 0.17383957295687169 -0.42515534345170908 0 0.19372152631554551 -0.41793731517247301 0 0.17326005066242639 -0.41099644599890178 0 0.17383957295687169 -0.42515534345170908 0 0.19372152631554551 -0.41793731517247301 0 0.1918065058114419 -0.3989674611878522 0 0.17326005066242639 -0.41099644599890178 0 0.19372152631554551 -0.41793731517247301 0 0.17383957295687169 -0.42515534345170908 0 0.18664369127951849 -0.43784491335514131 0 0.15682449011250851 -0.43730004249633209 0 0.17383957295687169 -0.42515534345170908 0 0.18664369127951849 -0.43784491335514131 0 0.19353461090755689 -0.44876041828416502 0 0.18664369127951849 -0.43784491335514131 0 0.17147566326435809 -0.45401783085398412 0 0.1937108504237883 -0.46264916046221349 0 0.17147566326435809 -0.45401783085398412 0 0.1937108504237883 -0.46264916046221349 0 0.17147566326435809 -0.45401783085398412 0 0.1776085424720823 -0.4786809550727531 0 0.1937108504237883 -0.46264916046221349 0 0.19353461090755689 -0.44876041828416502 0 0.17147566326435809 -0.45401783085398412 0 0.17147566326435809 -0.45401783085398412 0 0.1588557010053521 -0.46434124415277939 0 0.1776085424720823 -0.4786809550727531 0 0.17147566326435809 -0.45401783085398412 0 0.1588557010053521 -0.46434124415277939 0 0.1492404761049281 -0.44538650124575418 0 0.15682449011250851 -0.43730004249633209 0 0.18664369127951849 -0.43784491335514131 0 0.15682449011250851 -0.43730004249633209 0 0.17147566326435809 -0.45401783085398412 0 0.1492404761049281 -0.44538650124575418 0 0.15682449011250851 -0.43730004249633209 0 0.18664369127951849 -0.43784491335514131 0 0.17147566326435809 -0.45401783085398412 0 0.17147566326435809 -0.45401783085398412 0 0.1492404761049281 -0.44538650124575418 0 0.1270052889454984 -0.43675517163752348 0 0.15682449011250851 -0.43730004249633209 0 0.1492404761049281 -0.44538650124575418 0 0.1492404761049281 -0.44538650124575418 0 0.13851493241255761 -0.44887074310061209 0 0.14582150915247091 -0.45850715141292958 0 0.1270052889454984 -0.43675517163752348 0 0.1319924554473329 -0.45483414810624112 0 0.1183406969131819 -0.44975868683030151 0 0.1270052889454984 -0.43675517163752348 0 0.13851493241255761 -0.44887074310061209 0 0.1319924554473329 -0.45483414810624112 0 0.1270052889454984 -0.43675517163752348 0 0.1492404761049281 -0.44538650124575418 0 0.13851493241255761 -0.44887074310061209 0 0.1270052889454984 -0.43675517163752348 0 0.1492404761049281 -0.44538650124575418 0 0.1319924554473329 -0.45483414810624112 0 0.1361524985449096 -0.46708790466801658 0 0.12301029640063919 -0.46641938673962818 0 0.1319924554473329 -0.45483414810624112 0 0.1361524985449096 -0.46708790466801658 0 0.14582150915247091 -0.45850715141292958 0 0.13851493241255761 -0.44887074310061209 0 0.1319924554473329 -0.45483414810624112 0 0.14582150915247091 -0.45850715141292958 0 0.1361524985449096 -0.46708790466801658 0 0.14582150915247091 -0.45850715141292958 0 0.14741170801641029 -0.4731145099008216 0 0.1588557010053521 -0.46434124415277939 0 0.1492404761049281 -0.44538650124575418 0 0.14582150915247091 -0.45850715141292958 0 0.1588557010053521 -0.46434124415277939 0 0.14582150915247091 -0.45850715141292958 0 0.14741170801641029 -0.4731145099008216 0 0.14741170801641029 -0.4731145099008216 0 0.13252652370769469 -0.4825643271804626 0 0.1493038849824459 -0.48591072586573458 0 0.1588557010053521 -0.46434124415277939 0 0.14741170801641029 -0.4731145099008216 0 0.1591741743499496 -0.479162042564095 0 0.14741170801641029 -0.4731145099008216 0 0.1493038849824459 -0.48591072586573458 0 0.1591741743499496 -0.479162042564095 0 0.1361524985449096 -0.46708790466801658 0 0.14741170801641029 -0.4731145099008216 0 0.13252652370769469 -0.4825643271804626 0 0.1361524985449096 -0.46708790466801658 0 0.13252652370769469 -0.4825643271804626 0 0.12301029640063919 -0.46641938673962818 0 0.13252652370769469 -0.4825643271804626 0 0.14590078431779741 -0.5 0 0.11708050320706739 -0.5 0 0.13252652370769469 -0.4825643271804626 0 0.14590078431779741 -0.5 0 0.1493038849824459 -0.48591072586573458 0 0.14590078431779741 -0.5 0 0.1493038849824459 -0.48591072586573458 0 0.1615062345203773 -0.49471274968329387 0 0.1615062345203773 -0.49471274968329387 0 0.1776085424720823 -0.4786809550727531 0 0.1615062345203773 -0.49471274968329387 0 0.1776085424720823 -0.4786809550727531 0 0.17472106542852739 -0.5 0 0.14590078431779741 -0.5 0 0.1615062345203773 -0.49471274968329387 0 0.17472106542852739 -0.5 0 0.1493038849824459 -0.48591072586573458 0 0.1615062345203773 -0.49471274968329387 0 0.1591741743499496 -0.479162042564095 0 0.1588557010053521 -0.46434124415277939 0 0.1591741743499496 -0.479162042564095 0 0.1776085424720823 -0.4786809550727531 0 0.1615062345203773 -0.49471274968329387 0 0.1591741743499496 -0.479162042564095 0 0.1776085424720823 -0.4786809550727531 0 0.1937108504237883 -0.46264916046221349 0 0.1776085424720823 -0.4786809550727531 0 0.1882053851113786 -0.4890360466717214 0 0.1776085424720823 -0.4786809550727531 0 0.17472106542852739 -0.5 0 0.07085911429374285 -0.49368751320736792 0 0.064060113245630546 -0.48418013049356778 0 0.059439940985607252 -0.49999999999999589 0 0.07085911429374285 -0.49368751320736792 0 0.088260222096337326 -0.5 0 0.059439940985607252 -0.49999999999999589 0 0.07085911429374285 -0.49368751320736792 0 0.079626331487580165 -0.47959966885023658 0 0.07085911429374285 -0.49368751320736792 0 0.064060113245630546 -0.48418013049356778 0 0.079626331487580165 -0.47959966885023658 0 0.079626331487580165 -0.47959966885023658 0 0.074549175998463432 -0.46592511650474 0 0.062443794655832371 -0.47139439119841758 0 0.064060113245630546 -0.48418013049356778 0 0.079626331487580165 -0.47959966885023658 0 0.062443794655832371 -0.47139439119841758 0 0.079626331487580165 -0.47959966885023658 0 0.098169322054237881 -0.48612736170348558 0 0.094784836812329465 -0.47219641848909633 0 0.079626331487580165 -0.47959966885023658 0 0.088393548681417577 -0.46551182449310552 0 0.074549175998463432 -0.46592511650474 0 0.079626331487580165 -0.47959966885023658 0 0.088393548681417577 -0.46551182449310552 0 0.079626331487580165 -0.47959966885023658 0 0.094784836812329465 -0.47219641848909633 0 0.088393548681417577 -0.46551182449310552 0 0.094784836812329465 -0.47219641848909633 0 0.088393548681417577 -0.46551182449310552 0 0.079626331487580165 -0.47959966885023658 0 0.088260222096337326 -0.5 0 0.098169322054237881 -0.48612736170348558 0 0.07085911429374285 -0.49368751320736792 0 0.079626331487580165 -0.47959966885023658 0 0.088260222096337326 -0.5 0 0.088260222096337326 -0.5 0 0.098169322054237881 -0.48612736170348558 0 0.11708050320706739 -0.5 0 0.098169322054237881 -0.48612736170348558 0 0.11708050320706739 -0.5 0 0.111094716667875 -0.47884072117809479 0 0.13252652370769469 -0.4825643271804626 0 0.11708050320706739 -0.5 0 0.111094716667875 -0.47884072117809479 0 0.13252652370769469 -0.4825643271804626 0 0.111094716667875 -0.47884072117809479 0 0.12301029640063919 -0.46641938673962818 0 0.111094716667875 -0.47884072117809479 0 0.10753895214897061 -0.46328616633905167 0 0.12301029640063919 -0.46641938673962818 0 0.098169322054237881 -0.48612736170348558 0 0.111094716667875 -0.47884072117809479 0 0.094784836812329465 -0.47219641848909633 0 0.111094716667875 -0.47884072117809479 0 0.094784836812329465 -0.47219641848909633 0 0.10753895214897061 -0.46328616633905167 0 0.094784836812329465 -0.47219641848909633 0 0.098184101523979786 -0.4622991607729251 0 0.10753895214897061 -0.46328616633905167 0 0.094784836812329465 -0.47219641848909633 0 0.098184101523979786 -0.4622991607729251 0 0.088393548681417577 -0.46551182449310552 0 0.098184101523979786 -0.4622991607729251 0 0.108012597325979 -0.45234376409414262 0 0.09745799962358212 -0.45094636190301141 0 0.098184101523979786 -0.4622991607729251 0 0.09745799962358212 -0.45094636190301141 0 0.088393548681417577 -0.46551182449310552 0 0.098184101523979786 -0.4622991607729251 0 0.10753895214897061 -0.46328616633905167 0 0.108012597325979 -0.45234376409414262 0 0.1319924554473329 -0.45483414810624112 0 0.12301029640063919 -0.46641938673962818 0 0.1183406969131819 -0.44975868683030151 0 0.10753895214897061 -0.46328616633905167 0 0.12301029640063919 -0.46641938673962818 0 0.1183406969131819 -0.44975868683030151 0 0.10753895214897061 -0.46328616633905167 0 0.1183406969131819 -0.44975868683030151 0 0.108012597325979 -0.45234376409414262 0 0.1270052889454984 -0.43675517163752348 0 0.1183406969131819 -0.44975868683030151 0 0.1065224505657448 -0.43638089931291602 0 0.1183406969131819 -0.44975868683030151 0 0.108012597325979 -0.45234376409414262 0 0.1065224505657448 -0.43638089931291602 0 0.09745799962358212 -0.45094636190301141 0 0.1065224505657448 -0.43638089931291602 0 0.108012597325979 -0.45234376409414262 0 0.09745799962358212 -0.45094636190301141 0 0.1065224505657448 -0.43638089931291602 0 0.09745799962358212 -0.45094636190301141 0 0.087813828156116158 -0.43603904632019119 0 0.1065224505657448 -0.43638089931291602 0 0.074625711049388463 -0.45111215999859933 0 0.076203070553098828 -0.43023339487344159 0 0.087813828156116158 -0.43603904632019119 0 0.086784301256018853 -0.4517754758832655 0 0.074625711049388463 -0.45111215999859933 0 0.087813828156116158 -0.43603904632019119 0 0.09745799962358212 -0.45094636190301141 0 0.086784301256018853 -0.4517754758832655 0 0.087813828156116158 -0.43603904632019119 0 0.09745799962358212 -0.45094636190301141 0 0.086784301256018853 -0.4517754758832655 0 0.088393548681417577 -0.46551182449310552 0 0.09745799962358212 -0.45094636190301141 0 0.088393548681417577 -0.46551182449310552 0 0.088393548681417577 -0.46551182449310552 0 0.074625711049388463 -0.45111215999859933 0 0.088393548681417577 -0.46551182449310552 0 0.074549175998463432 -0.46592511650474 0 0.074625711049388463 -0.45111215999859933 0 0.086784301256018853 -0.4517754758832655 0 0.088393548681417577 -0.46551182449310552 0 0.074625711049388463 -0.45111215999859933 0 0.074549175998463432 -0.46592511650474 0 0.064979411539042076 -0.45597318570335582 0 0.074625711049388463 -0.45111215999859933 0 0.074549175998463432 -0.46592511650474 0 0.064979411539042076 -0.45597318570335582 0 0.062443794655832371 -0.47139439119841758 0 0.064979411539042076 -0.45597318570335582 0 0.074625711049388463 -0.45111215999859933 0 0.060857873417358252 -0.4367124955040943 0 0.074625711049388463 -0.45111215999859933 0 0.076203070553098828 -0.43023339487344159 0 0.060857873417358252 -0.4367124955040943 0 0.074625711049388463 -0.45111215999859933 0 0.060857873417358252 -0.4367124955040943 0 0.076203070553098828 -0.43023339487344159 0 0.072874496260473598 -0.4110634388286355 0 0.060857873417358252 -0.4367124955040943 0 0.072874496260473598 -0.4110634388286355 0 0.060857873417358252 -0.4367124955040943 0 0.076203070553098828 -0.43023339487344159 0 0.072874496260473598 -0.4110634388286355 0 0.084581445095711902 -0.41965836983088561 0 0.084581445095711902 -0.41965836983088561 0 0.098951422729960894 -0.41756596384204642 0 0.087064407778910016 -0.4033900052901131 0 0.072874496260473598 -0.4110634388286355 0 0.084581445095711902 -0.41965836983088561 0 0.087064407778910016 -0.4033900052901131 0 0.076203070553098828 -0.43023339487344159 0 0.084581445095711902 -0.41965836983088561 0 0.087813828156116158 -0.43603904632019119 0 0.084581445095711902 -0.41965836983088561 0 0.087813828156116158 -0.43603904632019119 0 0.098951422729960894 -0.41756596384204642 0 0.1065224505657448 -0.43638089931291602 0 0.1213229707118169 -0.41259827597731807 0 0.098951422729960894 -0.41756596384204642 0 0.087813828156116158 -0.43603904632019119 0 0.1065224505657448 -0.43638089931291602 0 0.087813828156116158 -0.43603904632019119 0 0.1065224505657448 -0.43638089931291602 0 0.098951422729960894 -0.41756596384204642 0 0.1270052889454984 -0.43675517163752348 0 0.1065224505657448 -0.43638089931291602 0 0.1065224505657448 -0.43638089931291602 0 0.1213229707118169 -0.41259827597731807 0 0.12948126747816921 -0.42381167033557832 0 0.12257580504639499 -0.43503571970517152 0 0.1213229707118169 -0.41259827597731807 0 0.1065224505657448 -0.43638089931291602 0 0.12257580504639499 -0.43503571970517152 0 0.1213229707118169 -0.41259827597731807 0 0.1270052889454984 -0.43675517163752348 0 0.1065224505657448 -0.43638089931291602 0 0.12257580504639499 -0.43503571970517152 0 0.1270052889454984 -0.43675517163752348 0 0.12257580504639499 -0.43503571970517152 0 0.098951422729960894 -0.41756596384204642 0 0.1061414352850171 -0.40074772243605028 0 0.087064407778910016 -0.4033900052901131 0 0.1213229707118169 -0.41259827597731807 0 0.098951422729960894 -0.41756596384204642 0 0.1061414352850171 -0.40074772243605028 0 0.1061414352850171 -0.40074772243605028 0 0.09853138165739686 -0.38890245050408973 0 0.087064407778910016 -0.4033900052901131 0 0.1061414352850171 -0.40074772243605028 0 0.12006043517291939 -0.39193490038897888 0 0.1106248838783208 -0.38157348269894931 0 0.1213229707118169 -0.41259827597731807 0 0.1061414352850171 -0.40074772243605028 0 0.12006043517291939 -0.39193490038897888 0 0.1260893951315552 -0.37593936819085799 0 0.12006043517291939 -0.39193490038897888 0 0.1106248838783208 -0.38157348269894931 0 0.1260893951315552 -0.37593936819085799 0 0.1106248838783208 -0.38157348269894931 0 0.1141599048471436 -0.3681418826252098 0 0.1061414352850171 -0.40074772243605028 0 0.1106248838783208 -0.38157348269894931 0 0.09853138165739686 -0.38890245050408973 0 0.1106248838783208 -0.38157348269894931 0 0.09853138165739686 -0.38890245050408973 0 0.097439385224756148 -0.35863055169412428 0 0.09853138165739686 -0.38890245050408973 0 0.084891119103591969 -0.38541438215317808 0 0.097439385224756148 -0.35863055169412428 0 0.084891119103591969 -0.38541438215317808 0 0.087064407778910016 -0.4033900052901131 0 0.072874496260473598 -0.4110634388286355 0 0.084891119103591969 -0.38541438215317808 0 0.087064407778910016 -0.4033900052901131 0 0.072874496260473598 -0.4110634388286355 0 0.084891119103591969 -0.38541438215317808 0 0.09853138165739686 -0.38890245050408973 0 0.084891119103591969 -0.38541438215317808 0 0.087064407778910016 -0.4033900052901131 0 0.072874496260473598 -0.4110634388286355 0 0.084891119103591969 -0.38541438215317808 0 0.059506659754293457 -0.38381876071976878 0 0.084891119103591969 -0.38541438215317808 0 0.059506659754293457 -0.38381876071976878 0 0.06782406295469301 -0.36949420643551739 0 0.059506659754293457 -0.38381876071976878 0 0.047166974494413927 -0.39871749446037791 0 0.039433719932905509 -0.37976003089359689 0 0.072874496260473598 -0.4110634388286355 0 0.059506659754293457 -0.38381876071976878 0 0.047166974494413927 -0.39871749446037791 0 0.047166974494413927 -0.39871749446037791 0 0.039433719932905509 -0.37976003089359689 0 0.026835346187586189 -0.40112862311558012 0 0.039433719932905509 -0.37976003089359689 0 0.026835346187586189 -0.40112862311558012 0 0.01868347874252705 -0.39564611664606902 0 0.031974192648489289 -0.36888834736165232 0 0.0199608439284076 -0.37814746090732843 0 0.01387165182671897 -0.38566839530311881 0 0.01868347874252705 -0.39564611664606902 0 0.039433719932905509 -0.37976003089359689 0 0.01868347874252705 -0.39564611664606902 0 0.031974192648489289 -0.36888834736165232 0 0.0199608439284076 -0.37814746090732843 0 0.01868347874252705 -0.39564611664606902 0 0.031974192648489289 -0.36888834736165232 0 0.0199608439284076 -0.37814746090732843 0 0.01387165182671897 -0.38566839530311881 0 0.015100801928300231 -0.37404933528064849 0 0.01387165182671897 -0.38566839530311881 0 0.0044794117490076267 -0.37804111952204511 0 0.015100801928300231 -0.37404933528064849 0 0.01387165182671897 -0.38566839530311881 0 0.0037804335083421962 -0.38963603693425308 0 0.011479569322848941 -0.39407044752229348 0 0.01387165182671897 -0.38566839530311881 0 0.0037804335083421962 -0.38963603693425308 0 0.0044794117490076267 -0.37804111952204511 0 -0.0062166918575127291 -0.40030365906373799 0 0.0071354263379814938 -0.40056754572534953 0 0.0039723761283745511 -0.40959269182397551 0 0.0037804335083421962 -0.38963603693425308 0 0.0071354263379814938 -0.40056754572534953 0 0.011479569322848941 -0.39407044752229348 0 -0.0062166918575127291 -0.40030365906373799 0 0.0037804335083421962 -0.38963603693425308 0 0.0071354263379814938 -0.40056754572534953 0 0.0071354263379814938 -0.40056754572534953 0 0.011479569322848941 -0.39407044752229348 0 0.013926856198674981 -0.39883414300267689 0 0.01387165182671897 -0.38566839530311881 0 0.011479569322848941 -0.39407044752229348 0 0.01868347874252705 -0.39564611664606902 0 0.011479569322848941 -0.39407044752229348 0 0.013926856198674981 -0.39883414300267689 0 0.01868347874252705 -0.39564611664606902 0 0.013926856198674981 -0.39883414300267689 0 0.012251299651455589 -0.40402121372519773 0 0.01847729774566808 -0.4005311455213712 0 0.0071354263379814938 -0.40056754572534953 0 0.012251299651455589 -0.40402121372519773 0 0.01000116481580045 -0.40970568620821668 0 0.0071354263379814938 -0.40056754572534953 0 0.013926856198674981 -0.39883414300267689 0 0.012251299651455589 -0.40402121372519773 0 0.039433719932905509 -0.37976003089359689 0 0.023281668523015209 -0.39741186181586757 0 0.026835346187586189 -0.40112862311558012 0 0.039433719932905509 -0.37976003089359689 0 0.01868347874252705 -0.39564611664606902 0 0.023281668523015209 -0.39741186181586757 0 0.01659700719200817 -0.40572537402307418 0 0.01847729774566808 -0.4005311455213712 0 0.026835346187586189 -0.40112862311558012 0 0.01847729774566808 -0.4005311455213712 0 0.023281668523015209 -0.39741186181586757 0 0.026835346187586189 -0.40112862311558012 0 0.01659700719200817 -0.40572537402307418 0 0.026835346187586189 -0.40112862311558012 0 0.01501951664299879 -0.41177361501569071 0 0.012251299651455589 -0.40402121372519773 0 0.01659700719200817 -0.40572537402307418 0 0.01847729774566808 -0.4005311455213712 0 0.013926856198674981 -0.39883414300267689 0 0.01847729774566808 -0.4005311455213712 0 0.01868347874252705 -0.39564611664606902 0 0.01847729774566808 -0.4005311455213712 0 0.01868347874252705 -0.39564611664606902 0 0.023281668523015209 -0.39741186181586757 0 0.023281668523015209 -0.39741186181586757 0 0.026835346187586189 -0.40112862311558012 0 0.026835346187586189 -0.40112862311558012 0 0.01488559998590408 -0.42139705290674528 0 0.026835346187586189 -0.40112862311558012 0 0.01488559998590408 -0.42139705290674528 0 0.043846609802472777 -0.41892055930983652 0 0.026835346187586189 -0.40112862311558012 0 0.01501951664299879 -0.41177361501569071 0 0.01488559998590408 -0.42139705290674528 0 0.012251299651455589 -0.40402121372519773 0 0.01659700719200817 -0.40572537402307418 0 0.01000116481580045 -0.40970568620821668 0 0.01659700719200817 -0.40572537402307418 0 0.01000116481580045 -0.40970568620821668 0 0.01501951664299879 -0.41177361501569071 0 0.01000116481580045 -0.40970568620821668 0 0.0092044093069021185 -0.41355933396387262 0 0.01501951664299879 -0.41177361501569071 0 0.01237669434327165 -0.41697083150912179 0 0.01488559998590408 -0.42139705290674528 0 0.006479201153117565 -0.4171029746157574 0 0.01488559998590408 -0.42139705290674528 0 0.006479201153117565 -0.4171029746157574 0 0.0029090937296297561 -0.42498108175462468 0 0.0092044093069021185 -0.41355933396387262 0 0.01501951664299879 -0.41177361501569071 0 0.01237669434327165 -0.41697083150912179 0 0.01501951664299879 -0.41177361501569071 0 0.01237669434327165 -0.41697083150912179 0 0.01488559998590408 -0.42139705290674528 0 0.01237669434327165 -0.41697083150912179 0 0.01488559998590408 -0.42139705290674528 0 0.0092044093069021185 -0.41355933396387262 0 0.01237669434327165 -0.41697083150912179 0 0.006479201153117565 -0.4171029746157574 0 -0.001240350368216776 -0.41636033696578151 0 0.006479201153117565 -0.4171029746157574 0 0.0029090937296297561 -0.42498108175462468 0 -0.001240350368216776 -0.41636033696578151 0 0.006479201153117565 -0.4171029746157574 0 0.0039723761283745511 -0.40959269182397551 0 0.0071354263379814938 -0.40056754572534953 0 0.01000116481580045 -0.40970568620821668 0 0.0039723761283745511 -0.40959269182397551 0 0.01000116481580045 -0.40970568620821668 0 0.0092044093069021185 -0.41355933396387262 0 0.0039723761283745511 -0.40959269182397551 0 0.0092044093069021185 -0.41355933396387262 0 0.006479201153117565 -0.4171029746157574 0 0.0039723761283745511 -0.40959269182397551 0 -0.003588703389994073 -0.42857839893847371 0 0.0029090937296297561 -0.42498108175462468 0 0.00096222214801448651 -0.44501303615862597 0 0.01488559998590408 -0.42139705290674528 0 0.00096222214801448651 -0.44501303615862597 0 0.01488559998590408 -0.42139705290674528 0 0.0029090937296297561 -0.42498108175462468 0 0.00096222214801448651 -0.44501303615862597 0 0.01488559998590408 -0.42139705290674528 0 0.01478314531005985 -0.43990031533158092 0 0.00096222214801448651 -0.44501303615862597 0 0.01488559998590408 -0.42139705290674528 0 0.02943436585844381 -0.44706404401225419 0 0.01488559998590408 -0.42139705290674528 0 0.043846609802472777 -0.41892055930983652 0 0.02943436585844381 -0.44706404401225419 0 0.01488559998590408 -0.42139705290674528 0 0.02943436585844381 -0.44706404401225419 0 0.01478314531005985 -0.43990031533158092 0 0.043846609802472777 -0.41892055930983652 0 0.04663983791311159 -0.43935471603427823 0 0.02943436585844381 -0.44706404401225419 0 0.047166974494413927 -0.39871749446037791 0 0.026835346187586189 -0.40112862311558012 0 0.043846609802472777 -0.41892055930983652 0 0.026835346187586189 -0.40112862311558012 0 0.043846609802472777 -0.41892055930983652 0 0.072874496260473598 -0.4110634388286355 0 0.047166974494413927 -0.39871749446037791 0 0.043846609802472777 -0.41892055930983652 0 0.072874496260473598 -0.4110634388286355 0 0.043846609802472777 -0.41892055930983652 0 0.060857873417358252 -0.4367124955040943 0 0.043846609802472777 -0.41892055930983652 0 0.060857873417358252 -0.4367124955040943 0 0.043846609802472777 -0.41892055930983652 0 0.060857873417358252 -0.4367124955040943 0 0.04663983791311159 -0.43935471603427823 0 0.060857873417358252 -0.4367124955040943 0 0.052420502574170719 -0.45472176531092851 0 0.04663983791311159 -0.43935471603427823 0 0.064979411539042076 -0.45597318570335582 0 0.060857873417358252 -0.4367124955040943 0 0.052420502574170719 -0.45472176531092851 0 0.060857873417358252 -0.4367124955040943 0 0.052420502574170719 -0.45472176531092851 0 0.052420502574170719 -0.45472176531092851 0 0.04398313173098372 -0.4727310351177631 0 0.062443794655832371 -0.47139439119841758 0 0.064979411539042076 -0.45597318570335582 0 0.052420502574170719 -0.45472176531092851 0 0.062443794655832371 -0.47139439119841758 0 0.052420502574170719 -0.45472176531092851 0 0.04398313173098372 -0.4727310351177631 0 0.052420502574170719 -0.45472176531092851 0 0.02943436585844381 -0.44706404401225419 0 0.04398313173098372 -0.4727310351177631 0 0.02943436585844381 -0.44706404401225419 0 0.04398313173098372 -0.4727310351177631 0 0.02943436585844381 -0.44706404401225419 0 0.029585583271517019 -0.47135620468190959 0 0.04398313173098372 -0.4727310351177631 0 0.052420502574170719 -0.45472176531092851 0 0.04663983791311159 -0.43935471603427823 0 0.02943436585844381 -0.44706404401225419 0 0.02943436585844381 -0.44706404401225419 0 0.014702058574505751 -0.45024890697941738 0 0.020813286287566679 -0.45797447382212852 0 0.02943436585844381 -0.44706404401225419 0 0.01478314531005985 -0.43990031533158092 0 0.014702058574505751 -0.45024890697941738 0 0.01478314531005985 -0.43990031533158092 0 0.014702058574505751 -0.45024890697941738 0 0.00096222214801448651 -0.44501303615862597 0 0.014702058574505751 -0.45024890697941738 0 0.00096222214801448651 -0.44501303615862597 0 0.0075172732684439404 -0.46129266557249721 0 0.014702058574505751 -0.45024890697941738 0 0.0075172732684439404 -0.46129266557249721 0 0.020813286287566679 -0.45797447382212852 0 0.0075172732684439404 -0.46129266557249721 0 0.020813286287566679 -0.45797447382212852 0 0.017296221682923728 -0.47018573354811272 0 0.020813286287566679 -0.45797447382212852 0 0.029585583271517019 -0.47135620468190959 0 0.017296221682923728 -0.47018573354811272 0 0.02943436585844381 -0.44706404401225419 0 0.020813286287566679 -0.45797447382212852 0 0.029585583271517019 -0.47135620468190959 0 0.020813286287566679 -0.45797447382212852 0 0.029585583271517019 -0.47135620468190959 0 0.029585583271517019 -0.47135620468190959 0 0.021249872214924571 -0.4844809901537398 0 0.038357880255468241 -0.48473793554168998 0 0.029585583271517019 -0.47135620468190959 0 0.017296221682923728 -0.47018573354811272 0 0.021249872214924571 -0.4844809901537398 0 -0.01296115568987463 -0.46862901941050711 0 0.0075172732684439404 -0.46129266557249721 0 0.0061881552061334782 -0.47724208978353999 0 0.0075172732684439404 -0.46129266557249721 0 0.017296221682923728 -0.47018573354811272 0 0.0061881552061334782 -0.47724208978353999 0 0.017296221682923728 -0.47018573354811272 0 0.0061881552061334782 -0.47724208978353999 0 0.021249872214924571 -0.4844809901537398 0 0.0061881552061334782 -0.47724208978353999 0 0.0035359825922742778 -0.5 0 0.021249872214924571 -0.4844809901537398 0 0.0035359825922742778 -0.5 0 0.021249872214924571 -0.4844809901537398 0 0.031207579380019061 -0.49999999999992351 0 0.021249872214924571 -0.4844809901537398 0 0.031207579380019061 -0.49999999999992351 0 0.038357880255468241 -0.48473793554168998 0 0.031207579380019061 -0.49999999999992351 0 0.038357880255468241 -0.48473793554168998 0 0.031207579380019061 -0.49999999999992351 0 0.038357880255468241 -0.48473793554168998 0 0.048362816344780228 -0.50000000000000067 0 0.038357880255468241 -0.48473793554168998 0 0.048362816344780228 -0.50000000000000067 0 0.038357880255468241 -0.48473793554168998 0 0.048362816344780228 -0.50000000000000067 0 0.051711536358295743 -0.4863655175588793 0 0.029585583271517019 -0.47135620468190959 0 0.038357880255468241 -0.48473793554168998 0 0.029585583271517019 -0.47135620468190959 0 0.038357880255468241 -0.48473793554168998 0 0.04398313173098372 -0.4727310351177631 0 0.038357880255468241 -0.48473793554168998 0 0.04398313173098372 -0.4727310351177631 0 0.038357880255468241 -0.48473793554168998 0 0.04398313173098372 -0.4727310351177631 0 0.051711536358295743 -0.4863655175588793 0 0.04398313173098372 -0.4727310351177631 0 0.051711536358295743 -0.4863655175588793 0 0.04398313173098372 -0.4727310351177631 0 0.062443794655832371 -0.47139439119841758 0 0.051711536358295743 -0.4863655175588793 0 0.064060113245630546 -0.48418013049356778 0 0.062443794655832371 -0.47139439119841758 0 0.051711536358295743 -0.4863655175588793 0 0.064060113245630546 -0.48418013049356778 0 0.059439940985607252 -0.49999999999999589 0 0.051711536358295743 -0.4863655175588793 0 0.059439940985607252 -0.49999999999999589 0 0.051711536358295743 -0.4863655175588793 0 0.059439940985607252 -0.49999999999999589 0 0.048362816344780228 -0.50000000000000067 0 0.051711536358295743 -0.4863655175588793 0 0.083458616847570041 -0.29052142280857762 0 0.088153329091286176 -0.30138230501352442 0 0.094017819966508903 -0.28528550330257552 0 0.083458616847570041 -0.29052142280857762 0 0.072990303293129388 -0.28631192345104151 0 0.085244564389584498 -0.28052219255245919 0 0.083458616847570041 -0.29052142280857762 0 0.085244564389584498 -0.28052219255245919 0 0.094017819966508903 -0.28528550330257552 0 0.088153329091286176 -0.30138230501352442 0 0.078217872519126347 -0.31151569644733468 0 0.096005281744226623 -0.31663044985599548 0 0.083458616847570041 -0.29052142280857762 0 0.088153329091286176 -0.30138230501352442 0 0.076887067497341172 -0.29910518972328759 0 0.088153329091286176 -0.30138230501352442 0 0.078217872519126347 -0.31151569644733468 0 0.076887067497341172 -0.29910518972328759 0 0.078217872519126347 -0.31151569644733468 0 0.063817375317457431 -0.30477948600428351 0 0.066701558809471623 -0.32090873953307902 0 0.078217872519126347 -0.31151569644733468 0 0.076887067497341172 -0.29910518972328759 0 0.063817375317457431 -0.30477948600428351 0 0.076887067497341172 -0.29910518972328759 0 0.063817375317457431 -0.30477948600428351 0 0.072990303293129388 -0.28631192345104151 0 0.063817375317457431 -0.30477948600428351 0 0.072990303293129388 -0.28631192345104151 0 0.063817375317457431 -0.30477948600428351 0 0.072990303293129388 -0.28631192345104151 0 0.053814987747715877 -0.29060220818216709 0 0.072990303293129388 -0.28631192345104151 0 0.066130105263409497 -0.27823878320428241 0 0.053814987747715877 -0.29060220818216709 0 0.083458616847570041 -0.29052142280857762 0 0.076887067497341172 -0.29910518972328759 0 0.072990303293129388 -0.28631192345104151 0 0.066130105263409497 -0.27823878320428241 0 0.063817817577672978 -0.26399450254385359 0 0.082163231268801346 -0.26784436089779939 0 0.072990303293129388 -0.28631192345104151 0 0.066130105263409497 -0.27823878320428241 0 0.082163231268801346 -0.26784436089779939 0 0.072990303293129388 -0.28631192345104151 0 0.082163231268801346 -0.26784436089779939 0 0.063817817577672978 -0.26399450254385359 0 0.082163231268801346 -0.26784436089779939 0 0.07220013032856569 -0.24787832666269219 0 0.063817817577672978 -0.26399450254385359 0 0.055183696251658518 -0.25303663434309842 0 0.07220013032856569 -0.24787832666269219 0 0.082163231268801346 -0.26784436089779939 0 0.094718046961353636 -0.25671020857427151 0 0.07220013032856569 -0.24787832666269219 0 0.094718046961353636 -0.25671020857427151 0 0.07220013032856569 -0.24787832666269219 0 0.082163231268801346 -0.26784436089779939 0 0.093928326180574798 -0.27223699343790297 0 0.094718046961353636 -0.25671020857427151 0 0.072990303293129388 -0.28631192345104151 0 0.085244564389584498 -0.28052219255245919 0 0.082163231268801346 -0.26784436089779939 0 0.085244564389584498 -0.28052219255245919 0 0.093928326180574798 -0.27223699343790297 0 0.094017819966508903 -0.28528550330257552 0 0.085244564389584498 -0.28052219255245919 0 0.082163231268801346 -0.26784436089779939 0 0.093928326180574798 -0.27223699343790297 0 0.093928326180574798 -0.27223699343790297 0 0.11123065596315609 -0.27405963995519111 0 0.094017819966508903 -0.28528550330257552 0 0.093928326180574798 -0.27223699343790297 0 0.094718046961353636 -0.25671020857427151 0 0.11123065596315609 -0.27405963995519111 0 0.094718046961353636 -0.25671020857427151 0 0.1168930510602708 -0.2540822323424185 0 0.11123065596315609 -0.27405963995519111 0 0.135084183588249 -0.27827906031696398 0 0.1168930510602708 -0.2540822323424185 0 0.11123065596315609 -0.27405963995519111 0 0.11123065596315609 -0.27405963995519111 0 0.1031068341729993 -0.29742921947980439 0 0.1225359174670846 -0.30506289077601773 0 0.135084183588249 -0.27827906031696398 0 0.11123065596315609 -0.27405963995519111 0 0.1225359174670846 -0.30506289077601773 0 0.11123065596315609 -0.27405963995519111 0 0.094017819966508903 -0.28528550330257552 0 0.1031068341729993 -0.29742921947980439 0 0.088153329091286176 -0.30138230501352442 0 0.094017819966508903 -0.28528550330257552 0 0.1031068341729993 -0.29742921947980439 0 0.1031068341729993 -0.29742921947980439 0 0.1225359174670846 -0.30506289077601773 0 0.096005281744226623 -0.31663044985599548 0 0.088153329091286176 -0.30138230501352442 0 0.1031068341729993 -0.29742921947980439 0 0.096005281744226623 -0.31663044985599548 0 0.1225359174670846 -0.30506289077601773 0 0.1099876513459204 -0.33184672123507097 0 0.096005281744226623 -0.31663044985599548 0 0.1225359174670846 -0.30506289077601773 0 0.1099876513459204 -0.33184672123507097 0 0.12903476628711669 -0.3237943888649345 0 0.1225359174670846 -0.30506289077601773 0 0.1099876513459204 -0.33184672123507097 0 0.13381071161080019 -0.33979812838792622 0 0.1099876513459204 -0.33184672123507097 0 0.12248595515394239 -0.35642412791690747 0 0.13381071161080019 -0.33979812838792622 0 0.12903476628711669 -0.3237943888649345 0 0.1099876513459204 -0.33184672123507097 0 0.1099876513459204 -0.33184672123507097 0 0.097439385224756148 -0.35863055169412428 0 0.092363845615028917 -0.33992129721124231 0 0.1099876513459204 -0.33184672123507097 0 0.096005281744226623 -0.31663044985599548 0 0.092363845615028917 -0.33992129721124231 0 0.1260893951315552 -0.37593936819085799 0 0.1141599048471436 -0.3681418826252098 0 0.12248595515394239 -0.35642412791690747 0 0.1141599048471436 -0.3681418826252098 0 0.12248595515394239 -0.35642412791690747 0 0.097439385224756148 -0.35863055169412428 0 0.1099876513459204 -0.33184672123507097 0 0.12248595515394239 -0.35642412791690747 0 0.097439385224756148 -0.35863055169412428 0 0.1099876513459204 -0.33184672123507097 0 0.097439385224756148 -0.35863055169412428 0 0.1106248838783208 -0.38157348269894931 0 0.1141599048471436 -0.3681418826252098 0 0.097439385224756148 -0.35863055169412428 0 0.084891119103591969 -0.38541438215317808 0 0.097439385224756148 -0.35863055169412428 0 0.081316870879283631 -0.35585119535350818 0 0.084891119103591969 -0.38541438215317808 0 0.097439385224756148 -0.35863055169412428 0 0.084891119103591969 -0.38541438215317808 0 0.081316870879283631 -0.35585119535350818 0 0.097439385224756148 -0.35863055169412428 0 0.081316870879283631 -0.35585119535350818 0 0.092363845615028917 -0.33992129721124231 0 0.081316870879283631 -0.35585119535350818 0 0.064315356702640963 -0.350877254681356 0 0.06782406295469301 -0.36949420643551739 0 0.081316870879283631 -0.35585119535350818 0 0.064315356702640963 -0.350877254681356 0 0.068506724809757377 -0.33765957961285481 0 0.084891119103591969 -0.38541438215317808 0 0.081316870879283631 -0.35585119535350818 0 0.06782406295469301 -0.36949420643551739 0 0.078217872519126347 -0.31151569644733468 0 0.096005281744226623 -0.31663044985599548 0 0.077742622654975099 -0.32628800855383833 0 0.096005281744226623 -0.31663044985599548 0 0.092363845615028917 -0.33992129721124231 0 0.077742622654975099 -0.32628800855383833 0 0.081316870879283631 -0.35585119535350818 0 0.077742622654975099 -0.32628800855383833 0 0.081316870879283631 -0.35585119535350818 0 0.092363845615028917 -0.33992129721124231 0 0.077742622654975099 -0.32628800855383833 0 0.068506724809757377 -0.33765957961285481 0 0.066701558809471623 -0.32090873953307902 0 0.059642961455983037 -0.33095950216282582 0 0.081316870879283631 -0.35585119535350818 0 0.068506724809757377 -0.33765957961285481 0 0.077742622654975099 -0.32628800855383833 0 0.068506724809757377 -0.33765957961285481 0 0.066701558809471623 -0.32090873953307902 0 0.077742622654975099 -0.32628800855383833 0 0.064315356702640963 -0.350877254681356 0 0.068506724809757377 -0.33765957961285481 0 0.059432487380708249 -0.34040672863356802 0 0.068506724809757377 -0.33765957961285481 0 0.059642961455983037 -0.33095950216282582 0 0.059432487380708249 -0.34040672863356802 0 0.078217872519126347 -0.31151569644733468 0 0.066701558809471623 -0.32090873953307902 0 0.077742622654975099 -0.32628800855383833 0 0.063817375317457431 -0.30477948600428351 0 0.054644447341780589 -0.32324704855752312 0 0.054644447341780589 -0.32324704855752312 0 0.041499870232018253 -0.30296563316004782 0 0.063817375317457431 -0.30477948600428351 0 0.066701558809471623 -0.32090873953307902 0 0.054644447341780589 -0.32324704855752312 0 0.066701558809471623 -0.32090873953307902 0 0.054644447341780589 -0.32324704855752312 0 0.059642961455983037 -0.33095950216282582 0 0.054644447341780589 -0.32324704855752312 0 0.059642961455983037 -0.33095950216282582 0 0.054644447341780589 -0.32324704855752312 0 0.045264906554451603 -0.34213057807723551 0 0.054644447341780589 -0.32324704855752312 0 0.059642961455983037 -0.33095950216282582 0 0.045264906554451603 -0.34213057807723551 0 0.059642961455983037 -0.33095950216282582 0 0.059432487380708249 -0.34040672863356802 0 0.045264906554451603 -0.34213057807723551 0 0.054644447341780589 -0.32324704855752312 0 0.045264906554451603 -0.34213057807723551 0 0.040140744864733187 -0.32390902558463541 0 0.045264906554451603 -0.34213057807723551 0 0.040140744864733187 -0.32390902558463541 0 0.03058850917831683 -0.3353921702934794 0 0.045264906554451603 -0.34213057807723551 0 0.030521836224380629 -0.34950676597161212 0 0.03058850917831683 -0.3353921702934794 0 0.045264906554451603 -0.34213057807723551 0 0.03058850917831683 -0.3353921702934794 0 0.040140744864733187 -0.32390902558463541 0 0.02870599101710199 -0.31580969783488883 0 0.041499870232018253 -0.30296563316004782 0 0.040140744864733187 -0.32390902558463541 0 0.02870599101710199 -0.31580969783488883 0 0.03058850917831683 -0.3353921702934794 0 0.054644447341780589 -0.32324704855752312 0 0.040140744864733187 -0.32390902558463541 0 0.041499870232018253 -0.30296563316004782 0 0.064315356702640963 -0.350877254681356 0 0.06782406295469301 -0.36949420643551739 0 0.052032093678226449 -0.3583914386716146 0 0.059506659754293457 -0.38381876071976878 0 0.039433719932905509 -0.37976003089359689 0 0.052032093678226449 -0.3583914386716146 0 0.059506659754293457 -0.38381876071976878 0 0.06782406295469301 -0.36949420643551739 0 0.052032093678226449 -0.3583914386716146 0 0.064315356702640963 -0.350877254681356 0 0.045264906554451603 -0.34213057807723551 0 0.052032093678226449 -0.3583914386716146 0 0.064315356702640963 -0.350877254681356 0 0.045264906554451603 -0.34213057807723551 0 0.064315356702640963 -0.350877254681356 0 0.059432487380708249 -0.34040672863356802 0 0.045264906554451603 -0.34213057807723551 0 0.045264906554451603 -0.34213057807723551 0 0.052032093678226449 -0.3583914386716146 0 0.031974192648489289 -0.36888834736165232 0 0.045264906554451603 -0.34213057807723551 0 0.031974192648489289 -0.36888834736165232 0 0.030521836224380629 -0.34950676597161212 0 0.045264906554451603 -0.34213057807723551 0 0.031974192648489289 -0.36888834736165232 0 0.039433719932905509 -0.37976003089359689 0 0.052032093678226449 -0.3583914386716146 0 0.031974192648489289 -0.36888834736165232 0 0.039433719932905509 -0.37976003089359689 0 0.052032093678226449 -0.3583914386716146 0 0.0199608439284076 -0.37814746090732843 0 0.020174094496002468 -0.36648510994515349 0 0.015100801928300231 -0.37404933528064849 0 0.0199608439284076 -0.37814746090732843 0 0.031974192648489289 -0.36888834736165232 0 0.020174094496002468 -0.36648510994515349 0 0.031974192648489289 -0.36888834736165232 0 0.020174094496002468 -0.36648510994515349 0 0.023539323401478431 -0.35664888297460789 0 0.020174094496002468 -0.36648510994515349 0 0.023539323401478431 -0.35664888297460789 0 0.015097239775369821 -0.35550889693599341 0 0.031974192648489289 -0.36888834736165232 0 0.023539323401478431 -0.35664888297460789 0 0.030521836224380629 -0.34950676597161212 0 0.023539323401478431 -0.35664888297460789 0 0.015097239775369821 -0.35550889693599341 0 0.019929253863149959 -0.34285529465862807 0 0.023539323401478431 -0.35664888297460789 0 0.030521836224380629 -0.34950676597161212 0 0.019929253863149959 -0.34285529465862807 0 0.0093498372613402478 -0.34625115421367919 0 0.015097239775369821 -0.35550889693599341 0 0.019929253863149959 -0.34285529465862807 0 -0.0015223315641915371 -0.34974098354736799 0 0.0093498372613402478 -0.34625115421367919 0 0.001547595890080177 -0.34062457432859128 0 -0.0015223315641915371 -0.34974098354736799 0 0.0093498372613402478 -0.34625115421367919 0 0.005754466380193504 -0.3554018564948157 0 -0.0015223315641915371 -0.34974098354736799 0 -0.0028135983845018649 -0.3602934208782837 0 0.005754466380193504 -0.3554018564948157 0 0.0093498372613402478 -0.34625115421367919 0 0.005754466380193504 -0.3554018564948157 0 0.015097239775369821 -0.35550889693599341 0 0.005754466380193504 -0.3554018564948157 0 0.015097239775369821 -0.35550889693599341 0 0.00866118481295086 -0.36521482689875417 0 0.020174094496002468 -0.36648510994515349 0 0.015097239775369821 -0.35550889693599341 0 0.00866118481295086 -0.36521482689875417 0 -0.0028135983845018649 -0.3602934208782837 0 -0.0033357649270666289 -0.36992112802659999 0 0.00866118481295086 -0.36521482689875417 0 -0.0028135983845018649 -0.3602934208782837 0 0.005754466380193504 -0.3554018564948157 0 0.00866118481295086 -0.36521482689875417 0 -0.0033357649270666289 -0.36992112802659999 0 0.0044794117490076267 -0.37804111952204511 0 0.00866118481295086 -0.36521482689875417 0 0.0044794117490076267 -0.37804111952204511 0 0.00866118481295086 -0.36521482689875417 0 0.015100801928300231 -0.37404933528064849 0 0.020174094496002468 -0.36648510994515349 0 0.00866118481295086 -0.36521482689875417 0 0.015100801928300231 -0.37404933528064849 0 0.02870599101710199 -0.31580969783488883 0 0.015912111802181189 -0.32865376250972522 0 0.013541534959394591 -0.3120867980861658 0 0.02870599101710199 -0.31580969783488883 0 0.03058850917831683 -0.3353921702934794 0 0.015912111802181189 -0.32865376250972522 0 0.02870599101710199 -0.31580969783488883 0 0.015912111802181189 -0.32865376250972522 0 0.030521836224380629 -0.34950676597161212 0 0.03058850917831683 -0.3353921702934794 0 0.019929253863149959 -0.34285529465862807 0 0.03058850917831683 -0.3353921702934794 0 0.019929253863149959 -0.34285529465862807 0 0.015912111802181189 -0.32865376250972522 0 0.03058850917831683 -0.3353921702934794 0 0.015912111802181189 -0.32865376250972522 0 0.019929253863149959 -0.34285529465862807 0 0.015912111802181189 -0.32865376250972522 0 0.009450680032491901 -0.33514053998728371 0 -0.0067154017777816969 -0.33441449113079758 0 0.009450680032491901 -0.33514053998728371 0 0.001547595890080177 -0.34062457432859128 0 0.015912111802181189 -0.32865376250972522 0 0.009450680032491901 -0.33514053998728371 0 0.0093498372613402478 -0.34625115421367919 0 0.019929253863149959 -0.34285529465862807 0 0.009450680032491901 -0.33514053998728371 0 0.0093498372613402478 -0.34625115421367919 0 0.009450680032491901 -0.33514053998728371 0 0.001547595890080177 -0.34062457432859128 0 -0.0067861278665100116 -0.31823226798751969 0 0.015912111802181189 -0.32865376250972522 0 0.009450680032491901 -0.33514053998728371 0 -0.0067861278665100116 -0.31823226798751969 0 0.015912111802181189 -0.32865376250972522 0 0.013541534959394591 -0.3120867980861658 0 -0.0067861278665100116 -0.31823226798751969 0 0.015912111802181189 -0.32865376250972522 0 -0.0067861278665100116 -0.31823226798751969 0 0.013541534959394591 -0.3120867980861658 0 0.0064242334297343467 -0.29596416480486287 0 0.013541534959394591 -0.3120867980861658 0 0.0064242334297343467 -0.29596416480486287 0 0.023451466414464928 -0.30177409729383198 0 0.0064242334297343467 -0.29596416480486287 0 0.026916034486233451 -0.28046351472908271 0 0.0083501829783922451 -0.27651919851405921 0 -0.0096051494108007045 -0.28267180051718732 0 0.0064242334297343467 -0.29596416480486287 0 0.0083501829783922451 -0.27651919851405921 0 0.023451466414464928 -0.30177409729383198 0 0.041499870232018253 -0.30296563316004782 0 0.026916034486233451 -0.28046351472908271 0 0.0064242334297343467 -0.29596416480486287 0 0.023451466414464928 -0.30177409729383198 0 0.026916034486233451 -0.28046351472908271 0 0.02870599101710199 -0.31580969783488883 0 0.023451466414464928 -0.30177409729383198 0 0.041499870232018253 -0.30296563316004782 0 0.02870599101710199 -0.31580969783488883 0 0.013541534959394591 -0.3120867980861658 0 0.023451466414464928 -0.30177409729383198 0 0.02870599101710199 -0.31580969783488883 0 0.041499870232018253 -0.30296563316004782 0 0.041499870232018253 -0.30296563316004782 0 0.026916034486233451 -0.28046351472908271 0 0.053814987747715877 -0.29060220818216709 0 0.051633558407507552 -0.27594676249859312 0 0.026916034486233451 -0.28046351472908271 0 0.041499870232018253 -0.30296563316004782 0 0.053814987747715877 -0.29060220818216709 0 0.026916034486233451 -0.28046351472908271 0 0.041499870232018253 -0.30296563316004782 0 0.053814987747715877 -0.29060220818216709 0 0.066130105263409497 -0.27823878320428241 0 0.053814987747715877 -0.29060220818216709 0 0.051633558407507552 -0.27594676249859312 0 0.066130105263409497 -0.27823878320428241 0 0.053814987747715877 -0.29060220818216709 0 0.063817375317457431 -0.30477948600428351 0 0.054644447341780589 -0.32324704855752312 0 0.041499870232018253 -0.30296563316004782 0 0.063817375317457431 -0.30477948600428351 0 0.041499870232018253 -0.30296563316004782 0 0.053814987747715877 -0.29060220818216709 0 0.063817817577672978 -0.26399450254385359 0 0.055183696251658518 -0.25303663434309842 0 0.045640254096049049 -0.26379025991284488 0 0.063817817577672978 -0.26399450254385359 0 0.051633558407507552 -0.27594676249859312 0 0.045640254096049049 -0.26379025991284488 0 0.066130105263409497 -0.27823878320428241 0 0.063817817577672978 -0.26399450254385359 0 0.051633558407507552 -0.27594676249859312 0 0.032539781499751723 -0.25404075076945298 0 0.045640254096049049 -0.26379025991284488 0 0.026916034486233451 -0.28046351472908271 0 0.051633558407507552 -0.27594676249859312 0 0.045640254096049049 -0.26379025991284488 0 0.026916034486233451 -0.28046351472908271 0 0.055183696251658518 -0.25303663434309842 0 0.032539781499751723 -0.25404075076945298 0 0.045640254096049049 -0.26379025991284488 0 0.032539781499751723 -0.25404075076945298 0 0.026916034486233451 -0.28046351472908271 0 0.01233219874044964 -0.25796139629811699 0 0.032539781499751723 -0.25404075076945298 0 0.01233219874044964 -0.25796139629811699 0 0.016600620780175521 -0.2438261021663011 0 0.026916034486233451 -0.28046351472908271 0 0.01233219874044964 -0.25796139629811699 0 0.026916034486233451 -0.28046351472908271 0 0.0083501829783922451 -0.27651919851405921 0 0.01233219874044964 -0.25796139629811699 0 -0.011198362974849069 -0.26002926692598732 0 0.0083501829783922451 -0.27651919851405921 0 0.01233219874044964 -0.25796139629811699 0 -0.0022516370053341471 -0.23545927786715129 0 0.01233219874044964 -0.25796139629811699 0 0.016600620780175521 -0.2438261021663011 0 -0.0022516370053341471 -0.23545927786715129 0 0.01233219874044964 -0.25796139629811699 0 -0.0022516370053341471 -0.23545927786715129 0 0.013589907484996789 -0.23397368759022269 0 0.016600620780175521 -0.2438261021663011 0 0.00516441215593446 -0.22158586113786161 0 0.013589907484996789 -0.23397368759022269 0 0.027164297062989971 -0.23021456283953329 0 -0.0022516370053341471 -0.23545927786715129 0 0.00516441215593446 -0.22158586113786161 0 0.013589907484996789 -0.23397368759022269 0 0.013589907484996789 -0.23397368759022269 0 0.024069389822136269 -0.23437178289753319 0 0.027164297062989971 -0.23021456283953329 0 0.00516441215593446 -0.22158586113786161 0 0.027164297062989971 -0.23021456283953329 0 0.00516441215593446 -0.22158586113786161 0 0.027164297062989971 -0.23021456283953329 0 0.024747751308568371 -0.2138284276952333 0 0.024069389822136269 -0.23437178289753319 0 0.027164297062989971 -0.23021456283953329 0 0.032539781499751723 -0.25404075076945298 0 0.027391867337964931 -0.2409802321634914 0 0.016600620780175521 -0.2438261021663011 0 0.024069389822136269 -0.23437178289753319 0 0.027164297062989971 -0.23021456283953329 0 0.027391867337964931 -0.2409802321634914 0 0.013589907484996789 -0.23397368759022269 0 0.024069389822136269 -0.23437178289753319 0 0.018849388279327289 -0.238048008125437 0 0.027391867337964931 -0.2409802321634914 0 0.016600620780175521 -0.2438261021663011 0 0.018849388279327289 -0.238048008125437 0 0.024069389822136269 -0.23437178289753319 0 0.027391867337964931 -0.2409802321634914 0 0.018849388279327289 -0.238048008125437 0 0.013589907484996789 -0.23397368759022269 0 0.016600620780175521 -0.2438261021663011 0 0.018849388279327289 -0.238048008125437 0 -0.001925340291015288 -0.20597243848106289 0 0.0059444003428096122 -0.19443651352465419 0 0.01441767558215663 -0.20473410908836079 0 0.0059444003428096122 -0.19443651352465419 0 0.01441767558215663 -0.20473410908836079 0 0.020406164064357399 -0.1841802310791234 0 -0.0055764814704000994 -0.19390034300100201 0 0.0059444003428096122 -0.19443651352465419 0 0.002399983828949417 -0.1833954459737217 0 0.00516441215593446 -0.22158586113786161 0 0.01441767558215663 -0.20473410908836079 0 0.024747751308568371 -0.2138284276952333 0 -0.001925340291015288 -0.20597243848106289 0 0.00516441215593446 -0.22158586113786161 0 0.01441767558215663 -0.20473410908836079 0 0.01441767558215663 -0.20473410908836079 0 0.024747751308568371 -0.2138284276952333 0 0.03327679810861317 -0.20462546945421969 0 0.01441767558215663 -0.20473410908836079 0 0.03327679810861317 -0.20462546945421969 0 0.020406164064357399 -0.1841802310791234 0 0.03327679810861317 -0.20462546945421969 0 0.020406164064357399 -0.1841802310791234 0 0.043715573633147757 -0.20798213595619069 0 0.066433864224619443 -0.22955255322643911 0 0.075286666364776322 -0.21135119919371381 0 0.043715573633147757 -0.20798213595619069 0 0.075286666364776322 -0.21135119919371381 0 0.060266850203306632 -0.18574970907284891 0 0.043551400628142722 -0.1905827735090099 0 0.043715573633147757 -0.20798213595619069 0 0.03327679810861317 -0.20462546945421969 0 0.043551400628142722 -0.1905827735090099 0 0.03327679810861317 -0.20462546945421969 0 0.020406164064357399 -0.1841802310791234 0 0.027164297062989971 -0.23021456283953329 0 0.024747751308568371 -0.2138284276952333 0 0.043715573633147757 -0.20798213595619069 0 0.024747751308568371 -0.2138284276952333 0 0.043715573633147757 -0.20798213595619069 0 0.03327679810861317 -0.20462546945421969 0 0.043715573633147757 -0.20798213595619069 0 0.060266850203306632 -0.18574970907284891 0 0.043551400628142722 -0.1905827735090099 0 0.043715573633147757 -0.20798213595619069 0 0.060266850203306632 -0.18574970907284891 0 0.027164297062989971 -0.23021456283953329 0 0.049682213695777758 -0.239046444751113 0 0.055183696251658518 -0.25303663434309842 0 0.032539781499751723 -0.25404075076945298 0 0.049682213695777758 -0.239046444751113 0 0.032539781499751723 -0.25404075076945298 0 0.027391867337964931 -0.2409802321634914 0 0.049682213695777758 -0.239046444751113 0 0.027164297062989971 -0.23021456283953329 0 0.027391867337964931 -0.2409802321634914 0 0.049682213695777758 -0.239046444751113 0 0.027164297062989971 -0.23021456283953329 0 0.045524759639698327 -0.22602142180822399 0 0.049682213695777758 -0.239046444751113 0 0.027164297062989971 -0.23021456283953329 0 0.043715573633147757 -0.20798213595619069 0 0.045524759639698327 -0.22602142180822399 0 0.027164297062989971 -0.23021456283953329 0 0.043715573633147757 -0.20798213595619069 0 0.045524759639698327 -0.22602142180822399 0 0.049682213695777758 -0.239046444751113 0 0.066433864224619443 -0.22955255322643911 0 0.043715573633147757 -0.20798213595619069 0 0.045524759639698327 -0.22602142180822399 0 0.066433864224619443 -0.22955255322643911 0 0.055183696251658518 -0.25303663434309842 0 0.049682213695777758 -0.239046444751113 0 0.07220013032856569 -0.24787832666269219 0 0.049682213695777758 -0.239046444751113 0 0.07220013032856569 -0.24787832666269219 0 0.049682213695777758 -0.239046444751113 0 0.07220013032856569 -0.24787832666269219 0 0.066433864224619443 -0.22955255322643911 0 0.07220013032856569 -0.24787832666269219 0 0.084314214978317537 -0.2428693979819283 0 0.066433864224619443 -0.22955255322643911 0 0.094718046961353636 -0.25671020857427151 0 0.084314214978317537 -0.2428693979819283 0 0.095074496802440372 -0.23203108202832981 0 0.094718046961353636 -0.25671020857427151 0 0.07220013032856569 -0.24787832666269219 0 0.084314214978317537 -0.2428693979819283 0 0.084314214978317537 -0.2428693979819283 0 0.066433864224619443 -0.22955255322643911 0 0.095074496802440372 -0.23203108202832981 0 0.075286666364776322 -0.21135119919371381 0 0.097686837403892057 -0.21452992075073321 0 0.095074496802440372 -0.23203108202832981 0 0.066433864224619443 -0.22955255322643911 0 0.075286666364776322 -0.21135119919371381 0 0.095074496802440372 -0.23203108202832981 0 0.075286666364776322 -0.21135119919371381 0 0.087760926508662587 -0.19238387459730519 0 0.060266850203306632 -0.18574970907284891 0 0.075286666364776322 -0.21135119919371381 0 0.087760926508662587 -0.19238387459730519 0 0.097686837403892057 -0.21452992075073321 0 0.097686837403892057 -0.21452992075073321 0 0.1126936240065689 -0.20496527461247269 0 0.1176184733370121 -0.23191817332184439 0 0.087760926508662587 -0.19238387459730519 0 0.097686837403892057 -0.21452992075073321 0 0.1126936240065689 -0.20496527461247269 0 0.087760926508662587 -0.19238387459730519 0 0.1126936240065689 -0.20496527461247269 0 0.1064639977268812 -0.17416254832924741 0 0.12445294243825961 -0.18866003707216661 0 0.1126936240065689 -0.20496527461247269 0 0.1064639977268812 -0.17416254832924741 0 0.1126936240065689 -0.20496527461247269 0 0.1176184733370121 -0.23191817332184439 0 0.13828204630013549 -0.22505607868865191 0 0.1168930510602708 -0.2540822323424185 0 0.1176184733370121 -0.23191817332184439 0 0.095074496802440372 -0.23203108202832981 0 0.094718046961353636 -0.25671020857427151 0 0.1168930510602708 -0.2540822323424185 0 0.095074496802440372 -0.23203108202832981 0 0.097686837403892057 -0.21452992075073321 0 0.1176184733370121 -0.23191817332184439 0 0.095074496802440372 -0.23203108202832981 0 0.095876383054008335 -0.13791736622622169 0 0.093369403343623425 -0.141284855306164 0 0.095876383054008335 -0.13791736622622169 0 0.1038010533135581 -0.1284997878773107 0 0.12103757227390929 -0.13449858459586281 0 0.12103757227390929 -0.13449858459586281 0 0.093369403343623425 -0.141284855306164 0 0.095876383054008335 -0.13791736622622169 0 0.12103757227390929 -0.13449858459586281 0 0.093369403343623425 -0.141284855306164 0 0.1038010533135581 -0.1284997878773107 0 0.093114899591683717 -0.12922117103356251 0 0.097816358448213458 -0.1185436401303937 0 0.095876383054008335 -0.13791736622622169 0 0.1038010533135581 -0.1284997878773107 0 0.093114899591683717 -0.12922117103356251 0 0.1038010533135581 -0.1284997878773107 0 0.12103757227390929 -0.13449858459586281 0 0.11425079482998921 -0.1220801878969625 0 0.12103757227390929 -0.13449858459586281 0 0.11425079482998921 -0.1220801878969625 0 0.13313604000000179 -0.1187498414797455 0 0.12103757227390929 -0.13449858459586281 0 0.1196510837692747 -0.1546236582820544 0 0.093369403343623425 -0.141284855306164 0 0.1196510837692747 -0.1546236582820544 0 0.1064639977268812 -0.17416254832924741 0 0.13795597834963799 -0.17348837310841561 0 0.1196510837692747 -0.1546236582820544 0 0.1064639977268812 -0.17416254832924741 0 0.093369403343623425 -0.141284855306164 0 0.12445294243825961 -0.18866003707216661 0 0.1064639977268812 -0.17416254832924741 0 0.13795597834963799 -0.17348837310841561 0 0.1064639977268812 -0.17416254832924741 0 0.076818126773465584 -0.1635172821895069 0 0.093369403343623425 -0.141284855306164 0 0.087760926508662587 -0.19238387459730519 0 0.1064639977268812 -0.17416254832924741 0 0.076818126773465584 -0.1635172821895069 0 0.087760926508662587 -0.19238387459730519 0 0.076818126773465584 -0.1635172821895069 0 0.060266850203306632 -0.18574970907284891 0 0.06575547048096006 -0.17647732794910631 0 0.076818126773465584 -0.1635172821895069 0 0.060266850203306632 -0.18574970907284891 0 0.076818126773465584 -0.1635172821895069 0 0.060266850203306632 -0.18574970907284891 0 0.06575547048096006 -0.17647732794910631 0 0.076818126773465584 -0.1635172821895069 0 0.065206332211953641 -0.15160435205423409 0 0.06575547048096006 -0.17647732794910631 0 0.065206332211953641 -0.15160435205423409 0 0.058287276630413179 -0.16525613218557589 0 0.06575547048096006 -0.17647732794910631 0 0.065206332211953641 -0.15160435205423409 0 0.065206332211953641 -0.15160435205423409 0 0.082922905642224043 -0.14384710514477159 0 0.076796165647855436 -0.1366523813903586 0 0.076818126773465584 -0.1635172821895069 0 0.065206332211953641 -0.15160435205423409 0 0.082922905642224043 -0.14384710514477159 0 0.076818126773465584 -0.1635172821895069 0 0.093369403343623425 -0.141284855306164 0 0.076818126773465584 -0.1635172821895069 0 0.082922905642224043 -0.14384710514477159 0 0.093369403343623425 -0.141284855306164 0 0.082922905642224043 -0.14384710514477159 0 0.093369403343623425 -0.141284855306164 0 0.093114899591683717 -0.12922117103356251 0 0.088637787377492394 -0.1351454054907274 0 0.082556609064659892 -0.12593366810269829 0 0.095876383054008335 -0.13791736622622169 0 0.093114899591683717 -0.12922117103356251 0 0.088637787377492394 -0.1351454054907274 0 0.082922905642224043 -0.14384710514477159 0 0.093369403343623425 -0.141284855306164 0 0.088637787377492394 -0.1351454054907274 0 0.095876383054008335 -0.13791736622622169 0 0.093369403343623425 -0.141284855306164 0 0.088637787377492394 -0.1351454054907274 0 0.082922905642224043 -0.14384710514477159 0 0.088637787377492394 -0.1351454054907274 0 0.076796165647855436 -0.1366523813903586 0 0.088637787377492394 -0.1351454054907274 0 0.082556609064659892 -0.12593366810269829 0 0.076796165647855436 -0.1366523813903586 0 0.065206332211953641 -0.15160435205423409 0 0.064657193942947222 -0.12673137615936181 0 0.082556609064659892 -0.12593366810269829 0 0.064657193942947222 -0.12673137615936181 0 0.076796165647855436 -0.1366523813903586 0 0.065206332211953641 -0.15160435205423409 0 0.064657193942947222 -0.12673137615936181 0 0.076796165647855436 -0.1366523813903586 0 0.065206332211953641 -0.15160435205423409 0 0.064657193942947222 -0.12673137615936181 0 0.0497315053264063 -0.1394096352052617 0 0.064657193942947222 -0.12673137615936181 0 0.0497315053264063 -0.1394096352052617 0 0.047015136166289932 -0.1197336564685952 0 0.065206332211953641 -0.15160435205423409 0 0.0497315053264063 -0.1394096352052617 0 0.051584975912537398 -0.15850952596866441 0 0.0497315053264063 -0.1394096352052617 0 0.035550832476936987 -0.14675511144601541 0 0.051584975912537398 -0.15850952596866441 0 0.035550832476936987 -0.14675511144601541 0 0.037070716230217002 -0.16349682116873421 0 0.023949957001980909 -0.15295255365609969 0 0.0497315053264063 -0.1394096352052617 0 0.035550832476936987 -0.14675511144601541 0 0.035501928831764507 -0.13098017151552019 0 0.0497315053264063 -0.1394096352052617 0 0.035501928831764507 -0.13098017151552019 0 0.047015136166289932 -0.1197336564685952 0 0.043551400628142722 -0.1905827735090099 0 0.060266850203306632 -0.18574970907284891 0 0.050602327916201603 -0.17443332277029869 0 0.06575547048096006 -0.17647732794910631 0 0.050602327916201603 -0.17443332277029869 0 0.058287276630413179 -0.16525613218557589 0 0.06575547048096006 -0.17647732794910631 0 0.060266850203306632 -0.18574970907284891 0 0.050602327916201603 -0.17443332277029869 0 0.050602327916201603 -0.17443332277029869 0 0.058287276630413179 -0.16525613218557589 0 0.051584975912537398 -0.15850952596866441 0 0.065206332211953641 -0.15160435205423409 0 0.058287276630413179 -0.16525613218557589 0 0.051584975912537398 -0.15850952596866441 0 0.035550832476936987 -0.14675511144601541 0 0.051584975912537398 -0.15850952596866441 0 0.037070716230217002 -0.16349682116873421 0 0.050602327916201603 -0.17443332277029869 0 0.051584975912537398 -0.15850952596866441 0 0.037070716230217002 -0.16349682116873421 0 0.050602327916201603 -0.17443332277029869 0 0.037070716230217002 -0.16349682116873421 0 0.034803477327108548 -0.17601655121638721 0 0.037070716230217002 -0.16349682116873421 0 0.034803477327108548 -0.17601655121638721 0 0.022386777796624079 -0.16738960755476931 0 0.043551400628142722 -0.1905827735090099 0 0.050602327916201603 -0.17443332277029869 0 0.034803477327108548 -0.17601655121638721 0 0.043551400628142722 -0.1905827735090099 0 0.034803477327108548 -0.17601655121638721 0 0.020406164064357399 -0.1841802310791234 0 0.034803477327108548 -0.17601655121638721 0 0.020406164064357399 -0.1841802310791234 0 0.022386777796624079 -0.16738960755476931 0 0.020406164064357399 -0.1841802310791234 0 0.022386777796624079 -0.16738960755476931 0 0.0075355300201016672 -0.16373499270402719 0 0.037070716230217002 -0.16349682116873421 0 0.022386777796624079 -0.16738960755476931 0 0.023949957001980909 -0.15295255365609969 0 0.022386777796624079 -0.16738960755476931 0 0.00966990576636945 -0.16202334876295429 0 0.023949957001980909 -0.15295255365609969 0 0.00966990576636945 -0.16202334876295429 0 0.0075355300201016672 -0.16373499270402719 0 0.0075410892702097313 -0.15151417421736821 0 -0.0034622320605035388 -0.15995017327122979 0 -0.00059843098376162549 -0.1664542859823821 0 0.0075355300201016672 -0.16373499270402719 0 -0.00059843098376162549 -0.1664542859823821 0 0.0075355300201016672 -0.16373499270402719 0 0.0046798418731774814 -0.1740902648174221 0 0.022386777796624079 -0.16738960755476931 0 0.00966990576636945 -0.16202334876295429 0 0.0075355300201016672 -0.16373499270402719 0 0.020406164064357399 -0.1841802310791234 0 0.0046798418731774814 -0.1740902648174221 0 0.002399983828949417 -0.1833954459737217 0 0.020406164064357399 -0.1841802310791234 0 0.0075355300201016672 -0.16373499270402719 0 0.0046798418731774814 -0.1740902648174221 0 0.0059444003428096122 -0.19443651352465419 0 0.020406164064357399 -0.1841802310791234 0 0.002399983828949417 -0.1833954459737217 0 0.020406164064357399 -0.1841802310791234 0 0.0075355300201016672 -0.16373499270402719 0 -0.0042276626384493404 -0.17282719865605081 0 0.0046798418731774814 -0.1740902648174221 0 0.002399983828949417 -0.1833954459737217 0 0.035501928831764507 -0.13098017151552019 0 0.018294025318519591 -0.137008601073561 0 0.026918144870669729 -0.1119938533841677 0 0.035550832476936987 -0.14675511144601541 0 0.035501928831764507 -0.13098017151552019 0 0.018294025318519591 -0.137008601073561 0 0.035550832476936987 -0.14675511144601541 0 0.018294025318519591 -0.137008601073561 0 0.023949957001980909 -0.15295255365609969 0 0.00966990576636945 -0.16202334876295429 0 0.018294025318519591 -0.137008601073561 0 0.023949957001980909 -0.15295255365609969 0 -0.0053351040241528189 -0.1432897543289301 0 0.018294025318519591 -0.137008601073561 0 0.0075410892702097313 -0.15151417421736821 0 -0.0053351040241528189 -0.1432897543289301 0 0.0075355300201016672 -0.16373499270402719 0 0.00966990576636945 -0.16202334876295429 0 0.018294025318519591 -0.137008601073561 0 0.00966990576636945 -0.16202334876295429 0 0.018294025318519591 -0.137008601073561 0 0.0075410892702097313 -0.15151417421736821 0 -0.0053351040241528189 -0.1432897543289301 0 0.0075355300201016672 -0.16373499270402719 0 0.0075410892702097313 -0.15151417421736821 0 -0.0053351040241528189 -0.1432897543289301 0 0.018294025318519591 -0.137008601073561 0 0.0018285725693265691 -0.1158453776751463 0 0.018294025318519591 -0.137008601073561 0 0.026918144870669729 -0.1119938533841677 0 0.018294025318519591 -0.137008601073561 0 0.0018285725693265691 -0.1158453776751463 0 0.026918144870669729 -0.1119938533841677 0 0.026918144870669729 -0.1119938533841677 0 0.021538040343900711 -0.097475175783873297 0 0.035542264422819873 -0.086979105694774475 0 0.026918144870669729 -0.1119938533841677 0 0.035542264422819873 -0.086979105694774475 0 0.0018285725693265691 -0.1158453776751463 0 0.026918144870669729 -0.1119938533841677 0 0.021538040343900711 -0.097475175783873297 0 0.0018285725693265691 -0.1158453776751463 0 0.021538040343900711 -0.097475175783873297 0 0.0089922491628055441 -0.088401001021362557 0 0.0018285725693265691 -0.1158453776751463 0 0.0089922491628055441 -0.088401001021362557 0 -0.0033480317749526489 -0.083631419035902738 0 0.0089922491628055441 -0.088401001021362557 0 0.00059150691515684006 -0.073338185880521253 0 0.0089922491628055441 -0.088401001021362557 0 0.016155127557779449 -0.060959682302998502 0 -0.0090160515042696371 -0.060056871246355968 0 0.00059150691515684006 -0.073338185880521253 0 0.016155127557779449 -0.060959682302998502 0 0.0089922491628055441 -0.088401001021362557 0 0.00059150691515684006 -0.073338185880521253 0 0.016155127557779449 -0.060959682302998502 0 0.0089922491628055441 -0.088401001021362557 0 0.026580525248814341 -0.082835815484872177 0 0.016155127557779449 -0.060959682302998502 0 0.026580525248814341 -0.082835815484872177 0 0.016155127557779449 -0.060959682302998502 0 0.044166383974970191 -0.061964358005381331 0 0.0089922491628055441 -0.088401001021362557 0 0.026580525248814341 -0.082835815484872177 0 0.021538040343900711 -0.097475175783873297 0 0.0089922491628055441 -0.088401001021362557 0 0.026580525248814341 -0.082835815484872177 0 0.021538040343900711 -0.097475175783873297 0 0.026580525248814341 -0.082835815484872177 0 0.035542264422819873 -0.086979105694774475 0 0.035542264422819873 -0.086979105694774475 0 0.050119115213238211 -0.075546792739643986 0 0.050783312895200439 -0.088883092986381487 0 0.035542264422819873 -0.086979105694774475 0 0.050783312895200439 -0.088883092986381487 0 0.044844145198603982 -0.10213678687494469 0 0.035542264422819873 -0.086979105694774475 0 0.050119115213238211 -0.075546792739643986 0 0.044166383974970191 -0.061964358005381331 0 0.035542264422819873 -0.086979105694774475 0 0.044166383974970191 -0.061964358005381331 0 0.026580525248814341 -0.082835815484872177 0 0.035542264422819873 -0.086979105694774475 0 0.044166383974970191 -0.061964358005381331 0 0.050119115213238211 -0.075546792739643986 0 0.070197783827657942 -0.06289802247731667 0 0.063558917404934384 -0.076985424369617514 0 0.050119115213238211 -0.075546792739643986 0 0.044166383974970191 -0.061964358005381331 0 0.070197783827657942 -0.06289802247731667 0 0.050783312895200439 -0.088883092986381487 0 0.064108055673940803 -0.1018584002644896 0 0.063558917404934384 -0.076985424369617514 0 0.050119115213238211 -0.075546792739643986 0 0.050783312895200439 -0.088883092986381487 0 0.063558917404934384 -0.076985424369617514 0 0.047015136166289932 -0.1197336564685952 0 0.044844145198603982 -0.10213678687494469 0 0.064108055673940803 -0.1018584002644896 0 0.050783312895200439 -0.088883092986381487 0 0.044844145198603982 -0.10213678687494469 0 0.064108055673940803 -0.1018584002644896 0 0.064657193942947222 -0.12673137615936181 0 0.047015136166289932 -0.1197336564685952 0 0.064108055673940803 -0.1018584002644896 0 0.026918144870669729 -0.1119938533841677 0 0.047015136166289932 -0.1197336564685952 0 0.044844145198603982 -0.10213678687494469 0 0.035501928831764507 -0.13098017151552019 0 0.026918144870669729 -0.1119938533841677 0 0.047015136166289932 -0.1197336564685952 0 0.026918144870669729 -0.1119938533841677 0 0.035542264422819873 -0.086979105694774475 0 0.044844145198603982 -0.10213678687494469 0 0.03375457624651311 0.01395544178252218 0 0.01932606870023575 -0.0069925833104134546 0 0.033591006718873592 -0.0077061067195627808 0 0.01932606870023575 -0.0069925833104134546 0 0.025587927957985639 -0.024822187302329279 0 0.033591006718873592 -0.0077061067195627808 0 -0.0089960230977084721 -0.01103573319387138 0 0.01932606870023575 -0.0069925833104134546 0 0.0048975611539584241 -0.02794060840334903 0 -0.0089960230977084721 -0.01103573319387138 0 0.0045792914518202627 0.0040950445345904066 0 0.01932606870023575 -0.0069925833104134546 0 0.01932606870023575 -0.0069925833104134546 0 0.0048975611539584241 -0.02794060840334903 0 0.01932606870023575 -0.0069925833104134546 0 0.0048975611539584241 -0.02794060840334903 0 0.025587927957985639 -0.024822187302329279 0 0.025587927957985639 -0.024822187302329279 0 0.020871527757882331 -0.042890934802663878 0 0.025587927957985639 -0.024822187302329279 0 0.020871527757882331 -0.042890934802663878 0 0.037137593241085953 -0.037563091101880233 0 0.0048975611539584241 -0.02794060840334903 0 0.025587927957985639 -0.024822187302329279 0 0.020871527757882331 -0.042890934802663878 0 0.0048975611539584241 -0.02794060840334903 0 0.020871527757882331 -0.042890934802663878 0 0.006416996219338977 -0.04196135671321212 0 0.020871527757882331 -0.042890934802663878 0 0.006416996219338977 -0.04196135671321212 0 0.0048162015510652464 -0.051653981403253703 0 -0.0095309463923188946 -0.048888633496284598 0 0.0048975611539584241 -0.02794060840334903 0 0.006416996219338977 -0.04196135671321212 0 -0.0090160515042696371 -0.060056871246355968 0 0.016155127557779449 -0.060959682302998502 0 0.020871527757882331 -0.042890934802663878 0 0.0048162015510652464 -0.051653981403253703 0 0.016155127557779449 -0.060959682302998502 0 -0.0090160515042696371 -0.060056871246355968 0 0.0048162015510652464 -0.051653981403253703 0 0.016155127557779449 -0.060959682302998502 0 -0.0095309463923188946 -0.048888633496284598 0 0.006416996219338977 -0.04196135671321212 0 0.0048162015510652464 -0.051653981403253703 0 0.016155127557779449 -0.060959682302998502 0 0.044166383974970191 -0.061964358005381331 0 0.020871527757882331 -0.042890934802663878 0 0.016155127557779449 -0.060959682302998502 0 0.020871527757882331 -0.042890934802663878 0 0.016155127557779449 -0.060959682302998502 0 0.044166383974970191 -0.061964358005381331 0 0.020871527757882331 -0.042890934802663878 0 0.044166383974970191 -0.061964358005381331 0 0.037137593241085953 -0.037563091101880233 0 0.044166383974970191 -0.061964358005381331 0 0.052372507828567699 -0.038162030537126218 0 0.069309366202516598 -0.044747604553126603 0 0.044166383974970191 -0.061964358005381331 0 0.052372507828567699 -0.038162030537126218 0 0.044166383974970191 -0.061964358005381331 0 0.070197783827657942 -0.06289802247731667 0 0.044166383974970191 -0.061964358005381331 0 0.069309366202516598 -0.044747604553126603 0 0.070197783827657942 -0.06289802247731667 0 0.052372507828567699 -0.038162030537126218 0 0.037137593241085953 -0.037563091101880233 0 0.042689618686023882 -0.019975944861900422 0 0.044166383974970191 -0.061964358005381331 0 0.052372507828567699 -0.038162030537126218 0 0.037137593241085953 -0.037563091101880233 0 0.025587927957985639 -0.024822187302329279 0 0.042689618686023882 -0.019975944861900422 0 0.033591006718873592 -0.0077061067195627808 0 0.025587927957985639 -0.024822187302329279 0 0.037137593241085953 -0.037563091101880233 0 0.042689618686023882 -0.019975944861900422 0 0.052372507828567699 -0.038162030537126218 0 0.060578631682165429 -0.01435970306887116 0 0.052372507828567699 -0.038162030537126218 0 0.042689618686023882 -0.019975944861900422 0 0.060578631682165429 -0.01435970306887116 0 0.06175221594896229 0.0069685432474568291 0 0.060578631682165429 -0.01435970306887116 0 0.046596842003609563 -0.00069525990569292847 0 0.042689618686023882 -0.019975944861900422 0 0.060578631682165429 -0.01435970306887116 0 0.046596842003609563 -0.00069525990569292847 0 0.042689618686023882 -0.019975944861900422 0 0.046596842003609563 -0.00069525990569292847 0 0.033591006718873592 -0.0077061067195627808 0 0.07905212668422168 0.0023684285233401721 0 0.0878376211017112 -0.010387035779324091 0 0.079850089249152212 -0.023656780186833891 0 0.07905212668422168 0.0023684285233401721 0 0.079850089249152212 -0.023656780186833891 0 0.091770219455842267 0.0081801344681066215 0 0.0878376211017112 -0.010387035779324091 0 0.099403600792298777 -8.5827329185945826e-05 0 0.06175221594896229 0.0069685432474568291 0 0.060578631682165429 -0.01435970306887116 0 0.068077007432875786 -0.0040758889933961793 0 0.07905212668422168 0.0023684285233401721 0 0.068077007432875786 -0.0040758889933961793 0 0.079850089249152212 -0.023656780186833891 0 0.060578631682165429 -0.01435970306887116 0 0.068077007432875786 -0.0040758889933961793 0 0.079850089249152212 -0.023656780186833891 0 0.052372507828567699 -0.038162030537126218 0 0.060578631682165429 -0.01435970306887116 0 0.079850089249152212 -0.023656780186833891 0 0.079850089249152212 -0.023656780186833891 0 0.093452551583307744 -0.038232143076010063 0 0.1004915149496691 -0.015835179869576509 0 0.0878376211017112 -0.010387035779324091 0 0.079850089249152212 -0.023656780186833891 0 0.1004915149496691 -0.015835179869576509 0 0.093452551583307744 -0.038232143076010063 0 0.069309366202516598 -0.044747604553126603 0 0.08487423129009429 -0.054126406795680093 0 0.079850089249152212 -0.023656780186833891 0 0.093452551583307744 -0.038232143076010063 0 0.069309366202516598 -0.044747604553126603 0 0.052372507828567699 -0.038162030537126218 0 0.079850089249152212 -0.023656780186833891 0 0.069309366202516598 -0.044747604553126603 0 0.069309366202516598 -0.044747604553126603 0 0.08487423129009429 -0.054126406795680093 0 0.070197783827657942 -0.06289802247731667 0 0.093452551583307744 -0.038232143076010063 0 0.08487423129009429 -0.054126406795680093 0 0.101790782307975 -0.056028562541756539 0 0.08487423129009429 -0.054126406795680093 0 0.101790782307975 -0.056028562541756539 0 0.09133642436911879 -0.06680587925568085 0 0.08487423129009429 -0.054126406795680093 0 0.101790782307975 -0.056028562541756539 0 0.101790782307975 -0.056028562541756539 0 0.11870733332585549 -0.057930718287835727 0 0.1033743630189 -0.071012840815841485 0 0.101790782307975 -0.056028562541756539 0 0.1115129484222188 -0.05145827339333077 0 0.10815537919940781 -0.044094369270531758 0 0.101790782307975 -0.056028562541756539 0 0.11870733332585549 -0.057930718287835727 0 0.101790782307975 -0.056028562541756539 0 0.11870733332585549 -0.057930718287835727 0 0.1115129484222188 -0.05145827339333077 0 0.11870733332585549 -0.057930718287835727 0 0.11963376428373081 -0.050179178522606782 0 0.1115129484222188 -0.05145827339333077 0 0.11963376428373081 -0.050179178522606782 0 0.1115129484222188 -0.05145827339333077 0 0.10815537919940781 -0.044094369270531758 0 0.11963376428373081 -0.050179178522606782 0 0.12066274927404951 -0.037840447771590811 0 0.10815537919940781 -0.044094369270531758 0 0.12066274927404951 -0.037840447771590811 0 0.10815537919940781 -0.044094369270531758 0 0.1084017246938988 -0.030094057941113861 0 0.093452551583307744 -0.038232143076010063 0 0.101790782307975 -0.056028562541756539 0 0.10815537919940781 -0.044094369270531758 0 0.093452551583307744 -0.038232143076010063 0 0.10815537919940781 -0.044094369270531758 0 0.1084017246938988 -0.030094057941113861 0 0.1004915149496691 -0.015835179869576509 0 0.1084017246938988 -0.030094057941113861 0 0.1185313646404748 -0.010496561753845911 0 0.093452551583307744 -0.038232143076010063 0 0.1004915149496691 -0.015835179869576509 0 0.1084017246938988 -0.030094057941113861 0 0.1084017246938988 -0.030094057941113861 0 0.13206700845360439 -0.025376068865908329 0 0.12066274927404951 -0.037840447771590811 0 0.1084017246938988 -0.030094057941113861 0 0.13206700845360439 -0.025376068865908329 0 0.1084017246938988 -0.030094057941113861 0 0.1185313646404748 -0.010496561753845911 0 0.13206700845360439 -0.025376068865908329 0 0.1175995477600949 0.0093541612357724065 0 0.1185313646404748 -0.010496561753845911 0 0.110514703989132 -0.0008969358902345655 0 0.1004915149496691 -0.015835179869576509 0 0.1185313646404748 -0.010496561753845911 0 0.110514703989132 -0.0008969358902345655 0 0.0878376211017112 -0.010387035779324091 0 0.1004915149496691 -0.015835179869576509 0 0.099403600792298777 -8.5827329185945826e-05 0 0.1004915149496691 -0.015835179869576509 0 0.110514703989132 -0.0008969358902345655 0 0.099403600792298777 -8.5827329185945826e-05 0 0.080635332143348004 -0.1100757451680098 0 0.079939206759689227 -0.090181498018551409 0 0.098678959317019435 -0.1034246692662158 0 0.082556609064659892 -0.12593366810269829 0 0.080635332143348004 -0.1100757451680098 0 0.097816358448213458 -0.1185436401303937 0 0.080635332143348004 -0.1100757451680098 0 0.098678959317019435 -0.1034246692662158 0 0.097816358448213458 -0.1185436401303937 0 0.093114899591683717 -0.12922117103356251 0 0.082556609064659892 -0.12593366810269829 0 0.097816358448213458 -0.1185436401303937 0 0.064657193942947222 -0.12673137615936181 0 0.080635332143348004 -0.1100757451680098 0 0.064108055673940803 -0.1018584002644896 0 0.064657193942947222 -0.12673137615936181 0 0.064108055673940803 -0.1018584002644896 0 0.082556609064659892 -0.12593366810269829 0 0.064657193942947222 -0.12673137615936181 0 0.080635332143348004 -0.1100757451680098 0 0.080635332143348004 -0.1100757451680098 0 0.064108055673940803 -0.1018584002644896 0 0.079939206759689227 -0.090181498018551409 0 0.064108055673940803 -0.1018584002644896 0 0.063558917404934384 -0.076985424369617514 0 0.063558917404934384 -0.076985424369617514 0 0.07902663460751691 -0.072405652616505556 0 0.079939206759689227 -0.090181498018551409 0 0.064108055673940803 -0.1018584002644896 0 0.063558917404934384 -0.076985424369617514 0 0.079939206759689227 -0.090181498018551409 0 0.08487423129009429 -0.054126406795680093 0 0.070197783827657942 -0.06289802247731667 0 0.07902663460751691 -0.072405652616505556 0 0.070197783827657942 -0.06289802247731667 0 0.063558917404934384 -0.076985424369617514 0 0.07902663460751691 -0.072405652616505556 0 0.08487423129009429 -0.054126406795680093 0 0.07902663460751691 -0.072405652616505556 0 0.09133642436911879 -0.06680587925568085 0 0.07902663460751691 -0.072405652616505556 0 0.09133642436911879 -0.06680587925568085 0 0.090018158212179539 -0.078326825456073224 0 0.079939206759689227 -0.090181498018551409 0 0.090018158212179539 -0.078326825456073224 0 0.10085523861242079 -0.087461281386015749 0 0.07902663460751691 -0.072405652616505556 0 0.079939206759689227 -0.090181498018551409 0 0.090018158212179539 -0.078326825456073224 0 0.079939206759689227 -0.090181498018551409 0 0.10085523861242079 -0.087461281386015749 0 0.098678959317019435 -0.1034246692662158 0 0.10085523861242079 -0.087461281386015749 0 0.1033743630189 -0.071012840815841485 0 0.1171819573634876 -0.078527770980113876 0 0.090018158212179539 -0.078326825456073224 0 0.10085523861242079 -0.087461281386015749 0 0.1033743630189 -0.071012840815841485 0 0.101790782307975 -0.056028562541756539 0 0.09133642436911879 -0.06680587925568085 0 0.1033743630189 -0.071012840815841485 0 0.09133642436911879 -0.06680587925568085 0 0.090018158212179539 -0.078326825456073224 0 0.1033743630189 -0.071012840815841485 0 0.11870733332585549 -0.057930718287835727 0 0.1171819573634876 -0.078527770980113876 0 0.13900433180264679 -0.080103284860120388 0 0.11870733332585549 -0.057930718287835727 0 0.1033743630189 -0.071012840815841485 0 0.1171819573634876 -0.078527770980113876 0 0.1171819573634876 -0.078527770980113876 0 0.1180526585542975 -0.095202005782850069 0 0.13900433180264679 -0.080103284860120388 0 0.10085523861242079 -0.087461281386015749 0 0.1171819573634876 -0.078527770980113876 0 0.1180526585542975 -0.095202005782850069 0 0.1180526585542975 -0.095202005782850069 0 0.1154629501142632 -0.1101090854014997 0 0.13318449785964279 -0.1007848989791766 0 0.1180526585542975 -0.095202005782850069 0 0.098678959317019435 -0.1034246692662158 0 0.1154629501142632 -0.1101090854014997 0 0.10085523861242079 -0.087461281386015749 0 0.1180526585542975 -0.095202005782850069 0 0.098678959317019435 -0.1034246692662158 0 0.097816358448213458 -0.1185436401303937 0 0.11425079482998921 -0.1220801878969625 0 0.1154629501142632 -0.1101090854014997 0 0.1038010533135581 -0.1284997878773107 0 0.097816358448213458 -0.1185436401303937 0 0.11425079482998921 -0.1220801878969625 0 0.098678959317019435 -0.1034246692662158 0 0.097816358448213458 -0.1185436401303937 0 0.1154629501142632 -0.1101090854014997 0 0.11425079482998921 -0.1220801878969625 0 0.1154629501142632 -0.1101090854014997 0 0.13313604000000179 -0.1187498414797455 0 0.1154629501142632 -0.1101090854014997 0 0.13313604000000179 -0.1187498414797455 0 0.13318449785964279 -0.1007848989791766 0 0.13313604000000179 -0.1187498414797455 0 0.1576891209685635 -0.1005146640176918 0 0.14870574120419541 -0.12771231388556259 0 0.13313604000000179 -0.1187498414797455 0 0.13318449785964279 -0.1007848989791766 0 0.1576891209685635 -0.1005146640176918 0 0.13318449785964279 -0.1007848989791766 0 0.13900433180264679 -0.080103284860120388 0 0.1576891209685635 -0.1005146640176918 0 0.1180526585542975 -0.095202005782850069 0 0.13318449785964279 -0.1007848989791766 0 0.13900433180264679 -0.080103284860120388 0 0.13318449785964279 -0.1007848989791766 0 0.13900433180264679 -0.080103284860120388 0 0.11870733332585549 -0.057930718287835727 0 0.13900433180264679 -0.080103284860120388 0 0.14442981750459519 -0.060823043740712568 0 0.11870733332585549 -0.057930718287835727 0 0.13900433180264679 -0.080103284860120388 0 0.13900433180264679 -0.080103284860120388 0 0.14442981750459519 -0.060823043740712568 0 0.13900433180264679 -0.080103284860120388 0 0.1571344148438435 -0.074643088631041549 0 0.14442981750459519 -0.060823043740712568 0 0.13900433180264679 -0.080103284860120388 0 0.1576891209685635 -0.1005146640176918 0 0.13900433180264679 -0.080103284860120388 0 0.155922240487645 -0.08538025740243177 0 0.1571344148438435 -0.074643088631041549 0 0.13900433180264679 -0.080103284860120388 0 0.155922240487645 -0.08538025740243177 0 0.1576891209685635 -0.1005146640176918 0 0.155922240487645 -0.08538025740243177 0 0.1698610943355276 -0.086259992100872193 0 0.1576891209685635 -0.1005146640176918 0 0.155922240487645 -0.08538025740243177 0 0.1698610943355276 -0.086259992100872193 0 0.1571344148438435 -0.074643088631041549 0 0.1698610943355276 -0.086259992100872193 0 0.1571344148438435 -0.074643088631041549 0 0.17442830992508729 -0.064196178410477867 0 0.1571344148438435 -0.074643088631041549 0 0.17442830992508729 -0.064196178410477867 0 0.14442981750459519 -0.060823043740712568 0 0.17442830992508729 -0.064196178410477867 0 0.14442981750459519 -0.060823043740712568 0 0.17442830992508729 -0.064196178410477867 0 0.19011437931667929 -0.065959974529144816 0 0.1698610943355276 -0.086259992100872193 0 0.17442830992508729 -0.064196178410477867 0 0.18390796644326479 -0.067895926816733343 0 0.17442830992508729 -0.064196178410477867 0 0.19011437931667929 -0.065959974529144816 0 0.1698610943355276 -0.086259992100872193 0 0.17442830992508729 -0.064196178410477867 0 0.18124012763157521 -0.08095627160474371 0 0.18390796644326479 -0.067895926816733343 0 0.17442830992508729 -0.064196178410477867 0 0.18124012763157521 -0.08095627160474371 0 0.18390796644326479 -0.067895926816733343 0 0.18124012763157521 -0.08095627160474371 0 0.19614312263906181 -0.094865665874499239 0 0.1698610943355276 -0.086259992100872193 0 0.18124012763157521 -0.08095627160474371 0 0.18186014481493451 -0.09156359482113588 0 0.18124012763157521 -0.08095627160474371 0 0.18186014481493451 -0.09156359482113588 0 0.19614312263906181 -0.094865665874499239 0 0.18186014481493451 -0.09156359482113588 0 0.1812146074330783 -0.1054980827732325 0 0.19614312263906181 -0.094865665874499239 0 0.1698610943355276 -0.086259992100872193 0 0.1812146074330783 -0.1054980827732325 0 0.16504567748088811 -0.10855101181555971 0 0.1698610943355276 -0.086259992100872193 0 0.18186014481493451 -0.09156359482113588 0 0.1812146074330783 -0.1054980827732325 0 0.1763739101344812 -0.120926043175262 0 0.1926446153263375 -0.1169352691432826 0 0.1812146074330783 -0.1054980827732325 0 0.1763739101344812 -0.120926043175262 0 0.16504567748088811 -0.10855101181555971 0 0.1812146074330783 -0.1054980827732325 0 0.1763739101344812 -0.120926043175262 0 0.1926446153263375 -0.1169352691432826 0 0.1763739101344812 -0.120926043175262 0 0.1926446153263375 -0.1169352691432826 0 0.18709971216427301 -0.13264297559847851 0 0.1576891209685635 -0.1005146640176918 0 0.16504567748088811 -0.10855101181555971 0 0.14870574120419541 -0.12771231388556259 0 0.1763739101344812 -0.120926043175262 0 0.14870574120419541 -0.12771231388556259 0 0.1763739101344812 -0.120926043175262 0 0.16504567748088811 -0.10855101181555971 0 0.14870574120419541 -0.12771231388556259 0 0.1763739101344812 -0.120926043175262 0 0.16504567748088811 -0.10855101181555971 0 0.1698610943355276 -0.086259992100872193 0 0.1576891209685635 -0.1005146640176918 0 0.16504567748088811 -0.10855101181555971 0 0.1698610943355276 -0.086259992100872193 0 0.16504567748088811 -0.10855101181555971 0 0.1576891209685635 -0.1005146640176918 0 0.16504567748088811 -0.10855101181555971 0 0.14604617188552579 -0.01287754781404615 0 0.13968391278941569 -0.001332600437204217 0 0.1566002555707719 -0.007194885615248307 0 0.14604617188552579 -0.01287754781404615 0 0.15501684708015159 -0.016093515857470021 0 0.1566002555707719 -0.007194885615248307 0 0.14604617188552579 -0.01287754781404615 0 0.13968391278941569 -0.001332600437204217 0 0.13206700845360439 -0.025376068865908329 0 0.1185313646404748 -0.010496561753845911 0 0.13968391278941569 -0.001332600437204217 0 0.13206700845360439 -0.025376068865908329 0 0.1175995477600949 0.0093541612357724065 0 0.1185313646404748 -0.010496561753845911 0 0.13968391278941569 -0.001332600437204217 0 0.1557322922133092 -0.020658079790699779 0 0.14920658187182209 -0.043848126870565447 0 0.1608139511416434 -0.01964498349525054 0 0.14604617188552579 -0.01287754781404615 0 0.13206700845360439 -0.025376068865908329 0 0.1557322922133092 -0.020658079790699779 0 0.13206700845360439 -0.025376068865908329 0 0.1557322922133092 -0.020658079790699779 0 0.14311107440956861 -0.032324453793945093 0 0.13206700845360439 -0.025376068865908329 0 0.1557322922133092 -0.020658079790699779 0 0.14604617188552579 -0.01287754781404615 0 0.15501684708015159 -0.016093515857470021 0 0.1557322922133092 -0.020658079790699779 0 0.15481528256306151 -0.035918722731160459 0 0.14920658187182209 -0.043848126870565447 0 0.1608139511416434 -0.01964498349525054 0 0.1557322922133092 -0.020658079790699779 0 0.14920658187182209 -0.043848126870565447 0 0.1557322922133092 -0.020658079790699779 0 0.14920658187182209 -0.043848126870565447 0 0.14311107440956861 -0.032324453793945093 0 0.14920658187182209 -0.043848126870565447 0 0.1608139511416434 -0.01964498349525054 0 0.14920658187182209 -0.043848126870565447 0 0.13543841509953999 -0.039415539648607077 0 0.1461764141904881 -0.050166490759724541 0 0.14920658187182209 -0.043848126870565447 0 0.14311107440956861 -0.032324453793945093 0 0.13543841509953999 -0.039415539648607077 0 0.11963376428373081 -0.050179178522606782 0 0.12066274927404951 -0.037840447771590811 0 0.13543841509953999 -0.039415539648607077 0 0.11963376428373081 -0.050179178522606782 0 0.13543841509953999 -0.039415539648607077 0 0.1461764141904881 -0.050166490759724541 0 0.13206700845360439 -0.025376068865908329 0 0.14311107440956861 -0.032324453793945093 0 0.13543841509953999 -0.039415539648607077 0 0.12066274927404951 -0.037840447771590811 0 0.13206700845360439 -0.025376068865908329 0 0.13543841509953999 -0.039415539648607077 0 0.11870733332585549 -0.057930718287835727 0 0.14442981750459519 -0.060823043740712568 0 0.14304662005056629 -0.056692591079518753 0 0.11870733332585549 -0.057930718287835727 0 0.11963376428373081 -0.050179178522606782 0 0.14304662005056629 -0.056692591079518753 0 0.11963376428373081 -0.050179178522606782 0 0.14304662005056629 -0.056692591079518753 0 0.1461764141904881 -0.050166490759724541 0 0.11963376428373081 -0.050179178522606782 0 0.1461764141904881 -0.050166490759724541 0 0.11870733332585549 -0.057930718287835727 0 0.14442981750459519 -0.060823043740712568 0 0.14442981750459519 -0.060823043740712568 0 0.1461764141904881 -0.050166490759724541 0 0.17154245932575529 -0.050154365430600499 0 0.14920658187182209 -0.043848126870565447 0 0.1461764141904881 -0.050166490759724541 0 0.17154245932575529 -0.050154365430600499 0 0.14442981750459519 -0.060823043740712568 0 0.1461764141904881 -0.050166490759724541 0 0.14442981750459519 -0.060823043740712568 0 0.14304662005056629 -0.056692591079518753 0 0.1461764141904881 -0.050166490759724541 0 0.14920658187182209 -0.043848126870565447 0 0.1461764141904881 -0.050166490759724541 0 0.14304662005056629 -0.056692591079518753 0 0.1461764141904881 -0.050166490759724541 0 0.17442830992508729 -0.064196178410477867 0 0.14442981750459519 -0.060823043740712568 0 0.17154245932575529 -0.050154365430600499 0 0.1461764141904881 -0.050166490759724541 0 0.17154245932575529 -0.050154365430600499 0 0.17442830992508729 -0.064196178410477867 0 0.17154245932575529 -0.050154365430600499 0 0.17646736216325909 -0.054345697782664883 0 0.17442830992508729 -0.064196178410477867 0 0.17646736216325909 -0.054345697782664883 0 0.19011437931667929 -0.065959974529144816 0 0.17442830992508729 -0.064196178410477867 0 0.17646736216325909 -0.054345697782664883 0 0.18663622233881891 -0.05622197832891497 0 0.17733554234965329 -0.050151596254800888 0 0.19500126948928581 -0.050143151786826858 0 0.17733554234965329 -0.050151596254800888 0 0.19500126948928581 -0.050143151786826858 0 0.18663622233881891 -0.05622197832891497 0 0.17646736216325909 -0.054345697782664883 0 0.19011437931667929 -0.065959974529144816 0 0.17646736216325909 -0.054345697782664883 0 0.19011437931667929 -0.065959974529144816 0 0.18663622233881891 -0.05622197832891497 0 0.17733554234965329 -0.050151596254800888 0 0.17646736216325909 -0.054345697782664883 0 0.17733554234965329 -0.050151596254800888 0 0.17646736216325909 -0.054345697782664883 0 0.17154245932575529 -0.050154365430600499 0 0.17646736216325909 -0.054345697782664883 0 0.17154245932575529 -0.050154365430600499 0 0.17733554234965329 -0.050151596254800888 0 0.17646736216325909 -0.054345697782664883 0 0.17154245932575529 -0.050154365430600499 0 0.17733554234965329 -0.050151596254800888 0 0.17154245932575529 -0.050154365430600499 0 0.17733554234965329 -0.050151596254800888 0 0.16826773868660219 -0.037057018460376019 0 0.17733554234965329 -0.050151596254800888 0 0.18098447476396851 -0.032523927190442593 0 0.19500126948928581 -0.050143151786826858 0 0.17733554234965329 -0.050151596254800888 0 0.18098447476396851 -0.032523927190442593 0 0.17733554234965329 -0.050151596254800888 0 0.18098447476396851 -0.032523927190442593 0 0.16826773868660219 -0.037057018460376019 0 0.18098447476396851 -0.032523927190442593 0 0.16826773868660219 -0.037057018460376019 0 0.17367489294262489 -0.026030546818038441 0 0.15481528256306151 -0.035918722731160459 0 0.14920658187182209 -0.043848126870565447 0 0.17154245932575529 -0.050154365430600499 0 0.15481528256306151 -0.035918722731160459 0 0.17154245932575529 -0.050154365430600499 0 0.16826773868660219 -0.037057018460376019 0 0.15481528256306151 -0.035918722731160459 0 0.17154245932575529 -0.050154365430600499 0 0.15481528256306151 -0.035918722731160459 0 0.16826773868660219 -0.037057018460376019 0 0.1608139511416434 -0.01964498349525054 0 0.16826773868660219 -0.037057018460376019 0 0.1608139511416434 -0.01964498349525054 0 0.17367489294262489 -0.026030546818038441 0 0.1557322922133092 -0.020658079790699779 0 0.1608139511416434 -0.01964498349525054 0 0.15501684708015159 -0.016093515857470021 0 0.1557322922133092 -0.020658079790699779 0 0.1608139511416434 -0.01964498349525054 0 0.18098447476396851 -0.032523927190442593 0 0.18463340717828511 -0.01489625812608465 0 0.18098447476396851 -0.032523927190442593 0 0.18463340717828511 -0.01489625812608465 0 0.19583417174159859 -0.024819796854577861 0 0.1608139511416434 -0.01964498349525054 0 0.17367489294262489 -0.026030546818038441 0 0.18463340717828511 -0.01489625812608465 0 0.1608139511416434 -0.01964498349525054 0 0.18463340717828511 -0.01489625812608465 0 0.18098447476396851 -0.032523927190442593 0 0.17367489294262489 -0.026030546818038441 0 0.18463340717828511 -0.01489625812608465 0 0.18891566880757921 0.0057909682396340839 0 0.18463340717828511 -0.01489625812608465 0 0.18891566880757921 0.0057909682396340839 0 0.18463340717828511 -0.01489625812608465 0 0.16895049907619231 -0.002679034393242765 0 0.1608139511416434 -0.01964498349525054 0 0.16895049907619231 -0.002679034393242765 0 0.1608139511416434 -0.01964498349525054 0 0.18463340717828511 -0.01489625812608465 0 0.16895049907619231 -0.002679034393242765 0 0.1608139511416434 -0.01964498349525054 0 0.16895049907619231 -0.002679034393242765 0 0.1566002555707719 -0.007194885615248307 0 0.15501684708015159 -0.016093515857470021 0 0.1608139511416434 -0.01964498349525054 0 0.1566002555707719 -0.007194885615248307 0 0.20534203690460509 -0.01076771735711169 0 0.22605066663092499 -0.0066391765881388936 0 0.21642668838111401 0.0025320231582431768 0 0.20534203690460509 -0.01076771735711169 0 0.22605066663092499 -0.0066391765881388936 0 0.20536935462328429 0.0056862788303377806 0 0.21642668838111401 0.0025320231582431768 0 0.20534203690460509 -0.01076771735711169 0 0.20534203690460509 -0.01076771735711169 0 0.22144366545761671 -0.01945803814064961 0 0.22605066663092499 -0.0066391765881388936 0 0.18463340717828511 -0.01489625812608465 0 0.20534203690460509 -0.01076771735711169 0 0.18891566880757921 0.0057909682396340839 0 0.18463340717828511 -0.01489625812608465 0 0.20534203690460509 -0.01076771735711169 0 0.18463340717828511 -0.01489625812608465 0 0.20534203690460509 -0.01076771735711169 0 0.19583417174159859 -0.024819796854577861 0 0.19583417174159859 -0.024819796854577861 0 0.20961932550690329 -0.02843082889919726 0 0.19859161435423109 -0.037480252700053313 0 0.20534203690460509 -0.01076771735711169 0 0.20961932550690329 -0.02843082889919726 0 0.22144366545761671 -0.01945803814064961 0 0.20534203690460509 -0.01076771735711169 0 0.19583417174159859 -0.024819796854577861 0 0.20961932550690329 -0.02843082889919726 0 0.20961932550690329 -0.02843082889919726 0 0.21266699662891839 -0.050134707318852591 0 0.20961932550690329 -0.02843082889919726 0 0.21739803985743439 -0.03861944857335535 0 0.21266699662891839 -0.050134707318852591 0 0.20961932550690329 -0.02843082889919726 0 0.21739803985743439 -0.03861944857335535 0 0.22859315933973809 -0.033010244658626682 0 0.20961932550690329 -0.02843082889919726 0 0.19859161435423109 -0.037480252700053313 0 0.21266699662891839 -0.050134707318852591 0 0.21739803985743439 -0.03861944857335535 0 0.21266699662891839 -0.050134707318852591 0 0.2192209938281145 -0.050131574415292042 0 0.19859161435423109 -0.037480252700053313 0 0.19500126948928581 -0.050143151786826858 0 0.21266699662891839 -0.050134707318852591 0 0.18098447476396851 -0.032523927190442593 0 0.19583417174159859 -0.024819796854577861 0 0.19859161435423109 -0.037480252700053313 0 0.18098447476396851 -0.032523927190442593 0 0.19859161435423109 -0.037480252700053313 0 0.19500126948928581 -0.050143151786826858 0 0.18663622233881891 -0.05622197832891497 0 0.19500126948928581 -0.050143151786826858 0 0.19446714177886909 -0.059504574740308652 0 0.18663622233881891 -0.05622197832891497 0 0.19446714177886909 -0.059504574740308652 0 0.19011437931667929 -0.065959974529144816 0 0.19500126948928581 -0.050143151786826858 0 0.19446714177886909 -0.059504574740308652 0 0.20186662004426581 -0.058270461502229171 0 0.19446714177886909 -0.059504574740308652 0 0.20186662004426581 -0.058270461502229171 0 0.1987172177052958 -0.066927307554427495 0 0.21266699662891839 -0.050134707318852591 0 0.2192209938281145 -0.050131574415292042 0 0.21545936727074461 -0.07002047270707544 0 0.21266699662891839 -0.050134707318852591 0 0.20657865205276979 -0.064657211078961316 0 0.21545936727074461 -0.07002047270707544 0 0.20186662004426581 -0.058270461502229171 0 0.21266699662891839 -0.050134707318852591 0 0.20657865205276979 -0.064657211078961316 0 0.21266699662891839 -0.050134707318852591 0 0.21545936727074461 -0.07002047270707544 0 0.19500126948928581 -0.050143151786826858 0 0.20186662004426581 -0.058270461502229171 0 0.21266699662891839 -0.050134707318852591 0 0.19500126948928581 -0.050143151786826858 0 0.21266699662891839 -0.050134707318852591 0 0.21266699662891839 -0.050134707318852591 0 0.2192209938281145 -0.050131574415292042 0 0.2192209938281145 -0.050131574415292042 0 0.24713171562943309 -0.039117564013920858 0 0.23450960799295029 -0.066059006577151358 0 0.2192209938281145 -0.050131574415292042 0 0.21545936727074461 -0.07002047270707544 0 0.23450960799295029 -0.066059006577151358 0 0.24713171562943309 -0.039117564013920858 0 0.23450960799295029 -0.066059006577151358 0 0.24868712167772811 -0.061280815743001343 0 0.24713171562943309 -0.039117564013920858 0 0.23450960799295029 -0.066059006577151358 0 0.21739803985743439 -0.03861944857335535 0 0.2192209938281145 -0.050131574415292042 0 0.22859315933973809 -0.033010244658626682 0 0.2192209938281145 -0.050131574415292042 0 0.24713171562943309 -0.039117564013920858 0 0.22859315933973809 -0.033010244658626682 0 0.22859315933973809 -0.033010244658626682 0 0.22144366545761671 -0.01945803814064961 0 0.23761313890591201 -0.018442223200173549 0 0.20961932550690329 -0.02843082889919726 0 0.22859315933973809 -0.033010244658626682 0 0.22144366545761671 -0.01945803814064961 0 0.24713171562943309 -0.039117564013920858 0 0.22859315933973809 -0.033010244658626682 0 0.23761313890591201 -0.018442223200173549 0 0.25975382326591612 -0.01217612145069095 0 0.24713171562943309 -0.039117564013920858 0 0.23761313890591201 -0.018442223200173549 0 0.25975382326591612 -0.01217612145069095 0 0.23761313890591201 -0.018442223200173549 0 0.246759296357245 -0.002510635819166105 0 0.23761313890591201 -0.018442223200173549 0 0.246759296357245 -0.002510635819166105 0 0.22605066663092499 -0.0066391765881388936 0 0.23665614420463971 0.0061919762364166832 0 0.246759296357245 -0.002510635819166105 0 0.22605066663092499 -0.0066391765881388936 0 0.246759296357245 -0.002510635819166105 0 0.22605066663092499 -0.0066391765881388936 0 0.22144366545761671 -0.01945803814064961 0 0.23761313890591201 -0.018442223200173549 0 0.22605066663092499 -0.0066391765881388936 0 0.21081901435021441 -0.096665200820674535 0 0.20837827883485879 -0.12183540493226511 0 0.21942445850559081 -0.098257724903459048 0 0.21081901435021441 -0.096665200820674535 0 0.20837827883485879 -0.12183540493226511 0 0.19614312263906181 -0.094865665874499239 0 0.20837827883485879 -0.12183540493226511 0 0.22074480734754809 -0.1076605408865807 0 0.21942445850559081 -0.098257724903459048 0 0.21081901435021441 -0.096665200820674535 0 0.21825173791257069 -0.089906238095298241 0 0.21942445850559081 -0.098257724903459048 0 0.20837827883485879 -0.12183540493226511 0 0.21942445850559081 -0.098257724903459048 0 0.20837827883485879 -0.12183540493226511 0 0.22074480734754809 -0.1076605408865807 0 0.2256971892214488 -0.1230056778149491 0 0.20837827883485879 -0.12183540493226511 0 0.1926446153263375 -0.1169352691432826 0 0.1964870301298835 -0.1289433894239303 0 0.20837827883485879 -0.12183540493226511 0 0.1926446153263375 -0.1169352691432826 0 0.19614312263906181 -0.094865665874499239 0 0.1812146074330783 -0.1054980827732325 0 0.1926446153263375 -0.1169352691432826 0 0.19614312263906181 -0.094865665874499239 0 0.20837827883485879 -0.12183540493226511 0 0.19614312263906181 -0.094865665874499239 0 0.18390796644326479 -0.067895926816733343 0 0.19614312263906181 -0.094865665874499239 0 0.2041830586146246 -0.077933106312222028 0 0.18390796644326479 -0.067895926816733343 0 0.19614312263906181 -0.094865665874499239 0 0.18390796644326479 -0.067895926816733343 0 0.19011437931667929 -0.065959974529144816 0 0.2041830586146246 -0.077933106312222028 0 0.19446714177886909 -0.059504574740308652 0 0.19011437931667929 -0.065959974529144816 0 0.1987172177052958 -0.066927307554427495 0 0.19011437931667929 -0.065959974529144816 0 0.1987172177052958 -0.066927307554427495 0 0.19011437931667929 -0.065959974529144816 0 0.2041830586146246 -0.077933106312222028 0 0.19011437931667929 -0.065959974529144816 0 0.1987172177052958 -0.066927307554427495 0 0.2041830586146246 -0.077933106312222028 0 0.20186662004426581 -0.058270461502229171 0 0.1987172177052958 -0.066927307554427495 0 0.20657865205276979 -0.064657211078961316 0 0.1987172177052958 -0.066927307554427495 0 0.20657865205276979 -0.064657211078961316 0 0.2041830586146246 -0.077933106312222028 0 0.20657865205276979 -0.064657211078961316 0 0.2041830586146246 -0.077933106312222028 0 0.21545936727074461 -0.07002047270707544 0 0.21081901435021441 -0.096665200820674535 0 0.2041830586146246 -0.077933106312222028 0 0.21825173791257069 -0.089906238095298241 0 0.21081901435021441 -0.096665200820674535 0 0.19614312263906181 -0.094865665874499239 0 0.2041830586146246 -0.077933106312222028 0 0.21545936727074461 -0.07002047270707544 0 0.21825173791257069 -0.089906238095298241 0 0.2041830586146246 -0.077933106312222028 0 0.21545936727074461 -0.07002047270707544 0 0.21825173791257069 -0.089906238095298241 0 0.2041830586146246 -0.077933106312222028 0 0.21825173791257069 -0.089906238095298241 0 0.22188750035647581 -0.093000449140385341 0 0.23450960799295029 -0.066059006577151358 0 0.21825173791257069 -0.089906238095298241 0 0.22188750035647581 -0.093000449140385341 0 0.21942445850559081 -0.098257724903459048 0 0.21825173791257069 -0.089906238095298241 0 0.22188750035647581 -0.093000449140385341 0 0.23450960799295029 -0.066059006577151358 0 0.22188750035647581 -0.093000449140385341 0 0.23256452715304141 -0.088552504835684026 0 0.23450960799295029 -0.066059006577151358 0 0.21825173791257069 -0.089906238095298241 0 0.22188750035647581 -0.093000449140385341 0 0.21545936727074461 -0.07002047270707544 0 0.21825173791257069 -0.089906238095298241 0 0.23450960799295029 -0.066059006577151358 0 0.24868712167772811 -0.061280815743001343 0 0.24133719530436051 -0.081014374877977247 0 0.25346028161667972 -0.074294168239470521 0 0.24868712167772811 -0.061280815743001343 0 0.24133719530436051 -0.081014374877977247 0 0.24868712167772811 -0.061280815743001343 0 0.23450960799295029 -0.066059006577151358 0 0.24133719530436051 -0.081014374877977247 0 0.23256452715304141 -0.088552504835684026 0 0.23450960799295029 -0.066059006577151358 0 0.24133719530436051 -0.081014374877977247 0 0.24133719530436051 -0.081014374877977247 0 0.233987268930993 -0.10074793401295309 0 0.24133719530436051 -0.081014374877977247 0 0.24869579831717939 -0.091408590214736116 0 0.233987268930993 -0.10074793401295309 0 0.25346028161667972 -0.074294168239470521 0 0.24133719530436051 -0.081014374877977247 0 0.24869579831717939 -0.091408590214736116 0 0.23256452715304141 -0.088552504835684026 0 0.24133719530436051 -0.081014374877977247 0 0.233987268930993 -0.10074793401295309 0 0.25625738108487128 -0.10587076039939911 0 0.24869579831717939 -0.091408590214736116 0 0.233987268930993 -0.10074793401295309 0 0.25625738108487128 -0.10587076039939911 0 0.233987268930993 -0.10074793401295309 0 0.25476581338464049 -0.1098221843338807 0 0.233987268930993 -0.10074793401295309 0 0.23326609522571429 -0.1026841879611905 0 0.25625738108487128 -0.10587076039939911 0 0.25476581338464049 -0.1098221843338807 0 0.233987268930993 -0.10074793401295309 0 0.23256452715304141 -0.088552504835684026 0 0.2298810902459541 -0.09980338373993404 0 0.233987268930993 -0.10074793401295309 0 0.22188750035647581 -0.093000449140385341 0 0.23256452715304141 -0.088552504835684026 0 0.2298810902459541 -0.09980338373993404 0 0.2298810902459541 -0.09980338373993404 0 0.233987268930993 -0.10074793401295309 0 0.23326609522571429 -0.1026841879611905 0 0.2298810902459541 -0.09980338373993404 0 0.233987268930993 -0.10074793401295309 0 0.2298810902459541 -0.09980338373993404 0 0.23326609522571429 -0.1026841879611905 0 0.2298810902459541 -0.09980338373993404 0 0.23326609522571429 -0.1026841879611905 0 0.22074480734754809 -0.1076605408865807 0 0.233987268930993 -0.10074793401295309 0 0.23326609522571429 -0.1026841879611905 0 0.2298810902459541 -0.09980338373993404 0 0.22074480734754809 -0.1076605408865807 0 0.21942445850559081 -0.098257724903459048 0 0.22074480734754809 -0.1076605408865807 0 0.21942445850559081 -0.098257724903459048 0 0.22188750035647581 -0.093000449140385341 0 0.2298810902459541 -0.09980338373993404 0 0.21942445850559081 -0.098257724903459048 0 0.22188750035647581 -0.093000449140385341 0 0.2298810902459541 -0.09980338373993404 0 0.21825173791257069 -0.089906238095298241 0 0.21942445850559081 -0.098257724903459048 0 0.2298810902459541 -0.09980338373993404 0 0.21942445850559081 -0.098257724903459048 0 0.22188750035647581 -0.093000449140385341 0 0.21942445850559081 -0.098257724903459048 0 0.23326609522571429 -0.1026841879611905 0 0.2256971892214488 -0.1230056778149491 0 0.23326609522571429 -0.1026841879611905 0 0.22074480734754809 -0.1076605408865807 0 0.2256971892214488 -0.1230056778149491 0 0.25593704552769991 -0.12197827163917919 0 0.23326609522571429 -0.1026841879611905 0 0.2256971892214488 -0.1230056778149491 0 0.25476581338464049 -0.1098221843338807 0 0.25606864185944761 -0.11970051334451839 0 0.23326609522571429 -0.1026841879611905 0 0.25606864185944761 -0.11970051334451839 0 0.25593704552769991 -0.12197827163917919 0 0.23326609522571429 -0.1026841879611905 0 0.25593704552769991 -0.12197827163917919 0 0.23326609522571429 -0.1026841879611905 0 0.25593704552769991 -0.12197827163917919 0 0.2256971892214488 -0.1230056778149491 0 0.2365379203642981 -0.136764961259739 0 0.25593704552769991 -0.12197827163917919 0 0.25438164730720608 -0.14890015579165641 0 0.2365379203642981 -0.136764961259739 0 0.25438164730720608 -0.14890015579165641 0 0.2365379203642981 -0.136764961259739 0 0.22854543654795431 -0.1466135333842028 0 0.25438164730720608 -0.14890015579165641 0 0.22854543654795431 -0.1466135333842028 0 0.2380346068473895 -0.16155765861627799 0 0.2365379203642981 -0.136764961259739 0 0.22854543654795431 -0.1466135333842028 0 0.21812828321718319 -0.14332716766870779 0 0.22854543654795431 -0.1466135333842028 0 0.2257427877902356 -0.15869612564347019 0 0.2380346068473895 -0.16155765861627799 0 0.22854543654795431 -0.1466135333842028 0 0.21812828321718319 -0.14332716766870779 0 0.2257427877902356 -0.15869612564347019 0 0.2256971892214488 -0.1230056778149491 0 0.21812828321718319 -0.14332716766870779 0 0.2256971892214488 -0.1230056778149491 0 0.2365379203642981 -0.136764961259739 0 0.21812828321718319 -0.14332716766870779 0 0.20837827883485879 -0.12183540493226511 0 0.21812828321718319 -0.14332716766870779 0 0.20837827883485879 -0.12183540493226511 0 0.21812828321718319 -0.14332716766870779 0 0.1978255141940661 -0.14435990802169371 0 0.20837827883485879 -0.12183540493226511 0 0.2256971892214488 -0.1230056778149491 0 0.21812828321718319 -0.14332716766870779 0 0.21812828321718319 -0.14332716766870779 0 0.21198320906624871 -0.15982586139517191 0 0.21812828321718319 -0.14332716766870779 0 0.1978255141940661 -0.14435990802169371 0 0.21198320906624871 -0.15982586139517191 0 0.21812828321718319 -0.14332716766870779 0 0.21198320906624871 -0.15982586139517191 0 0.2257427877902356 -0.15869612564347019 0 0.1978255141940661 -0.14435990802169371 0 0.21198320906624871 -0.15982586139517191 0 0.1978255141940661 -0.14435990802169371 0 0.18130428759668141 -0.1471636482334234 0 0.18527724807290649 -0.17114373848074951 0 0.1978255141940661 -0.14435990802169371 0 0.18709971216427301 -0.13264297559847851 0 0.18130428759668141 -0.1471636482334234 0 0.20837827883485879 -0.12183540493226511 0 0.1978255141940661 -0.14435990802169371 0 0.1964870301298835 -0.1289433894239303 0 0.20837827883485879 -0.12183540493226511 0 0.1978255141940661 -0.14435990802169371 0 0.1978255141940661 -0.14435990802169371 0 0.18709971216427301 -0.13264297559847851 0 0.1978255141940661 -0.14435990802169371 0 0.1964870301298835 -0.1289433894239303 0 0.18709971216427301 -0.13264297559847851 0 0.1926446153263375 -0.1169352691432826 0 0.1964870301298835 -0.1289433894239303 0 0.18709971216427301 -0.13264297559847851 0 0.20096225611841029 -0.17892789997090119 0 0.19090639071788951 -0.187158071403219 0 0.18527724807290649 -0.17114373848074951 0 0.20096225611841029 -0.17892789997090119 0 0.19090639071788951 -0.187158071403219 0 0.20537566822062769 -0.1922307104034913 0 0.1978255141940661 -0.14435990802169371 0 0.21017288372178919 -0.164686340320225 0 0.18527724807290649 -0.17114373848074951 0 0.20096225611841029 -0.17892789997090119 0 0.21017288372178919 -0.164686340320225 0 0.18527724807290649 -0.17114373848074951 0 0.1978255141940661 -0.14435990802169371 0 0.18527724807290649 -0.17114373848074951 0 0.1978255141940661 -0.14435990802169371 0 0.21017288372178919 -0.164686340320225 0 0.21198320906624871 -0.15982586139517191 0 0.21017288372178919 -0.164686340320225 0 0.21198320906624871 -0.15982586139517191 0 0.23162702996623441 -0.1812848927458913 0 0.21017288372178919 -0.164686340320225 0 0.21198320906624871 -0.15982586139517191 0 0.20096225611841029 -0.17892789997090119 0 0.21017288372178919 -0.164686340320225 0 0.2139390412879516 -0.18164105831027419 0 0.21017288372178919 -0.164686340320225 0 0.2139390412879516 -0.18164105831027419 0 0.23162702996623441 -0.1812848927458913 0 0.20096225611841029 -0.17892789997090119 0 0.2139390412879516 -0.18164105831027419 0 0.20537566822062769 -0.1922307104034913 0 0.2139390412879516 -0.18164105831027419 0 0.23162702996623441 -0.1812848927458913 0 0.22074202105923499 -0.1937488421367537 0 0.23162702996623441 -0.1812848927458913 0 0.2257427877902356 -0.15869612564347019 0 0.2380346068473895 -0.16155765861627799 0 0.21198320906624871 -0.15982586139517191 0 0.23162702996623441 -0.1812848927458913 0 0.21198320906624871 -0.15982586139517191 0 0.23162702996623441 -0.1812848927458913 0 0.2257427877902356 -0.15869612564347019 0 0.25282624908671331 -0.1758220399441334 0 0.25438164730720608 -0.14890015579165641 0 0.2380346068473895 -0.16155765861627799 0 0.25127085086622042 -0.20274392409661049 0 0.25282624908671331 -0.1758220399441334 0 0.23162702996623441 -0.1812848927458913 0 0.25282624908671331 -0.1758220399441334 0 0.23162702996623441 -0.1812848927458913 0 0.2380346068473895 -0.16155765861627799 0 0.25127085086622042 -0.20274392409661049 0 0.23162702996623441 -0.1812848927458913 0 0.25127085086622042 -0.20274392409661049 0 0.23162702996623441 -0.1812848927458913 0 0.23360533010072371 -0.2017177583664142 0 0.24847730535194609 -0.21581642753600219 0 0.24210732721692441 -0.2079723720556674 0 0.23795352957396371 -0.22615044700104359 0 0.24210732721692441 -0.2079723720556674 0 0.22792827518596251 -0.21470707437850209 0 0.23795352957396371 -0.22615044700104359 0 0.25127085086622042 -0.20274392409661049 0 0.24826203757697859 -0.20904635146702549 0 0.24210732721692441 -0.2079723720556674 0 0.25127085086622042 -0.20274392409661049 0 0.24210732721692441 -0.2079723720556674 0 0.23360533010072371 -0.2017177583664142 0 0.24826203757697859 -0.20904635146702549 0 0.24847730535194609 -0.21581642753600219 0 0.24210732721692441 -0.2079723720556674 0 0.25210222211090488 -0.21027452840459429 0 0.24826203757697859 -0.20904635146702549 0 0.24847730535194609 -0.21581642753600219 0 0.24210732721692441 -0.2079723720556674 0 0.22792827518596251 -0.21470707437850209 0 0.23360533010072371 -0.2017177583664142 0 0.22792827518596251 -0.21470707437850209 0 0.22336375227494701 -0.20467079224431689 0 0.23360533010072371 -0.2017177583664142 0 0.22792827518596251 -0.21470707437850209 0 0.2192604617563326 -0.2114425871663293 0 0.21591617247806891 -0.22067902088207639 0 0.22792827518596251 -0.21470707437850209 0 0.2192604617563326 -0.2114425871663293 0 0.22336375227494701 -0.20467079224431689 0 0.2192604617563326 -0.2114425871663293 0 0.22336375227494701 -0.20467079224431689 0 0.21443274102007101 -0.20382666944347319 0 0.23162702996623441 -0.1812848927458913 0 0.22074202105923499 -0.1937488421367537 0 0.23360533010072371 -0.2017177583664142 0 0.22336375227494701 -0.20467079224431689 0 0.22074202105923499 -0.1937488421367537 0 0.23360533010072371 -0.2017177583664142 0 0.22336375227494701 -0.20467079224431689 0 0.22074202105923499 -0.1937488421367537 0 0.21443274102007101 -0.20382666944347319 0 0.2589261248120231 -0.2398023966073263 0 0.24378841454228789 -0.25769232034337658 0 0.22722602720806551 -0.24815052362441711 0 0.2589261248120231 -0.2398023966073263 0 0.23795352957396371 -0.22615044700104359 0 0.22722602720806551 -0.24815052362441711 0 0.2589261248120231 -0.2398023966073263 0 0.24847730535194609 -0.21581642753600219 0 0.23795352957396371 -0.22615044700104359 0 0.22792827518596251 -0.21470707437850209 0 0.22214733347817331 -0.23067821493665641 0 0.21591617247806891 -0.22067902088207639 0 0.22792827518596251 -0.21470707437850209 0 0.23795352957396371 -0.22615044700104359 0 0.22214733347817331 -0.23067821493665641 0 0.23795352957396371 -0.22615044700104359 0 0.22214733347817331 -0.23067821493665641 0 0.22722602720806551 -0.24815052362441711 0 0.22214733347817331 -0.23067821493665641 0 0.22722602720806551 -0.24815052362441711 0 0.21159500278731691 -0.24225290335080579 0 0.21094443410414671 -0.25630480773426262 0 0.22722602720806551 -0.24815052362441711 0 0.21159500278731691 -0.24225290335080579 0 0.21094443410414671 -0.25630480773426262 0 0.19976316981452161 -0.25032016006862512 0 0.21159500278731691 -0.24225290335080579 0 0.19976316981452161 -0.25032016006862512 0 0.21159500278731691 -0.24225290335080579 0 0.20051422879193009 -0.23816697192859279 0 0.21159500278731691 -0.24225290335080579 0 0.20860341735474361 -0.2298883538162142 0 0.20051422879193009 -0.23816697192859279 0 0.22214733347817331 -0.23067821493665641 0 0.21159500278731691 -0.24225290335080579 0 0.20860341735474361 -0.2298883538162142 0 0.22214733347817331 -0.23067821493665641 0 0.20860341735474361 -0.2298883538162142 0 0.21591617247806891 -0.22067902088207639 0 0.20860341735474361 -0.2298883538162142 0 0.21591617247806891 -0.22067902088207639 0 0.20421737519097791 -0.22101437766643289 0 0.20421737519097791 -0.22101437766643289 0 0.19651133810559579 -0.22585582100076659 0 0.19817526678082331 -0.2127492732727424 0 0.20860341735474361 -0.2298883538162142 0 0.20421737519097791 -0.22101437766643289 0 0.19651133810559579 -0.22585582100076659 0 0.19651133810559579 -0.22585582100076659 0 0.18641841265563011 -0.21361049898042089 0 0.1867969425162315 -0.229121942781537 0 0.19651133810559579 -0.22585582100076659 0 0.19277467390617481 -0.23646172739131219 0 0.1867969425162315 -0.229121942781537 0 0.19651133810559579 -0.22585582100076659 0 0.20051422879193009 -0.23816697192859279 0 0.19277467390617481 -0.23646172739131219 0 0.20860341735474361 -0.2298883538162142 0 0.19651133810559579 -0.22585582100076659 0 0.20051422879193009 -0.23816697192859279 0 0.20051422879193009 -0.23816697192859279 0 0.19277467390617481 -0.23646172739131219 0 0.19505688622236489 -0.2423955614927957 0 0.19277467390617481 -0.23646172739131219 0 0.19505688622236489 -0.2423955614927957 0 0.18717547237683341 -0.2446333865826531 0 0.19277467390617481 -0.23646172739131219 0 0.18717547237683341 -0.2446333865826531 0 0.1867969425162315 -0.229121942781537 0 0.19976316981452161 -0.25032016006862512 0 0.19505688622236489 -0.2423955614927957 0 0.18717547237683341 -0.2446333865826531 0 0.19976316981452161 -0.25032016006862512 0 0.20051422879193009 -0.23816697192859279 0 0.19505688622236489 -0.2423955614927957 0 0.20537566822062769 -0.1922307104034913 0 0.21443274102007101 -0.20382666944347319 0 0.20366314413378761 -0.20440061886232591 0 0.2139390412879516 -0.18164105831027419 0 0.22074202105923499 -0.1937488421367537 0 0.20537566822062769 -0.1922307104034913 0 0.22074202105923499 -0.1937488421367537 0 0.20537566822062769 -0.1922307104034913 0 0.21443274102007101 -0.20382666944347319 0 0.2192604617563326 -0.2114425871663293 0 0.21443274102007101 -0.20382666944347319 0 0.2091984249149654 -0.2124105136882633 0 0.2192604617563326 -0.2114425871663293 0 0.21591617247806891 -0.22067902088207639 0 0.2091984249149654 -0.2124105136882633 0 0.21591617247806891 -0.22067902088207639 0 0.20421737519097791 -0.22101437766643289 0 0.2091984249149654 -0.2124105136882633 0 0.20421737519097791 -0.22101437766643289 0 0.2091984249149654 -0.2124105136882633 0 0.19817526678082331 -0.2127492732727424 0 0.2091984249149654 -0.2124105136882633 0 0.20366314413378761 -0.20440061886232591 0 0.19817526678082331 -0.2127492732727424 0 0.21443274102007101 -0.20382666944347319 0 0.2091984249149654 -0.2124105136882633 0 0.20366314413378761 -0.20440061886232591 0 0.20366314413378761 -0.20440061886232591 0 0.19817526678082331 -0.2127492732727424 0 0.19190770208398589 -0.20000127734805631 0 0.19651133810559579 -0.22585582100076659 0 0.19817526678082331 -0.2127492732727424 0 0.18641841265563011 -0.21361049898042089 0 0.19817526678082331 -0.2127492732727424 0 0.19190770208398589 -0.20000127734805631 0 0.18641841265563011 -0.21361049898042089 0 0.20537566822062769 -0.1922307104034913 0 0.20366314413378761 -0.20440061886232591 0 0.19190770208398589 -0.20000127734805631 0 0.19090639071788951 -0.187158071403219 0 0.20537566822062769 -0.1922307104034913 0 0.19190770208398589 -0.20000127734805631 0 0.17272898195174219 -0.19792756893980309 0 0.14069816966995011 -0.20202395223853051 0 0.1618232650889703 -0.17648686736922331 0 0.19090639071788951 -0.187158071403219 0 0.19190770208398589 -0.20000127734805631 0 0.17272898195174219 -0.19792756893980309 0 0.17272898195174219 -0.19792756893980309 0 0.1601807158305778 -0.22471139939885679 0 0.14069816966995011 -0.20202395223853051 0 0.19190770208398589 -0.20000127734805631 0 0.17272898195174219 -0.19792756893980309 0 0.18641841265563011 -0.21361049898042089 0 0.17272898195174219 -0.19792756893980309 0 0.18641841265563011 -0.21361049898042089 0 0.17653688311554611 -0.22328879924491279 0 0.17272898195174219 -0.19792756893980309 0 0.1601807158305778 -0.22471139939885679 0 0.17272898195174219 -0.19792756893980309 0 0.17653688311554611 -0.22328879924491279 0 0.1601807158305778 -0.22471139939885679 0 0.18717547237683341 -0.2446333865826531 0 0.18201507470709061 -0.23710345500034941 0 0.17145580717169789 -0.24988436124947211 0 0.18717547237683341 -0.2446333865826531 0 0.1867969425162315 -0.229121942781537 0 0.18717547237683341 -0.2446333865826531 0 0.18201507470709061 -0.23710345500034941 0 0.1867969425162315 -0.229121942781537 0 0.18717547237683341 -0.2446333865826531 0 0.18201507470709061 -0.23710345500034941 0 0.18201507470709061 -0.23710345500034941 0 0.16856903894261929 -0.23728558649836021 0 0.17145580717169789 -0.24988436124947211 0 0.18201507470709061 -0.23710345500034941 0 0.17653688311554611 -0.22328879924491279 0 0.16856903894261929 -0.23728558649836021 0 0.18201507470709061 -0.23710345500034941 0 0.1867969425162315 -0.229121942781537 0 0.17653688311554611 -0.22328879924491279 0 0.18641841265563011 -0.21361049898042089 0 0.1867969425162315 -0.229121942781537 0 0.17653688311554611 -0.22328879924491279 0 0.18641841265563011 -0.21361049898042089 0 0.1867969425162315 -0.229121942781537 0 0.17653688311554611 -0.22328879924491279 0 0.1601807158305778 -0.22471139939885679 0 0.16856903894261929 -0.23728558649836021 0 0.14763244970941339 -0.2514952298579104 0 0.16856903894261929 -0.23728558649836021 0 0.17145580717169789 -0.24988436124947211 0 0.14763244970941339 -0.2514952298579104 0 0.1601807158305778 -0.22471139939885679 0 0.16856903894261929 -0.23728558649836021 0 0.14763244970941339 -0.2514952298579104 0 0.1601807158305778 -0.22471139939885679 0 0.14763244970941339 -0.2514952298579104 0 0.1601807158305778 -0.22471139939885679 0 0.13828204630013549 -0.22505607868865191 0 0.14763244970941339 -0.2514952298579104 0 0.1176184733370121 -0.23191817332184439 0 0.13828204630013549 -0.22505607868865191 0 0.14763244970941339 -0.2514952298579104 0 0.1168930510602708 -0.2540822323424185 0 0.1176184733370121 -0.23191817332184439 0 0.1601807158305778 -0.22471139939885679 0 0.13828204630013549 -0.22505607868865191 0 0.14069816966995011 -0.20202395223853051 0 0.1126936240065689 -0.20496527461247269 0 0.13828204630013549 -0.22505607868865191 0 0.14069816966995011 -0.20202395223853051 0 0.12445294243825961 -0.18866003707216661 0 0.14069816966995011 -0.20202395223853051 0 0.13795597834963799 -0.17348837310841561 0 0.12445294243825961 -0.18866003707216661 0 0.1126936240065689 -0.20496527461247269 0 0.14069816966995011 -0.20202395223853051 0 0.14069816966995011 -0.20202395223853051 0 0.13795597834963799 -0.17348837310841561 0 0.1618232650889703 -0.17648686736922331 0 0.13795597834963799 -0.17348837310841561 0 0.13942846715232171 -0.14968393007058331 0 0.1618232650889703 -0.17648686736922331 0 0.13942846715232171 -0.14968393007058331 0 0.16474793275107991 -0.15158124842180759 0 0.1618232650889703 -0.17648686736922331 0 0.1196510837692747 -0.1546236582820544 0 0.13795597834963799 -0.17348837310841561 0 0.13942846715232171 -0.14968393007058331 0 0.12103757227390929 -0.13449858459586281 0 0.1196510837692747 -0.1546236582820544 0 0.13942846715232171 -0.14968393007058331 0 0.12103757227390929 -0.13449858459586281 0 0.13942846715232171 -0.14968393007058331 0 0.14870574120419541 -0.12771231388556259 0 0.12103757227390929 -0.13449858459586281 0 0.13313604000000179 -0.1187498414797455 0 0.14870574120419541 -0.12771231388556259 0 0.12103757227390929 -0.13449858459586281 0 0.14870574120419541 -0.12771231388556259 0 0.13942846715232171 -0.14968393007058331 0 0.14870574120419541 -0.12771231388556259 0 0.16474793275107991 -0.15158124842180759 0 0.1763739101344812 -0.120926043175262 0 0.14870574120419541 -0.12771231388556259 0 0.1715710308010833 -0.13609037064438639 0 0.14870574120419541 -0.12771231388556259 0 0.16474793275107991 -0.15158124842180759 0 0.1715710308010833 -0.13609037064438639 0 0.1763739101344812 -0.120926043175262 0 0.1715710308010833 -0.13609037064438639 0 0.18709971216427301 -0.13264297559847851 0 0.1715710308010833 -0.13609037064438639 0 0.18709971216427301 -0.13264297559847851 0 0.18130428759668141 -0.1471636482334234 0 0.1763739101344812 -0.120926043175262 0 0.18709971216427301 -0.13264297559847851 0 0.16474793275107991 -0.15158124842180759 0 0.1715710308010833 -0.13609037064438639 0 0.18130428759668141 -0.1471636482334234 0 0.16474793275107991 -0.15158124842180759 0 0.18130428759668141 -0.1471636482334234 0 0.18527724807290649 -0.17114373848074951 0 0.17272898195174219 -0.19792756893980309 0 0.18527724807290649 -0.17114373848074951 0 0.17272898195174219 -0.19792756893980309 0 0.18527724807290649 -0.17114373848074951 0 0.1618232650889703 -0.17648686736922331 0 0.19090639071788951 -0.187158071403219 0 0.17272898195174219 -0.19792756893980309 0 0.18527724807290649 -0.17114373848074951 0 0.16474793275107991 -0.15158124842180759 0 0.18527724807290649 -0.17114373848074951 0 0.1618232650889703 -0.17648686736922331 0 
</DataArray>
</Points>
<Cells>
<DataArray type="UInt32" Name="connectivity" format="ascii">
0 1 2 3 4 5 6 7 8 9 10 11 12 13 14 15 16 17 18 19 20 21 22 23 24 25 26 27 28 29 30 31 32 33 34 35 36 37 38 39 40 41 42 43 44 45 46 47 48 49 50 51 52 53 54 55 56 57 58 59 60 61 62 63 64 65 66 67 68 69 70 71 72 73 74 75 76 77 78 79 80 81 82 83 84 85 86 87 88 89 90 91 92 93 94 95 96 97 98 99 100 101 102 103 104 105 106 107 108 109 110 111 112 113 114 115 116 117 118 119 120 121 122 123 124 125 126 127 128 129 130 131 132 133 134 135 136 137 138 139 140 141 142 143 144 145 146 147 148 149 150 151 152 153 154 155 156 157 158 159 160 161 162 163 164 165 166 167 168 169 170 171 172 173 174 175 176 177 178 179 180 181 182 183 184 185 186 187 188 189 190 191 192 193 194 195 196 197 198 199 200 201 202 203 204 205 206 207 208 209 210 211 212 213 214 215 216 217 218 219 220 221 222 223 224 225 226 227 228 229 230 231 232 233 234 235 236 237 238 239 240 241 242 243 244 245 246 247 248 249 250 251 252 253 254 255 256 257 258 259 260 261 262 263 264 265 266 267 268 269 270 271 272 273 274 275 276 277 278 279 280 281 282 283 284 285 286 287 288 289 290 291 292 293 294 295 296 297 298 299 300 301 302 303 304 305 306 307 308 309 310 311 312 313 314 315 316 317 318 319 320 321 322 323 324 325 326 327 328 329 330 331 332 333 334 335 336 337 338 339 340 341 342 343 344 345 346 347 348 349 350 351 352 353 354 355 356 357 358 359 360 361 362 363 364 365 366 367 368 369 370 371 372 373 374 375 376 377 378 379 380 381 382 383 384 385 386 387 388 389 390 391 392 393 394 395 396 397 398 399 400 401 402 403 404 405 406 407 408 409 410 411 412 413 414 415 416 417 418 419 420 421 422 423 424 425 426 427 428 429 430 431 432 433 434 435 436 437 438 439 440 441 442 443 444 445 446 447 448 449 450 451 452 453 454 455 456 457 458 459 460 461 462 463 464 465 466 467 468 469 470 471 472 473 474 475 476 477 478 479 480 481 482 483 484 485 486 487 488 489 490 491 492 493 494 495 496 497 498 499 500 501 502 503 504 505 506 507 508 509 510 511 512 513 514 515 516 517 518 519 520 521 522 523 524 525 526 527 528 529 530 531 532 533 534 535 536 537 538 539 540 541 542 543 544 545 546 547 548 549 550 551 552 553 554 555 556 557 558 559 560 561 562 563 564 565 566 567 568 569 570 571 572 573 574 575 576 577 578 579 580 581 582 583 584 585 586 587 588 589 590 591 592 593 594 595 596 597 598 599 600 601 602 603 604 605 606 607 608 609 610 611 612 613 614 615 616 617 618 619 620 621 622 623 624 625 626 627 628 629 630 631 632 633 634 635 636 637 638 639 640 641 642 643 644 645 646 647 648 649 650 651 652 653 654 655 656 657 658 659 660 661 662 663 664 665 666 667 668 669 670 671 672 673 674 675 676 677 678 679 680 681 682 683 684 685 686 687 688 689 690 691 692 693 694 695 696 697 698 699 700 701 702 703 704 705 706 707 708 709 710 711 712 713 714 715 716 717 718 719 720 721 722 723 724 725 726 727 728 729 730 731 732 733 734 735 736 737 738 739 740 741 742 743 744 745 746 747 748 749 750 751 752 753 754 755 756 757 758 759 760 761 762 763 764 765 766 767 768 769 770 771 772 773 774 775 776 777 778 779 780 781 782 783 784 785 786 787 788 789 790 791 792 793 794 795 796 797 798 799 800 801 802 803 804 805 806 807 808 809 810 811 812 813 814 815 816 817 818 819 820 821 822 823 824 825 826 827 828 829 830 831 832 833 834 835 836 837 838 839 840 841 842 843 844 845 846 847 848 849 850 851 852 853 854 855 856 857 858 859 860 861 862 863 864 865 866 867 868 869 870 871 872 873 874 875 876 877 878 879 880 881 882 883 884 885 886 887 888 889 890 891 892 893 894 895 896 897 898 899 900 901 902 903 904 905 906 907 908 909 910 911 912 913 914 915 916 917 918 919 920 921 922 923 924 925 926 927 928 929 930 931 932 933 934 935 936 937 938 939 940 941 942 943 944 945 946 947 948 949 950 951 952 953 954 955 956 957 958 959 960 961 962 963 964 965 966 967 968 969 970 971 972 973 974 975 976 977 978 979 980 981 982 983 984 985 986 987 988 989 990 991 992 993 994 995 996 997 998 999 1000 1001 1002 1003 1004 1005 1006 1007 1008 1009 1010 1011 1012 1013 1014 1015 1016 1017 1018 1019 1020 1021 1022 1023 1024 1025 1026 1027 1028 1029 1030 1031 1032 1033 1034 1035 1036 1037 1038 1039 1040 1041 1042 1043 1044 1045 1046 1047 1048 1049 1050 1051 1052 1053 1054 1055 1056 1057 1058 1059 1060 1061 1062 1063 1064 1065 1066 1067 1068 1069 1070 1071 1072 1073 1074 1075 1076 1077 1078 1079 1080 1081 1082 1083 1084 1085 1086 1087 1088 1089 1090 1091 1092 1093 1094 1095 1096 1097 1098 1099 1100 1101 1102 1103 1104 1105 1106 1107 1108 1109 1110 1111 1112 1113 1114 1115 1116 1117 1118 1119 1120 1121 1122 1123 1124 1125 1126 1127 1128 1129 1130 1131 1132 1133 1134 1135 1136 1137 1138 1139 1140 1141 1142 1143 1144 1145 1146 1147 1148 1149 1150 1151 1152 1153 1154 1155 1156 1157 1158 1159 1160 1161 1162 1163 1164 1165 1166 1167 1168 1169 1170 1171 1172 1173 1174 1175 1176 1177 1178 1179 1180 1181 1182 1183 1184 1185 1186 1187 1188 1189 1190 1191 1192 1193 1194 1195 1196 1197 1198 1199 1200 1201 1202 1203 1204 1205 1206 1207 1208 1209 1210 1211 1212 1213 1214 1215 1216 1217 1218 1219 1220 1221 1222 1223 1224 1225 1226 1227 1228 1229 1230 1231 1232 1233 1234 1235 1236 1237 1238 1239 1240 1241 1242 1243 1244 1245 1246 1247 1248 1249 1250 1251 1252 1253 1254 1255 1256 1257 1258 1259 1260 1261 1262 1263 1264 1265 1266 1267 1268 1269 1270 1271 1272 1273 1274 1275 1276 1277 1278 1279 1280 1281 1282 1283 1284 1285 1286 1287 1288 1289 1290 1291 1292 1293 1294 1295 1296 1297 1298 1299 1300 1301 1302 1303 1304 1305 1306 1307 1308 1309 1310 1311 1312 1313 1314 1315 1316 1317 1318 1319 1320 1321 1322 1323 1324 1325 1326 1327 1328 1329 1330 1331 1332 1333 1334 1335 1336 1337 1338 1339 1340 1341 1342 1343 1344 1345 1346 1347 1348 1349 1350 1351 1352 1353 1354 1355 1356 1357 1358 1359 1360 1361 1362 1363 1364 1365 1366 1367 1368 1369 1370 1371 1372 1373 1374 1375 1376 1377 1378 1379 1380 1381 1382 1383 1384 1385 1386 1387 1388 1389 1390 1391 1392 1393 1394 1395 1396 1397 1398 1399 1400 1401 1402 1403 1404 1405 1406 1407 1408 1409 1410 1411 1412 1413 1414 1415 1416 1417 1418 1419 1420 1421 1422 1423 1424 1425 1426 1427 1428 1429 1430 1431 1432 1433 1434 1435 1436 1437 1438 1439 1440 1441 1442 1443 1444 1445 1446 1447 1448 1449 1450 1451 1452 1453 1454 1455 1456 1457 1458 1459 1460 1461 1462 1463 1464 1465 1466 1467 1468 1469 1470 1471 1472 1473 1474 1475 1476 1477 1478 1479 1480 1481 1482 1483 1484 1485 1486 1487 1488 1489 1490 1491 1492 1493 1494 1495 1496 1497 1498 1499 1500 1501 1502 1503 1504 1505 1506 1507 1508 1509 1510 1511 1512 1513 1514 1515 1516 1517 1518 1519 1520 1521 1522 1523 1524 1525 1526 1527 1528 1529 1530 1531 1532 1533 1534 1535 1536 1537 1538 1539 1540 1541 1542 1543 1544 1545 1546 1547 1548 1549 1550 1551 1552 1553 1554 1555 1556 1557 1558 1559 1560 1561 1562 1563 1564 1565 1566 1567 1568 1569 1570 1571 1572 1573 1574 1575 1576 1577 1578 1579 1580 1581 1582 1583 1584 1585 1586 1587 1588 1589 1590 1591 1592 1593 1594 1595 1596 1597 1598 1599 1600 1601 1602 1603 1604 1605 1606 1607 1608 1609 1610 1611 1612 1613 1614 1615 1616 1617 1618 1619 1620 1621 1622 1623 1624 1625 1626 1627 1628 1629 1630 1631 1632 1633 1634 1635 1636 1637 1638 1639 1640 1641 1642 1643 1644 1645 1646 1647 1648 1649 1650 1651 1652 1653 1654 1655 1656 1657 1658 1659 1660 1661 1662 1663 1664 1665 1666 1667 1668 1669 1670 1671 1672 1673 1674 1675 1676 1677 1678 1679 1680 1681 1682 1683 1684 1685 1686 1687 1688 1689 1690 1691 1692 1693 1694 1695 1696 1697 1698 1699 1700 1701 1702 1703 1704 1705 1706 1707 1708 1709 1710 1711 1712 1713 1714 1715 1716 1717 1718 1719 1720 1721 1722 1723 1724 1725 1726 1727 1728 1729 1730 1731 1732 1733 1734 1735 1736 1737 1738 1739 1740 1741 1742 1743 1744 1745 1746 1747 1748 1749 1750 1751 1752 1753 1754 1755 1756 1757 1758 1759 1760 1761 1762 1763 1764 1765 1766 1767 1768 1769 1770 1771 1772 1773 1774 1775 1776 1777 1778 1779 1780 1781 1782 1783 1784 1785 1786 1787 1788 1789 1790 1791 1792 1793 1794 1795 1796 1797 1798 1799 1800 1801 1802 1803 1804 1805 1806 1807 1808 1809 1810 1811 1812 1813 1814 1815 1816 1817 1818 1819 1820 1821 1822 1823 1824 1825 1826 1827 1828 1829 1830 1831 1832 1833 1834 1835 1836 1837 1838 1839 1840 1841 1842 1843 1844 1845 1846 1847 1848 1849 1850 1851 1852 1853 1854 1855 1856 1857 1858 1859 1860 1861 1862 1863 1864 1865 1866 1867 1868 1869 1870 1871 1872 1873 1874 1875 1876 1877 1878 1879 1880 1881 1882 1883 1884 1885 1886 1887 1888 1889 1890 1891 1892 1893 1894 1895 1896 1897 1898 1899 1900 1901 1902 1903 1904 1905 1906 1907 1908 1909 1910 1911 1912 1913 1914 1915 1916 1917 1918 1919 1920 1921 1922 1923 1924 1925 1926 1927 1928 1929 1930 1931 1932 1933 1934 1935 1936 1937 1938 1939 1940 1941 1942 1943 1944 1945 1946 1947 1948 1949 1950 1951 1952 1953 1954 1955 1956 1957 1958 1959 1960 1961 1962 1963 1964 1965 1966 1967 1968 1969 1970 1971 1972 1973 1974 1975 1976 1977 1978 1979 1980 1981 1982 1983 1984 1985 1986 1987 1988 1989 1990 1991 1992 1993 1994 1995 1996 1997 1998 1999 2000 2001 2002 2003 2004 2005 2006 2007 2008 2009 2010 2011 2012 2013 2014 2015 2016 2017 2018 2019 2020 2021 2022 2023 2024 2025 2026 2027 2028 2029 2030 2031 2032 2033 2034 2035 2036 2037 2038 2039 2040 2041 2042 2043 2044 2045 2046 2047 2048 2049 2050 2051 2052 2053 2054 2055 2056 2057 2058 2059 2060 2061 2062 2063 2064 2065 2066 2067 2068 2069 2070 2071 2072 2073 2074 2075 2076 2077 2078 2079 2080 2081 2082 2083 2084 2085 2086 2087 2088 2089 2090 2091 2092 2093 2094 2095 2096 2097 2098 2099 2100 2101 2102 2103 2104 2105 2106 2107 2108 2109 2110 2111 2112 2113 2114 2115 2116 2117 2118 2119 2120 2121 2122 2123 2124 2125 2126 2127 2128 2129 2130 2131 2132 2133 2134 2135 2136 2137 2138 2139 2140 2141 2142 2143 2144 2145 2146 2147 2148 2149 2150 2151 2152 2153 2154 2155 2156 2157 2158 2159 2160 2161 2162 2163 2164 2165 2166 2167 2168 2169 2170 2171 2172 2173 2174 2175 2176 2177 2178 2179 2180 2181 2182 2183 2184 2185 2186 2187 2188 2189 2190 2191 2192 2193 2194 2195 2196 2197 2198 2199 2200 2201 2202 2203 2204 2205 2206 2207 2208 2209 2210 2211 2212 2213 2214 2215 2216 2217 2218 2219 2220 2221 2222 2223 2224 2225 2226 2227 2228 2229 2230 2231 2232 2233 2234 2235 2236 2237 2238 2239 2240 2241 2242 2243 2244 2245 2246 2247 2248 2249 2250 2251 2252 2253 2254 2255 2256 2257 2258 2259 2260 2261 2262 2263 2264 2265 2266 2267 2268 2269 2270 2271 2272 2273 2274 2275 2276 2277 2278 2279 2280 2281 2282 2283 2284 2285 2286 2287 2288 2289 2290 2291 2292 2293 2294 2295 2296 2297 2298 2299 2300 2301 2302 2303 2304 2305 2306 2307 2308 2309 2310 2311 2312 2313 2314 2315 2316 2317 2318 2319 2320 2321 2322 2323 2324 2325 2326 2327 2328 2329 2330 2331 2332 2333 2334 2335 2336 2337 2338 2339 2340 2341 2342 2343 2344 2345 2346 2347 2348 2349 2350 2351 2352 2353 2354 2355 2356 2357 2358 2359 2360 2361 2362 2363 2364 2365 2366 2367 2368 2369 2370 2371 2372 2373 2374 2375 2376 2377 2378 2379 2380 2381 2382 2383 2384 2385 2386 2387 2388 2389 2390 2391 2392 2393 2394 2395 2396 2397 2398 2399 2400 2401 2402 2403 2404 2405 2406 2407 2408 2409 2410 2411 2412 2413 2414 2415 2416 2417 2418 2419 2420 2421 2422 2423 2424 2425 2426 2427 2428 2429 2430 2431 2432 2433 2434 2435 2436 2437 2438 2439 2440 2441 2442 2443 2444 2445 2446 2447 2448 2449 2450 2451 2452 2453 2454 2455 2456 2457 2458 2459 2460 2461 2462 2463 2464 2465 2466 2467 2468 2469 2470 2471 2472 2473 2474 2475 2476 2477 2478 2479 2480 2481 2482 2483 2484 2485 2486 2487 2488 2489 2490 2491 2492 2493 2494 2495 2496 2497 2498 2499 2500 2501 2502 2503 2504 2505 2506 2507 2508 2509 2510 2511 2512 2513 2514 2515 2516 2517 2518 2519 2520 2521 2522 2523 2524 2525 2526 2527 2528 2529 2530 2531 2532 2533 2534 2535 2536 2537 2538 2539 2540 2541 2542 2543 2544 2545 2546 2547 2548 2549 2550 2551 2552 2553 2554 2555 2556 2557 2558 2559 2560 2561 2562 2563 2564 2565 2566 2567 2568 2569 2570 2571 2572 2573 2574 2575 2576 2577 2578 2579 2580 2581 2582 2583 2584 2585 2586 2587 2588 2589 2590 2591 2592 2593 2594 2595 2596 2597 2598 2599 2600 2601 2602 2603 2604 2605 2606 2607 2608 2609 2610 2611 2612 2613 2614 2615 2616 2617 2618 2619 2620 2621 2622 2623 2624 2625 2626 2627 2628 2629 2630 2631 2632 2633 2634 2635 2636 2637 2638 2639 2640 2641 2642 2643 2644 2645 2646 2647 2648 2649 2650 2651 2652 2653 2654 2655 2656 2657 2658 2659 2660 2661 2662 2663 2664 2665 2666 2667 2668 2669 2670 2671 2672 2673 2674 2675 2676 2677 2678 2679 2680 2681 2682 2683 2684 2685 2686 2687 2688 2689 2690 2691 2692 2693 2694 2695 2696 2697 2698 2699 2700 2701 2702 2703 2704 2705 2706 2707 2708 2709 2710 2711 2712 2713 2714 2715 2716 2717 2718 2719 2720 2721 2722 2723 2724 2725 2726 2727 2728 2729 2730 2731 2732 2733 2734 2735 2736 2737 2738 2739 2740 2741 2742 2743 2744 2745 2746 2747 2748 2749 2750 2751 2752 2753 2754 2755 2756 2757 2758 2759 2760 2761 2762 2763 2764 2765 2766 2767 2768 2769 2770 2771 2772 2773 2774 2775 2776 2777 2778 2779 2780 2781 2782 2783 2784 2785 2786 2787 2788 2789 2790 2791 2792 2793 2794 2795 2796 2797 2798 2799 2800 2801 2802 2803 2804 2805 2806 2807 2808 2809 2810 2811 2812 2813 2814 2815 2816 2817 2818 2819 2820 2821 2822 2823 2824 2825 2826 2827 2828 2829 2830 2831 2832 2833 2834 2835 2836 2837 2838 2839 2840 2841 2842 2843 2844 2845 2846 2847 2848 2849 2850 2851 2852 2853 2854 2855 2856 2857 2858 2859 2860 2861 2862 2863 2864 2865 2866 2867 2868 2869 2870 2871 2872 2873 2874 2875 2876 2877 2878 2879 2880 2881 2882 2883 2884 2885 2886 2887 2888 2889 2890 2891 2892 2893 2894 2895 2896 2897 2898 2899 2900 2901 2902 2903 2904 2905 2906 2907 2908 2909 2910 2911 2912 2913 2914 2915 2916 2917 2918 2919 2920 2921 2922 2923 2924 2925 2926 2927 2928 2929 2930 2931 2932 2933 2934 2935 2936 2937 2938 2939 2940 2941 2942 2943 2944 2945 2946 2947 2948 2949 2950 2951 2952 2953 2954 2955 2956 2957 2958 2959 2960 2961 2962 2963 2964 2965 2966 2967 2968 2969 2970 2971 2972 2973 2974 2975 2976 2977 2978 2979 2980 2981 2982 2983 2984 2985 2986 2987 2988 2989 2990 2991 2992 2993 2994 2995 2996 2997 2998 2999 3000 3001 3002 3003 3004 3005 3006 3007 3008 3009 3010 3011 3012 3013 3014 3015 3016 3017 3018 3019 3020 3021 3022 3023 3024 3025 3026 3027 3028 3029 3030 3031 3032 3033 3034 3035 3036 3037 3038 3039 3040 3041 3042 3043 3044 3045 3046 3047 3048 3049 3050 3051 3052 3053 3054 3055 3056 3057 3058 3059 3060 3061 3062 3063 3064 3065 3066 3067 3068 3069 3070 3071 3072 3073 3074 3075 3076 3077 3078 3079 3080 3081 3082 3083 3084 3085 3086 3087 3088 3089 3090 3091 3092 3093 3094 3095 3096 3097 3098 3099 3100 3101 3102 3103 3104 3105 3106 3107 3108 3109 3110 3111 3112 3113 3114 3115 3116 3117 3118 3119 3120 3121 3122 3123 3124 3125 3126 3127 3128 3129 3130 3131 3132 3133 3134 3135 3136 3137 3138 3139 3140 3141 3142 3143 3144 3145 3146 3147 3148 3149 3150 3151 3152 3153 3154 3155 3156 3157 3158 3159 3160 3161 3162 3163 3164 3165 3166 3167 3168 3169 3170 3171 3172 3173 3174 3175 3176 3177 3178 3179 3180 3181 3182 3183 3184 3185 3186 3187 3188 3189 3190 3191 3192 3193 3194 3195 3196 3197 3198 3199 3200 3201 3202 3203 3204 3205 3206 3207 3208 3209 3210 3211 3212 3213 3214 3215 3216 3217 3218 3219 3220 3221 3222 3223 3224 3225 3226 3227 3228 3229 3230 3231 3232 3233 3234 3235 3236 3237 3238 3239 3240 3241 3242 3243 3244 3245 3246 3247 3248 3249 3250 3251 3252 3253 3254 3255 3256 3257 3258 3259 3260 3261 3262 3263 3264 3265 3266 3267 3268 3269 3270 3271 3272 3273 3274 3275 3276 3277 3278 3279 3280 3281 3282 3283 3284 3285 3286 3287 3288 3289 3290 3291 3292 3293 3294 3295 3296 3297 3298 3299 3300 3301 3302 3303 3304 3305 3306 3307 3308 3309 3310 3311 3312 3313 3314 3315 3316 3317 3318 3319 3320 3321 3322 3323 3324 3325 3326 3327 3328 3329 3330 3331 3332 3333 3334 3335 3336 3337 3338 3339 3340 3341 3342 3343 3344 3345 3346 3347 3348 3349 3350 3351 3352 3353 3354 3355 3356 3357 3358 3359 3360 3361 3362 3363 3364 3365 3366 3367 3368 3369 3370 3371 3372 3373 3374 3375 3376 3377 3378 3379 3380 3381 3382 3383 3384 3385 3386 3387 3388 3389 3390 3391 3392 3393 3394 3395 3396 3397 3398 3399 3400 3401 3402 3403 3404 3405 3406 3407 3408 3409 3410 3411 3412 3413 3414 3415 3416 3417 3418 3419 3420 3421 3422 3423 3424 3425 3426 3427 3428 3429 3430 3431 3432 3433 3434 3435 3436 3437 3438 3439 3440 3441 3442 3443 3444 3445 3446 3447 3448 3449 3450 3451 3452 3453 3454 3455 3456 3457 3458 3459 3460 3461 3462 3463 3464 3465 3466 3467 3468 3469 3470 3471 3472 3473 3474 3475 3476 3477 3478 3479 3480 3481 3482 3483 3484 3485 3486 3487 3488 3489 3490 3491 3492 3493 3494 3495 3496 3497 3498 3499 3500 3501 3502 3503 3504 3505 3506 3507 3508 3509 3510 3511 3512 3513 3514 3515 3516 3517 3518 3519 3520 3521 3522 3523 3524 3525 3526 3527 3528 3529 3530 3531 3532 3533 3534 3535 3536 3537 3538 3539 3540 3541 3542 3543 3544 3545 3546 3547 3548 3549 3550 3551 3552 3553 3554 3555 3556 3557 3558 3559 3560 3561 3562 3563 3564 3565 3566 3567 3568 3569 3570 3571 3572 3573 3574 3575 3576 3577 3578 3579 3580 3581 3582 3583 3584 3585 3586 3587 3588 3589 3590 3591 3592 3593 3594 3595 3596 3597 3598 3599 3600 3601 3602 3603 3604 3605 3606 3607 3608 3609 3610 3611 3612 3613 3614 3615 3616 3617 3618 3619 3620 3621 3622 3623 3624 3625 3626 3627 3628 3629 3630 3631 3632 3633 3634 3635 3636 3637 3638 3639 3640 3641 3642 3643 3644 3645 3646 3647 3648 3649 3650 3651 3652 3653 3654 3655 3656 3657 3658 3659 3660 3661 3662 3663 3664 3665 3666 3667 3668 3669 3670 3671 3672 3673 3674 3675 3676 3677 3678 3679 3680 3681 3682 3683 3684 3685 3686 3687 3688 3689 3690 3691 3692 3693 3694 3695 3696 3697 3698 3699 3700 3701 3702 3703 3704 3705 3706 3707 3708 3709 3710 3711 3712 3713 3714 3715 3716 3717 3718 3719 3720 3721 3722 3723 3724 3725 3726 3727 3728 3729 3730 3731 3732 3733 3734 3735 3736 3737 3738 3739 3740 3741 3742 3743 3744 3745 3746 3747 3748 3749 3750 3751 3752 3753 3754 3755 3756 3757 3758 3759 3760 3761 3762 3763 3764 3765 3766 3767 3768 3769 3770 3771 3772 3773 3774 3775 3776 3777 3778 3779 3780 3781 3782 3783 3784 3785 3786 3787 3788 3789 3790 3791 3792 3793 3794 3795 3796 3797 3798 3799 3800 3801 3802 3803 3804 3805 3806 3807 3808 3809 3810 3811 3812 3813 3814 3815 3816 3817 3818 3819 3820 3821 3822 3823 3824 3825 3826 3827 3828 3829 3830 3831 3832 3833 3834 3835 3836 3837 3838 3839 3840 3841 3842 3843 3844 3845 3846 3847 3848 3849 3850 3851 3852 3853 3854 3855 3856 3857 3858 3859 3860 3861 3862 3863 3864 3865 3866 3867 3868 3869 3870 3871 3872 3873 3874 3875 3876 3877 3878 3879 3880 3881 3882 3883 3884 3885 3886 3887 3888 3889 3890 3891 3892 3893 3894 3895 3896 3897 3898 3899 3900 3901 3902 3903 3904 3905 3906 3907 3908 3909 3910 3911 3912 3913 3914 3915 3916 3917 3918 3919 3920 3921 3922 3923 3924 3925 3926 3927 3928 3929 3930 3931 3932 3933 3934 3935 3936 3937 3938 3939 3940 3941 3942 3943 3944 3945 3946 3947 3948 3949 3950 3951 3952 3953 3954 3955 3956 3957 3958 3959 3960 3961 3962 3963 3964 3965 3966 3967 3968 3969 3970 3971 3972 3973 3974 3975 3976 3977 3978 3979 3980 3981 3982 3983 3984 3985 3986 3987 3988 3989 3990 3991 3992 3993 3994 3995 3996 3997 3998 3999 4000 4001 4002 4003 4004 4005 4006 4007 4008 4009 4010 4011 4012 4013 4014 4015 4016 4017 4018 4019 4020 4021 4022 4023 4024 4025 4026 4027 4028 4029 4030 4031 4032 4033 4034 4035 4036 4037 4038 4039 4040 4041 4042 4043 4044 4045 4046 4047 4048 4049 4050 4051 4052 4053 4054 4055 4056 4057 4058 4059 4060 4061 4062 4063 4064 4065 4066 4067 4068 4069 4070 4071 4072 4073 4074 4075 4076 4077 4078 4079 4080 4081 4082 4083 4084 4085 4086 4087 4088 4089 4090 4091 4092 4093 4094 4095 4096 4097 4098 4099 4100 4101 4102 4103 4104 4105 4106 4107 4108 4109 4110 4111 4112 4113 4114 4115 4116 4117 4118 4119 4120 4121 4122 4123 4124 4125 4126 4127 4128 4129 4130 4131 4132 4133 4134 4135 4136 4137 4138 4139 4140 4141 4142 4143 4144 4145 4146 4147 4148 4149 4150 4151 4152 4153 4154 4155 4156 4157 4158 4159 4160 4161 4162 4163 4164 4165 4166 4167 4168 4169 4170 4171 4172 4173 4174 4175 4176 4177 4178 4179 4180 4181 4182 4183 4184 4185 4186 4187 4188 4189 4190 4191 4192 4193 4194 4195 4196 4197 4198 4199 4200 4201 4202 4203 4204 4205 4206 4207 4208 4209 4210 4211 4212 4213 4214 4215 4216 4217 4218 4219 4220 4221 4222 4223 4224 4225 4226 4227 4228 4229 4230 4231 4232 4233 4234 4235 4236 4237 4238 4239 4240 4241 4242 4243 4244 4245 4246 4247 4248 4249 4250 4251 4252 4253 4254 4255 4256 4257 4258 4259 4260 4261 4262 4263 4264 4265 4266 4267 4268 4269 4270 4271 4272 4273 4274 4275 4276 4277 4278 4279 4280 4281 4282 4283 4284 4285 4286 4287 4288 4289 4290 4291 4292 4293 4294 4295 4296 4297 4298 4299 4300 4301 4302 4303 4304 4305 4306 4307 4308 4309 4310 4311 4312 4313 4314 4315 4316 4317 4318 4319 4320 4321 4322 4323 4324 4325 4326 4327 4328 4329 4330 4331 4332 4333 4334 4335 4336 4337 4338 4339 4340 4341 4342 4343 4344 4345 4346 4347 4348 4349 4350 4351 4352 4353 4354 4355 4356 4357 4358 4359 4360 4361 4362 4363 4364 4365 4366 4367 4368 4369 4370 4371 4372 4373 4374 4375 4376 4377 4378 4379 4380 4381 4382 4383 4384 4385 4386 4387 4388 4389 4390 4391 4392 4393 4394 4395 4396 4397 4398 4399 4400 4401 4402 4403 4404 4405 4406 4407 4408 4409 4410 4411 4412 4413 4414 4415 4416 4417 4418 4419 4420 4421 4422 4423 4424 4425 4426 4427 4428 4429 4430 4431 4432 4433 4434 4435 4436 4437 4438 4439 4440 4441 4442 4443 4444 4445 4446 4447 4448 4449 4450 4451 4452 4453 4454 4455 4456 4457 4458 4459 4460 4461 4462 4463 4464 4465 4466 4467 4468 4469 4470 4471 4472 4473 4474 4475 4476 4477 4478 4479 4480 4481 4482 4483 4484 4485 4486 4487 4488 4489 4490 4491 4492 4493 4494 4495 4496 4497 4498 4499 4500 4501 4502 4503 4504 4505 4506 4507 4508 4509 4510 4511 4512 4513 4514 4515 4516 4517 4518 4519 4520 4521 4522 4523 4524 4525 4526 4527 4528 4529 4530 4531 4532 4533 4534 4535 4536 4537 4538 4539 4540 4541 4542 4543 4544 4545 4546 4547 4548 4549 4550 4551 4552 4553 4554 4555 4556 4557 4558 4559 4560 4561 4562 4563 4564 4565 4566 4567 4568 4569 4570 4571 4572 4573 4574 4575 4576 4577 4578 4579 4580 4581 4582 4583 4584 4585 4586 4587 4588 4589 4590 4591 4592 4593 4594 4595 4596 4597 4598 4599 4600 4601 4602 4603 4604 4605 4606 4607 4608 4609 4610 4611 4612 4613 4614 4615 4616 4617 4618 4619 4620 4621 4622 4623 4624 4625 4626 4627 4628 4629 4630 4631 4632 4633 4634 4635 4636 4637 4638 4639 4640 4641 4642 4643 4644 4645 4646 4647 4648 4649 4650 4651 4652 4653 4654 4655 4656 4657 4658 4659 4660 4661 4662 4663 4664 4665 4666 4667 4668 4669 4670 4671 4672 4673 4674 4675 4676 4677 4678 4679 4680 4681 4682 4683 4684 4685 4686 4687 4688 4689 4690 4691 4692 4693 4694 4695 4696 4697 4698 4699 4700 4701 4702 4703 4704 4705 4706 4707 4708 4709 4710 4711 4712 4713 4714 4715 4716 4717 4718 4719 4720 4721 4722 4723 4724 4725 4726 4727 4728 4729 4730 4731 4732 4733 4734 4735 4736 4737 4738 4739 4740 4741 4742 4743 4744 4745 4746 4747 4748 4749 4750 4751 4752 4753 4754 4755 4756 4757 4758 4759 4760 4761 4762 4763 4764 4765 4766 4767 4768 4769 4770 4771 4772 4773 4774 4775 4776 4777 4778 4779 4780 4781 4782 4783 4784 4785 4786 4787 4788 4789 4790 4791 4792 4793 4794 4795 4796 4797 4798 4799 4800 4801 4802 4803 4804 4805 4806 4807 4808 4809 4810 4811 4812 4813 4814 4815 4816 4817 4818 4819 4820 4821 4822 4823 4824 4825 4826 4827 4828 4829 4830 4831 4832 4833 4834 4835 4836 4837 4838 4839 4840 4841 4842 4843 4844 4845 4846 4847 4848 4849 4850 4851 4852 4853 4854 4855 4856 4857 4858 4859 4860 4861 4862 4863 4864 4865 4866 4867 4868 4869 4870 4871 4872 4873 4874 4875 4876 4877 4878 4879 4880 4881 4882 4883 4884 4885 4886 4887 4888 4889 4890 4891 4892 4893 4894 4895 4896 4897 4898 4899 4900 4901 4902 4903 4904 4905 4906 4907 4908 4909 4910 4911 4912 4913 4914 4915 4916 4917 4918 4919 4920 4921 4922 4923 4924 4925 4926 4927 4928 4929 4930 4931 4932 4933 4934 4935 4936 4937 4938 4939 4940 4941 4942 4943 4944 4945 4946 4947 4948 4949 4950 4951 4952 4953 4954 4955 4956 4957 4958 4959 4960 4961 4962 4963 4964 4965 4966 4967 4968 4969 4970 4971 4972 4973 4974 4975 4976 4977 4978 4979 4980 4981 4982 4983 4984 4985 4986 4987 4988 4989 4990 4991 4992 4993 4994 4995 4996 4997 4998 4999 5000 5001 5002 5003 5004 5005 5006 5007 5008 5009 5010 5011 5012 5013 5014 5015 5016 5017 5018 5019 5020 5021 5022 5023 5024 5025 5026 5027 5028 5029 5030 5031 5032 5033 5034 5035 5036 5037 5038 5039 5040 5041 5042 5043 5044 5045 5046 5047 5048 5049 5050 5051 5052 5053 5054 5055 5056 5057 5058 5059 5060 5061 5062 5063 5064 5065 5066 5067 5068 5069 5070 5071 5072 5073 5074 5075 5076 5077 5078 5079 5080 5081 5082 5083 5084 5085 5086 5087 5088 5089 5090 5091 5092 5093 5094 5095 5096 5097 5098 5099 5100 5101 5102 5103 5104 5105 5106 5107 5108 5109 5110 5111 5112 5113 5114 5115 5116 5117 5118 5119 5120 5121 5122 5123 5124 5125 5126 5127 5128 5129 5130 5131 5132 5133 5134 5135 5136 5137 5138 5139 5140 5141 5142 5143 5144 5145 5146 5147 5148 5149 5150 5151 5152 5153 5154 5155 5156 5157 5158 5159 5160 5161 5162 5163 5164 5165 5166 5167 5168 5169 5170 5171 5172 5173 5174 5175 5176 5177 5178 5179 5180 5181 5182 5183 5184 5185 5186 5187 5188 5189 5190 5191 5192 5193 5194 5195 5196 5197 5198 5199 5200 5201 5202 5203 5204 5205 5206 5207 5208 5209 5210 5211 5212 5213 5214 5215 5216 5217 5218 5219 5220 5221 5222 5223 5224 5225 5226 5227 5228 5229 5230 5231 5232 5233 5234 5235 5236 5237 5238 5239 5240 5241 5242 5243 5244 5245 5246 5247 5248 5249 5250 5251 5252 5253 5254 5255 5256 5257 5258 5259 5260 5261 5262 5263 5264 5265 5266 5267 5268 5269 5270 5271 5272 5273 5274 5275 5276 5277 5278 5279 5280 5281 5282 5283 5284 5285 5286 5287 5288 5289 5290 5291 5292 5293 5294 5295 5296 5297 5298 5299 5300 5301 5302 5303 5304 5305 5306 5307 5308 5309 5310 5311 5312 5313 5314 5315 5316 5317 5318 5319 5320 5321 5322 5323 5324 5325 5326 5327 5328 5329 5330 5331 5332 5333 5334 5335 5336 5337 5338 5339 5340 5341 5342 5343 5344 5345 5346 5347 5348 5349 5350 5351 5352 5353 5354 5355 5356 5357 5358 5359 5360 5361 5362 5363 5364 5365 5366 5367 5368 5369 5370 5371 5372 5373 5374 5375 5376 5377 5378 5379 5380 5381 5382 5383 5384 5385 5386 5387 5388 5389 5390 5391 5392 5393 5394 5395 5396 5397 5398 5399 5400 5401 5402 5403 5404 5405 5406 5407 5408 5409 5410 5411 5412 5413 5414 5415 5416 5417 5418 5419 5420 5421 5422 5423 5424 5425 5426 5427 5428 5429 5430 5431 5432 5433 5434 5435 5436 5437 5438 5439 5440 5441 5442 5443 5444 5445 5446 5447 5448 5449 5450 5451 5452 5453 5454 5455 5456 5457 5458 5459 5460 5461 5462 5463 5464 5465 5466 5467 5468 5469 5470 5471 5472 5473 5474 5475 5476 5477 5478 5479 5480 5481 5482 5483 5484 5485 5486 5487 5488 5489 5490 5491 5492 5493 5494 5495 5496 5497 5498 5499 5500 5501 5502 5503 5504 5505 5506 5507 5508 5509 5510 5511 5512 5513 5514 5515 5516 5517 5518 5519 5520 5521 5522 5523 5524 5525 5526 5527 5528 5529 5530 5531 5532 5533 5534 5535 5536 5537 5538 5539 5540 5541 5542 5543 5544 5545 5546 5547 5548 5549 5550 5551 5552 5553 5554 5555 5556 5557 5558 5559 5560 5561 5562 5563 5564 5565 5566 5567 5568 5569 5570 5571 5572 5573 5574 5575 5576 5577 5578 5579 5580 5581 5582 5583 5584 5585 5586 5587 5588 5589 5590 5591 5592 5593 5594 5595 5596 5597 5598 5599 5600 5601 5602 5603 5604 5605 5606 5607 5608 5609 5610 5611 5612 5613 5614 5615 5616 5617 5618 5619 5620 5621 5622 5623 5624 5625 5626 5627 5628 5629 5630 5631 5632 5633 5634 5635 5636 5637 5638 5639 5640 5641 5642 5643 5644 5645 5646 5647 5648 5649 5650 5651 5652 5653 5654 5655 5656 5657 5658 5659 5660 5661 5662 5663 5664 5665 5666 5667 5668 5669 5670 5671 5672 5673 5674 5675 5676 5677 5678 5679 5680 5681 5682 5683 5684 5685 5686 5687 5688 5689 5690 5691 5692 5693 5694 5695 5696 5697 5698 5699 5700 5701 5702 5703 5704 5705 5706 5707 5708 5709 5710 5711 5712 5713 5714 5715 5716 5717 5718 5719 5720 5721 5722 5723 5724 5725 5726 5727 5728 5729 5730 5731 5732 5733 5734 5735 5736 5737 5738 5739 5740 5741 5742 5743 5744 5745 5746 5747 5748 5749 5750 5751 5752 5753 5754 5755 5756 5757 5758 5759 5760 5761 5762 5763 5764 5765 5766 5767 5768 5769 5770 5771 5772 5773 5774 5775 5776 5777 5778 5779 5780 5781 5782 5783 5784 5785 5786 5787 5788 5789 5790 5791 5792 5793 5794 5795 5796 5797 5798 5799 5800 5801 5802 5803 5804 5805 5806 5807 5808 5809 5810 5811 5812 5813 5814 5815 5816 5817 5818 5819 5820 5821 5822 5823 5824 5825 5826 5827 5828 5829 5830 5831 5832 5833 5834 5835 5836 5837 5838 5839 5840 5841 5842 5843 5844 5845 5846 5847 5848 5849 5850 5851 5852 5853 5854 5855 5856 5857 5858 5859 5860 5861 5862 5863 5864 5865 5866 5867 5868 5869 5870 5871 5872 5873 5874 5875 5876 5877 5878 5879 5880 5881 5882 5883 5884 5885 5886 5887 5888 5889 5890 5891 5892 5893 5894 5895 5896 5897 5898 5899 5900 5901 5902 5903 5904 5905 5906 5907 5908 5909 5910 5911 5912 5913 5914 5915 5916 5917 5918 5919 5920 5921 5922 5923 5924 5925 5926 5927 5928 5929 5930 5931 5932 5933 5934 5935 5936 5937 5938 5939 5940 5941 5942 5943 5944 5945 5946 5947 5948 5949 5950 5951 5952 5953 5954 5955 5956 5957 5958 5959 5960 5961 5962 5963 5964 5965 5966 5967 5968 5969 5970 5971 5972 5973 5974 5975 5976 5977 5978 5979 5980 5981 5982 5983 5984 5985 5986 5987 5988 5989 5990 5991 5992 5993 5994 5995 5996 5997 5998 5999 6000 6001 6002 6003 6004 6005 6006 6007 6008 6009 6010 6011 6012 6013 6014 6015 6016 6017 6018 6019 6020 6021 6022 6023 6024 6025 6026 6027 6028 6029 6030 6031 6032 6033 6034 6035 6036 6037 6038 6039 6040 6041 6042 6043 6044 6045 6046 6047 6048 6049 6050 6051 6052 6053 6054 6055 6056 6057 6058 6059 6060 6061 6062 6063 6064 6065 6066 6067 6068 6069 6070 6071 6072 6073 6074 6075 6076 6077 6078 6079 6080 6081 6082 6083 6084 6085 6086 6087 6088 6089 6090 6091 6092 6093 6094 6095 6096 6097 6098 6099 6100 6101 6102 6103 6104 6105 6106 6107 6108 6109 6110 6111 6112 6113 6114 6115 6116 6117 6118 6119 6120 6121 6122 6123 6124 6125 6126 6127 6128 6129 6130 6131 6132 6133 6134 6135 6136 6137 6138 6139 6140 6141 6142 6143 6144 6145 6146 6147 6148 6149 6150 6151 6152 6153 6154 6155 6156 6157 6158 6159 6160 6161 6162 6163 6164 6165 6166 6167 6168 6169 6170 6171 6172 6173 6174 6175 6176 6177 6178 6179 6180 6181 6182 6183 6184 6185 6186 6187 6188 6189 6190 6191 6192 6193 6194 6195 6196 6197 6198 6199 6200 6201 6202 6203 6204 6205 6206 6207 6208 6209 6210 6211 6212 6213 6214 6215 6216 6217 6218 6219 6220 6221 6222 6223 6224 6225 6226 6227 6228 6229 6230 6231 6232 6233 6234 6235 6236 6237 6238 6239 6240 6241 6242 6243 6244 6245 6246 6247 6248 6249 6250 6251 6252 6253 6254 6255 6256 6257 6258 6259 6260 6261 6262 6263 6264 6265 6266 6267 6268 6269 6270 6271 6272 6273 6274 6275 6276 6277 6278 6279 6280 6281 6282 6283 6284 6285 6286 6287 6288 6289 6290 6291 6292 6293 6294 6295 6296 6297 6298 6299 6300 6301 6302 6303 6304 6305 6306 6307 6308 6309 6310 6311 6312 6313 6314 6315 6316 6317 6318 6319 6320 6321 6322 6323 6324 6325 6326 6327 6328 6329 6330 6331 6332 6333 6334 6335 6336 6337 6338 6339 6340 6341 6342 6343 6344 6345 6346 6347 6348 6349 6350 6351 6352 6353 6354 6355 6356 6357 6358 6359 6360 6361 6362 6363 6364 6365 6366 6367 6368 6369 6370 6371 6372 6373 6374 6375 6376 6377 6378 6379 6380 6381 6382 6383 6384 6385 6386 6387 6388 6389 6390 6391 6392 6393 6394 6395 6396 6397 6398 6399 6400 6401 6402 6403 6404 6405 6406 6407 6408 6409 6410 6411 6412 6413 6414 6415 6416 6417 6418 6419 6420 6421 6422 6423 6424 6425 6426 6427 6428 6429 6430 6431 6432 6433 6434 6435 6436 6437 6438 6439 6440 6441 6442 6443 6444 6445 6446 6447 6448 6449 6450 6451 6452 6453 6454 6455 6456 6457 6458 6459 6460 6461 6462 6463 6464 6465 6466 6467 6468 6469 6470 6471 6472 6473 6474 6475 6476 6477 6478 6479 6480 6481 6482 6483 6484 6485 6486 6487 6488 6489 6490 6491 6492 6493 6494 6495 6496 6497 6498 6499 6500 6501 6502 6503 6504 6505 6506 6507 6508 6509 6510 6511 6512 6513 6514 6515 6516 6517 6518 6519 6520 6521 6522 6523 6524 6525 6526 6527 6528 6529 6530 6531 6532 6533 6534 6535 6536 6537 6538 6539 6540 6541 6542 6543 6544 6545 6546 6547 6548 6549 6550 6551 6552 6553 6554 6555 6556 6557 6558 6559 6560 6561 6562 6563 6564 6565 6566 6567 6568 6569 6570 6571 6572 6573 6574 6575 6576 6577 6578 6579 6580 6581 6582 6583 6584 6585 6586 6587 6588 6589 6590 6591 6592 6593 6594 6595 6596 6597 6598 6599 6600 6601 6602 6603 6604 6605 6606 6607 6608 6609 6610 6611 6612 6613 6614 6615 6616 6617 6618 6619 6620 6621 6622 6623 6624 6625 6626 6627 6628 6629 6630 6631 6632 6633 6634 6635 6636 6637 6638 6639 6640 6641 6642 6643 6644 6645 6646 6647 6648 6649 6650 6651 6652 6653 6654 6655 6656 6657 6658 6659 6660 6661 6662 6663 6664 6665 6666 6667 6668 6669 6670 6671 6672 6673 6674 6675 6676 6677 6678 6679 6680 6681 6682 6683 6684 6685 6686 6687 6688 6689 6690 6691 6692 6693 6694 6695 6696 6697 6698 6699 6700 6701 6702 6703 6704 6705 6706 6707 6708 6709 6710 6711 6712 6713 6714 6715 6716 6717 6718 6719 6720 6721 6722 6723 6724 6725 6726 6727 6728 6729 6730 6731 6732 6733 6734 6735 6736 6737 6738 6739 6740 6741 6742 6743 6744 6745 6746 6747 6748 6749 6750 6751 6752 6753 6754 6755 6756 6757 6758 6759 6760 6761 6762 6763 6764 6765 6766 6767 6768 6769 6770 6771 6772 6773 6774 6775 6776 6777 6778 6779 6780 6781 6782 6783 6784 6785 6786 6787 6788 6789 6790 6791 6792 6793 6794 6795 6796 6797 6798 6799 6800 6801 6802 6803 6804 6805 6806 6807 6808 6809 6810 6811 6812 6813 6814 6815 6816 6817 6818 6819 6820 6821 6822 6823 6824 6825 6826 6827 6828 6829 6830 6831 6832 6833 6834 6835 6836 6837 6838 6839 6840 6841 6842 6843 6844 6845 6846 6847 6848 6849 6850 6851 6852 6853 6854 6855 6856 6857 6858 6859 6860 6861 6862 6863 6864 6865 6866 6867 6868 6869 6870 6871 6872 6873 6874 6875 6876 6877 6878 6879 6880 6881 6882 6883 6884 6885 6886 6887 6888 6889 6890 6891 6892 6893 6894 6895 6896 6897 6898 6899 6900 6901 6902 6903 6904 6905 6906 6907 6908 6909 6910 6911 6912 6913 6914 6915 6916 6917 6918 6919 6920 6921 6922 6923 6924 6925 6926 6927 6928 6929 6930 6931 6932 6933 6934 6935 6936 6937 6938 6939 6940 6941 6942 6943 6944 6945 6946 6947 6948 6949 6950 6951 6952 6953 6954 6955 6956 6957 6958 6959 6960 6961 6962 6963 6964 6965 6966 6967 6968 6969 6970 6971 6972 6973 6974 6975 6976 6977 6978 6979 6980 6981 6982 6983 6984 6985 6986 6987 6988 6989 6990 6991 6992 6993 6994 6995 6996 6997 6998 6999 7000 7001 7002 7003 7004 7005 7006 7007 7008 7009 7010 7011 7012 7013 7014 7015 7016 7017 7018 7019 7020 7021 7022 7023 7024 7025 7026 7027 7028 7029 7030 7031 7032 7033 7034 7035 7036 7037 7038 7039 7040 7041 7042 7043 7044 7045 7046 7047 7048 7049 7050 7051 7052 7053 7054 7055 7056 7057 7058 7059 7060 7061 7062 7063 7064 7065 7066 7067 7068 7069 7070 7071 7072 7073 7074 7075 7076 7077 7078 7079 7080 7081 7082 7083 7084 7085 7086 7087 7088 7089 7090 7091 7092 7093 7094 7095 7096 7097 7098 7099 7100 7101 7102 7103 7104 7105 7106 7107 7108 7109 7110 7111 7112 7113 7114 7115 7116 7117 7118 7119 7120 7121 7122 7123 7124 7125 7126 7127 7128 7129 7130 7131 7132 7133 7134 7135 7136 7137 7138 7139 7140 7141 7142 7143 7144 7145 7146 7147 7148 7149 7150 7151 7152 7153 7154 7155 7156 7157 7158 7159 7160 7161 7162 7163 7164 7165 7166 7167 7168 7169 7170 7171 7172 7173 7174 7175 7176 7177 7178 7179 7180 7181 7182 7183 7184 7185 7186 7187 7188 7189 7190 7191 7192 7193 7194 7195 7196 7197 7198 7199 7200 7201 7202 7203 7204 7205 7206 7207 7208 7209 7210 7211 7212 7213 7214 7215 7216 7217 7218 7219 7220 7221 7222 7223 7224 7225 7226 7227 7228 7229 7230 7231 7232 7233 7234 7235 7236 7237 7238 7239 7240 7241 7242 7243 7244 7245 7246 7247 7248 7249 7250 7251 7252 7253 7254 7255 7256 7257 7258 7259 7260 7261 7262 7263 7264 7265 7266 7267 7268 7269 7270 7271 7272 7273 7274 7275 7276 7277 7278 7279 7280 7281 7282 7283 7284 7285 7286 7287 7288 7289 7290 7291 7292 7293 7294 7295 7296 7297 7298 7299 7300 7301 7302 7303 7304 7305 7306 7307 7308 7309 7310 7311 7312 7313 7314 7315 7316 7317 7318 7319 7320 7321 7322 7323 7324 7325 7326 7327 7328 7329 7330 7331 7332 7333 7334 7335 7336 7337 7338 7339 7340 7341 7342 7343 7344 7345 7346 7347 7348 7349 7350 7351 7352 7353 7354 7355 7356 7357 7358 7359 7360 7361 7362 7363 7364 7365 7366 7367 7368 7369 7370 7371 7372 7373 7374 7375 7376 7377 7378 7379 7380 7381 7382 7383 7384 7385 7386 7387 7388 7389 7390 7391 7392 7393 7394 7395 7396 7397 7398 7399 7400 7401 7402 7403 7404 7405 7406 7407 7408 7409 7410 7411 7412 7413 7414 7415 7416 7417 7418 7419 7420 7421 7422 7423 7424 7425 7426 7427 7428 7429 7430 7431 7432 7433 7434 7435 7436 7437 7438 7439 7440 7441 7442 7443 7444 7445 7446 7447 7448 7449 7450 7451 7452 7453 7454 7455 7456 7457 7458 7459 7460 7461 7462 7463 7464 7465 7466 7467 7468 7469 7470 7471 7472 7473 7474 7475 7476 7477 7478 7479 7480 7481 7482 7483 7484 7485 7486 7487 7488 7489 7490 7491 7492 7493 7494 7495 7496 7497 7498 7499 7500 7501 7502 7503 7504 7505 7506 7507 7508 7509 7510 7511 7512 7513 7514 7515 7516 7517 7518 7519 7520 7521 7522 7523 7524 7525 7526 7527 7528 7529 7530 7531 7532 7533 7534 7535 7536 7537 7538 7539 7540 7541 7542 7543 7544 7545 7546 7547 7548 7549 7550 7551 7552 7553 7554 7555 7556 7557 7558 7559 7560 7561 7562 7563 7564 7565 7566 7567 7568 7569 7570 7571 7572 7573 7574 7575 7576 7577 7578 7579 7580 7581 7582 7583 7584 7585 7586 7587 7588 7589 7590 7591 7592 7593 7594 7595 7596 7597 7598 7599 7600 7601 7602 7603 7604 7605 7606 7607 7608 7609 7610 7611 7612 7613 7614 7615 7616 7617 7618 7619 7620 7621 7622 7623 7624 7625 7626 7627 7628 7629 7630 7631 7632 7633 7634 7635 7636 7637 7638 7639 7640 7641 7642 7643 7644 7645 7646 7647 7648 7649 7650 7651 7652 7653 7654 7655 7656 7657 7658 7659 7660 7661 7662 7663 7664 7665 7666 7667 7668 7669 7670 7671 7672 7673 7674 7675 7676 7677 7678 7679 7680 7681 7682 7683 7684 7685 7686 7687 7688 7689 7690 7691 7692 7693 7694 7695 7696 7697 7698 7699 7700 7701 7702 7703 7704 7705 7706 7707 7708 7709 7710 7711 7712 7713 7714 7715 7716 7717 7718 7719 7720 7721 7722 7723 7724 7725 7726 7727 7728 7729 7730 7731 7732 7733 7734 7735 7736 7737 7738 7739 7740 7741 7742 7743 7744 7745 7746 7747 7748 7749 7750 7751 7752 7753 7754 7755 7756 7757 7758 7759 7760 7761 7762 7763 7764 7765 7766 7767 7768 7769 7770 7771 7772 7773 7774 7775 7776 7777 7778 7779 7780 7781 7782 7783 7784 7785 7786 7787 7788 7789 7790 7791 7792 7793 7794 7795 7796 7797 7798 7799 7800 7801 7802 7803 7804 7805 7806 7807 7808 7809 7810 7811 7812 7813 7814 7815 7816 7817 7818 7819 7820 7821 7822 7823 7824 7825 7826 7827 7828 7829 7830 7831 7832 7833 7834 7835 7836 7837 7838 7839 7840 7841 7842 7843 7844 7845 7846 7847 7848 7849 7850 7851 7852 7853 7854 7855 7856 7857 7858 7859 7860 7861 7862 7863 7864 7865 7866 7867 7868 7869 7870 7871 7872 7873 7874 7875 7876 7877 7878 7879 7880 7881 7882 7883 7884 7885 7886 7887 7888 7889 7890 7891 7892 7893 7894 7895 7896 7897 7898 7899 7900 7901 7902 7903 7904 7905 7906 7907 7908 7909 7910 7911 7912 7913 7914 7915 7916 7917 7918 7919 7920 7921 7922 7923 7924 7925 7926 7927 7928 7929 7930 7931 7932 7933 7934 7935 7936 7937 7938 7939 7940 7941 7942 7943 7944 7945 7946 7947 7948 7949 7950 7951 7952 7953 7954 7955 7956 7957 7958 7959 7960 7961 7962 7963 7964 7965 7966 7967 7968 7969 7970 7971 7972 7973 7974 7975 7976 7977 7978 7979 7980 7981 7982 7983 7984 7985 7986 7987 7988 7989 7990 7991 7992 7993 7994 7995 7996 7997 7998 7999 8000 8001 8002 8003 8004 8005 8006 8007 8008 8009 8010 8011 8012 8013 8014 8015 8016 8017 8018 8019 8020 8021 8022 8023 8024 8025 8026 8027 8028 8029 8030 8031 8032 8033 8034 8035 8036 8037 8038 8039 8040 8041 8042 8043 8044 8045 8046 8047 8048 8049 8050 8051 8052 8053 8054 8055 8056 8057 8058 8059 8060 8061 8062 8063 8064 8065 8066 8067 8068 8069 8070 8071 8072 8073 8074 8075 8076 8077 8078 8079 8080 8081 8082 8083 8084 8085 8086 8087 8088 8089 8090 8091 8092 8093 8094 8095 8096 8097 8098 8099 8100 8101 8102 8103 8104 8105 8106 8107 8108 8109 8110 8111 8112 8113 8114 8115 8116 8117 8118 8119 8120 8121 8122 8123 8124 8125 8126 8127 8128 8129 8130 8131 8132 8133 8134 8135 8136 8137 8138 8139 8140 8141 8142 8143 8144 8145 8146 8147 8148 8149 8150 8151 8152 8153 8154 8155 8156 8157 8158 8159 8160 8161 8162 8163 8164 8165 8166 8167 8168 8169 8170 8171 8172 8173 8174 8175 8176 8177 8178 8179 8180 8181 8182 8183 8184 8185 8186 8187 8188 8189 8190 8191 8192 8193 8194 8195 8196 8197 8198 8199 8200 8201 8202 8203 8204 8205 8206 8207 8208 8209 8210 8211 8212 8213 8214 8215 8216 8217 8218 8219 8220 8221 8222 8223 8224 8225 8226 8227 8228 8229 8230 8231 8232 8233 8234 8235 8236 8237 8238 8239 8240 8241 8242 8243 8244 8245 8246 8247 8248 8249 8250 8251 8252 8253 8254 8255 8256 8257 8258 8259 8260 8261 8262 8263 8264 8265 8266 8267 8268 8269 8270 8271 8272 8273 8274 8275 8276 8277 8278 8279 8280 8281 8282 8283 8284 8285 8286 8287 8288 8289 8290 8291 8292 8293 8294 8295 8296 8297 8298 8299 8300 8301 8302 8303 8304 8305 8306 8307 8308 8309 8310 8311 8312 8313 8314 8315 8316 8317 8318 8319 8320 8321 8322 8323 8324 8325 8326 8327 8328 8329 8330 8331 8332 8333 8334 8335 8336 8337 8338 8339 8340 8341 8342 8343 8344 8345 8346 8347 8348 8349 8350 8351 8352 8353 8354 8355 8356 8357 8358 8359 8360 8361 8362 8363 8364 8365 8366 8367 8368 8369 8370 8371 8372 8373 8374 8375 8376 8377 8378 8379 8380 8381 8382 8383 8384 8385 8386 8387 8388 8389 8390 8391 8392 8393 8394 8395 8396 8397 8398 8399 8400 8401 8402 8403 8404 8405 8406 8407 8408 8409 8410 8411 8412 8413 8414 8415 8416 8417 8418 8419 8420 8421 8422 8423 8424 8425 8426 8427 8428 8429 8430 8431 8432 8433 8434 8435 8436 8437 8438 8439 8440 8441 8442 8443 8444 8445 8446 8447 8448 8449 8450 8451 8452 8453 8454 8455 8456 8457 8458 8459 8460 8461 8462 8463 8464 8465 8466 8467 8468 8469 8470 8471 8472 8473 8474 8475 8476 8477 8478 8479 8480 8481 8482 8483 8484 8485 8486 8487 8488 8489 8490 8491 8492 8493 8494 8495 8496 8497 8498 8499 8500 8501 8502 8503 8504 8505 8506 8507 8508 8509 8510 8511 8512 8513 8514 8515 8516 8517 8518 8519 8520 8521 8522 8523 8524 8525 8526 8527 8528 8529 8530 8531 8532 8533 8534 8535 8536 8537 8538 8539 8540 8541 8542 8543 8544 8545 8546 8547 8548 8549 8550 8551 8552 8553 8554 8555 8556 8557 8558 8559 8560 8561 8562 8563 8564 8565 8566 8567 8568 8569 8570 8571 8572 8573 8574 8575 8576 8577 8578 8579 8580 8581 8582 8583 8584 8585 8586 8587 8588 8589 8590 8591 8592 8593 8594 8595 8596 8597 8598 8599 8600 8601 8602 8603 8604 8605 8606 8607 8608 8609 8610 8611 8612 8613 8614 8615 8616 8617 8618 8619 8620 8621 8622 8623 8624 8625 8626 8627 8628 8629 8630 8631 8632 8633 8634 8635 8636 8637 8638 8639 8640 8641 8642 8643 8644 8645 8646 8647 8648 8649 8650 8651 8652 8653 8654 8655 8656 8657 8658 8659 8660 8661 8662 8663 8664 8665 8666 8667 8668 8669 8670 8671 8672 8673 8674 8675 8676 8677 8678 8679 8680 8681 8682 8683 8684 8685 8686 8687 8688 8689 8690 8691 8692 8693 8694 8695 8696 8697 8698 8699 8700 8701 8702 8703 8704 8705 8706 8707 8708 8709 8710 8711 8712 8713 8714 8715 8716 8717 8718 8719 8720 8721 8722 8723 8724 8725 8726 8727 8728 8729 8730 8731 8732 8733 8734 8735 8736 8737 8738 8739 8740 8741 8742 8743 8744 8745 8746 8747 8748 8749 8750 8751 8752 8753 8754 8755 8756 8757 8758 8759 8760 8761 8762 8763 8764 8765 8766 8767 8768 8769 8770 8771 8772 8773 8774 8775 8776 8777 8778 8779 8780 8781 8782 8783 8784 8785 8786 8787 8788 8789 8790 8791 8792 8793 8794 8795 8796 8797 8798 8799 8800 8801 8802 8803 8804 8805 8806 8807 8808 8809 8810 8811 8812 8813 8814 8815 8816 8817 8818 8819 8820 8821 8822 8823 8824 8825 8826 8827 8828 8829 8830 8831 8832 8833 8834 8835 8836 8837 8838 8839 8840 8841 8842 8843 8844 8845 8846 8847 8848 8849 8850 8851 8852 8853 8854 8855 8856 8857 8858 8859 8860 8861 8862 8863 8864 8865 8866 8867 8868 8869 8870 8871 8872 8873 8874 8875 8876 8877 8878 8879 8880 8881 8882 8883 8884 8885 8886 8887 8888 8889 8890 8891 8892 8893 8894 8895 8896 8897 8898 8899 8900 8901 8902 8903 8904 8905 8906 8907 8908 8909 8910 8911 8912 8913 8914 8915 8916 8917 8918 8919 8920 8921 8922 8923 8924 8925 8926 8927 8928 8929 8930 8931 8932 8933 8934 8935 8936 8937 8938 8939 8940 8941 8942 8943 8944 8945 8946 8947 8948 8949 8950 8951 8952 8953 8954 8955 8956 8957 8958 8959 8960 8961 8962 8963 8964 8965 8966 8967 8968 8969 8970 8971 8972 8973 8974 8975 8976 8977 8978 8979 8980 8981 8982 8983 8984 8985 8986 8987 8988 8989 8990 8991 8992 8993 8994 8995 8996 8997 8998 8999 9000 9001 9002 9003 9004 9005 9006 9007 9008 9009 9010 9011 9012 9013 9014 9015 9016 9017 9018 9019 9020 9021 9022 9023 9024 9025 9026 9027 9028 9029 9030 9031 9032 9033 9034 9035 9036 9037 9038 9039 9040 9041 9042 9043 9044 9045 9046 9047 9048 9049 9050 9051 9052 9053 9054 9055 9056 9057 9058 9059 9060 9061 9062 9063 9064 9065 9066 9067 9068 9069 9070 9071 9072 9073 9074 9075 9076 9077 9078 9079 9080 9081 9082 9083 9084 9085 9086 9087 9088 9089 9090 9091 9092 9093 9094 9095 9096 9097 9098 9099 9100 9101 9102 9103 9104 9105 9106 9107 9108 9109 9110 9111 9112 9113 9114 9115 9116 9117 9118 9119 9120 9121 9122 9123 9124 9125 9126 9127 9128 9129 9130 9131 9132 9133 9134 9135 9136 9137 9138 9139 9140 9141 9142 9143 9144 9145 9146 9147 9148 9149 9150 9151 9152 9153 9154 9155 9156 9157 9158 9159 9160 9161 9162 9163 9164 9165 9166 9167 9168 9169 9170 9171 9172 9173 9174 9175 9176 9177 9178 9179 9180 9181 9182 9183 9184 9185 9186 9187 9188 9189 9190 9191 9192 9193 9194 9195 9196 9197 9198 9199 9200 9201 9202 9203 9204 9205 9206 9207 9208 9209 9210 9211 9212 9213 9214 9215 9216 9217 9218 9219 9220 9221 9222 9223 9224 9225 9226 9227 9228 9229 9230 9231 9232 9233 9234 9235 9236 9237 9238 9239 9240 9241 9242 9243 9244 9245 9246 9247 9248 9249 9250 9251 9252 9253 9254 9255 9256 9257 9258 9259 9260 9261 9262 9263 9264 9265 9266 9267 9268 9269 9270 9271 9272 9273 9274 9275 9276 9277 9278 9279 9280 9281 9282 9283 9284 9285 9286 9287 9288 9289 9290 9291 9292 9293 9294 9295 9296 9297 9298 9299 9300 9301 9302 9303 9304 9305 9306 9307 9308 9309 9310 9311 9312 9313 9314 9315 9316 9317 9318 9319 9320 9321 9322 9323 9324 9325 9326 9327 9328 9329 9330 9331 9332 9333 9334 9335 9336 9337 9338 9339 9340 9341 9342 9343 9344 9345 9346 9347 9348 9349 9350 9351 9352 9353 9354 9355 9356 9357 9358 9359 9360 9361 9362 9363 9364 9365 9366 9367 9368 9369 9370 9371 9372 9373 9374 9375 9376 9377 9378 9379 9380 9381 9382 9383 9384 9385 9386 9387 9388 9389 9390 9391 9392 9393 9394 9395 9396 9397 9398 9399 9400 9401 9402 9403 9404 9405 9406 9407 9408 9409 9410 9411 9412 9413 9414 9415 9416 9417 9418 9419 9420 9421 9422 9423 9424 9425 9426 9427 9428 9429 9430 9431 9432 9433 9434 9435 9436 9437 9438 9439 9440 9441 9442 9443 9444 9445 9446 9447 9448 9449 9450 9451 9452 9453 9454 9455 9456 9457 9458 9459 9460 9461 9462 9463 9464 9465 9466 9467 9468 9469 9470 9471 9472 9473 9474 9475 9476 9477 9478 9479 9480 9481 9482 9483 9484 9485 9486 9487 9488 9489 9490 9491 9492 9493 9494 9495 9496 9497 9498 9499 9500 9501 9502 9503 9504 9505 9506 9507 9508 9509 9510 9511 9512 9513 9514 9515 9516 9517 9518 9519 9520 9521 9522 9523 9524 9525 9526 9527 9528 9529 9530 9531 9532 9533 9534 9535 9536 9537 9538 9539 9540 9541 9542 9543 9544 9545 9546 9547 9548 9549 9550 9551 9552 9553 9554 9555 9556 9557 9558 9559 9560 9561 9562 9563 9564 9565 9566 9567 9568 9569 9570 9571 9572 9573 9574 9575 9576 9577 9578 9579 9580 9581 9582 9583 9584 9585 9586 9587 9588 9589 9590 9591 9592 9593 9594 9595 9596 9597 9598 9599 9600 9601 9602 9603 9604 9605 9606 9607 9608 9609 9610 9611 9612 9613 9614 9615 9616 9617 9618 9619 9620 9621 9622 9623 9624 9625 9626 9627 9628 9629 9630 9631 9632 9633 9634 9635 9636 9637 9638 9639 9640 9641 9642 9643 9644 9645 9646 9647 9648 9649 9650 9651 9652 9653 9654 9655 9656 9657 9658 9659 9660 9661 9662 9663 9664 9665 9666 9667 9668 9669 9670 9671 9672 9673 9674 9675 9676 9677 9678 9679 9680 9681 9682 9683 9684 9685 9686 9687 9688 9689 9690 9691 9692 9693 9694 9695 9696 9697 9698 9699 9700 9701 9702 9703 9704 9705 9706 9707 9708 9709 9710 9711 9712 9713 9714 9715 9716 9717 9718 9719 9720 9721 9722 9723 9724 9725 9726 9727 9728 9729 9730 9731 9732 9733 9734 9735 9736 9737 9738 9739 9740 9741 9742 9743 9744 9745 9746 9747 9748 9749 9750 9751 9752 9753 9754 9755 9756 9757 9758 9759 9760 9761 9762 9763 9764 9765 9766 9767 9768 9769 9770 9771 9772 9773 9774 9775 9776 9777 9778 9779 9780 9781 9782 9783 9784 9785 9786 9787 9788 9789 9790 9791 9792 9793 9794 9795 9796 9797 9798 9799 9800 9801 9802 9803 9804 9805 9806 9807 9808 9809 9810 9811 9812 9813 9814 9815 9816 9817 9818 9819 9820 9821 9822 9823 9824 9825 9826 9827 9828 9829 9830 9831 9832 9833 9834 9835 9836 9837 9838 9839 9840 9841 9842 9843 9844 9845 9846 9847 9848 9849 9850 9851 9852 9853 9854 9855 9856 9857 9858 9859 9860 9861 9862 9863 9864 9865 9866 9867 9868 9869 9870 9871 9872 9873 9874 9875 9876 9877 9878 9879 9880 9881 9882 9883 9884 9885 9886 9887 9888 9889 9890 9891 9892 9893 9894 9895 9896 9897 9898 9899 9900 9901 9902 9903 9904 9905 9906 9907 9908 9909 9910 9911 9912 9913 9914 9915 9916 9917 9918 9919 9920 9921 9922 9923 9924 9925 9926 9927 9928 9929 9930 9931 9932 9933 9934 9935 9936 9937 9938 9939 9940 9941 9942 9943 9944 9945 9946 9947 9948 9949 9950 9951 9952 9953 9954 9955 9956 9957 9958 9959 9960 9961 9962 9963 9964 9965 9966 9967 9968 9969 9970 9971 9972 9973 9974 9975 9976 9977 9978 9979 9980 9981 9982 9983 9984 9985 9986 9987 9988 9989 9990 9991 9992 9993 9994 9995 9996 9997 9998 9999 10000 10001 10002 10003 10004 10005 10006 10007 10008 10009 10010 10011 10012 10013 10014 10015 10016 10017 10018 10019 10020 10021 10022 10023 10024 10025 10026 10027 10028 10029 10030 10031 10032 10033 10034 10035 10036 10037 10038 10039 10040 10041 10042 10043 10044 10045 10046 10047 10048 10049 10050 10051 10052 10053 10054 10055 10056 10057 10058 10059 10060 10061 10062 10063 10064 10065 10066 10067 10068 10069 10070 10071 10072 10073 10074 10075 10076 10077 10078 10079 10080 10081 10082 10083 10084 10085 10086 10087 10088 10089 10090 10091 10092 10093 10094 10095 10096 10097 10098 10099 10100 10101 10102 10103 10104 10105 10106 10107 10108 10109 10110 10111 10112 10113 10114 10115 10116 10117 10118 10119 10120 10121 10122 10123 10124 10125 10126 10127 10128 10129 10130 10131 10132 10133 10134 10135 10136 10137 10138 10139 10140 10141 10142 10143 10144 10145 10146 10147 10148 10149 10150 10151 10152 10153 10154 10155 10156 10157 10158 10159 10160 10161 10162 10163 10164 10165 10166 10167 10168 10169 10170 10171 10172 10173 10174 10175 10176 10177 10178 10179 10180 10181 10182 10183 10184 10185 10186 10187 10188 10189 10190 10191 10192 10193 10194 10195 10196 10197 10198 10199 10200 10201 10202 10203 10204 10205 10206 10207 10208 10209 10210 10211 10212 10213 10214 10215 10216 10217 10218 10219 10220 10221 10222 10223 10224 10225 10226 10227 10228 10229 10230 10231 10232 10233 10234 10235 10236 10237 10238 10239 10240 10241 10242 10243 10244 10245 10246 10247 10248 10249 10250 10251 10252 10253 10254 10255 10256 10257 10258 10259 10260 10261 10262 10263 10264 10265 10266 10267 10268 10269 10270 10271 10272 10273 10274 10275 10276 10277 10278 10279 10280 10281 10282 10283 10284 10285 10286 10287 10288 10289 10290 10291 10292 10293 10294 10295 10296 10297 10298 10299 10300 10301 10302 10303 10304 10305 10306 10307 10308 10309 10310 10311 10312 10313 10314 10315 10316 10317 10318 10319 10320 10321 10322 10323 10324 10325 10326 10327 10328 10329 10330 10331 10332 10333 10334 10335 10336 10337 10338 10339 10340 10341 10342 10343 10344 10345 10346 10347 10348 10349 10350 10351 10352 10353 10354 10355 10356 10357 10358 10359 10360 10361 10362 10363 10364 10365 10366 10367 10368 10369 10370 10371 10372 10373 10374 10375 10376 10377 10378 10379 10380 10381 10382 10383 10384 10385 10386 10387 10388 10389 10390 10391 10392 10393 10394 10395 10396 10397 10398 10399 10400 10401 10402 10403 10404 10405 10406 10407 10408 10409 10410 10411 10412 10413 10414 10415 10416 10417 10418 10419 10420 10421 10422 10423 10424 10425 10426 10427 10428 10429 10430 10431 10432 10433 10434 10435 10436 10437 10438 10439 10440 10441 10442 10443 10444 10445 10446 10447 10448 10449 10450 10451 10452 10453 10454 10455 10456 10457 10458 10459 10460 10461 10462 10463 10464 10465 10466 10467 10468 10469 10470 10471 10472 10473 10474 10475 10476 10477 10478 10479 10480 10481 10482 10483 10484 10485 10486 10487 10488 10489 10490 10491 10492 10493 10494 10495 10496 10497 10498 10499 10500 10501 10502 10503 10504 10505 10506 10507 10508 10509 10510 10511 10512 10513 10514 10515 10516 10517 10518 10519 10520 10521 10522 10523 10524 10525 10526 10527 10528 10529 10530 10531 10532 10533 10534 10535 10536 10537 10538 10539 10540 10541 10542 10543 10544 10545 10546 10547 10548 10549 10550 10551 10552 10553 10554 10555 10556 10557 10558 10559 10560 10561 10562 10563 10564 10565 10566 10567 10568 10569 10570 10571 10572 10573 10574 10575 10576 10577 10578 10579 10580 10581 10582 10583 10584 10585 10586 10587 10588 10589 10590 10591 10592 10593 10594 10595 10596 10597 10598 10599 10600 10601 10602 10603 10604 10605 10606 10607 10608 10609 10610 10611 10612 10613 10614 10615 10616 10617 10618 10619 10620 10621 10622 10623 10624 10625 10626 10627 10628 10629 10630 10631 10632 10633 10634 10635 10636 10637 10638 10639 10640 10641 10642 10643 10644 10645 10646 10647 10648 10649 10650 10651 10652 10653 10654 10655 10656 10657 10658 10659 10660 10661 10662 10663 10664 10665 10666 10667 10668 10669 10670 10671 10672 10673 10674 10675 10676 10677 10678 10679 10680 10681 10682 10683 10684 10685 10686 10687 10688 10689 10690 10691 10692 10693 10694 10695 10696 10697 10698 10699 10700 10701 10702 10703 10704 10705 10706 10707 10708 10709 10710 10711 10712 10713 10714 10715 10716 10717 10718 10719 10720 10721 10722 10723 10724 10725 10726 10727 10728 10729 10730 10731 10732 10733 10734 10735 10736 10737 10738 10739 10740 10741 10742 10743 10744 10745 10746 10747 10748 10749 10750 10751 10752 10753 10754 10755 10756 10757 10758 10759 10760 10761 10762 10763 10764 10765 10766 10767 10768 10769 10770 10771 10772 10773 10774 10775 10776 10777 10778 10779 10780 10781 10782 10783 10784 10785 10786 10787 10788 10789 10790 10791 10792 10793 10794 10795 10796 10797 10798 10799 10800 10801 10802 10803 10804 10805 10806 10807 10808 10809 10810 10811 10812 10813 10814 10815 10816 10817 10818 10819 10820 10821 10822 10823 10824 10825 10826 10827 10828 10829 10830 10831 10832 10833 10834 10835 10836 10837 10838 10839 10840 10841 10842 10843 10844 10845 10846 10847 10848 10849 10850 10851 10852 10853 10854 10855 10856 10857 10858 10859 10860 10861 10862 10863 10864 10865 10866 10867 10868 10869 10870 10871 10872 10873 10874 10875 10876 10877 10878 10879 10880 10881 10882 10883 10884 10885 10886 10887 10888 10889 10890 10891 10892 10893 10894 10895 10896 10897 10898 10899 10900 10901 10902 10903 10904 10905 10906 10907 10908 10909 10910 10911 10912 10913 10914 10915 10916 10917 10918 10919 10920 10921 10922 10923 10924 10925 10926 10927 10928 10929 10930 10931 10932 10933 10934 10935 10936 10937 10938 10939 10940 10941 10942 10943 10944 10945 10946 10947 10948 10949 10950 10951 10952 10953 10954 10955 10956 10957 10958 10959 10960 10961 10962 10963 10964 10965 10966 10967 10968 10969 10970 10971 10972 10973 10974 10975 10976 10977 10978 10979 10980 10981 10982 10983 10984 10985 10986 10987 10988 10989 10990 10991 10992 10993 10994 10995 10996 10997 10998 10999 11000 11001 11002 11003 11004 11005 11006 11007 11008 11009 11010 11011 11012 11013 11014 11015 11016 11017 11018 11019 11020 11021 11022 11023 11024 11025 11026 11027 11028 11029 11030 11031 11032 11033 11034 11035 11036 11037 11038 11039 11040 11041 11042 11043 11044 11045 11046 11047 11048 11049 11050 11051 11052 11053 11054 11055 11056 11057 11058 11059 11060 11061 11062 11063 11064 11065 11066 11067 11068 11069 11070 11071 11072 11073 11074 11075 11076 11077 11078 11079 11080 11081 11082 11083 11084 11085 11086 11087 11088 11089 11090 11091 11092 11093 11094 11095 11096 11097 11098 11099 11100 11101 11102 11103 11104 11105 11106 11107 11108 11109 11110 11111 11112 11113 11114 11115 11116 11117 11118 11119 11120 11121 11122 11123 11124 11125 11126 11127 11128 11129 11130 11131 11132 11133 11134 11135 11136 11137 11138 11139 11140 11141 11142 11143 11144 11145 11146 11147 11148 11149 11150 11151 11152 11153 11154 11155 11156 11157 11158 11159 11160 11161 11162 11163 11164 11165 11166 11167 11168 11169 11170 11171 11172 11173 11174 11175 11176 11177 11178 11179 11180 11181 11182 11183 11184 11185 11186 11187 11188 11189 11190 11191 11192 11193 11194 11195 11196 11197 11198 11199 11200 11201 11202 11203 11204 11205 11206 11207 11208 11209 11210 11211 11212 11213 11214 11215 11216 11217 11218 11219 11220 11221 11222 11223 11224 11225 11226 11227 11228 11229 11230 11231 11232 11233 11234 11235 11236 11237 11238 11239 11240 11241 11242 11243 11244 11245 11246 11247 11248 11249 11250 11251 11252 11253 11254 11255 11256 11257 11258 11259 11260 11261 11262 11263 11264 11265 11266 11267 11268 11269 11270 11271 11272 11273 11274 11275 11276 11277 11278 11279 11280 11281 11282 11283 11284 11285 11286 11287 11288 11289 11290 11291 11292 11293 11294 11295 11296 11297 11298 11299 11300 11301 11302 11303 11304 11305 11306 11307 11308 11309 11310 11311 11312 11313 11314 11315 11316 11317 11318 11319 11320 11321 11322 11323 11324 11325 11326 11327 11328 11329 11330 11331 11332 11333 11334 11335 11336 11337 11338 11339 11340 11341 11342 11343 11344 11345 11346 11347 11348 11349 11350 11351 11352 11353 11354 11355 11356 11357 11358 11359 11360 11361 11362 11363 11364 11365 11366 11367 11368 11369 11370 11371 11372 11373 11374 11375 11376 11377 11378 11379 11380 11381 11382 11383 11384 11385 11386 11387 11388 11389 11390 11391 11392 11393 11394 11395 11396 11397 11398 11399 11400 11401 11402 11403 11404 11405 11406 11407 11408 11409 11410 11411 11412 11413 11414 11415 11416 11417 11418 11419 11420 11421 11422 11423 11424 11425 11426 11427 11428 11429 11430 11431 11432 11433 11434 11435 11436 11437 11438 11439 11440 11441 11442 11443 11444 11445 11446 11447 11448 11449 11450 11451 11452 11453 11454 11455 11456 11457 11458 11459 11460 11461 11462 11463 11464 11465 11466 11467 11468 11469 11470 11471 11472 11473 11474 11475 11476 11477 11478 11479 11480 11481 11482 11483 11484 11485 11486 11487 11488 11489 11490 11491 11492 11493 11494 11495 11496 11497 11498 11499 11500 11501 11502 11503 11504 11505 11506 11507 11508 11509 11510 11511 11512 11513 11514 11515 11516 11517 11518 11519 11520 11521 11522 11523 11524 11525 11526 11527 11528 11529 11530 11531 11532 11533 11534 11535 11536 11537 11538 11539 11540 11541 11542 11543 11544 11545 11546 11547 11548 11549 11550 11551 11552 11553 11554 11555 11556 11557 11558 11559 11560 11561 11562 11563 11564 11565 11566 11567 11568 11569 11570 11571 11572 11573 11574 11575 11576 11577 11578 11579 11580 11581 11582 11583 11584 11585 11586 11587 11588 11589 11590 11591 11592 11593 11594 11595 11596 11597 11598 11599 11600 11601 11602 11603 11604 11605 11606 11607 11608 11609 11610 11611 11612 11613 11614 11615 11616 11617 11618 11619 11620 11621 11622 11623 11624 11625 11626 11627 11628 11629 11630 11631 11632 11633 11634 11635 11636 11637 11638 11639 11640 11641 11642 11643 11644 11645 11646 11647 11648 11649 11650 11651 11652 11653 11654 11655 11656 11657 11658 11659 11660 11661 11662 11663 11664 11665 11666 11667 11668 11669 11670 11671 11672 11673 11674 11675 11676 11677 11678 11679 11680 11681 11682 11683 11684 11685 11686 11687 11688 11689 11690 11691 11692 11693 11694 11695 11696 11697 11698 11699 11700 11701 11702 11703 11704 11705 11706 11707 11708 11709 11710 11711 11712 11713 11714 11715 11716 11717 11718 11719 11720 11721 11722 11723 11724 11725 11726 11727 11728 11729 11730 11731 11732 11733 11734 11735 11736 11737 11738 11739 11740 11741 11742 11743 11744 11745 11746 11747 11748 11749 11750 11751 11752 11753 11754 11755 11756 11757 11758 11759 11760 11761 11762 11763 11764 11765 11766 11767 11768 11769 11770 11771 11772 11773 11774 11775 11776 11777 11778 11779 11780 11781 11782 11783 11784 11785 11786 11787 11788 11789 11790 11791 11792 11793 11794 11795 11796 11797 11798 11799 11800 11801 11802 11803 11804 11805 11806 11807 11808 11809 11810 11811 11812 11813 11814 11815 11816 11817 11818 11819 11820 11821 11822 11823 11824 11825 11826 11827 11828 11829 11830 11831 11832 11833 11834 11835 11836 11837 11838 11839 11840 11841 11842 11843 11844 11845 11846 11847 11848 11849 11850 11851 11852 11853 11854 11855 11856 11857 11858 11859 11860 11861 11862 11863 11864 11865 11866 11867 11868 11869 11870 11871 11872 11873 11874 11875 11876 11877 11878 11879 11880 11881 11882 11883 11884 11885 11886 11887 11888 11889 11890 11891 11892 11893 11894 11895 11896 11897 11898 11899 11900 11901 11902 11903 11904 11905 11906 11907 11908 11909 11910 11911 11912 11913 11914 11915 11916 11917 11918 11919 11920 11921 11922 11923 11924 11925 11926 11927 11928 11929 11930 11931 11932 11933 11934 11935 11936 11937 11938 11939 11940 11941 11942 11943 11944 11945 11946 11947 11948 11949 11950 11951 11952 11953 11954 11955 11956 11957 11958 11959 11960 11961 11962 11963 11964 11965 11966 11967 11968 11969 11970 11971 11972 11973 11974 11975 11976 11977 11978 11979 11980 11981 11982 11983 11984 11985 11986 11987 11988 11989 11990 11991 11992 11993 11994 11995 11996 11997 11998 11999 12000 12001 12002 12003 12004 12005 12006 12007 12008 12009 12010 12011 12012 12013 12014 12015 12016 12017 12018 12019 12020 12021 12022 12023 12024 12025 12026 12027 12028 12029 12030 12031 12032 12033 12034 12035 12036 12037 12038 12039 12040 12041 12042 12043 12044 12045 12046 12047 12048 12049 12050 12051 12052 12053 12054 12055 12056 12057 12058 12059 12060 12061 12062 12063 12064 12065 12066 12067 12068 12069 12070 12071 12072 12073 12074 12075 12076 12077 12078 12079 12080 12081 12082 12083 12084 12085 12086 12087 12088 12089 12090 12091 12092 12093 12094 12095 12096 12097 12098 12099 12100 12101 12102 12103 12104 12105 12106 12107 12108 12109 12110 12111 12112 12113 12114 12115 12116 12117 12118 12119 12120 12121 12122 12123 12124 12125 12126 12127 12128 12129 12130 12131 12132 12133 12134 12135 12136 12137 12138 12139 12140 12141 12142 12143 12144 12145 12146 12147 12148 12149 12150 12151 12152 12153 12154 12155 12156 12157 12158 12159 12160 12161 12162 12163 12164 12165 12166 12167 12168 12169 12170 12171 12172 12173 12174 12175 12176 12177 12178 12179 12180 12181 12182 12183 12184 12185 12186 12187 12188 12189 12190 12191 12192 12193 12194 12195 12196 12197 12198 12199 12200 12201 12202 12203 12204 12205 12206 12207 12208 12209 12210 12211 12212 12213 12214 12215 12216 12217 12218 12219 12220 12221 12222 12223 12224 12225 12226 12227 12228 12229 12230 12231 12232 12233 12234 12235 12236 12237 12238 12239 12240 12241 12242 12243 12244 12245 12246 12247 12248 12249 12250 12251 12252 12253 12254 12255 12256 12257 12258 12259 12260 12261 12262 12263 12264 12265 12266 12267 12268 12269 12270 12271 12272 12273 12274 12275 12276 12277 12278 12279 12280 12281 12282 12283 12284 12285 12286 12287 12288 12289 12290 12291 12292 12293 12294 12295 12296 12297 12298 12299 12300 12301 12302 12303 12304 12305 12306 12307 12308 12309 12310 12311 12312 12313 12314 12315 12316 12317 12318 12319 12320 12321 12322 12323 12324 12325 12326 12327 12328 12329 12330 12331 12332 12333 12334 12335 12336 12337 12338 12339 12340 12341 12342 12343 12344 12345 12346 12347 12348 12349 12350 12351 12352 12353 12354 12355 12356 12357 12358 12359 12360 12361 12362 12363 12364 12365 12366 12367 12368 12369 12370 12371 12372 12373 12374 12375 12376 12377 12378 12379 12380 12381 12382 12383 12384 12385 12386 12387 12388 12389 12390 12391 12392 12393 12394 12395 12396 12397 12398 12399 12400 12401 12402 12403 12404 12405 12406 12407 12408 12409 12410 12411 12412 12413 12414 12415 12416 12417 12418 12419 12420 12421 12422 12423 12424 12425 12426 12427 12428 12429 12430 12431 12432 12433 12434 12435 12436 12437 12438 12439 12440 12441 12442 12443 12444 12445 12446 12447 12448 12449 12450 12451 12452 12453 12454 12455 12456 12457 12458 12459 12460 12461 12462 12463 12464 12465 12466 12467 12468 12469 12470 12471 12472 12473 12474 12475 12476 12477 12478 12479 12480 12481 12482 12483 12484 12485 12486 12487 12488 12489 12490 12491 12492 12493 12494 12495 12496 12497 12498 12499 12500 12501 12502 12503 12504 12505 12506 12507 12508 12509 12510 12511 12512 12513 12514 12515 12516 12517 12518 12519 12520 12521 12522 12523 12524 12525 12526 12527 12528 12529 12530 12531 12532 12533 12534 12535 12536 12537 12538 12539 12540 12541 12542 12543 12544 12545 12546 12547 12548 12549 12550 12551 12552 12553 12554 12555 12556 12557 12558 12559 12560 12561 12562 12563 12564 12565 12566 12567 12568 12569 12570 12571 12572 12573 12574 12575 12576 12577 12578 12579 12580 12581 12582 12583 12584 12585 12586 12587 12588 12589 12590 12591 12592 12593 12594 12595 12596 12597 12598 12599 12600 12601 12602 12603 12604 12605 12606 12607 12608 12609 12610 12611 12612 12613 12614 12615 12616 12617 12618 12619 12620 12621 12622 12623 12624 12625 12626 12627 12628 12629 12630 12631 12632 12633 12634 12635 12636 12637 12638 12639 12640 12641 12642 12643 12644 12645 12646 12647 12648 12649 12650 12651 12652 12653 12654 12655 12656 12657 12658 12659 12660 12661 12662 12663 12664 12665 12666 12667 12668 12669 12670 12671 12672 12673 12674 12675 12676 12677 12678 12679 12680 12681 12682 12683 12684 12685 12686 12687 12688 12689 12690 12691 12692 12693 12694 12695 12696 12697 12698 12699 12700 12701 12702 12703 12704 12705 12706 12707 12708 12709 12710 12711 12712 12713 12714 12715 12716 12717 12718 12719 12720 12721 12722 12723 12724 12725 12726 12727 12728 12729 12730 12731 12732 12733 12734 12735 12736 12737 12738 12739 12740 12741 12742 12743 12744 12745 12746 12747 12748 12749 12750 12751 12752 12753 12754 12755 12756 12757 12758 12759 12760 12761 12762 12763 12764 12765 12766 12767 12768 12769 12770 12771 12772 12773 12774 12775 12776 12777 12778 12779 12780 12781 12782 12783 12784 12785 12786 12787 12788 12789 12790 12791 12792 12793 12794 12795 12796 12797 12798 12799 12800 12801 12802 12803 12804 12805 12806 12807 12808 12809 12810 12811 12812 12813 12814 12815 12816 12817 12818 12819 12820 12821 12822 12823 12824 12825 12826 12827 12828 12829 12830 12831 12832 12833 12834 12835 12836 12837 12838 12839 12840 12841 12842 12843 12844 12845 12846 12847 12848 12849 12850 12851 12852 12853 12854 12855 12856 12857 12858 12859 12860 12861 12862 12863 12864 12865 12866 12867 12868 12869 12870 12871 12872 12873 12874 12875 12876 12877 12878 12879 12880 12881 12882 12883 12884 12885 12886 12887 12888 12889 12890 12891 12892 12893 12894 12895 12896 12897 12898 12899 12900 12901 12902 12903 12904 12905 12906 12907 12908 12909 12910 12911 12912 12913 12914 12915 12916 12917 12918 12919 12920 12921 12922 12923 12924 12925 12926 12927 12928 12929 12930 12931 12932 12933 12934 12935 12936 12937 12938 12939 12940 12941 12942 12943 12944 12945 12946 12947 12948 12949 12950 12951 12952 12953 12954 12955 12956 12957 12958 12959 12960 12961 12962 12963 12964 12965 12966 12967 12968 12969 12970 12971 12972 12973 12974 12975 12976 12977 12978 12979 12980 12981 12982 12983 12984 12985 12986 12987 12988 12989 12990 12991 12992 12993 12994 12995 12996 12997 12998 12999 13000 13001 13002 13003 13004 13005 13006 13007 13008 13009 13010 13011 13012 13013 13014 13015 13016 13017 13018 13019 13020 13021 13022 13023 13024 13025 13026 13027 13028 13029 13030 13031 13032 13033 13034 13035 13036 13037 13038 13039 13040 13041 13042 13043 13044 13045 13046 13047 13048 13049 13050 13051 13052 13053 13054 13055 13056 13057 13058 13059 13060 13061 13062 13063 13064 13065 13066 13067 13068 13069 13070 13071 13072 13073 13074 13075 13076 13077 13078 13079 13080 13081 13082 13083 13084 13085 13086 13087 13088 13089 13090 13091 13092 13093 13094 13095 13096 13097 13098 13099 13100 13101 13102 13103 13104 13105 13106 13107 13108 13109 13110 13111 13112 13113 13114 13115 13116 13117 13118 13119 13120 13121 13122 13123 13124 13125 13126 13127 13128 13129 13130 13131 13132 13133 13134 13135 13136 13137 13138 13139 13140 13141 13142 13143 13144 13145 13146 13147 13148 13149 13150 13151 13152 13153 13154 13155 13156 13157 13158 13159 13160 13161 13162 13163 13164 13165 13166 13167 13168 13169 13170 13171 13172 13173 13174 13175 13176 13177 13178 13179 13180 13181 13182 13183 13184 13185 13186 13187 13188 13189 13190 13191 13192 13193 13194 13195 13196 13197 13198 13199 13200 13201 13202 13203 13204 13205 13206 13207 13208 13209 13210 13211 13212 13213 13214 13215 13216 13217 13218 13219 13220 13221 13222 13223 13224 13225 13226 13227 13228 13229 13230 13231 13232 13233 13234 13235 13236 13237 13238 13239 13240 13241 13242 13243 13244 13245 13246 13247 13248 13249 13250 13251 13252 13253 13254 13255 13256 13257 13258 13259 13260 13261 13262 13263 13264 13265 13266 13267 13268 13269 13270 13271 13272 13273 13274 13275 13276 13277 13278 13279 13280 13281 13282 13283 13284 13285 13286 13287 13288 13289 13290 13291 13292 13293 13294 13295 13296 13297 13298 13299 13300 13301 13302 13303 13304 13305 13306 13307 13308 13309 13310 13311 13312 13313 13314 13315 13316 13317 13318 13319 13320 13321 13322 13323 13324 13325 13326 13327 13328 13329 13330 13331 13332 13333 13334 13335 13336 13337 13338 13339 13340 13341 13342 13343 13344 13345 13346 13347 13348 13349 13350 13351 13352 13353 13354 13355 13356 13357 13358 13359 13360 13361 13362 13363 13364 13365 13366 13367 13368 13369 13370 13371 13372 13373 13374 13375 13376 13377 13378 13379 13380 13381 13382 13383 13384 13385 13386 13387 13388 13389 13390 13391 13392 13393 13394 13395 13396 13397 13398 13399 13400 13401 13402 13403 13404 13405 13406 13407 13408 13409 13410 13411 13412 13413 13414 13415 13416 13417 13418 13419 13420 13421 13422 13423 13424 13425 13426 13427 13428 13429 13430 13431 13432 13433 13434 13435 13436 13437 13438 13439 13440 13441 13442 13443 13444 13445 13446 13447 13448 13449 13450 13451 13452 13453 13454 13455 13456 13457 13458 13459 13460 13461 13462 13463 13464 13465 13466 13467 13468 13469 13470 13471 13472 13473 13474 13475 13476 13477 13478 13479 13480 13481 13482 13483 13484 13485 13486 13487 13488 13489 13490 13491 13492 13493 13494 13495 13496 13497 13498 13499 13500 13501 13502 13503 13504 13505 13506 13507 13508 13509 13510 13511 13512 13513 13514 13515 13516 13517 13518 13519 13520 13521 13522 13523 13524 13525 13526 13527 13528 13529 13530 13531 13532 13533 13534 13535 13536 13537 13538 13539 13540 13541 13542 13543 13544 13545 13546 13547 13548 13549 13550 13551 13552 13553 13554 13555 13556 13557 13558 13559 13560 13561 13562 13563 13564 13565 13566 13567 13568 13569 13570 13571 13572 13573 13574 13575 13576 13577 13578 13579 13580 13581 13582 13583 13584 13585 13586 13587 13588 13589 13590 13591 13592 13593 13594 13595 13596 13597 13598 13599 13600 13601 13602 13603 13604 13605 13606 13607 13608 13609 13610 13611 13612 13613 13614 13615 13616 13617 13618 13619 13620 13621 13622 13623 13624 13625 13626 13627 13628 13629 13630 13631 13632 13633 13634 13635 13636 13637 13638 13639 13640 13641 13642 13643 13644 13645 13646 13647 13648 13649 13650 13651 13652 13653 13654 13655 13656 13657 13658 13659 13660 13661 13662 13663 13664 13665 13666 13667 13668 13669 13670 13671 13672 13673 13674 13675 13676 13677 13678 13679 13680 13681 13682 13683 13684 13685 13686 13687 13688 13689 13690 13691 13692 13693 13694 13695 13696 13697 13698 13699 13700 13701 13702 13703 13704 13705 13706 13707 13708 13709 13710 13711 13712 13713 13714 13715 13716 13717 13718 13719 13720 13721 13722 13723 13724 13725 13726 13727 13728 13729 13730 13731 13732 13733 13734 13735 13736 13737 13738 13739 13740 13741 13742 13743 13744 13745 13746 13747 13748 13749 13750 13751 13752 13753 13754 13755 13756 13757 13758 13759 13760 13761 13762 13763 13764 13765 13766 13767 13768 13769 13770 13771 13772 13773 13774 13775 13776 13777 13778 13779 13780 13781 13782 13783 13784 13785 13786 13787 13788 13789 13790 13791 13792 13793 13794 13795 13796 13797 13798 13799 13800 13801 13802 13803 13804 13805 13806 13807 13808 13809 13810 13811 13812 13813 13814 13815 13816 13817 13818 13819 13820 13821 13822 13823 13824 13825 13826 13827 13828 13829 13830 13831 13832 13833 13834 13835 13836 13837 13838 13839 13840 13841 13842 13843 13844 13845 13846 13847 13848 13849 13850 13851 13852 13853 13854 13855 13856 13857 13858 13859 13860 13861 13862 13863 13864 13865 13866 13867 13868 13869 13870 13871 13872 13873 13874 13875 13876 13877 13878 13879 13880 13881 13882 13883 13884 13885 13886 13887 13888 13889 13890 13891 13892 13893 13894 13895 13896 13897 13898 13899 13900 13901 13902 13903 13904 13905 13906 13907 13908 13909 13910 13911 13912 13913 13914 13915 13916 13917 13918 13919 13920 13921 13922 13923 13924 13925 13926 13927 13928 13929 13930 13931 13932 13933 13934 13935 13936 13937 13938 13939 13940 13941 13942 13943 13944 13945 13946 13947 13948 13949 13950 13951 13952 13953 13954 13955 13956 13957 13958 13959 13960 13961 13962 13963 13964 13965 13966 13967 13968 13969 13970 13971 13972 13973 13974 13975 13976 13977 13978 13979 13980 13981 13982 13983 13984 13985 13986 13987 13988 13989 13990 13991 13992 13993 13994 13995 13996 13997 13998 13999 14000 14001 14002 14003 14004 14005 14006 14007 14008 14009 14010 14011 14012 14013 14014 14015 14016 14017 14018 14019 14020 14021 14022 14023 14024 14025 14026 14027 14028 14029 14030 14031 14032 14033 14034 14035 14036 14037 14038 14039 14040 14041 14042 14043 14044 14045 14046 14047 14048 14049 14050 14051 14052 14053 14054 14055 14056 14057 14058 14059 14060 14061 14062 14063 14064 14065 14066 14067 14068 14069 14070 14071 14072 14073 14074 14075 14076 14077 14078 14079 14080 14081 14082 14083 14084 14085 14086 14087 14088 14089 14090 14091 14092 14093 14094 14095 14096 14097 14098 14099 14100 14101 14102 14103 14104 14105 14106 14107 14108 14109 14110 14111 14112 14113 14114 14115 14116 14117 14118 14119 14120 14121 14122 14123 14124 14125 14126 14127 14128 14129 14130 14131 14132 14133 14134 14135 14136 14137 14138 14139 14140 14141 14142 14143 14144 14145 14146 14147 14148 14149 14150 14151 14152 14153 14154 14155 14156 14157 14158 14159 14160 14161 14162 14163 14164 14165 14166 14167 14168 14169 14170 14171 14172 14173 14174 14175 14176 14177 14178 14179 14180 14181 14182 14183 14184 14185 14186 14187 14188 14189 14190 14191 14192 14193 14194 14195 14196 14197 14198 14199 14200 14201 14202 14203 14204 14205 14206 14207 14208 14209 14210 14211 14212 14213 14214 14215 14216 14217 14218 14219 14220 14221 14222 14223 14224 14225 14226 14227 14228 14229 14230 14231 14232 14233 14234 14235 14236 14237 14238 14239 14240 14241 14242 14243 14244 14245 14246 14247 14248 14249 14250 14251 14252 14253 14254 14255 14256 14257 14258 14259 14260 14261 14262 14263 14264 14265 14266 14267 14268 14269 14270 14271 14272 14273 14274 14275 14276 14277 14278 14279 14280 14281 14282 14283 14284 14285 14286 14287 14288 14289 14290 14291 14292 14293 14294 14295 14296 14297 14298 14299 14300 14301 14302 14303 14304 14305 14306 14307 14308 14309 14310 14311 14312 14313 14314 14315 14316 14317 14318 14319 14320 14321 14322 14323 14324 14325 14326 14327 14328 14329 14330 14331 14332 14333 14334 14335 14336 14337 14338 14339 14340 14341 14342 14343 14344 14345 14346 14347 14348 14349 14350 14351 14352 14353 14354 14355 14356 14357 14358 14359 14360 14361 14362 14363 14364 14365 14366 14367 14368 14369 14370 14371 14372 14373 14374 14375 14376 14377 14378 14379 14380 14381 14382 14383 14384 14385 14386 14387 14388 14389 14390 14391 14392 14393 14394 14395 14396 14397 14398 14399 14400 14401 14402 14403 14404 14405 14406 14407 14408 14409 14410 14411 14412 14413 14414 14415 14416 14417 14418 14419 14420 14421 14422 14423 14424 14425 14426 14427 14428 14429 14430 14431 14432 14433 14434 14435 14436 14437 14438 14439 14440 14441 14442 14443 14444 14445 14446 14447 14448 14449 14450 14451 14452 14453 14454 14455 14456 14457 14458 14459 14460 14461 14462 14463 14464 14465 14466 14467 14468 14469 14470 14471 14472 14473 14474 14475 14476 14477 14478 14479 14480 14481 14482 14483 14484 14485 14486 14487 14488 14489 14490 14491 14492 14493 14494 14495 14496 14497 14498 14499 14500 14501 14502 14503 14504 14505 14506 14507 14508 14509 14510 14511 14512 14513 14514 14515 14516 14517 14518 14519 14520 14521 14522 14523 14524 14525 14526 14527 14528 14529 14530 14531 14532 14533 14534 14535 14536 14537 14538 14539 14540 14541 14542 14543 14544 14545 14546 14547 14548 14549 14550 14551 14552 14553 14554 14555 14556 14557 14558 14559 14560 14561 14562 14563 14564 14565 14566 14567 14568 14569 14570 14571 14572 14573 14574 14575 14576 14577 14578 14579 14580 14581 14582 14583 14584 14585 14586 14587 14588 14589 14590 14591 14592 14593 14594 14595 14596 14597 14598 14599 14600 14601 14602 14603 14604 14605 14606 14607 14608 14609 14610 14611 14612 14613 14614 14615 14616 14617 14618 14619 14620 14621 14622 14623 14624 14625 14626 14627 14628 14629 14630 14631 14632 14633 14634 14635 14636 14637 14638 14639 14640 14641 14642 14643 14644 14645 14646 14647 14648 14649 14650 14651 14652 14653 14654 14655 14656 14657 14658 14659 14660 14661 14662 14663 14664 14665 14666 14667 14668 14669 14670 14671 14672 14673 14674 14675 14676 14677 14678 14679 14680 14681 14682 14683 14684 14685 14686 14687 14688 14689 14690 14691 14692 14693 14694 14695 14696 14697 14698 14699 14700 14701 14702 14703 14704 14705 14706 14707 14708 14709 14710 14711 14712 14713 14714 14715 14716 14717 14718 14719 14720 14721 14722 14723 14724 14725 14726 14727 14728 14729 14730 14731 14732 14733 14734 14735 14736 14737 14738 14739 14740 14741 14742 14743 14744 14745 14746 14747 14748 14749 14750 14751 14752 14753 14754 14755 14756 14757 14758 14759 14760 14761 14762 14763 14764 14765 14766 14767 14768 14769 14770 14771 14772 14773 14774 14775 14776 14777 14778 14779 14780 14781 14782 14783 14784 14785 14786 14787 14788 14789 14790 14791 14792 14793 14794 14795 14796 14797 14798 14799 14800 14801 14802 14803 14804 14805 14806 14807 14808 14809 14810 14811 14812 14813 14814 14815 14816 14817 14818 14819 14820 14821 14822 14823 14824 14825 14826 14827 14828 14829 14830 14831 14832 14833 14834 14835 14836 14837 14838 14839 14840 14841 14842 14843 14844 14845 14846 14847 14848 14849 14850 14851 14852 14853 14854 14855 14856 14857 14858 14859 14860 14861 14862 14863 14864 14865 14866 14867 14868 14869 14870 14871 14872 14873 14874 14875 14876 14877 14878 14879 14880 14881 14882 14883 14884 14885 14886 14887 14888 14889 14890 14891 14892 14893 14894 14895 14896 14897 14898 14899 14900 14901 14902 14903 14904 14905 14906 14907 14908 14909 14910 14911 14912 14913 14914 14915 14916 14917 14918 14919 14920 14921 14922 14923 14924 14925 14926 14927 14928 14929 14930 14931 14932 14933 14934 14935 14936 14937 14938 14939 14940 14941 14942 14943 14944 14945 14946 14947 14948 14949 14950 14951 14952 14953 14954 14955 14956 14957 14958 14959 14960 14961 14962 14963 14964 14965 14966 14967 14968 14969 14970 14971 14972 14973 14974 14975 14976 14977 14978 14979 14980 14981 14982 14983 14984 14985 14986 14987 14988 14989 14990 14991 14992 14993 14994 14995 14996 14997 14998 14999 15000 15001 15002 15003 15004 15005 15006 15007 15008 15009 15010 15011 15012 15013 15014 15015 15016 15017 15018 15019 15020 15021 15022 15023 15024 15025 15026 15027 15028 15029 15030 15031 15032 15033 15034 15035 15036 15037 15038 15039 15040 15041 15042 15043 15044 15045 15046 15047 15048 15049 15050 15051 15052 15053 15054 15055 15056 15057 15058 15059 15060 15061 15062 15063 15064 15065 15066 15067 15068 15069 15070 15071 15072 15073 15074 15075 15076 15077 15078 15079 15080 15081 15082 15083 15084 15085 15086 15087 15088 15089 15090 15091 15092 15093 15094 15095 15096 15097 15098 15099 15100 15101 15102 15103 15104 15105 15106 15107 15108 15109 15110 15111 15112 15113 15114 15115 15116 15117 15118 15119 15120 15121 15122 15123 15124 15125 15126 15127 15128 15129 15130 15131 15132 15133 15134 15135 15136 15137 15138 15139 15140 15141 15142 15143 15144 15145 15146 15147 15148 15149 15150 15151 15152 15153 15154 15155 15156 15157 15158 15159 15160 15161 15162 15163 15164 15165 15166 15167 15168 15169 15170 15171 15172 15173 15174 15175 15176 15177 15178 15179 15180 15181 15182 15183 15184 15185 15186 15187 15188 15189 15190 15191 15192 15193 15194 15195 15196 15197 15198 15199 15200 15201 15202 15203 15204 15205 15206 15207 15208 15209 15210 15211 15212 15213 15214 15215 15216 15217 15218 15219 15220 15221 15222 15223 15224 15225 15226 15227 15228 15229 15230 15231 15232 15233 15234 15235 15236 15237 15238 15239 15240 15241 15242 15243 15244 15245 15246 15247 15248 15249 15250 15251 15252 15253 15254 15255 15256 15257 15258 15259 15260 15261 15262 15263 15264 15265 15266 15267 15268 15269 15270 15271 15272 15273 15274 15275 15276 15277 15278 15279 15280 15281 15282 15283 15284 15285 15286 15287 15288 15289 15290 15291 15292 15293 15294 15295 15296 15297 15298 15299 15300 15301 15302 15303 15304 15305 15306 15307 15308 15309 15310 15311 15312 15313 15314 15315 15316 15317 15318 15319 15320 15321 15322 15323 15324 15325 15326 15327 15328 15329 15330 15331 15332 15333 15334 15335 15336 15337 15338 15339 15340 15341 15342 15343 15344 15345 15346 15347 15348 15349 15350 15351 15352 15353 15354 15355 15356 15357 15358 15359 15360 15361 15362 15363 15364 15365 15366 15367 15368 15369 15370 15371 15372 15373 15374 15375 15376 15377 15378 15379 15380 15381 15382 15383 15384 15385 15386 15387 15388 15389 15390 15391 15392 15393 15394 15395 15396 15397 15398 15399 15400 15401 15402 15403 15404 15405 15406 15407 15408 15409 15410 15411 15412 15413 15414 15415 15416 15417 15418 15419 15420 15421 15422 15423 15424 15425 15426 15427 15428 15429 15430 15431 15432 15433 15434 15435 15436 15437 15438 15439 15440 15441 15442 15443 15444 15445 15446 15447 15448 15449 15450 15451 15452 15453 15454 15455 15456 15457 15458 15459 15460 15461 15462 15463 15464 15465 15466 15467 15468 15469 15470 15471 15472 15473 15474 15475 15476 15477 15478 15479 15480 15481 15482 15483 15484 15485 15486 15487 15488 15489 15490 15491 15492 15493 15494 15495 15496 15497 15498 15499 15500 15501 15502 15503 15504 15505 15506 15507 15508 15509 15510 15511 15512 15513 15514 15515 15516 15517 15518 15519 15520 15521 15522 15523 15524 15525 15526 15527 15528 15529 15530 15531 15532 15533 15534 15535 15536 15537 15538 15539 15540 15541 15542 15543 15544 15545 15546 15547 15548 15549 15550 15551 15552 15553 15554 15555 15556 15557 15558 15559 15560 15561 15562 15563 15564 15565 15566 15567 15568 15569 15570 15571 15572 15573 15574 15575 15576 15577 15578 15579 15580 15581 15582 15583 15584 15585 15586 15587 15588 15589 15590 15591 15592 15593 15594 15595 15596 15597 15598 15599 15600 15601 15602 15603 15604 15605 15606 15607 15608 15609 15610 15611 15612 15613 15614 15615 15616 15617 15618 15619 15620 15621 15622 15623 15624 15625 15626 15627 15628 15629 15630 15631 15632 15633 15634 15635 15636 15637 15638 15639 15640 15641 15642 15643 15644 15645 15646 15647 15648 15649 15650 15651 15652 15653 15654 15655 15656 15657 15658 15659 15660 15661 15662 15663 15664 15665 15666 15667 15668 15669 15670 15671 15672 15673 15674 15675 15676 15677 15678 15679 15680 15681 15682 15683 15684 15685 15686 15687 15688 15689 15690 15691 15692 15693 15694 15695 15696 15697 15698 15699 15700 15701 15702 15703 15704 15705 15706 15707 15708 15709 15710 15711 15712 15713 15714 15715 15716 15717 15718 15719 15720 15721 15722 15723 15724 15725 15726 15727 15728 15729 15730 15731 15732 15733 15734 15735 15736 15737 15738 15739 15740 15741 15742 15743 15744 15745 15746 15747 15748 15749 15750 15751 15752 15753 15754 15755 15756 15757 15758 15759 15760 15761 15762 15763 15764 15765 15766 15767 15768 15769 15770 15771 15772 15773 15774 15775 15776 15777 15778 15779 15780 15781 15782 15783 15784 15785 15786 15787 15788 15789 15790 15791 15792 15793 15794 15795 15796 15797 15798 15799 15800 15801 15802 15803 15804 15805 15806 15807 15808 15809 15810 15811 15812 15813 15814 15815 15816 15817 15818 15819 15820 15821 15822 15823 15824 15825 15826 15827 15828 15829 15830 15831 15832 15833 15834 15835 15836 15837 15838 15839 15840 15841 15842 15843 15844 15845 15846 15847 15848 15849 15850 15851 15852 15853 15854 15855 15856 15857 15858 15859 15860 15861 15862 15863 15864 15865 15866 15867 15868 15869 15870 15871 15872 15873 15874 15875 15876 15877 15878 15879 15880 15881 15882 15883 15884 15885 15886 15887 15888 15889 15890 15891 15892 15893 15894 15895 15896 15897 15898 15899 15900 15901 15902 15903 15904 15905 15906 15907 15908 15909 15910 15911 15912 15913 15914 15915 15916 15917 15918 15919 15920 15921 15922 15923 15924 15925 15926 15927 15928 15929 15930 15931 15932 15933 15934 15935 15936 15937 15938 15939 15940 15941 15942 15943 15944 15945 15946 15947 15948 15949 15950 15951 15952 15953 15954 15955 15956 15957 15958 15959 15960 15961 15962 15963 15964 15965 15966 15967 15968 15969 15970 15971 15972 15973 15974 15975 15976 15977 15978 15979 15980 15981 15982 15983 15984 15985 15986 15987 15988 15989 15990 15991 15992 15993 15994 15995 15996 15997 15998 15999 16000 16001 16002 16003 16004 16005 16006 16007 16008 16009 16010 16011 16012 16013 16014 16015 16016 16017 16018 16019 16020 16021 16022 16023 16024 16025 16026 16027 16028 16029 16030 16031 16032 16033 16034 16035 16036 16037 16038 16039 16040 16041 16042 16043 16044 16045 16046 16047 16048 16049 16050 16051 16052 16053 16054 16055 16056 16057 16058 16059 16060 16061 16062 16063 16064 16065 16066 16067 16068 16069 16070 16071 16072 16073 16074 16075 16076 16077 16078 16079 16080 16081 16082 16083 16084 16085 16086 16087 16088 16089 16090 16091 16092 16093 16094 16095 16096 16097 16098 16099 16100 16101 16102 16103 16104 16105 16106 16107 16108 16109 16110 16111 16112 16113 16114 16115 16116 16117 16118 16119 16120 16121 16122 16123 16124 16125 16126 16127 16128 16129 16130 16131 16132 16133 16134 16135 16136 16137 16138 16139 16140 16141 16142 16143 16144 16145 16146 16147 16148 16149 16150 16151 16152 16153 16154 16155 16156 16157 16158 16159 16160 16161 16162 16163 16164 16165 16166 16167 16168 16169 16170 16171 16172 16173 16174 16175 16176 16177 16178 16179 16180 16181 16182 16183 16184 16185 16186 16187 16188 16189 16190 16191 16192 16193 16194 16195 16196 16197 16198 16199 16200 16201 16202 16203 16204 16205 16206 16207 16208 16209 16210 16211 16212 16213 16214 16215 16216 16217 16218 16219 16220 16221 16222 16223 16224 16225 16226 16227 16228 16229 16230 16231 16232 16233 16234 16235 16236 16237 16238 16239 16240 16241 16242 16243 16244 16245 16246 16247 16248 16249 16250 16251 16252 16253 16254 16255 16256 16257 16258 16259 16260 16261 16262 16263 16264 16265 16266 16267 16268 16269 16270 16271 16272 16273 16274 16275 16276 16277 16278 16279 16280 16281 16282 16283 16284 16285 16286 16287 16288 16289 16290 16291 16292 16293 16294 16295 16296 16297 16298 16299 16300 16301 16302 16303 16304 16305 16306 16307 16308 16309 16310 16311 16312 16313 16314 16315 16316 16317 16318 16319 16320 16321 16322 16323 16324 16325 16326 16327 16328 16329 16330 16331 16332 16333 16334 16335 16336 16337 16338 16339 16340 16341 16342 16343 16344 16345 16346 16347 16348 16349 16350 16351 16352 16353 16354 16355 16356 16357 16358 16359 16360 16361 16362 16363 16364 16365 16366 16367 16368 16369 16370 16371 16372 16373 16374 16375 16376 16377 16378 16379 16380 16381 16382 16383 16384 16385 16386 16387 16388 16389 16390 16391 16392 16393 16394 16395 16396 16397 16398 16399 16400 16401 16402 16403 16404 16405 16406 16407 16408 16409 16410 16411 16412 16413 16414 16415 16416 16417 16418 16419 16420 16421 16422 16423 16424 16425 16426 16427 16428 16429 16430 16431 16432 16433 16434 16435 16436 16437 16438 16439 16440 16441 16442 16443 16444 16445 16446 16447 16448 16449 16450 16451 16452 16453 16454 16455 16456 16457 16458 16459 16460 16461 16462 16463 16464 16465 16466 16467 16468 16469 16470 16471 16472 16473 16474 16475 16476 16477 16478 16479 16480 16481 16482 16483 16484 16485 16486 16487 16488 16489 16490 16491 16492 16493 16494 16495 16496 16497 16498 16499 16500 16501 16502 16503 16504 16505 16506 16507 16508 16509 16510 16511 16512 16513 16514 16515 16516 16517 16518 16519 16520 16521 16522 16523 16524 16525 16526 16527 16528 16529 16530 16531 16532 16533 16534 16535 16536 16537 16538 16539 16540 16541 16542 16543 16544 16545 16546 16547 16548 16549 16550 16551 16552 16553 16554 16555 16556 16557 16558 16559 16560 16561 16562 16563 16564 16565 16566 16567 16568 16569 16570 16571 16572 16573 16574 16575 16576 16577 16578 16579 16580 16581 16582 16583 16584 16585 16586 16587 16588 16589 16590 16591 16592 16593 16594 16595 16596 16597 16598 16599 16600 16601 16602 16603 16604 16605 16606 16607 16608 16609 16610 16611 16612 16613 16614 16615 16616 16617 16618 16619 16620 16621 16622 16623 16624 16625 16626 16627 16628 16629 16630 16631 16632 16633 16634 16635 16636 16637 16638 16639 16640 16641 16642 16643 16644 16645 16646 16647 16648 16649 16650 16651 16652 16653 16654 16655 16656 16657 16658 16659 16660 16661 16662 16663 16664 16665 16666 16667 16668 16669 16670 16671 16672 16673 16674 16675 16676 16677 16678 16679 16680 16681 16682 16683 16684 16685 16686 16687 16688 16689 16690 16691 16692 16693 16694 16695 16696 16697 16698 16699 16700 16701 16702 16703 16704 16705 16706 16707 16708 16709 16710 16711 16712 16713 16714 16715 16716 16717 16718 16719 16720 16721 16722 16723 16724 16725 16726 16727 16728 16729 16730 16731 16732 16733 16734 16735 16736 16737 16738 16739 16740 16741 16742 16743 16744 16745 16746 16747 16748 16749 16750 16751 16752 16753 16754 16755 16756 16757 16758 16759 16760 16761 16762 16763 16764 16765 16766 16767 16768 16769 16770 16771 16772 16773 16774 16775 16776 16777 16778 16779 16780 16781 16782 16783 16784 16785 16786 16787 16788 16789 16790 16791 16792 16793 16794 16795 16796 16797 16798 16799 16800 16801 16802 16803 16804 16805 16806 16807 16808 16809 16810 16811 16812 16813 16814 16815 16816 16817 16818 16819 16820 16821 16822 16823 16824 16825 16826 16827 16828 16829 16830 16831 16832 16833 16834 16835 16836 16837 16838 16839 16840 16841 16842 16843 16844 16845 16846 16847 16848 16849 16850 16851 16852 16853 16854 16855 16856 16857 16858 16859 16860 16861 16862 16863 16864 16865 16866 16867 16868 16869 16870 16871 16872 16873 16874 16875 16876 16877 16878 16879 16880 16881 16882 16883 16884 16885 16886 16887 16888 16889 16890 16891 16892 16893 16894 16895 16896 16897 16898 16899 16900 16901 16902 16903 16904 16905 16906 16907 16908 16909 16910 16911 16912 16913 16914 16915 16916 16917 16918 16919 16920 16921 16922 16923 16924 16925 16926 16927 16928 16929 16930 16931 16932 16933 16934 16935 16936 16937 16938 16939 16940 16941 16942 16943 16944 16945 16946 16947 16948 16949 16950 16951 16952 16953 16954 16955 16956 16957 16958 16959 16960 16961 16962 16963 16964 16965 16966 16967 16968 16969 16970 16971 16972 16973 16974 16975 16976 16977 16978 16979 16980 16981 16982 16983 16984 16985 16986 16987 16988 16989 16990 16991 16992 16993 16994 16995 16996 16997 16998 16999 17000 17001 17002 17003 17004 17005 17006 17007 17008 17009 17010 17011 17012 17013 17014 17015 17016 17017 17018 17019 17020 17021 17022 17023 17024 17025 17026 17027 17028 17029 17030 17031 17032 17033 17034 17035 17036 17037 17038 17039 17040 17041 17042 17043 17044 17045 17046 17047 17048 17049 17050 17051 17052 17053 17054 17055 17056 17057 17058 17059 17060 17061 17062 17063 17064 17065 17066 17067 17068 17069 17070 17071 17072 17073 17074 17075 17076 17077 17078 17079 17080 17081 17082 17083 17084 17085 17086 17087 17088 17089 17090 17091 17092 17093 17094 17095 17096 17097 17098 17099 17100 17101 17102 17103 17104 17105 17106 17107 17108 17109 17110 17111 17112 17113 17114 17115 17116 17117 17118 17119 17120 17121 17122 17123 17124 17125 17126 17127 17128 17129 17130 17131 17132 17133 17134 17135 17136 17137 17138 17139 17140 17141 17142 17143 17144 17145 17146 17147 17148 17149 17150 17151 17152 17153 17154 17155 17156 17157 17158 17159 17160 17161 17162 17163 17164 17165 17166 17167 17168 17169 17170 17171 17172 17173 17174 17175 17176 17177 17178 17179 17180 17181 17182 17183 17184 17185 17186 17187 17188 17189 17190 17191 17192 17193 17194 17195 17196 17197 17198 17199 17200 17201 17202 17203 17204 17205 17206 17207 17208 17209 17210 17211 17212 17213 17214 17215 17216 17217 17218 17219 17220 17221 17222 17223 17224 17225 17226 17227 17228 17229 17230 17231 17232 17233 17234 17235 17236 17237 17238 17239 17240 17241 17242 17243 17244 17245 17246 17247 17248 17249 17250 17251 17252 17253 17254 17255 17256 17257 17258 17259 17260 17261 17262 17263 17264 17265 17266 17267 17268 17269 17270 17271 17272 17273 17274 17275 17276 17277 17278 17279 17280 17281 17282 17283 17284 17285 17286 17287 17288 17289 17290 17291 17292 17293 17294 17295 17296 17297 17298 17299 17300 17301 17302 17303 17304 17305 17306 17307 17308 17309 17310 17311 17312 17313 17314 17315 17316 17317 17318 17319 17320 17321 17322 17323 17324 17325 17326 17327 17328 17329 17330 17331 17332 17333 17334 17335 17336 17337 17338 17339 17340 17341 17342 17343 17344 17345 17346 17347 17348 17349 17350 17351 17352 17353 17354 17355 17356 17357 17358 17359 17360 17361 17362 17363 17364 17365 17366 17367 17368 17369 17370 17371 17372 17373 17374 17375 17376 17377 17378 17379 17380 17381 17382 17383 17384 17385 17386 17387 17388 17389 17390 17391 17392 17393 17394 17395 17396 17397 17398 17399 17400 17401 17402 17403 17404 17405 17406 17407 17408 17409 17410 17411 17412 17413 17414 17415 17416 17417 17418 17419 17420 17421 17422 17423 17424 17425 17426 17427 17428 17429 17430 17431 17432 17433 17434 17435 17436 17437 17438 17439 17440 17441 17442 17443 17444 17445 17446 17447 17448 17449 17450 17451 17452 17453 17454 17455 17456 17457 17458 17459 17460 17461 17462 17463 17464 17465 17466 17467 17468 17469 17470 17471 17472 17473 17474 17475 17476 17477 17478 17479 17480 17481 17482 17483 17484 17485 17486 17487 17488 17489 17490 17491 17492 17493 17494 17495 17496 17497 17498 17499 17500 17501 17502 17503 17504 17505 17506 17507 17508 17509 17510 17511 17512 17513 17514 17515 17516 17517 17518 17519 17520 17521 17522 17523 17524 17525 17526 17527 17528 17529 17530 17531 17532 17533 17534 17535 17536 17537 17538 17539 17540 17541 17542 17543 17544 17545 17546 17547 17548 17549 17550 17551 17552 17553 17554 17555 17556 17557 17558 17559 17560 17561 17562 17563 17564 17565 17566 17567 17568 17569 17570 17571 17572 17573 17574 17575 17576 17577 17578 17579 17580 17581 17582 17583 17584 17585 17586 17587 17588 17589 17590 17591 17592 17593 17594 17595 17596 17597 17598 17599 17600 17601 17602 17603 17604 17605 17606 17607 17608 17609 17610 17611 17612 17613 17614 17615 17616 17617 17618 17619 17620 17621 17622 17623 17624 17625 17626 17627 17628 17629 17630 17631 17632 17633 17634 17635 17636 17637 17638 17639 17640 17641 17642 17643 17644 17645 17646 17647 17648 17649 17650 17651 17652 17653 17654 17655 17656 17657 17658 17659 17660 17661 17662 17663 17664 17665 17666 17667 17668 17669 17670 17671 17672 17673 17674 17675 17676 17677 17678 17679 17680 17681 17682 17683 17684 17685 17686 17687 17688 17689 17690 17691 17692 17693 17694 17695 17696 17697 17698 17699 17700 17701 17702 17703 17704 17705 17706 17707 17708 17709 17710 17711 17712 17713 17714 17715 17716 17717 17718 17719 17720 17721 17722 17723 17724 17725 17726 17727 17728 17729 17730 17731 17732 17733 17734 17735 17736 17737 17738 17739 17740 17741 17742 17743 17744 17745 17746 17747 17748 17749 17750 17751 17752 17753 17754 17755 17756 17757 17758 17759 17760 17761 17762 17763 17764 17765 17766 17767 17768 17769 17770 17771 17772 17773 17774 17775 17776 17777 17778 17779 17780 17781 17782 17783 17784 17785 17786 17787 17788 17789 17790 17791 17792 17793 17794 17795 17796 17797 17798 17799 17800 17801 17802 17803 17804 17805 17806 17807 17808 17809 17810 17811 17812 17813 17814 17815 17816 17817 17818 17819 17820 17821 17822 17823 17824 17825 17826 17827 17828 17829 17830 17831 17832 17833 17834 17835 17836 17837 17838 17839 17840 17841 17842 17843 17844 17845 17846 17847 17848 17849 17850 17851 17852 17853 17854 17855 17856 17857 17858 17859 17860 17861 17862 17863 17864 17865 17866 17867 17868 17869 17870 17871 17872 17873 17874 17875 17876 17877 17878 17879 17880 17881 17882 17883 17884 17885 17886 17887 17888 17889 17890 17891 17892 17893 17894 17895 17896 17897 17898 17899 17900 17901 17902 17903 17904 17905 17906 17907 17908 17909 17910 17911 17912 17913 17914 17915 17916 17917 17918 17919 17920 17921 17922 17923 17924 17925 17926 17927 17928 17929 17930 17931 17932 17933 17934 17935 17936 17937 17938 17939 17940 17941 17942 17943 17944 17945 17946 17947 17948 17949 17950 17951 17952 17953 17954 17955 17956 17957 17958 17959 17960 17961 17962 17963 17964 17965 17966 17967 17968 17969 17970 17971 17972 17973 17974 17975 17976 17977 17978 17979 17980 17981 17982 17983 17984 17985 17986 17987 17988 17989 17990 17991 17992 17993 17994 17995 17996 17997 17998 17999 18000 18001 18002 18003 18004 18005 18006 18007 18008 18009 18010 18011 18012 18013 18014 18015 18016 18017 18018 18019 18020 18021 18022 18023 18024 18025 18026 18027 18028 18029 18030 18031 18032 18033 18034 18035 18036 18037 18038 18039 18040 18041 18042 18043 18044 18045 18046 18047 18048 18049 18050 18051 18052 18053 18054 18055 18056 18057 18058 18059 18060 18061 18062 18063 18064 18065 18066 18067 18068 18069 18070 18071 18072 18073 18074 18075 18076 18077 18078 18079 18080 18081 18082 18083 18084 18085 18086 18087 18088 18089 18090 18091 18092 18093 18094 18095 18096 18097 18098 18099 18100 18101 18102 18103 18104 18105 18106 18107 18108 18109 18110 18111 18112 18113 18114 18115 18116 18117 18118 18119 18120 18121 18122 18123 18124 18125 18126 18127 18128 18129 18130 18131 18132 18133 18134 18135 18136 18137 18138 18139 18140 18141 18142 18143 18144 18145 18146 18147 18148 18149 18150 18151 18152 18153 18154 18155 18156 18157 18158 18159 18160 18161 18162 18163 18164 18165 18166 18167 18168 18169 18170 18171 18172 18173 18174 18175 18176 18177 18178 18179 18180 18181 18182 18183 18184 18185 18186 18187 18188 18189 18190 18191 18192 18193 18194 18195 18196 18197 18198 18199 18200 18201 18202 18203 18204 18205 18206 18207 18208 18209 18210 18211 18212 18213 18214 18215 18216 18217 18218 18219 18220 18221 18222 18223 18224 18225 18226 18227 18228 18229 18230 18231 18232 18233 18234 18235 18236 18237 18238 18239 18240 18241 18242 18243 18244 18245 18246 18247 18248 18249 18250 18251 18252 18253 18254 18255 18256 18257 18258 18259 18260 18261 18262 18263 18264 18265 18266 18267 18268 18269 18270 18271 18272 18273 18274 18275 18276 18277 18278 18279 18280 18281 18282 18283 18284 18285 18286 18287 18288 18289 18290 18291 18292 18293 18294 18295 18296 18297 18298 18299 18300 18301 18302 18303 18304 18305 18306 18307 18308 18309 18310 18311 18312 18313 18314 18315 18316 18317 18318 18319 18320 18321 18322 18323 18324 18325 18326 18327 18328 18329 18330 18331 18332 18333 18334 18335 18336 18337 18338 18339 18340 18341 18342 18343 18344 18345 18346 18347 18348 18349 18350 18351 18352 18353 18354 18355 18356 18357 18358 18359 18360 18361 18362 18363 18364 18365 18366 18367 18368 18369 18370 18371 18372 18373 18374 18375 18376 18377 18378 18379 18380 18381 18382 18383 18384 18385 18386 18387 18388 18389 18390 18391 18392 18393 18394 18395 18396 18397 18398 18399 18400 18401 18402 18403 18404 18405 18406 18407 18408 18409 18410 18411 18412 18413 18414 18415 18416 18417 18418 18419 18420 18421 18422 18423 18424 18425 18426 18427 18428 18429 18430 18431 18432 18433 18434 18435 18436 18437 18438 18439 18440 18441 18442 18443 18444 18445 18446 18447 18448 18449 18450 18451 18452 18453 18454 18455 18456 18457 18458 18459 18460 18461 18462 18463 18464 18465 18466 18467 18468 18469 18470 18471 18472 18473 18474 18475 18476 18477 18478 18479 18480 18481 18482 18483 18484 18485 18486 18487 18488 18489 18490 18491 18492 18493 18494 18495 18496 18497 18498 18499 18500 18501 18502 18503 18504 18505 18506 18507 18508 18509 18510 18511 18512 18513 18514 18515 18516 18517 18518 18519 18520 18521 18522 18523 18524 18525 18526 18527 18528 18529 18530 18531 18532 18533 18534 18535 18536 18537 18538 18539 18540 18541 18542 18543 18544 18545 18546 18547 18548 18549 18550 18551 18552 18553 18554 18555 18556 18557 18558 18559 18560 18561 18562 18563 18564 18565 18566 18567 18568 18569 18570 18571 18572 18573 18574 18575 18576 18577 18578 18579 18580 18581 18582 18583 18584 18585 18586 18587 18588 18589 18590 18591 18592 18593 18594 18595 18596 18597 18598 18599 18600 18601 18602 18603 18604 18605 18606 18607 18608 18609 18610 18611 18612 18613 18614 18615 18616 18617 18618 18619 18620 18621 18622 18623 18624 18625 18626 18627 18628 18629 18630 18631 18632 18633 18634 18635 18636 18637 18638 18639 18640 18641 18642 18643 18644 18645 18646 18647 18648 18649 18650 18651 18652 18653 18654 18655 18656 18657 18658 18659 18660 18661 18662 18663 18664 18665 18666 18667 18668 18669 18670 18671 18672 18673 18674 18675 18676 18677 18678 18679 18680 18681 18682 18683 18684 18685 18686 18687 18688 18689 18690 18691 18692 18693 18694 18695 18696 18697 18698 18699 18700 18701 18702 18703 18704 18705 18706 18707 18708 18709 18710 18711 18712 18713 18714 18715 18716 18717 18718 18719 18720 18721 18722 18723 18724 18725 18726 18727 18728 18729 18730 18731 18732 18733 18734 18735 18736 18737 18738 18739 18740 18741 18742 18743 18744 18745 18746 18747 18748 18749 18750 18751 18752 18753 18754 18755 18756 18757 18758 18759 18760 18761 18762 18763 18764 18765 18766 18767 18768 18769 18770 18771 18772 18773 18774 18775 18776 18777 18778 18779 18780 18781 18782 18783 18784 18785 18786 18787 18788 18789 18790 18791 18792 18793 18794 18795 18796 18797 18798 18799 18800 18801 18802 18803 18804 18805 18806 18807 18808 18809 18810 18811 18812 18813 18814 18815 18816 18817 18818 18819 18820 18821 18822 18823 18824 18825 18826 18827 18828 18829 18830 18831 18832 18833 18834 18835 18836 18837 18838 18839 18840 18841 18842 18843 18844 18845 18846 18847 18848 18849 18850 18851 18852 18853 18854 18855 18856 18857 18858 18859 18860 18861 18862 18863 18864 18865 18866 18867 18868 18869 18870 18871 18872 18873 18874 18875 18876 18877 18878 18879 18880 18881 18882 18883 18884 18885 18886 18887 18888 18889 18890 18891 18892 18893 18894 18895 18896 18897 18898 18899 18900 18901 18902 18903 18904 18905 18906 18907 18908 18909 18910 18911 18912 18913 18914 18915 18916 18917 18918 18919 18920 18921 18922 18923 18924 18925 18926 18927 18928 18929 18930 18931 18932 18933 18934 18935 18936 18937 18938 18939 18940 18941 18942 18943 18944 18945 18946 18947 18948 18949 18950 18951 18952 18953 18954 18955 18956 18957 18958 18959 18960 18961 18962 18963 18964 18965 18966 18967 18968 18969 18970 18971 18972 18973 18974 18975 18976 18977 18978 18979 18980 18981 18982 18983 18984 18985 18986 18987 18988 18989 18990 18991 18992 18993 18994 18995 18996 18997 18998 18999 19000 19001 19002 19003 19004 19005 19006 19007 19008 19009 19010 19011 19012 19013 19014 19015 19016 19017 19018 19019 19020 19021 19022 19023 19024 19025 19026 19027 19028 19029 19030 19031 19032 19033 19034 19035 19036 19037 19038 19039 19040 19041 19042 19043 19044 19045 19046 19047 19048 19049 19050 19051 19052 19053 19054 19055 19056 19057 19058 19059 19060 19061 19062 19063 19064 19065 19066 19067 19068 19069 19070 19071 19072 19073 19074 19075 19076 19077 19078 19079 19080 19081 19082 19083 19084 19085 19086 19087 19088 19089 19090 19091 19092 19093 19094 19095 19096 19097 19098 19099 19100 19101 19102 19103 19104 19105 19106 19107 19108 19109 19110 19111 19112 19113 19114 19115 19116 19117 19118 19119 19120 19121 19122 19123 19124 19125 19126 19127 19128 19129 19130 19131 19132 19133 19134 19135 19136 19137 19138 19139 19140 19141 19142 19143 19144 19145 19146 19147 19148 19149 19150 19151 19152 19153 19154 19155 19156 19157 19158 19159 19160 19161 19162 19163 19164 19165 19166 19167 19168 19169 19170 19171 19172 19173 19174 19175 19176 19177 19178 19179 19180 19181 19182 19183 19184 19185 19186 19187 19188 19189 19190 19191 19192 19193 19194 19195 19196 19197 19198 19199 19200 19201 19202 19203 19204 19205 19206 19207 19208 19209 19210 19211 19212 19213 19214 19215 19216 19217 19218 19219 19220 19221 19222 19223 19224 19225 19226 19227 19228 19229 19230 19231 19232 19233 19234 19235 19236 19237 19238 19239 19240 19241 19242 19243 19244 19245 19246 19247 19248 19249 19250 19251 19252 19253 19254 19255 19256 19257 19258 19259 19260 19261 19262 19263 19264 19265 19266 19267 19268 19269 19270 19271 19272 19273 19274 19275 19276 19277 19278 19279 19280 19281 19282 19283 19284 19285 19286 19287 19288 19289 19290 19291 19292 19293 19294 19295 19296 19297 19298 19299 19300 19301 19302 19303 19304 19305 19306 19307 19308 19309 19310 19311 19312 19313 19314 19315 19316 19317 19318 19319 19320 19321 19322 19323 19324 19325 19326 19327 19328 19329 19330 19331 19332 19333 19334 19335 19336 19337 19338 19339 19340 19341 19342 19343 19344 19345 19346 19347 19348 19349 19350 19351 19352 19353 19354 19355 19356 19357 19358 19359 19360 19361 19362 19363 19364 19365 19366 19367 19368 19369 19370 19371 19372 19373 19374 19375 19376 19377 19378 19379 19380 19381 19382 19383 19384 19385 19386 19387 19388 19389 19390 19391 19392 19393 19394 19395 19396 19397 19398 19399 19400 19401 19402 19403 19404 19405 19406 19407 19408 19409 19410 19411 19412 19413 19414 19415 19416 19417 19418 19419 19420 19421 19422 19423 19424 19425 19426 19427 19428 19429 19430 19431 19432 19433 19434 19435 19436 19437 19438 19439 19440 19441 19442 19443 19444 19445 19446 19447 19448 19449 19450 19451 19452 19453 19454 19455 19456 19457 19458 19459 19460 19461 19462 19463 19464 19465 19466 19467 19468 19469 19470 19471 19472 19473 19474 19475 19476 19477 19478 19479 19480 19481 19482 19483 19484 19485 19486 19487 19488 19489 19490 19491 19492 19493 19494 19495 19496 19497 19498 19499 19500 19501 19502 19503 19504 19505 19506 19507 19508 19509 19510 19511 19512 19513 19514 19515 19516 19517 19518 19519 19520 19521 19522 19523 19524 19525 19526 19527 19528 19529 19530 19531 19532 19533 19534 19535 19536 19537 19538 19539 19540 19541 19542 19543 19544 19545 19546 19547 19548 19549 19550 19551 19552 19553 19554 19555 19556 19557 19558 19559 19560 19561 19562 19563 19564 19565 19566 19567 19568 19569 19570 19571 19572 19573 19574 19575 19576 19577 19578 19579 19580 19581 19582 19583 19584 19585 19586 19587 19588 19589 19590 19591 19592 19593 19594 19595 19596 19597 19598 19599 19600 19601 19602 19603 19604 19605 19606 19607 19608 19609 19610 19611 19612 19613 19614 19615 19616 19617 19618 19619 19620 19621 19622 19623 19624 19625 19626 19627 19628 19629 19630 19631 19632 19633 19634 19635 19636 19637 19638 19639 19640 19641 19642 19643 19644 19645 19646 19647 19648 19649 19650 19651 19652 19653 19654 19655 19656 19657 19658 19659 19660 19661 19662 19663 19664 19665 19666 19667 19668 19669 19670 19671 19672 19673 19674 19675 19676 19677 19678 19679 19680 19681 19682 19683 19684 19685 19686 19687 19688 19689 19690 19691 19692 19693 19694 19695 19696 19697 19698 19699 19700 19701 19702 19703 19704 19705 19706 19707 19708 19709 19710 19711 19712 19713 19714 19715 19716 19717 19718 19719 19720 19721 19722 19723 19724 19725 19726 19727 19728 19729 19730 19731 19732 19733 19734 19735 19736 19737 19738 19739 19740 19741 19742 19743 19744 19745 19746 19747 19748 19749 19750 19751 19752 19753 19754 19755 19756 19757 19758 19759 19760 19761 19762 19763 19764 19765 19766 19767 19768 19769 19770 19771 19772 19773 19774 19775 19776 19777 19778 19779 19780 19781 19782 19783 19784 19785 19786 19787 19788 19789 19790 19791 19792 19793 19794 19795 19796 19797 19798 19799 19800 19801 19802 19803 19804 19805 19806 19807 19808 19809 19810 19811 19812 19813 19814 19815 19816 19817 19818 19819 19820 19821 19822 19823 19824 19825 19826 19827 19828 19829 19830 19831 19832 19833 19834 19835 19836 19837 19838 19839 19840 19841 19842 19843 19844 19845 19846 19847 19848 19849 19850 19851 19852 19853 19854 19855 19856 19857 19858 19859 19860 19861 19862 19863 19864 19865 19866 19867 19868 19869 19870 19871 19872 19873 19874 19875 19876 19877 19878 19879 19880 19881 19882 19883 19884 19885 19886 19887 19888 19889 19890 19891 19892 19893 19894 19895 19896 19897 19898 19899 19900 19901 19902 19903 19904 19905 19906 19907 19908 19909 19910 19911 19912 19913 19914 19915 19916 19917 19918 19919 19920 19921 19922 19923 19924 19925 19926 19927 19928 19929 19930 19931 19932 19933 19934 19935 19936 19937 19938 19939 19940 19941 19942 19943 19944 19945 19946 19947 19948 19949 19950 19951 19952 19953 19954 19955 19956 19957 19958 19959 19960 19961 19962 19963 19964 19965 19966 19967 19968 19969 19970 19971 19972 19973 19974 19975 19976 19977 19978 19979 19980 19981 19982 19983 19984 19985 19986 19987 19988 19989 19990 19991 19992 19993 19994 19995 19996 19997 19998 19999 20000 20001 20002 20003 20004 20005 20006 20007 20008 20009 20010 20011 20012 20013 20014 20015 20016 20017 20018 20019 20020 20021 20022 20023 20024 20025 20026 20027 20028 20029 20030 20031 20032 20033 20034 20035 20036 20037 20038 20039 20040 20041 20042 20043 20044 20045 20046 20047 20048 20049 20050 20051 20052 20053 20054 20055 20056 20057 20058 20059 20060 20061 20062 20063 20064 20065 20066 20067 20068 20069 20070 20071 20072 20073 20074 20075 20076 20077 20078 20079 20080 20081 20082 20083 20084 20085 20086 20087 20088 20089 20090 20091 20092 20093 20094 20095 20096 20097 20098 20099 20100 20101 20102 20103 20104 20105 20106 20107 20108 20109 20110 20111 20112 20113 20114 20115 20116 20117 20118 20119 20120 20121 20122 20123 20124 20125 20126 20127 20128 20129 20130 20131 20132 20133 20134 20135 20136 20137 20138 20139 20140 20141 20142 20143 20144 20145 20146 20147 20148 20149 20150 20151 20152 20153 20154 20155 20156 20157 20158 20159 20160 20161 20162 20163 20164 20165 20166 20167 20168 20169 20170 20171 20172 20173 20174 20175 20176 20177 20178 20179 20180 20181 20182 20183 20184 20185 20186 20187 20188 20189 20190 20191 20192 20193 20194 20195 20196 20197 20198 20199 20200 20201 20202 20203 20204 20205 20206 20207 20208 20209 20210 20211 20212 20213 20214 20215 20216 20217 20218 20219 20220 20221 20222 20223 20224 20225 20226 20227 20228 20229 20230 20231 20232 20233 20234 20235 20236 20237 20238 20239 20240 20241 20242 20243 20244 20245 20246 20247 20248 20249 20250 20251 20252 20253 20254 20255 20256 20257 20258 20259 20260 20261 20262 20263 20264 20265 20266 20267 20268 20269 20270 20271 20272 20273 20274 20275 20276 20277 20278 20279 20280 20281 20282 20283 20284 20285 20286 20287 20288 20289 20290 20291 20292 20293 20294 20295 20296 20297 20298 20299 20300 20301 20302 20303 20304 20305 20306 20307 20308 20309 20310 20311 20312 20313 20314 20315 20316 20317 20318 20319 20320 20321 20322 20323 20324 20325 20326 20327 20328 20329 20330 20331 20332 20333 20334 20335 20336 20337 20338 20339 20340 20341 20342 20343 20344 20345 20346 20347 20348 20349 20350 20351 20352 20353 20354 20355 20356 20357 20358 20359 20360 20361 20362 20363 20364 20365 20366 20367 20368 20369 20370 20371 20372 20373 20374 20375 20376 20377 20378 20379 20380 20381 20382 20383 20384 20385 20386 20387 20388 20389 20390 20391 20392 20393 20394 20395 20396 20397 20398 20399 20400 20401 20402 20403 20404 20405 20406 20407 20408 20409 20410 20411 20412 20413 20414 20415 20416 20417 20418 20419 20420 20421 20422 20423 20424 20425 20426 20427 20428 20429 20430 20431 20432 20433 20434 20435 20436 20437 20438 20439 20440 20441 20442 20443 20444 20445 20446 20447 20448 20449 20450 20451 20452 20453 20454 20455 20456 20457 20458 20459 20460 20461 20462 20463 20464 20465 20466 20467 20468 20469 20470 20471 20472 20473 20474 20475 20476 20477 20478 20479 20480 20481 20482 20483 20484 20485 20486 20487 20488 20489 20490 20491 20492 20493 20494 20495 20496 20497 20498 20499 20500 20501 20502 20503 20504 20505 20506 20507 20508 20509 20510 20511 20512 20513 20514 20515 20516 20517 20518 20519 20520 20521 20522 20523 20524 20525 20526 20527 20528 20529 20530 20531 20532 20533 20534 20535 20536 20537 20538 20539 20540 20541 20542 20543 20544 20545 20546 20547 20548 20549 20550 20551 20552 20553 20554 20555 20556 20557 20558 20559 20560 20561 20562 20563 20564 20565 20566 20567 20568 20569 20570 20571 20572 20573 20574 20575 20576 20577 20578 20579 20580 20581 20582 20583 20584 20585 20586 20587 20588 20589 20590 20591 20592 20593 20594 20595 20596 20597 20598 20599 20600 20601 20602 20603 20604 20605 20606 20607 20608 20609 20610 20611 20612 20613 20614 20615 20616 20617 20618 20619 20620 20621 20622 20623 20624 20625 20626 20627 20628 20629 20630 20631 20632 20633 20634 20635 20636 20637 20638 20639 20640 20641 20642 20643 20644 20645 20646 20647 20648 20649 20650 20651 20652 20653 20654 20655 20656 20657 20658 20659 20660 20661 20662 20663 20664 20665 20666 20667 20668 20669 20670 20671 20672 20673 20674 20675 20676 20677 20678 20679 20680 20681 20682 20683 20684 20685 20686 20687 20688 20689 20690 20691 20692 20693 20694 20695 20696 20697 20698 20699 20700 20701 20702 20703 20704 20705 20706 20707 20708 20709 20710 20711 20712 20713 20714 20715 20716 20717 20718 20719 20720 20721 20722 20723 20724 20725 20726 20727 20728 20729 20730 20731 20732 20733 20734 20735 20736 20737 20738 20739 20740 20741 20742 20743 20744 20745 20746 20747 20748 20749 20750 20751 20752 20753 20754 20755 20756 20757 20758 20759 20760 20761 20762 20763 20764 20765 20766 20767 20768 20769 20770 20771 20772 20773 20774 20775 20776 20777 20778 20779 20780 20781 20782 20783 20784 20785 20786 20787 20788 20789 20790 20791 20792 20793 20794 20795 20796 20797 20798 20799 20800 20801 20802 20803 20804 20805 20806 20807 20808 20809 20810 20811 20812 20813 20814 20815 20816 20817 20818 20819 20820 20821 20822 20823 20824 20825 20826 20827 20828 20829 20830 20831 20832 20833 20834 20835 20836 20837 20838 20839 20840 20841 20842 20843 20844 20845 20846 20847 20848 20849 20850 20851 20852 20853 20854 20855 20856 20857 20858 20859 20860 20861 20862 20863 20864 20865 20866 20867 20868 20869 20870 20871 20872 20873 20874 20875 20876 20877 20878 20879 20880 20881 20882 20883 20884 20885 20886 20887 20888 20889 20890 20891 20892 20893 20894 20895 20896 20897 20898 20899 20900 20901 20902 20903 20904 20905 20906 20907 20908 20909 20910 20911 20912 20913 20914 20915 20916 20917 20918 20919 20920 20921 20922 20923 20924 20925 20926 20927 20928 20929 20930 20931 20932 20933 20934 20935 20936 20937 20938 20939 20940 20941 20942 20943 20944 20945 20946 20947 20948 20949 20950 20951 20952 20953 20954 20955 20956 20957 20958 20959 20960 20961 20962 20963 20964 20965 20966 20967 20968 20969 20970 20971 20972 20973 20974 20975 20976 20977 20978 20979 20980 20981 20982 20983 20984 20985 20986 20987 20988 20989 20990 20991 20992 20993 20994 20995 20996 20997 20998 20999 21000 21001 21002 21003 21004 21005 21006 21007 21008 21009 21010 21011 21012 21013 21014 21015 21016 21017 21018 21019 21020 21021 21022 21023 21024 21025 21026 21027 21028 21029 21030 21031 21032 21033 21034 21035 21036 21037 21038 21039 21040 21041 21042 21043 21044 21045 21046 21047 21048 21049 21050 21051 21052 21053 21054 21055 21056 21057 21058 21059 21060 21061 21062 21063 21064 21065 21066 21067 21068 21069 21070 21071 21072 21073 21074 21075 21076 21077 21078 21079 21080 21081 21082 21083 21084 21085 21086 21087 21088 21089 21090 21091 21092 21093 21094 21095 21096 21097 21098 21099 21100 21101 21102 21103 21104 21105 21106 21107 21108 21109 21110 21111 21112 21113 21114 21115 21116 21117 21118 21119 21120 21121 21122 21123 21124 21125 21126 21127 21128 21129 21130 21131 21132 21133 21134 21135 21136 21137 21138 21139 21140 21141 21142 21143 21144 21145 21146 21147 21148 21149 21150 21151 21152 21153 21154 21155 21156 21157 21158 21159 21160 21161 21162 21163 21164 21165 21166 21167 21168 21169 21170 21171 21172 21173 21174 21175 21176 21177 21178 21179 21180 21181 21182 21183 21184 21185 21186 21187 21188 21189 21190 21191 21192 21193 21194 21195 21196 21197 21198 21199 21200 21201 21202 21203 21204 21205 21206 21207 21208 21209 21210 21211 21212 21213 21214 21215 21216 21217 21218 21219 21220 21221 21222 21223 21224 21225 21226 21227 21228 21229 21230 21231 21232 21233 21234 21235 21236 21237 21238 21239 21240 21241 21242 21243 21244 21245 21246 21247 21248 21249 21250 21251 21252 21253 21254 21255 21256 21257 21258 21259 21260 21261 21262 21263 21264 21265 21266 21267 21268 21269 21270 21271 21272 21273 21274 21275 21276 21277 21278 21279 21280 21281 21282 21283 21284 21285 21286 21287 21288 21289 21290 21291 21292 21293 21294 21295 21296 21297 21298 21299 21300 21301 21302 21303 21304 21305 21306 21307 21308 21309 21310 21311 21312 21313 21314 21315 21316 21317 21318 21319 21320 21321 21322 21323 21324 21325 21326 21327 21328 21329 21330 21331 21332 21333 21334 21335 21336 21337 21338 21339 21340 21341 21342 21343 21344 21345 21346 21347 21348 21349 21350 21351 21352 21353 21354 21355 21356 21357 21358 21359 21360 21361 21362 21363 21364 21365 21366 21367 21368 21369 21370 21371 21372 21373 21374 21375 21376 21377 21378 21379 21380 21381 21382 21383 21384 21385 21386 21387 21388 21389 21390 21391 21392 21393 21394 21395 21396 21397 21398 21399 21400 21401 21402 21403 21404 21405 21406 21407 21408 21409 21410 21411 21412 21413 21414 21415 21416 21417 21418 21419 21420 21421 21422 21423 21424 21425 21426 21427 21428 21429 21430 21431 21432 21433 21434 21435 21436 21437 21438 21439 21440 21441 21442 21443 21444 21445 21446 21447 21448 21449 21450 21451 21452 21453 21454 21455 21456 21457 21458 21459 21460 21461 21462 21463 21464 21465 21466 21467 21468 21469 21470 21471 21472 21473 21474 21475 21476 21477 21478 21479 21480 21481 21482 21483 21484 21485 21486 21487 21488 21489 21490 21491 21492 21493 21494 21495 21496 21497 21498 21499 21500 21501 21502 21503 21504 21505 21506 21507 21508 21509 21510 21511 21512 21513 21514 21515 21516 21517 21518 21519 21520 21521 21522 21523 21524 21525 21526 21527 21528 21529 21530 21531 21532 21533 21534 21535 21536 21537 21538 21539 21540 21541 21542 21543 21544 21545 21546 21547 21548 21549 21550 21551 21552 21553 21554 21555 21556 21557 21558 21559 21560 21561 21562 21563 21564 21565 21566 21567 21568 21569 21570 21571 21572 21573 21574 21575 21576 21577 21578 21579 21580 21581 21582 21583 21584 21585 21586 21587 21588 21589 21590 21591 21592 21593 21594 21595 21596 21597 21598 21599 21600 21601 21602 21603 21604 21605 21606 21607 21608 21609 21610 21611 21612 21613 21614 21615 21616 21617 21618 21619 21620 21621 21622 21623 21624 21625 21626 21627 21628 21629 21630 21631 21632 21633 21634 21635 21636 21637 21638 21639 21640 21641 21642 21643 21644 21645 21646 21647 21648 21649 21650 21651 21652 21653 21654 21655 21656 21657 21658 21659 21660 21661 21662 21663 21664 21665 21666 21667 21668 21669 21670 21671 21672 21673 21674 21675 21676 21677 21678 21679 21680 21681 21682 21683 21684 21685 21686 21687 21688 21689 21690 21691 21692 21693 21694 21695 21696 21697 21698 21699 21700 21701 21702 21703 21704 21705 21706 21707 21708 21709 21710 21711 21712 21713 21714 21715 21716 21717 21718 21719 21720 21721 21722 21723 21724 21725 21726 21727 21728 21729 21730 21731 21732 21733 21734 21735 21736 21737 21738 21739 21740 21741 21742 21743 21744 21745 21746 21747 21748 21749 21750 21751 21752 21753 21754 21755 21756 21757 21758 21759 21760 21761 21762 21763 21764 21765 21766 21767 21768 21769 21770 21771 21772 21773 21774 21775 21776 21777 21778 21779 21780 21781 21782 21783 21784 21785 21786 21787 21788 21789 21790 21791 21792 21793 21794 21795 21796 21797 21798 21799 21800 21801 21802 21803 21804 21805 21806 21807 21808 21809 21810 21811 21812 21813 21814 21815 21816 21817 21818 21819 21820 21821 21822 21823 21824 21825 21826 21827 21828 21829 21830 21831 21832 21833 21834 21835 21836 21837 21838 21839 21840 21841 21842 21843 21844 21845 21846 21847 21848 21849 21850 21851 21852 21853 21854 21855 21856 21857 21858 21859 21860 21861 21862 21863 21864 21865 21866 21867 21868 21869 21870 21871 21872 21873 21874 21875 21876 21877 21878 21879 21880 21881 21882 21883 21884 21885 21886 21887 21888 21889 21890 21891 21892 21893 21894 21895 21896 21897 21898 21899 21900 21901 21902 21903 21904 21905 21906 21907 21908 21909 21910 21911 21912 21913 21914 21915 21916 21917 21918 21919 21920 21921 21922 21923 21924 21925 21926 21927 21928 21929 21930 21931 21932 21933 21934 21935 21936 21937 21938 21939 21940 21941 21942 21943 21944 21945 21946 21947 21948 21949 21950 21951 21952 21953 21954 21955 21956 21957 21958 21959 21960 21961 21962 21963 21964 21965 21966 21967 21968 21969 21970 21971 21972 21973 21974 21975 21976 21977 21978 21979 21980 21981 21982 21983 21984 21985 21986 21987 21988 21989 21990 21991 21992 21993 21994 21995 21996 21997 21998 21999 22000 22001 22002 22003 22004 22005 22006 22007 22008 22009 22010 22011 22012 22013 22014 22015 22016 22017 22018 22019 22020 22021 22022 22023 22024 22025 22026 22027 22028 22029 22030 22031 22032 22033 22034 22035 22036 22037 22038 22039 22040 22041 22042 22043 22044 22045 22046 22047 22048 22049 22050 22051 22052 22053 22054 22055 22056 22057 22058 22059 22060 22061 22062 22063 22064 22065 22066 22067 22068 22069 22070 22071 22072 22073 22074 22075 22076 22077 22078 22079 22080 22081 22082 22083 22084 22085 22086 22087 22088 22089 22090 22091 22092 22093 22094 22095 22096 22097 22098 22099 22100 22101 22102 22103 22104 22105 22106 22107 22108 22109 22110 22111 22112 22113 22114 22115 22116 22117 22118 22119 22120 22121 22122 22123 22124 22125 22126 22127 22128 22129 22130 22131 22132 22133 22134 22135 22136 22137 22138 22139 22140 22141 22142 22143 22144 22145 22146 22147 22148 22149 22150 22151 22152 22153 22154 22155 22156 22157 22158 22159 22160 22161 22162 22163 22164 22165 22166 22167 22168 22169 22170 22171 22172 22173 22174 22175 22176 22177 22178 22179 22180 22181 22182 22183 22184 22185 22186 22187 22188 22189 22190 22191 22192 22193 22194 22195 22196 22197 22198 22199 22200 22201 22202 22203 22204 22205 22206 22207 22208 22209 22210 22211 22212 22213 22214 22215 22216 22217 22218 22219 22220 22221 22222 22223 22224 22225 22226 22227 22228 22229 22230 22231 22232 22233 22234 22235 22236 22237 22238 22239 22240 22241 22242 22243 22244 22245 22246 22247 22248 22249 22250 22251 22252 22253 22254 22255 22256 22257 22258 22259 22260 22261 22262 22263 22264 22265 22266 22267 22268 22269 22270 22271 22272 22273 22274 22275 22276 22277 22278 22279 22280 22281 22282 22283 22284 22285 22286 22287 22288 22289 22290 22291 22292 22293 22294 22295 22296 22297 22298 22299 22300 22301 22302 22303 22304 22305 22306 22307 22308 22309 22310 22311 22312 22313 22314 22315 22316 22317 22318 22319 22320 22321 22322 22323 22324 22325 22326 22327 22328 22329 22330 22331 22332 22333 22334 22335 22336 22337 22338 22339 22340 22341 22342 22343 22344 22345 22346 22347 22348 22349 22350 22351 22352 22353 22354 22355 22356 22357 22358 22359 22360 22361 22362 22363 22364 22365 22366 22367 22368 22369 22370 22371 22372 22373 22374 22375 22376 22377 22378 22379 22380 22381 22382 22383 22384 22385 22386 22387 22388 22389 22390 22391 22392 22393 22394 22395 22396 22397 22398 22399 22400 22401 22402 22403 22404 22405 22406 22407 22408 22409 22410 22411 22412 22413 22414 22415 22416 22417 22418 22419 22420 22421 22422 22423 22424 22425 22426 22427 22428 22429 22430 22431 22432 22433 22434 22435 22436 22437 22438 22439 22440 22441 22442 22443 22444 22445 22446 22447 22448 22449 22450 22451 22452 22453 22454 22455 22456 22457 22458 22459 22460 22461 22462 22463 22464 22465 22466 22467 22468 22469 22470 22471 22472 22473 22474 22475 22476 22477 22478 22479 22480 22481 22482 22483 22484 22485 22486 22487 22488 22489 22490 22491 22492 22493 22494 22495 22496 22497 22498 22499 22500 22501 22502 22503 22504 22505 22506 22507 22508 22509 22510 22511 22512 22513 22514 22515 22516 22517 22518 22519 22520 22521 22522 22523 22524 22525 22526 22527 22528 22529 22530 22531 22532 22533 22534 22535 22536 22537 22538 22539 22540 22541 22542 22543 22544 22545 22546 22547 22548 22549 22550 22551 22552 22553 22554 22555 22556 22557 22558 22559 22560 22561 22562 22563 22564 22565 22566 22567 22568 22569 22570 22571 22572 22573 22574 22575 22576 22577 22578 22579 22580 22581 22582 22583 22584 22585 22586 22587 22588 22589 22590 22591 22592 22593 22594 22595 22596 22597 22598 22599 22600 22601 22602 22603 22604 22605 22606 22607 22608 22609 22610 22611 22612 22613 22614 22615 22616 22617 22618 22619 22620 22621 22622 22623 22624 22625 22626 22627 22628 22629 22630 22631 22632 22633 22634 22635 22636 22637 22638 22639 22640 22641 22642 22643 22644 22645 22646 22647 22648 22649 22650 22651 22652 22653 22654 22655 22656 22657 22658 22659 22660 22661 22662 22663 22664 22665 22666 22667 22668 22669 22670 22671 22672 22673 22674 22675 22676 22677 22678 22679 22680 22681 22682 22683 22684 22685 22686 22687 22688 22689 22690 22691 22692 22693 22694 22695 22696 22697 22698 22699 22700 22701 22702 22703 22704 22705 22706 22707 22708 22709 22710 22711 22712 22713 22714 22715 22716 22717 22718 22719 22720 22721 22722 22723 22724 22725 22726 22727 22728 22729 22730 22731 22732 22733 22734 22735 22736 22737 22738 22739 22740 22741 22742 22743 22744 22745 22746 22747 22748 22749 22750 22751 22752 22753 22754 22755 22756 22757 22758 22759 22760 22761 22762 22763 22764 22765 22766 22767 22768 22769 22770 22771 22772 22773 22774 22775 22776 22777 22778 22779 22780 22781 22782 22783 22784 22785 22786 22787 22788 22789 22790 22791 22792 22793 22794 22795 22796 22797 22798 22799 22800 22801 22802 22803 22804 22805 22806 22807 22808 22809 22810 22811 22812 22813 22814 22815 22816 22817 22818 22819 22820 22821 22822 22823 22824 22825 22826 22827 22828 22829 22830 22831 22832 22833 22834 22835 22836 22837 22838 22839 22840 22841 22842 22843 22844 22845 22846 22847 22848 22849 22850 22851 22852 22853 22854 22855 22856 22857 22858 22859 22860 22861 22862 22863 22864 22865 22866 22867 22868 22869 22870 22871 22872 22873 22874 22875 22876 22877 22878 22879 22880 22881 22882 22883 22884 22885 22886 22887 22888 22889 22890 22891 22892 22893 22894 22895 22896 22897 22898 22899 22900 22901 22902 22903 22904 22905 22906 22907 22908 22909 22910 22911 22912 22913 22914 22915 22916 22917 22918 22919 22920 22921 22922 22923 22924 22925 22926 22927 22928 22929 22930 22931 22932 22933 22934 22935 22936 22937 22938 22939 22940 22941 22942 22943 22944 22945 22946 22947 22948 22949 22950 22951 22952 22953 22954 22955 22956 22957 22958 22959 22960 22961 22962 22963 22964 22965 22966 22967 22968 22969 22970 22971 22972 22973 22974 22975 22976 22977 22978 22979 22980 22981 22982 22983 22984 22985 22986 22987 22988 22989 22990 22991 22992 22993 22994 22995 22996 22997 22998 22999 23000 23001 23002 23003 23004 23005 23006 23007 23008 23009 23010 23011 23012 23013 23014 23015 23016 23017 23018 23019 23020 23021 23022 23023 23024 23025 23026 23027 23028 23029 23030 23031 23032 23033 23034 23035 23036 23037 23038 23039 23040 23041 23042 23043 23044 23045 23046 23047 23048 23049 23050 23051 23052 23053 23054 23055 23056 23057 23058 23059 23060 23061 23062 23063 23064 23065 23066 23067 23068 23069 23070 23071 23072 23073 23074 23075 23076 23077 23078 23079 23080 23081 23082 23083 23084 23085 23086 23087 23088 23089 23090 23091 23092 23093 23094 23095 23096 23097 23098 23099 23100 23101 23102 23103 23104 23105 23106 23107 23108 23109 23110 23111 23112 23113 23114 23115 23116 23117 23118 23119 23120 23121 23122 23123 23124 23125 23126 23127 23128 23129 23130 23131 23132 23133 23134 23135 23136 23137 23138 23139 23140 23141 23142 23143 23144 23145 23146 23147 23148 23149 23150 23151 23152 23153 23154 23155 23156 23157 23158 23159 23160 23161 23162 23163 23164 23165 23166 23167 23168 23169 23170 23171 23172 23173 23174 23175 23176 23177 23178 23179 23180 23181 23182 23183 23184 23185 23186 23187 23188 23189 23190 23191 23192 23193 23194 23195 23196 23197 23198 23199 23200 23201 23202 23203 23204 23205 23206 23207 23208 23209 23210 23211 23212 23213 23214 23215 23216 23217 23218 23219 23220 23221 23222 23223 23224 23225 23226 23227 23228 23229 23230 23231 23232 23233 23234 23235 23236 23237 23238 23239 23240 23241 23242 23243 23244 23245 23246 23247 23248 23249 23250 23251 23252 23253 23254 23255 23256 23257 23258 23259 23260 23261 23262 23263 23264 23265 23266 23267 23268 23269 23270 23271 23272 23273 23274 23275 23276 23277 23278 23279 23280 23281 23282 23283 23284 23285 23286 23287 23288 23289 23290 23291 23292 23293 23294 23295 23296 23297 23298 23299 23300 23301 23302 23303 23304 23305 23306 23307 23308 23309 23310 23311 23312 23313 23314 23315 23316 23317 23318 23319 23320 23321 23322 23323 23324 23325 23326 23327 23328 23329 23330 23331 23332 23333 23334 23335 23336 23337 23338 23339 23340 23341 23342 23343 23344 23345 23346 23347 23348 23349 23350 23351 23352 23353 23354 23355 23356 23357 23358 23359 23360 23361 23362 23363 23364 23365 23366 23367 23368 23369 23370 23371 23372 23373 23374 23375 23376 23377 23378 23379 23380 23381 23382 23383 23384 23385 23386 23387 23388 23389 23390 23391 23392 23393 23394 23395 23396 23397 23398 23399 23400 23401 23402 23403 23404 23405 23406 23407 23408 23409 23410 23411 23412 23413 23414 23415 23416 23417 23418 23419 23420 23421 23422 23423 23424 23425 23426 23427 23428 23429 23430 23431 23432 23433 23434 23435 23436 23437 23438 23439 23440 23441 23442 23443 23444 23445 23446 23447 23448 23449 23450 23451 23452 23453 23454 23455 23456 23457 23458 23459 23460 23461 23462 23463 23464 23465 23466 23467 23468 23469 23470 23471 23472 23473 23474 23475 23476 23477 23478 23479 23480 23481 23482 23483 23484 23485 23486 23487 23488 23489 23490 23491 23492 23493 23494 23495 23496 23497 23498 23499 23500 23501 23502 23503 23504 23505 23506 23507 23508 23509 23510 23511 23512 23513 23514 23515 23516 23517 23518 23519 23520 23521 23522 23523 23524 23525 23526 23527 23528 23529 23530 23531 23532 23533 23534 23535 23536 23537 23538 23539 23540 23541 23542 23543 23544 23545 23546 23547 23548 23549 23550 23551 23552 23553 23554 23555 23556 23557 23558 23559 23560 23561 23562 23563 23564 23565 23566 23567 23568 23569 23570 23571 23572 23573 23574 23575 23576 23577 23578 23579 23580 23581 23582 23583 23584 23585 23586 23587 23588 23589 23590 23591 23592 23593 23594 23595 23596 23597 23598 23599 23600 23601 23602 23603 23604 23605 23606 23607 23608 23609 23610 23611 23612 23613 23614 23615 23616 23617 23618 23619 23620 23621 23622 23623 23624 23625 23626 23627 23628 23629 23630 23631 23632 23633 23634 23635 23636 23637 23638 23639 23640 23641 23642 23643 23644 23645 23646 23647 23648 23649 23650 23651 23652 23653 23654 23655 23656 23657 23658 23659 23660 23661 23662 23663 23664 23665 23666 23667 23668 23669 23670 23671 23672 23673 23674 23675 23676 23677 23678 23679 23680 23681 23682 23683 23684 23685 23686 23687 23688 23689 23690 23691 23692 23693 23694 23695 23696 23697 23698 23699 23700 23701 23702 23703 23704 23705 23706 23707 23708 23709 23710 23711 23712 23713 23714 23715 23716 23717 23718 23719 23720 23721 23722 23723 23724 23725 23726 23727 23728 23729 23730 23731 23732 23733 23734 23735 23736 23737 23738 23739 23740 23741 23742 23743 23744 23745 23746 23747 23748 23749 23750 23751 23752 23753 23754 23755 23756 23757 23758 23759 23760 23761 23762 23763 23764 23765 23766 23767 23768 23769 23770 23771 23772 23773 23774 23775 23776 23777 23778 23779 23780 23781 23782 23783 23784 23785 23786 23787 23788 23789 23790 23791 23792 23793 23794 23795 23796 23797 23798 23799 23800 23801 23802 23803 23804 23805 23806 23807 23808 23809 23810 23811 23812 23813 23814 23815 23816 23817 23818 23819 23820 23821 23822 23823 23824 23825 23826 23827 23828 23829 23830 23831 23832 23833 23834 23835 23836 23837 23838 23839 23840 23841 23842 23843 23844 23845 23846 23847 23848 23849 23850 23851 23852 23853 23854 23855 23856 23857 23858 23859 23860 23861 23862 23863 23864 23865 23866 23867 23868 23869 23870 23871 23872 23873 23874 23875 23876 23877 23878 23879 23880 23881 23882 23883 23884 23885 23886 23887 23888 23889 23890 23891 23892 23893 23894 23895 23896 23897 23898 23899 23900 23901 23902 23903 23904 23905 23906 23907 23908 23909 23910 23911 23912 23913 23914 23915 23916 23917 23918 23919 23920 23921 23922 23923 23924 23925 23926 23927 23928 23929 23930 23931 23932 23933 23934 23935 23936 23937 23938 23939 23940 23941 23942 23943 23944 23945 23946 23947 23948 23949 23950 23951 23952 23953 23954 23955 23956 23957 23958 23959 23960 23961 23962 23963 23964 23965 23966 23967 23968 23969 23970 23971 23972 23973 23974 23975 23976 23977 23978 23979 23980 23981 23982 23983 23984 23985 23986 23987 23988 23989 23990 23991 23992 23993 23994 23995 23996 23997 23998 23999 24000 24001 24002 24003 24004 24005 24006 24007 24008 24009 24010 24011 24012 24013 24014 24015 24016 24017 24018 24019 24020 24021 24022 24023 24024 24025 24026 24027 24028 24029 24030 24031 24032 24033 24034 24035 24036 24037 24038 24039 24040 24041 24042 24043 24044 24045 24046 24047 24048 24049 24050 24051 24052 24053 24054 24055 24056 24057 24058 24059 24060 24061 24062 24063 24064 24065 24066 24067 24068 24069 24070 24071 24072 24073 24074 24075 24076 24077 24078 24079 24080 24081 24082 24083 24084 24085 24086 24087 24088 24089 24090 24091 24092 24093 24094 24095 24096 24097 24098 24099 24100 24101 24102 24103 24104 24105 24106 24107 24108 24109 24110 24111 24112 24113 24114 24115 24116 24117 24118 24119 24120 24121 24122 24123 24124 24125 24126 24127 24128 24129 24130 24131 24132 24133 24134 24135 24136 24137 24138 24139 24140 24141 24142 24143 24144 24145 24146 24147 24148 24149 24150 24151 24152 24153 24154 24155 24156 24157 24158 24159 24160 24161 24162 24163 24164 24165 24166 24167 24168 24169 24170 24171 24172 24173 24174 24175 24176 24177 24178 24179 24180 24181 24182 24183 24184 24185 24186 24187 24188 24189 24190 24191 24192 24193 24194 24195 24196 24197 24198 24199 24200 24201 24202 24203 24204 24205 24206 24207 24208 24209 24210 24211 24212 24213 24214 24215 24216 24217 24218 24219 24220 24221 24222 24223 24224 24225 24226 24227 24228 24229 24230 24231 24232 24233 24234 24235 24236 24237 24238 24239 24240 24241 24242 24243 24244 24245 24246 24247 24248 24249 24250 24251 24252 24253 24254 24255 24256 24257 24258 24259 24260 24261 24262 24263 24264 24265 24266 24267 24268 24269 24270 24271 24272 24273 24274 24275 24276 24277 24278 24279 24280 24281 24282 24283 24284 24285 24286 24287 24288 24289 24290 24291 24292 24293 24294 24295 24296 24297 24298 24299 24300 24301 24302 24303 24304 24305 24306 24307 24308 24309 24310 24311 24312 24313 24314 24315 24316 24317 24318 24319 24320 24321 24322 24323 24324 24325 24326 24327 24328 24329 24330 24331 24332 24333 24334 24335 24336 24337 24338 24339 24340 24341 24342 24343 24344 24345 24346 24347 24348 24349 24350 24351 24352 24353 24354 24355 24356 24357 24358 24359 24360 24361 24362 24363 24364 24365 24366 24367 24368 24369 24370 24371 24372 24373 24374 24375 24376 24377 24378 24379 24380 24381 24382 24383 24384 24385 24386 24387 24388 24389 24390 24391 24392 24393 24394 24395 24396 24397 24398 24399 24400 24401 24402 24403 24404 24405 24406 24407 24408 24409 24410 24411 24412 24413 24414 24415 24416 24417 24418 24419 24420 24421 24422 24423 24424 24425 24426 24427 24428 24429 24430 24431 24432 24433 24434 24435 24436 24437 24438 24439 24440 24441 24442 24443 24444 24445 24446 24447 24448 24449 24450 24451 24452 24453 24454 24455 24456 24457 24458 24459 24460 24461 24462 24463 24464 24465 24466 24467 24468 24469 24470 24471 24472 24473 24474 24475 24476 24477 24478 24479 24480 24481 24482 24483 24484 24485 24486 24487 24488 24489 24490 24491 24492 24493 24494 24495 24496 24497 24498 24499 24500 24501 24502 24503 24504 24505 24506 24507 24508 24509 24510 24511 24512 24513 24514 24515 24516 24517 24518 24519 24520 24521 24522 24523 24524 24525 24526 24527 24528 24529 24530 24531 24532 24533 24534 24535 24536 24537 24538 24539 24540 24541 24542 24543 24544 24545 24546 24547 24548 24549 24550 24551 24552 24553 24554 24555 24556 24557 24558 24559 24560 24561 24562 24563 24564 24565 24566 24567 24568 24569 24570 24571 24572 24573 24574 24575 24576 24577 24578 24579 24580 24581 24582 24583 24584 24585 24586 24587 24588 24589 24590 24591 24592 24593 24594 24595 24596 24597 24598 24599 24600 24601 24602 24603 24604 24605 24606 24607 24608 24609 24610 24611 24612 24613 24614 24615 24616 24617 24618 24619 24620 24621 24622 24623 24624 24625 24626 24627 24628 24629 24630 24631 24632 24633 24634 24635 24636 24637 24638 24639 24640 24641 24642 24643 24644 24645 24646 24647 24648 24649 24650 24651 24652 24653 24654 24655 24656 24657 24658 24659 24660 24661 24662 24663 24664 24665 24666 24667 24668 24669 24670 24671 24672 24673 24674 24675 24676 24677 24678 24679 24680 24681 24682 24683 24684 24685 24686 24687 24688 24689 24690 24691 24692 24693 24694 24695 24696 24697 24698 24699 24700 24701 24702 24703 24704 24705 24706 24707 24708 24709 24710 24711 24712 24713 24714 24715 24716 24717 24718 24719 24720 24721 24722 24723 24724 24725 24726 24727 24728 24729 24730 24731 24732 24733 24734 24735 24736 24737 24738 24739 24740 24741 24742 24743 24744 24745 24746 24747 24748 24749 24750 24751 24752 24753 24754 24755 24756 24757 24758 24759 24760 24761 24762 24763 24764 24765 24766 24767 24768 24769 24770 24771 24772 24773 24774 24775 24776 24777 24778 24779 24780 24781 24782 24783 24784 24785 24786 24787 24788 24789 24790 24791 24792 24793 24794 24795 24796 24797 24798 24799 24800 24801 24802 24803 24804 24805 24806 24807 24808 24809 24810 24811 24812 24813 24814 24815 24816 24817 24818 24819 24820 24821 24822 24823 24824 24825 24826 24827 24828 24829 24830 24831 24832 24833 24834 24835 24836 24837 24838 24839 24840 24841 24842 24843 24844 24845 24846 24847 24848 24849 24850 24851 24852 24853 24854 24855 24856 24857 24858 24859 24860 24861 24862 24863 24864 24865 24866 24867 24868 24869 24870 24871 24872 24873 24874 24875 24876 24877 24878 24879 24880 24881 24882 24883 24884 24885 24886 24887 24888 24889 24890 24891 24892 24893 24894 24895 24896 24897 24898 24899 24900 24901 24902 24903 24904 24905 24906 24907 24908 24909 24910 24911 24912 24913 24914 24915 24916 24917 24918 24919 24920 24921 24922 24923 24924 24925 24926 24927 24928 24929 24930 24931 24932 24933 24934 24935 24936 24937 24938 24939 24940 24941 24942 24943 24944 24945 24946 24947 24948 24949 24950 24951 24952 24953 24954 24955 24956 24957 24958 24959 24960 24961 24962 24963 24964 24965 24966 24967 24968 24969 24970 24971 24972 24973 24974 24975 24976 24977 24978 24979 24980 24981 24982 24983 24984 24985 24986 24987 24988 24989 24990 24991 24992 24993 24994 24995 24996 24997 24998 24999 25000 25001 25002 25003 25004 25005 25006 25007 25008 25009 25010 25011 25012 25013 25014 25015 25016 25017 25018 25019 25020 25021 25022 25023 25024 25025 25026 25027 25028 25029 25030 25031 25032 25033 25034 25035 25036 25037 25038 25039 25040 25041 25042 25043 25044 25045 25046 25047 25048 25049 25050 25051 25052 25053 25054 25055 25056 25057 25058 25059 25060 25061 25062 25063 25064 25065 25066 25067 25068 25069 25070 25071 25072 25073 25074 25075 25076 25077 25078 25079 25080 25081 25082 25083 25084 25085 25086 25087 25088 25089 25090 25091 25092 25093 25094 25095 25096 25097 25098 25099 25100 25101 25102 25103 25104 25105 25106 25107 25108 25109 25110 25111 25112 25113 25114 25115 25116 25117 25118 25119 25120 25121 25122 25123 25124 25125 25126 25127 25128 25129 25130 25131 25132 25133 25134 25135 25136 25137 25138 25139 25140 25141 25142 25143 25144 25145 25146 25147 25148 25149 25150 25151 25152 25153 25154 25155 25156 25157 25158 25159 25160 25161 25162 25163 25164 25165 25166 25167 25168 25169 25170 25171 25172 25173 25174 25175 25176 25177 25178 25179 25180 25181 25182 25183 25184 25185 25186 25187 25188 25189 25190 25191 25192 25193 25194 25195 25196 25197 25198 25199 25200 25201 25202 25203 25204 25205 25206 25207 25208 25209 25210 25211 25212 25213 25214 25215 25216 25217 25218 25219 25220 25221 25222 25223 25224 25225 25226 25227 25228 25229 25230 25231 25232 25233 25234 25235 25236 25237 25238 25239 25240 25241 25242 25243 25244 25245 25246 25247 25248 25249 25250 25251 25252 25253 25254 25255 25256 25257 25258 25259 25260 25261 25262 25263 25264 25265 25266 25267 25268 25269 25270 25271 25272 25273 25274 25275 25276 25277 25278 25279 25280 25281 25282 25283 25284 25285 25286 25287 25288 25289 25290 25291 25292 25293 25294 25295 25296 25297 25298 25299 25300 25301 25302 25303 25304 25305 25306 25307 25308 25309 25310 25311 25312 25313 25314 25315 25316 25317 25318 25319 25320 25321 25322 25323 25324 25325 25326 25327 25328 25329 25330 25331 25332 25333 25334 25335 25336 25337 25338 25339 25340 25341 25342 25343 25344 25345 25346 25347 25348 25349 25350 25351 25352 25353 25354 25355 25356 25357 25358 25359 25360 25361 25362 25363 25364 25365 25366 25367 25368 25369 25370 25371 25372 25373 25374 25375 25376 25377 25378 25379 25380 25381 25382 25383 25384 25385 25386 25387 25388 25389 25390 25391 25392 25393 25394 25395 25396 25397 25398 25399 25400 25401 25402 25403 25404 25405 25406 25407 25408 25409 25410 25411 25412 25413 25414 25415 25416 25417 25418 25419 25420 25421 25422 25423 25424 25425 25426 25427 25428 25429 25430 25431 25432 25433 25434 25435 25436 25437 25438 25439 25440 25441 25442 25443 25444 25445 25446 25447 25448 25449 25450 25451 25452 25453 25454 25455 25456 25457 25458 25459 25460 25461 25462 25463 25464 25465 25466 25467 25468 25469 25470 25471 25472 25473 25474 25475 25476 25477 25478 25479 25480 25481 25482 25483 25484 25485 25486 25487 25488 25489 25490 25491 25492 25493 25494 25495 25496 25497 25498 25499 25500 25501 25502 25503 25504 25505 25506 25507 25508 25509 25510 25511 25512 25513 25514 25515 25516 25517 25518 25519 25520 25521 25522 25523 25524 25525 25526 25527 25528 25529 25530 25531 25532 25533 25534 25535 25536 25537 25538 25539 25540 25541 25542 25543 25544 25545 25546 25547 25548 25549 25550 25551 25552 25553 25554 25555 25556 25557 25558 25559 25560 25561 25562 25563 25564 25565 25566 25567 25568 25569 25570 25571 25572 25573 25574 25575 25576 25577 25578 25579 25580 25581 25582 25583 25584 25585 25586 25587 25588 25589 25590 25591 25592 25593 25594 25595 25596 25597 25598 25599 25600 25601 25602 25603 25604 25605 25606 25607 25608 25609 25610 25611 25612 25613 25614 25615 25616 25617 25618 25619 25620 25621 25622 25623 25624 25625 25626 25627 25628 25629 25630 25631 25632 25633 25634 25635 25636 25637 25638 25639 25640 25641 25642 25643 25644 25645 25646 25647 25648 25649 25650 25651 25652 25653 25654 25655 25656 25657 25658 25659 25660 25661 25662 25663 25664 25665 25666 25667 25668 25669 25670 25671 25672 25673 25674 25675 25676 25677 25678 25679 25680 25681 25682 25683 25684 25685 25686 25687 25688 25689 25690 25691 25692 25693 25694 25695 25696 25697 25698 25699 25700 25701 25702 25703 25704 25705 25706 25707 25708 25709 25710 25711 25712 25713 25714 25715 25716 25717 25718 25719 25720 25721 25722 25723 25724 25725 25726 25727 25728 25729 25730 25731 25732 25733 25734 25735 25736 25737 25738 25739 25740 25741 25742 25743 25744 25745 25746 25747 25748 25749 25750 25751 25752 25753 25754 25755 25756 25757 25758 25759 25760 25761 25762 25763 25764 25765 25766 25767 25768 25769 25770 25771 25772 25773 25774 25775 25776 25777 25778 25779 25780 25781 25782 25783 25784 25785 25786 25787 25788 25789 25790 25791 25792 25793 25794 25795 25796 25797 25798 25799 25800 25801 25802 25803 25804 25805 25806 25807 25808 25809 25810 25811 25812 25813 25814 25815 25816 25817 25818 25819 25820 25821 25822 25823 25824 25825 25826 25827 25828 25829 25830 25831 25832 25833 25834 25835 25836 25837 25838 25839 25840 25841 25842 25843 25844 25845 25846 25847 25848 25849 25850 25851 25852 25853 25854 25855 25856 25857 25858 25859 25860 25861 25862 25863 25864 25865 25866 25867 25868 25869 25870 25871 25872 25873 25874 25875 25876 25877 25878 25879 25880 25881 25882 25883 25884 25885 25886 25887 25888 25889 25890 25891 25892 25893 25894 25895 25896 25897 25898 25899 25900 25901 25902 25903 25904 25905 25906 25907 25908 25909 25910 25911 25912 25913 25914 25915 25916 25917 25918 25919 25920 25921 25922 25923 25924 25925 25926 25927 25928 25929 25930 25931 25932 25933 25934 25935 25936 25937 25938 25939 25940 25941 25942 25943 25944 25945 25946 25947 25948 25949 25950 25951 25952 25953 25954 25955 25956 25957 25958 25959 25960 25961 25962 25963 25964 25965 25966 25967 25968 25969 25970 25971 25972 25973 25974 25975 25976 25977 25978 25979 25980 25981 25982 25983 25984 25985 25986 25987 25988 25989 25990 25991 25992 25993 25994 25995 25996 25997 25998 25999 26000 26001 26002 26003 26004 26005 26006 26007 26008 26009 26010 26011 26012 26013 26014 26015 26016 26017 26018 26019 26020 26021 26022 26023 26024 26025 26026 26027 26028 26029 26030 26031 26032 26033 26034 26035 26036 26037 26038 26039 26040 26041 26042 26043 26044 26045 26046 26047 26048 26049 26050 26051 26052 26053 26054 26055 26056 26057 26058 26059 26060 26061 26062 26063 26064 26065 26066 26067 26068 26069 26070 26071 26072 26073 26074 26075 26076 26077 26078 26079 26080 26081 26082 26083 26084 26085 26086 26087 26088 26089 26090 26091 26092 26093 26094 26095 26096 26097 26098 26099 26100 26101 26102 26103 26104 26105 26106 26107 26108 26109 26110 26111 26112 26113 26114 26115 26116 26117 26118 26119 26120 26121 26122 26123 26124 26125 26126 26127 26128 26129 26130 26131 26132 26133 26134 26135 26136 26137 26138 26139 26140 26141 26142 26143 26144 26145 26146 26147 26148 26149 26150 26151 26152 26153 26154 26155 26156 26157 26158 26159 26160 26161 26162 26163 26164 26165 26166 26167 26168 26169 26170 26171 26172 26173 26174 26175 26176 26177 26178 26179 26180 26181 26182 26183 26184 26185 26186 26187 26188 26189 26190 26191 26192 26193 26194 26195 26196 26197 26198 26199 26200 26201 26202 26203 26204 26205 26206 26207 26208 26209 26210 26211 26212 26213 26214 26215 26216 26217 26218 26219 26220 26221 26222 26223 26224 26225 26226 26227 26228 26229 26230 26231 26232 26233 26234 26235 26236 26237 26238 26239 26240 26241 26242 26243 26244 26245 26246 26247 26248 26249 26250 26251 26252 26253 26254 26255 26256 26257 26258 26259 26260 26261 26262 26263 26264 26265 26266 26267 26268 26269 26270 26271 26272 26273 26274 26275 26276 26277 26278 26279 26280 26281 26282 26283 26284 26285 26286 26287 26288 26289 26290 26291 26292 26293 26294 26295 26296 26297 26298 26299 26300 26301 26302 26303 26304 26305 26306 26307 26308 26309 26310 26311 26312 26313 26314 26315 26316 26317 26318 26319 26320 26321 26322 26323 26324 26325 26326 26327 26328 26329 26330 26331 26332 26333 26334 26335 26336 26337 26338 26339 26340 26341 26342 26343 26344 26345 26346 26347 26348 26349 26350 26351 26352 26353 26354 26355 26356 26357 26358 26359 26360 26361 26362 26363 26364 26365 26366 26367 26368 26369 26370 26371 26372 26373 26374 26375 26376 26377 26378 26379 26380 26381 26382 26383 26384 26385 26386 26387 26388 26389 26390 26391 26392 26393 26394 26395 26396 26397 26398 26399 26400 26401 26402 26403 26404 26405 26406 26407 26408 26409 26410 26411 26412 26413 26414 26415 26416 26417 26418 26419 26420 26421 26422 26423 26424 26425 26426 26427 26428 26429 26430 26431 26432 26433 26434 26435 26436 26437 26438 26439 26440 26441 26442 26443 26444 26445 26446 26447 26448 26449 26450 26451 26452 26453 26454 26455 26456 26457 26458 26459 26460 26461 26462 26463 26464 26465 26466 26467 26468 26469 26470 26471 26472 26473 26474 26475 26476 26477 26478 26479 26480 26481 26482 26483 26484 26485 26486 26487 26488 26489 26490 26491 26492 26493 26494 26495 26496 26497 26498 26499 26500 26501 26502 26503 26504 26505 26506 26507 26508 26509 26510 26511 26512 26513 26514 26515 26516 26517 26518 26519 26520 26521 26522 26523 26524 26525 26526 26527 26528 26529 26530 26531 26532 26533 26534 26535 26536 26537 26538 26539 26540 26541 26542 26543 26544 26545 26546 26547 26548 26549 26550 26551 26552 26553 26554 26555 26556 26557 26558 26559 26560 26561 26562 26563 26564 26565 26566 26567 26568 26569 26570 26571 26572 26573 26574 26575 26576 26577 26578 26579 26580 26581 26582 26583 26584 26585 26586 26587 26588 26589 26590 26591 26592 26593 26594 26595 26596 26597 26598 26599 26600 26601 26602 26603 26604 26605 26606 26607 26608 26609 26610 26611 26612 26613 26614 26615 26616 26617 26618 26619 26620 26621 26622 26623 26624 26625 26626 26627 26628 26629 26630 26631 26632 26633 26634 26635 26636 26637 26638 26639 26640 26641 26642 26643 26644 26645 26646 26647 26648 26649 26650 26651 26652 26653 26654 26655 26656 26657 26658 26659 26660 26661 26662 26663 26664 26665 26666 26667 26668 26669 26670 26671 26672 26673 26674 26675 26676 26677 26678 26679 26680 26681 26682 26683 26684 26685 26686 26687 26688 26689 26690 26691 26692 26693 26694 26695 26696 26697 26698 26699 26700 26701 26702 26703 26704 26705 26706 26707 26708 26709 26710 26711 26712 26713 26714 26715 26716 26717 26718 26719 26720 26721 26722 26723 26724 26725 26726 26727 26728 26729 26730 26731 26732 26733 26734 26735 26736 26737 26738 26739 26740 26741 26742 26743 26744 26745 26746 26747 26748 26749 26750 26751 26752 26753 26754 26755 26756 26757 26758 26759 26760 26761 26762 26763 26764 26765 26766 26767 26768 26769 26770 26771 26772 26773 26774 26775 26776 26777 26778 26779 26780 26781 26782 26783 26784 26785 26786 26787 26788 26789 26790 26791 26792 26793 26794 26795 26796 26797 26798 26799 26800 26801 26802 26803 26804 26805 26806 26807 26808 26809 26810 26811 26812 26813 26814 26815 26816 26817 26818 26819 26820 26821 26822 26823 26824 26825 26826 26827 26828 26829 26830 26831 26832 26833 26834 26835 26836 26837 26838 26839 26840 26841 26842 26843 26844 26845 26846 26847 26848 26849 26850 26851 26852 26853 26854 26855 26856 26857 26858 26859 26860 26861 26862 26863 26864 26865 26866 26867 26868 26869 26870 26871 26872 26873 26874 26875 26876 26877 26878 26879 26880 26881 26882 26883 26884 26885 26886 26887 26888 26889 26890 26891 26892 26893 26894 26895 26896 26897 26898 26899 26900 26901 26902 26903 26904 26905 26906 26907 26908 26909 26910 26911 26912 26913 26914 26915 26916 26917 26918 26919 26920 26921 26922 26923 26924 26925 26926 26927 26928 26929 26930 26931 26932 26933 26934 26935 26936 26937 26938 26939 26940 26941 26942 26943 26944 26945 26946 26947 26948 26949 26950 26951 26952 26953 26954 26955 26956 26957 26958 26959 26960 26961 26962 26963 26964 26965 26966 26967 26968 26969 26970 26971 26972 26973 26974 26975 26976 26977 26978 26979 26980 26981 26982 26983 26984 26985 26986 26987 26988 26989 26990 26991 26992 26993 26994 26995 26996 26997 26998 26999 27000 27001 27002 27003 27004 27005 27006 27007 27008 27009 27010 27011 27012 27013 27014 27015 27016 27017 27018 27019 27020 27021 27022 27023 27024 27025 27026 27027 27028 27029 27030 27031 27032 27033 27034 27035 27036 27037 27038 27039 27040 27041 27042 27043 27044 27045 27046 27047 27048 27049 27050 27051 27052 27053 27054 27055 27056 27057 27058 27059 27060 27061 27062 27063 27064 27065 27066 27067 27068 27069 27070 27071 27072 27073 27074 27075 27076 27077 27078 27079 27080 27081 27082 27083 27084 27085 27086 27087 27088 27089 27090 27091 27092 27093 27094 27095 27096 27097 27098 27099 27100 27101 27102 27103 27104 27105 27106 27107 27108 27109 27110 27111 27112 27113 27114 27115 27116 27117 27118 27119 27120 27121 27122 27123 27124 27125 27126 27127 27128 27129 27130 27131 27132 27133 27134 27135 27136 27137 27138 27139 27140 27141 27142 27143 27144 27145 27146 27147 27148 27149 27150 27151 27152 27153 27154 27155 27156 27157 27158 27159 27160 27161 27162 27163 27164 27165 27166 27167 27168 27169 27170 27171 27172 27173 27174 27175 27176 27177 27178 27179 27180 27181 27182 27183 27184 27185 27186 27187 27188 27189 27190 27191 27192 27193 27194 27195 27196 27197 27198 27199 27200 27201 27202 27203 27204 27205 27206 27207 27208 27209 27210 27211 27212 27213 27214 27215 27216 27217 27218 27219 27220 27221 27222 27223 27224 27225 27226 27227 27228 27229 27230 27231 27232 27233 27234 27235 27236 27237 27238 27239 27240 27241 27242 27243 27244 27245 27246 27247 27248 27249 27250 27251 27252 27253 27254 27255 27256 27257 27258 27259 27260 27261 27262 27263 27264 27265 27266 27267 27268 27269 27270 27271 27272 27273 27274 27275 27276 27277 27278 27279 27280 27281 27282 27283 27284 27285 27286 27287 27288 27289 27290 27291 27292 27293 27294 27295 27296 27297 27298 27299 27300 27301 27302 27303 27304 27305 27306 27307 27308 27309 27310 27311 27312 27313 27314 27315 27316 27317 27318 27319 27320 27321 27322 27323 27324 27325 27326 27327 27328 27329 27330 27331 27332 27333 27334 27335 27336 27337 27338 27339 27340 27341 27342 27343 27344 27345 27346 27347 27348 27349 27350 27351 27352 27353 27354 27355 27356 27357 27358 27359 27360 27361 27362 27363 27364 27365 27366 27367 27368 27369 27370 27371 27372 27373 27374 27375 27376 27377 27378 27379 27380 27381 27382 27383 27384 27385 27386 27387 27388 27389 27390 27391 27392 27393 27394 27395 27396 27397 27398 27399 27400 27401 27402 27403 27404 27405 27406 27407 27408 27409 27410 27411 27412 27413 27414 27415 27416 27417 27418 27419 27420 27421 27422 27423 27424 27425 27426 27427 27428 27429 27430 27431 27432 27433 27434 27435 27436 27437 27438 27439 27440 27441 27442 27443 27444 27445 27446 27447 27448 27449 27450 27451 27452 27453 27454 27455 27456 27457 27458 27459 27460 27461 27462 27463 27464 27465 27466 27467 27468 27469 27470 27471 27472 27473 27474 27475 27476 27477 27478 27479 27480 27481 27482 27483 27484 27485 27486 27487 27488 27489 27490 27491 27492 27493 27494 27495 27496 27497 27498 27499 27500 27501 27502 27503 27504 27505 27506 27507 27508 27509 27510 27511 27512 27513 27514 27515 27516 27517 27518 27519 27520 27521 27522 27523 27524 27525 27526 27527 27528 27529 27530 27531 27532 27533 27534 27535 27536 27537 27538 27539 27540 27541 27542 27543 27544 27545 27546 27547 27548 27549 27550 27551 27552 27553 27554 27555 27556 27557 27558 27559 27560 27561 27562 27563 27564 27565 27566 27567 27568 27569 27570 27571 27572 27573 27574 27575 27576 27577 27578 27579 27580 27581 27582 27583 27584 27585 27586 27587 27588 27589 27590 27591 27592 27593 27594 27595 27596 27597 27598 27599 27600 27601 27602 27603 27604 27605 27606 27607 27608 27609 27610 27611 27612 27613 27614 27615 27616 27617 27618 27619 27620 27621 27622 27623 27624 27625 27626 27627 27628 27629 27630 27631 27632 27633 27634 27635 27636 27637 27638 27639 27640 27641 27642 27643 27644 27645 27646 27647 27648 27649 27650 27651 27652 27653 27654 27655 27656 27657 27658 27659 27660 27661 27662 27663 27664 27665 27666 27667 27668 27669 27670 27671 27672 27673 27674 27675 27676 27677 27678 27679 27680 27681 27682 27683 27684 27685 27686 27687 27688 27689 27690 27691 27692 27693 27694 27695 27696 27697 27698 27699 27700 27701 27702 27703 27704 27705 27706 27707 27708 27709 27710 27711 27712 27713 27714 27715 27716 27717 27718 27719 27720 27721 27722 27723 27724 27725 27726 27727 27728 27729 27730 27731 27732 27733 27734 27735 27736 27737 27738 27739 27740 27741 27742 27743 27744 27745 27746 27747 27748 27749 27750 27751 27752 27753 27754 27755 27756 27757 27758 27759 27760 27761 27762 27763 27764 27765 27766 27767 27768 27769 27770 27771 27772 27773 27774 27775 27776 27777 27778 27779 27780 27781 27782 27783 27784 27785 27786 27787 27788 27789 27790 27791 27792 27793 27794 27795 27796 27797 27798 27799 27800 27801 27802 27803 27804 27805 27806 27807 27808 27809 27810 27811 27812 27813 27814 27815 27816 27817 27818 27819 27820 27821 27822 27823 27824 27825 27826 27827 27828 27829 27830 27831 27832 27833 27834 27835 27836 27837 27838 27839 27840 27841 27842 27843 27844 27845 27846 27847 27848 27849 27850 27851 27852 27853 27854 27855 27856 27857 27858 27859 27860 27861 27862 27863 27864 27865 27866 27867 27868 27869 27870 27871 27872 27873 27874 27875 27876 27877 27878 27879 27880 27881 27882 27883 27884 27885 27886 27887 27888 27889 27890 27891 27892 27893 27894 27895 27896 27897 27898 27899 27900 27901 27902 27903 27904 27905 27906 27907 27908 27909 27910 27911 27912 27913 27914 27915 27916 27917 27918 27919 27920 27921 27922 27923 27924 27925 27926 27927 27928 27929 27930 27931 27932 27933 27934 27935 27936 27937 27938 27939 27940 27941 27942 27943 27944 27945 27946 27947 27948 27949 27950 27951 27952 27953 27954 27955 27956 27957 27958 27959 27960 27961 27962 27963 27964 27965 27966 27967 27968 27969 27970 27971 27972 27973 27974 27975 27976 27977 27978 27979 27980 27981 27982 27983 27984 27985 27986 27987 27988 27989 27990 27991 27992 27993 27994 27995 27996 27997 27998 27999 28000 28001 28002 28003 28004 28005 28006 28007 28008 28009 28010 28011 28012 28013 28014 28015 28016 28017 28018 28019 28020 28021 28022 28023 28024 28025 28026 28027 28028 28029 28030 28031 28032 28033 28034 28035 28036 28037 28038 28039 28040 28041 28042 28043 28044 28045 28046 28047 28048 28049 28050 28051 28052 28053 28054 28055 28056 28057 28058 28059 28060 28061 28062 28063 28064 28065 28066 28067 28068 28069 28070 28071 28072 28073 28074 28075 28076 28077 28078 28079 28080 28081 28082 28083 28084 28085 28086 28087 28088 28089 28090 28091 28092 28093 28094 28095 28096 28097 28098 28099 28100 28101 28102 28103 28104 28105 28106 28107 28108 28109 28110 28111 28112 28113 28114 28115 28116 28117 28118 28119 28120 28121 28122 28123 28124 28125 28126 28127 28128 28129 28130 28131 28132 28133 28134 28135 28136 28137 28138 28139 28140 28141 28142 28143 28144 28145 28146 28147 28148 28149 28150 28151 28152 28153 28154 28155 28156 28157 28158 28159 28160 28161 28162 28163 28164 28165 28166 28167 28168 28169 28170 28171 28172 28173 28174 28175 28176 28177 28178 28179 28180 28181 28182 28183 28184 28185 28186 28187 28188 28189 28190 28191 28192 28193 28194 28195 28196 28197 28198 28199 28200 28201 28202 28203 28204 28205 28206 28207 28208 28209 28210 28211 28212 28213 28214 28215 28216 28217 28218 28219 28220 28221 28222 28223 28224 28225 28226 28227 28228 28229 28230 28231 28232 28233 28234 28235 28236 28237 28238 28239 28240 28241 28242 28243 28244 28245 28246 28247 28248 28249 28250 28251 28252 28253 28254 28255 28256 28257 28258 28259 28260 28261 28262 28263 28264 28265 28266 28267 28268 28269 28270 28271 28272 28273 28274 28275 28276 28277 28278 28279 28280 28281 28282 28283 28284 28285 28286 28287 28288 28289 28290 28291 28292 28293 28294 28295 28296 28297 28298 28299 28300 28301 28302 28303 28304 28305 28306 28307 28308 28309 28310 28311 28312 28313 28314 28315 28316 28317 28318 28319 28320 28321 28322 28323 28324 28325 28326 28327 28328 28329 28330 28331 28332 28333 28334 28335 28336 28337 28338 28339 28340 28341 28342 28343 28344 28345 28346 28347 28348 28349 28350 28351 28352 28353 28354 28355 28356 28357 28358 28359 28360 28361 28362 28363 28364 28365 28366 28367 28368 28369 28370 28371 28372 28373 28374 28375 28376 28377 28378 28379 28380 28381 28382 28383 28384 28385 28386 28387 28388 28389 28390 28391 28392 28393 28394 28395 28396 28397 28398 28399 28400 28401 28402 28403 28404 28405 28406 28407 28408 28409 28410 28411 28412 28413 28414 28415 28416 28417 28418 28419 28420 28421 28422 28423 28424 28425 28426 28427 28428 28429 28430 28431 28432 28433 28434 28435 28436 28437 28438 28439 28440 28441 28442 28443 28444 28445 28446 28447 28448 28449 28450 28451 28452 28453 28454 28455 28456 28457 28458 28459 28460 28461 28462 28463 28464 28465 28466 28467 28468 28469 28470 28471 28472 28473 28474 28475 28476 28477 28478 28479 28480 28481 28482 28483 28484 28485 28486 28487 28488 28489 28490 28491 28492 28493 28494 28495 28496 28497 28498 28499 28500 28501 28502 28503 28504 28505 28506 28507 28508 28509 28510 28511 28512 28513 28514 28515 28516 28517 28518 28519 28520 28521 28522 28523 28524 28525 28526 28527 28528 28529 28530 28531 28532 28533 28534 28535 28536 28537 28538 28539 28540 28541 28542 28543 28544 28545 28546 28547 28548 28549 28550 28551 28552 28553 28554 28555 28556 28557 28558 28559 28560 28561 28562 28563 28564 28565 28566 28567 28568 28569 28570 28571 28572 28573 28574 28575 28576 28577 28578 28579 28580 28581 28582 28583 28584 28585 28586 28587 28588 28589 28590 28591 28592 28593 28594 28595 28596 28597 28598 28599 28600 28601 28602 28603 28604 28605 28606 28607 28608 28609 28610 28611 28612 28613 28614 28615 28616 28617 28618 28619 28620 28621 28622 28623 28624 28625 28626 28627 28628 28629 28630 28631 28632 28633 28634 28635 28636 28637 28638 28639 28640 28641 28642 28643 28644 28645 28646 28647 28648 28649 28650 28651 28652 28653 28654 28655 28656 28657 28658 28659 28660 28661 28662 28663 28664 28665 28666 28667 28668 28669 28670 28671 28672 28673 28674 28675 28676 28677 28678 28679 28680 28681 28682 28683 28684 28685 28686 28687 28688 28689 28690 28691 28692 28693 28694 28695 28696 28697 28698 28699 28700 28701 28702 28703 28704 28705 28706 28707 28708 28709 28710 28711 28712 28713 28714 28715 28716 28717 28718 28719 28720 28721 28722 28723 28724 28725 28726 28727 28728 28729 28730 28731 28732 28733 28734 28735 28736 28737 28738 28739 28740 28741 28742 28743 28744 28745 28746 28747 28748 28749 28750 28751 28752 28753 28754 28755 28756 28757 28758 28759 28760 28761 28762 28763 28764 28765 28766 28767 28768 28769 28770 28771 28772 28773 28774 28775 28776 28777 28778 28779 28780 28781 28782 28783 28784 28785 28786 28787 28788 28789 28790 28791 28792 28793 28794 28795 28796 28797 28798 28799 28800 28801 28802 28803 28804 28805 28806 28807 28808 28809 28810 28811 28812 28813 28814 28815 28816 28817 28818 28819 28820 28821 28822 28823 28824 28825 28826 28827 28828 28829 28830 28831 28832 28833 28834 28835 28836 28837 28838 28839 28840 28841 28842 28843 28844 28845 28846 28847 28848 28849 28850 28851 28852 28853 28854 28855 28856 28857 28858 28859 28860 28861 28862 28863 28864 28865 28866 28867 28868 28869 28870 28871 28872 28873 28874 28875 28876 28877 28878 28879 28880 28881 28882 28883 28884 28885 28886 28887 28888 28889 28890 28891 28892 28893 28894 28895 28896 28897 28898 28899 28900 28901 28902 28903 28904 28905 28906 28907 28908 28909 28910 28911 28912 28913 28914 28915 28916 28917 28918 28919 28920 28921 28922 28923 28924 28925 28926 28927 28928 28929 28930 28931 28932 28933 28934 28935 28936 28937 28938 28939 28940 28941 28942 28943 28944 28945 28946 28947 28948 28949 28950 28951 28952 28953 28954 28955 28956 28957 28958 28959 28960 28961 28962 28963 28964 28965 28966 28967 28968 28969 28970 28971 28972 28973 28974 28975 28976 28977 28978 28979 28980 28981 28982 28983 28984 28985 28986 28987 28988 28989 28990 28991 28992 28993 28994 28995 28996 28997 28998 28999 29000 29001 29002 29003 29004 29005 29006 29007 29008 29009 29010 29011 29012 29013 29014 29015 29016 29017 29018 29019 29020 29021 29022 29023 29024 29025 29026 29027 29028 29029 29030 29031 29032 29033 29034 29035 29036 29037 29038 29039 29040 29041 29042 29043 29044 29045 29046 29047 29048 29049 29050 29051 29052 29053 29054 29055 29056 29057 29058 29059 29060 29061 29062 29063 29064 29065 29066 29067 29068 29069 29070 29071 29072 29073 29074 29075 29076 29077 29078 29079 29080 29081 29082 29083 29084 29085 29086 29087 29088 29089 29090 29091 29092 29093 29094 29095 29096 29097 29098 29099 29100 29101 29102 29103 29104 29105 29106 29107 29108 29109 29110 29111 29112 29113 29114 29115 29116 29117 29118 29119 29120 29121 29122 29123 29124 29125 29126 29127 29128 29129 29130 29131 29132 29133 29134 29135 29136 29137 29138 29139 29140 29141 29142 29143 29144 29145 29146 29147 29148 29149 29150 29151 29152 29153 29154 29155 29156 29157 29158 29159 29160 29161 29162 29163 29164 29165 29166 29167 29168 29169 29170 29171 29172 29173 29174 29175 29176 29177 29178 29179 29180 29181 29182 29183 29184 29185 29186 29187 29188 29189 29190 29191 29192 29193 29194 29195 29196 29197 29198 29199 29200 29201 29202 29203 29204 29205 29206 29207 29208 29209 29210 29211 29212 29213 29214 29215 29216 29217 29218 29219 29220 29221 29222 29223 29224 29225 29226 29227 29228 29229 29230 29231 29232 29233 29234 29235 29236 29237 29238 29239 29240 29241 29242 29243 29244 29245 29246 29247 29248 29249 29250 29251 29252 29253 29254 29255 29256 29257 29258 29259 29260 29261 29262 29263 29264 29265 29266 29267 29268 29269 29270 29271 29272 29273 29274 29275 29276 29277 29278 29279 29280 29281 29282 29283 29284 29285 29286 29287 29288 29289 29290 29291 29292 29293 29294 29295 29296 29297 29298 29299 29300 29301 29302 29303 29304 29305 29306 29307 29308 29309 29310 29311 29312 29313 29314 29315 29316 29317 29318 29319 29320 29321 29322 29323 29324 29325 29326 29327 29328 29329 29330 29331 29332 29333 29334 29335 29336 29337 29338 29339 29340 29341 29342 29343 29344 29345 29346 29347 29348 29349 29350 29351 29352 29353 29354 29355 29356 29357 29358 29359 29360 29361 29362 29363 29364 29365 29366 29367 29368 29369 29370 29371 29372 29373 29374 29375 29376 29377 29378 29379 29380 29381 29382 29383 29384 29385 29386 29387 29388 29389 29390 29391 29392 29393 29394 29395 29396 29397 29398 29399 29400 29401 29402 29403 29404 29405 29406 29407 29408 29409 29410 29411 29412 29413 29414 29415 29416 29417 29418 29419 29420 29421 29422 29423 29424 29425 29426 29427 29428 29429 29430 29431 29432 29433 29434 29435 29436 29437 29438 29439 29440 29441 29442 29443 29444 29445 29446 29447 29448 29449 29450 29451 29452 29453 29454 29455 29456 29457 29458 29459 29460 29461 29462 29463 29464 29465 29466 29467 29468 29469 29470 29471 29472 29473 29474 29475 29476 29477 29478 29479 29480 29481 29482 29483 29484 29485 29486 29487 29488 29489 29490 29491 29492 29493 29494 29495 29496 29497 29498 29499 29500 29501 29502 29503 29504 29505 29506 29507 29508 29509 29510 29511 29512 29513 29514 29515 29516 29517 29518 29519 29520 29521 29522 29523 29524 29525 29526 29527 29528 29529 29530 29531 29532 29533 29534 29535 29536 29537 29538 29539 29540 29541 29542 29543 29544 29545 29546 29547 29548 29549 29550 29551 29552 29553 29554 29555 29556 29557 29558 29559 29560 29561 29562 29563 29564 29565 29566 29567 29568 29569 29570 29571 29572 29573 29574 29575 29576 29577 29578 29579 29580 29581 29582 29583 29584 29585 29586 29587 29588 29589 29590 29591 29592 29593 29594 29595 29596 29597 29598 29599 29600 29601 29602 29603 29604 29605 29606 29607 29608 29609 29610 29611 29612 29613 29614 29615 29616 29617 29618 29619 29620 29621 29622 29623 29624 29625 29626 29627 29628 29629 29630 29631 29632 29633 29634 29635 29636 29637 29638 29639 29640 29641 29642 29643 29644 29645 29646 29647 29648 29649 29650 29651 29652 29653 29654 29655 29656 29657 29658 29659 29660 29661 29662 29663 29664 29665 29666 29667 29668 29669 29670 29671 29672 29673 29674 29675 29676 29677 29678 29679 29680 29681 29682 29683 29684 29685 29686 29687 29688 29689 29690 29691 29692 29693 29694 29695 29696 29697 29698 29699 29700 29701 29702 29703 29704 29705 29706 29707 29708 29709 29710 29711 29712 29713 29714 29715 29716 29717 29718 29719 29720 29721 29722 29723 29724 29725 29726 29727 29728 29729 29730 29731 29732 29733 29734 29735 29736 29737 29738 29739 29740 29741 29742 29743 29744 29745 29746 29747 29748 29749 29750 29751 29752 29753 29754 29755 29756 29757 29758 29759 29760 29761 29762 29763 29764 29765 29766 29767 29768 29769 29770 29771 29772 29773 29774 29775 29776 29777 29778 29779 29780 29781 29782 29783 29784 29785 29786 29787 29788 29789 29790 29791 29792 29793 29794 29795 29796 29797 29798 29799 29800 29801 29802 29803 29804 29805 29806 29807 29808 29809 29810 29811 29812 29813 29814 29815 29816 29817 29818 29819 29820 29821 29822 29823 29824 29825 29826 29827 29828 29829 29830 29831 29832 29833 29834 29835 29836 29837 29838 29839 29840 29841 29842 29843 29844 29845 29846 29847 29848 29849 29850 29851 29852 29853 29854 29855 29856 29857 29858 29859 29860 29861 29862 29863 29864 29865 29866 29867 29868 29869 29870 29871 29872 29873 29874 29875 29876 29877 29878 29879 29880 29881 29882 29883 29884 29885 29886 29887 29888 29889 29890 29891 29892 29893 29894 29895 29896 29897 29898 29899 29900 29901 29902 29903 29904 29905 29906 29907 29908 29909 29910 29911 29912 29913 29914 29915 29916 29917 29918 29919 29920 29921 29922 29923 29924 29925 29926 29927 29928 29929 29930 29931 29932 29933 29934 29935 29936 29937 29938 29939 29940 29941 29942 29943 29944 29945 29946 29947 29948 29949 29950 29951 29952 29953 29954 29955 29956 29957 29958 29959 29960 29961 29962 29963 29964 29965 29966 29967 29968 29969 29970 29971 29972 29973 29974 29975 29976 29977 29978 29979 29980 29981 29982 29983 29984 29985 29986 29987 29988 29989 29990 29991 29992 29993 29994 29995 29996 29997 29998 29999 30000 30001 30002 30003 30004 30005 30006 30007 30008 30009 30010 30011 30012 30013 30014 30015 30016 30017 30018 30019 30020 30021 30022 30023 30024 30025 30026 30027 30028 30029 30030 30031 30032 30033 30034 30035 30036 30037 30038 30039 30040 30041 30042 30043 30044 30045 30046 30047 30048 30049 30050 30051 30052 30053 30054 30055 30056 30057 30058 30059 30060 30061 30062 30063 30064 30065 30066 30067 30068 30069 30070 30071 30072 30073 30074 30075 30076 30077 30078 30079 30080 30081 30082 30083 30084 30085 30086 30087 30088 30089 30090 30091 30092 30093 30094 30095 30096 30097 30098 30099 30100 30101 30102 30103 30104 30105 30106 30107 30108 30109 30110 30111 30112 30113 30114 30115 30116 30117 30118 30119 30120 30121 30122 30123 30124 30125 30126 30127 30128 30129 30130 30131 30132 30133 30134 30135 30136 30137 30138 30139 30140 30141 30142 30143 30144 30145 30146 30147 30148 30149 30150 30151 30152 30153 30154 30155 30156 30157 30158 30159 30160 30161 30162 30163 30164 30165 30166 30167 30168 30169 30170 30171 30172 30173 30174 30175 30176 30177 30178 30179 30180 30181 30182 30183 30184 30185 30186 30187 30188 30189 30190 30191 30192 30193 30194 30195 30196 30197 30198 30199 30200 30201 30202 30203 30204 30205 30206 30207 30208 30209 30210 30211 30212 30213 30214 30215 30216 30217 30218 30219 30220 30221 30222 30223 30224 30225 30226 30227 30228 30229 30230 30231 30232 30233 30234 30235 30236 30237 30238 30239 30240 30241 30242 30243 30244 30245 30246 30247 30248 30249 30250 30251 30252 30253 30254 30255 30256 30257 30258 30259 30260 30261 30262 30263 30264 30265 30266 30267 30268 30269 30270 30271 30272 30273 30274 30275 30276 30277 30278 30279 30280 30281 30282 30283 30284 30285 30286 30287 30288 30289 30290 30291 30292 30293 30294 30295 30296 30297 30298 30299 30300 30301 30302 30303 30304 30305 30306 30307 30308 30309 30310 30311 30312 30313 30314 30315 30316 30317 30318 30319 30320 30321 30322 30323 30324 30325 30326 30327 30328 30329 30330 30331 30332 30333 30334 30335 30336 30337 30338 30339 30340 30341 30342 30343 30344 30345 30346 30347 30348 30349 30350 30351 30352 30353 30354 30355 30356 30357 30358 30359 30360 30361 30362 30363 30364 30365 30366 30367 30368 30369 30370 30371 30372 30373 30374 30375 30376 30377 30378 30379 30380 30381 30382 30383 30384 30385 30386 30387 30388 30389 30390 30391 30392 30393 30394 30395 30396 30397 30398 30399 30400 30401 30402 30403 30404 30405 30406 30407 30408 30409 30410 30411 30412 30413 30414 30415 30416 30417 30418 30419 30420 30421 30422 30423 30424 30425 30426 30427 30428 30429 30430 30431 30432 30433 30434 30435 30436 30437 30438 30439 30440 30441 30442 30443 30444 30445 30446 30447 30448 30449 30450 30451 30452 30453 30454 30455 30456 30457 30458 30459 30460 30461 30462 30463 30464 30465 30466 30467 30468 30469 30470 30471 30472 30473 30474 30475 30476 30477 30478 30479 30480 30481 30482 30483 30484 30485 30486 30487 30488 30489 30490 30491 30492 30493 30494 30495 30496 30497 30498 30499 30500 30501 30502 30503 30504 30505 30506 30507 30508 30509 30510 30511 30512 30513 30514 30515 30516 30517 30518 30519 30520 30521 30522 30523 30524 30525 30526 30527 30528 30529 30530 30531 30532 30533 30534 30535 30536 30537 30538 30539 30540 30541 30542 30543 30544 30545 30546 30547 30548 30549 30550 30551 30552 30553 30554 30555 30556 30557 30558 30559 30560 30561 30562 30563 30564 30565 30566 30567 30568 30569 30570 30571 30572 30573 30574 30575 30576 30577 30578 30579 30580 30581 30582 30583 30584 30585 30586 30587 30588 30589 30590 30591 30592 30593 30594 30595 30596 30597 30598 30599 30600 30601 30602 30603 30604 30605 30606 30607 30608 30609 30610 30611 30612 30613 30614 30615 30616 30617 30618 30619 30620 30621 30622 30623 30624 30625 30626 30627 30628 30629 30630 30631 30632 30633 30634 30635 30636 30637 30638 30639 30640 30641 30642 30643 30644 30645 30646 30647 30648 30649 30650 30651 30652 30653 30654 30655 30656 30657 30658 30659 30660 30661 30662 30663 30664 30665 30666 30667 30668 30669 30670 30671 30672 30673 30674 30675 30676 30677 30678 30679 30680 30681 30682 30683 30684 30685 30686 30687 30688 30689 30690 30691 30692 30693 30694 30695 30696 30697 30698 30699 30700 30701 30702 30703 30704 30705 30706 30707 30708 30709 30710 30711 30712 30713 30714 30715 30716 30717 30718 30719 30720 30721 30722 30723 30724 30725 30726 30727 30728 30729 30730 30731 30732 30733 30734 30735 30736 30737 30738 30739 30740 30741 30742 30743 30744 30745 30746 30747 30748 30749 30750 30751 30752 30753 30754 30755 30756 30757 30758 30759 30760 30761 30762 30763 30764 30765 30766 30767 30768 30769 30770 30771 30772 30773 30774 30775 30776 30777 30778 30779 30780 30781 30782 30783 30784 30785 30786 30787 30788 30789 30790 30791 30792 30793 30794 30795 30796 30797 30798 30799 30800 30801 30802 30803 30804 30805 30806 30807 30808 30809 30810 30811 30812 30813 30814 30815 30816 30817 30818 30819 30820 30821 30822 30823 30824 30825 30826 30827 30828 30829 30830 30831 30832 30833 30834 30835 30836 30837 30838 30839 30840 30841 30842 30843 30844 30845 30846 30847 30848 30849 30850 30851 30852 30853 30854 30855 30856 30857 30858 30859 30860 30861 30862 30863 30864 30865 30866 30867 30868 30869 30870 30871 30872 30873 30874 30875 30876 30877 30878 30879 30880 30881 30882 30883 30884 30885 30886 30887 30888 30889 30890 30891 30892 30893 30894 30895 30896 30897 30898 30899 30900 30901 30902 30903 30904 30905 30906 30907 30908 30909 30910 30911 30912 30913 30914 30915 30916 30917 30918 30919 30920 30921 30922 30923 30924 30925 30926 30927 30928 30929 30930 30931 30932 30933 30934 30935 30936 30937 30938 30939 30940 30941 30942 30943 30944 30945 30946 30947 30948 30949 30950 30951 30952 30953 30954 30955 30956 30957 30958 30959 30960 30961 30962 30963 30964 30965 30966 30967 30968 30969 30970 30971 30972 30973 30974 30975 30976 30977 30978 30979 30980 30981 30982 30983 30984 30985 30986 30987 30988 30989 30990 30991 30992 30993 30994 30995 30996 30997 30998 30999 31000 31001 31002 31003 31004 31005 31006 31007 31008 31009 31010 31011 31012 31013 31014 31015 31016 31017 31018 31019 31020 31021 31022 31023 31024 31025 31026 31027 31028 31029 31030 31031 31032 31033 31034 31035 31036 31037 31038 31039 31040 31041 31042 31043 31044 31045 31046 31047 31048 31049 31050 31051 31052 31053 31054 31055 31056 31057 31058 31059 31060 31061 31062 31063 31064 31065 31066 31067 31068 31069 31070 31071 31072 31073 31074 31075 31076 31077 31078 31079 31080 31081 31082 31083 31084 31085 31086 31087 31088 31089 31090 31091 31092 31093 31094 31095 31096 31097 31098 31099 31100 31101 31102 31103 31104 31105 31106 31107 31108 31109 31110 31111 31112 31113 31114 31115 31116 31117 31118 31119 31120 31121 31122 31123 31124 31125 31126 31127 31128 31129 31130 31131 31132 31133 31134 31135 31136 31137 31138 31139 31140 31141 31142 31143 31144 31145 31146 31147 31148 31149 31150 31151 31152 31153 31154 31155 31156 31157 31158 31159 31160 31161 31162 31163 31164 31165 31166 31167 31168 31169 31170 31171 31172 31173 31174 31175 31176 31177 31178 31179 31180 31181 31182 31183 31184 31185 31186 31187 31188 31189 31190 31191 31192 31193 31194 31195 31196 31197 31198 31199 31200 31201 31202 31203 31204 31205 31206 31207 31208 31209 31210 31211 31212 31213 31214 31215 31216 31217 31218 31219 31220 31221 31222 31223 31224 31225 31226 31227 31228 31229 31230 31231 31232 31233 31234 31235 31236 31237 31238 31239 31240 31241 31242 31243 31244 31245 31246 31247 31248 31249 31250 31251 31252 31253 31254 31255 31256 31257 31258 31259 31260 31261 31262 31263 31264 31265 31266 31267 31268 31269 31270 31271 31272 31273 31274 31275 31276 31277 31278 31279 31280 31281 31282 31283 31284 31285 31286 31287 31288 31289 31290 31291 31292 31293 31294 31295 31296 31297 31298 31299 31300 31301 31302 31303 31304 31305 31306 31307 31308 31309 31310 31311 31312 31313 31314 31315 31316 31317 31318 31319 31320 31321 31322 31323 31324 31325 31326 31327 31328 31329 31330 31331 31332 31333 31334 31335 31336 31337 31338 31339 31340 31341 31342 31343 31344 31345 31346 31347 31348 31349 31350 31351 31352 31353 31354 31355 31356 31357 31358 31359 31360 31361 31362 31363 31364 31365 31366 31367 31368 31369 31370 31371 31372 31373 31374 31375 31376 31377 31378 31379 31380 31381 31382 31383 31384 31385 31386 31387 31388 31389 31390 31391 31392 31393 31394 31395 31396 31397 31398 31399 31400 31401 31402 31403 31404 31405 31406 31407 31408 31409 31410 31411 31412 31413 31414 31415 31416 31417 31418 31419 31420 31421 31422 31423 31424 31425 31426 31427 31428 31429 31430 31431 31432 31433 31434 31435 31436 31437 31438 31439 31440 31441 31442 31443 31444 31445 31446 31447 31448 31449 31450 31451 31452 31453 31454 31455 31456 31457 31458 31459 31460 31461 31462 31463 31464 31465 31466 31467 31468 31469 31470 31471 31472 31473 31474 31475 31476 31477 31478 31479 31480 31481 31482 31483 31484 31485 31486 31487 31488 31489 31490 31491 31492 31493 31494 31495 31496 31497 31498 31499 31500 31501 31502 31503 31504 31505 31506 31507 31508 31509 31510 31511 31512 31513 31514 31515 31516 31517 31518 31519 31520 31521 31522 31523 31524 31525 31526 31527 31528 31529 31530 31531 31532 31533 31534 31535 31536 31537 31538 31539 31540 31541 31542 31543 31544 31545 31546 31547 31548 31549 31550 31551 31552 31553 31554 31555 31556 31557 31558 31559 31560 31561 31562 31563 31564 31565 31566 31567 31568 31569 31570 31571 31572 31573 31574 31575 31576 31577 31578 31579 31580 31581 31582 31583 31584 31585 31586 31587 31588 31589 31590 31591 31592 31593 31594 31595 31596 31597 31598 31599 31600 31601 31602 31603 31604 31605 31606 31607 31608 31609 31610 31611 31612 31613 31614 31615 31616 31617 31618 31619 31620 31621 31622 31623 
</DataArray>
<DataArray type="UInt32" Name="offsets" format="ascii">
3 6 9 12 14 17 20 23 26 29 32 35 37 40 43 46 49 51 54 57 60 63 66 68 71 74 77 80 83 85 88 91 94 96 99 102 104 107 110 113 116 118 121 124 127 130 132 135 137 140 143 146 149 152 155 158 161 164 166 169 172 175 178 181 184 186 189 192 195 198 201 204 206 209 212 215 218 221 223 226 229 231 234 237 240 243 246 249 252 255 258 260 263 266 269 271 274 277 280 283 286 289 292 295 298 301 304 307 310 313 316 319 322 325 328 331 334 337 340 342 345 348 351 354 357 359 362 365 367 370 373 376 379 382 385 388 391 394 397 400 403 406 409 412 414 417 420 423 426 429 432 435 437 440 443 446 449 452 455 457 459 462 465 468 471 474 477 480 482 485 488 491 494 497 499 502 505 508 511 514 517 520 523 526 529 532 535 538 540 543 546 549 551 554 556 559 562 565 568 571 574 576 579 582 584 587 590 593 596 599 601 604 607 610 613 616 619 622 624 627 629 632 635 638 641 644 647 650 653 656 659 661 664 667 669 672 674 677 679 682 685 688 691 693 695 698 701 704 707 709 712 715 717 720 722 725 728 731 733 736 739 742 745 748 751 754 757 760 763 765 768 770 773 776 779 782 785 788 791 794 797 800 803 806 809 812 815 818 821 824 827 830 833 836 839 842 845 848 851 854 857 860 863 866 869 872 875 878 881 884 887 890 893 896 899 902 905 908 911 914 917 920 923 926 929 932 935 938 941 944 947 950 953 956 959 962 965 968 971 974 977 980 983 986 988 991 994 997 1000 1003 1005 1008 1011 1014 1017 1020 1023 1026 1029 1032 1034 1037 1039 1042 1045 1048 1050 1053 1055 1058 1061 1064 1067 1070 1073 1076 1079 1082 1085 1088 1091 1094 1097 1100 1103 1106 1109 1112 1115 1118 1121 1124 1127 1130 1133 1136 1139 1142 1145 1148 1151 1154 1157 1160 1163 1166 1169 1172 1175 1178 1181 1184 1187 1190 1193 1196 1199 1202 1205 1208 1211 1213 1216 1219 1221 1224 1226 1229 1232 1235 1238 1241 1244 1247 1250 1253 1256 1259 1262 1265 1268 1271 1274 1277 1280 1283 1286 1289 1292 1294 1297 1299 1302 1305 1308 1311 1314 1317 1320 1322 1325 1328 1331 1334 1337 1340 1343 1346 1349 1352 1355 1358 1361 1364 1367 1370 1373 1375 1378 1381 1383 1386 1389 1392 1395 1398 1401 1404 1407 1410 1413 1415 1418 1421 1424 1427 1430 1433 1436 1439 1442 1445 1447 1450 1452 1455 1457 1459 1462 1465 1468 1471 1473 1476 1479 1482 1485 1488 1490 1493 1496 1499 1502 1505 1508 1511 1514 1517 1519 1522 1525 1527 1530 1532 1535 1538 1541 1544 1547 1550 1553 1556 1559 1562 1565 1568 1570 1573 1576 1579 1581 1584 1587 1590 1593 1596 1598 1601 1604 1606 1609 1612 1615 1618 1620 1623 1625 1628 1631 1634 1637 1640 1643 1646 1649 1652 1655 1658 1661 1663 1666 1669 1672 1675 1678 1680 1683 1686 1688 1691 1694 1696 1699 1702 1705 1708 1711 1714 1716 1719 1722 1725 1728 1730 1733 1735 1738 1740 1743 1746 1749 1752 1755 1758 1761 1764 1767 1770 1773 1776 1779 1782 1784 1787 1790 1793 1796 1799 1802 1805 1808 1811 1814 1817 1820 1823 1826 1829 1832 1835 1838 1841 1844 1847 1850 1853 1856 1859 1862 1865 1868 1871 1874 1877 1880 1883 1886 1889 1892 1895 1898 1901 1904 1907 1910 1913 1916 1919 1922 1925 1928 1931 1934 1937 1940 1943 1946 1949 1952 1955 1958 1961 1964 1967 1970 1973 1976 1979 1982 1985 1988 1991 1993 1995 1998 2001 2004 2007 2009 2012 2015 2017 2020 2023 2026 2029 2032 2034 2037 2040 2043 2046 2049 2052 2054 2057 2059 2062 2065 2068 2071 2073 2076 2079 2082 2084 2087 2089 2092 2095 2098 2101 2104 2107 2110 2112 2115 2118 2121 2123 2126 2129 2132 2135 2138 2141 2144 2147 2150 2153 2156 2159 2162 2165 2168 2171 2174 2177 2180 2183 2186 2189 2192 2194 2197 2200 2203 2206 2209 2212 2214 2217 2220 2223 2226 2228 2231 2233 2236 2239 2242 2245 2248 2251 2254 2257 2260 2263 2266 2269 2272 2274 2277 2280 2283 2286 2289 2292 2295 2298 2301 2304 2307 2310 2313 2316 2319 2322 2325 2328 2331 2334 2337 2340 2343 2346 2349 2352 2355 2358 2361 2364 2367 2370 2373 2375 2378 2381 2383 2386 2388 2391 2394 2397 2400 2402 2405 2408 2411 2414 2416 2419 2422 2425 2428 2431 2433 2436 2439 2442 2445 2448 2450 2453 2456 2458 2461 2464 2467 2470 2473 2476 2479 2481 2484 2487 2489 2492 2495 2498 2501 2503 2506 2509 2512 2515 2518 2521 2524 2527 2530 2533 2536 2539 2542 2545 2548 2551 2554 2557 2560 2563 2566 2569 2572 2575 2578 2581 2584 2587 2590 2593 2596 2599 2602 2605 2608 2611 2614 2617 2620 2623 2626 2629 2632 2634 2637 2640 2643 2646 2649 2652 2655 2658 2661 2664 2667 2670 2673 2676 2678 2681 2684 2687 2690 2693 2696 2699 2701 2704 2707 2710 2713 2716 2718 2721 2724 2727 2730 2732 2735 2738 2741 2744 2747 2750 2752 2755 2758 2760 2763 2766 2768 2771 2773 2776 2778 2781 2784 2787 2790 2792 2794 2797 2800 2802 2805 2808 2811 2813 2816 2819 2822 2824 2827 2830 2833 2836 2839 2842 2845 2848 2851 2854 2857 2860 2863 2866 2869 2871 2874 2877 2880 2883 2886 2889 2892 2895 2898 2900 2903 2906 2909 2912 2915 2918 2920 2922 2925 2928 2931 2934 2937 2940 2943 2946 2948 2951 2954 2957 2960 2963 2965 2968 2971 2974 2976 2979 2982 2985 2987 2990 2993 2996 2999 3002 3005 3008 3011 3014 3017 3020 3023 3026 3029 3032 3035 3038 3040 3043 3046 3049 3052 3055 3058 3061 3064 3066 3069 3072 3075 3078 3081 3084 3087 3090 3093 3095 3098 3101 3104 3107 3110 3113 3116 3119 3121 3124 3127 3130 3133 3135 3138 3141 3144 3147 3150 3153 3156 3159 3162 3165 3167 3170 3173 3176 3178 3180 3183 3185 3188 3191 3194 3196 3198 3200 3203 3206 3209 3212 3215 3218 3221 3223 3226 3229 3232 3234 3236 3239 3242 3244 3246 3249 3252 3255 3257 3260 3263 3266 3269 3272 3274 3277 3280 3283 3286 3289 3292 3295 3298 3301 3304 3306 3309 3312 3315 3318 3321 3324 3327 3330 3333 3336 3339 3342 3345 3348 3351 3354 3357 3360 3363 3366 3368 3371 3374 3377 3380 3382 3385 3388 3391 3394 3397 3400 3403 3406 3409 3412 3415 3418 3421 3423 3426 3429 3432 3435 3438 3441 3444 3446 3449 3452 3455 3458 3461 3464 3467 3470 3473 3476 3479 3482 3485 3488 3491 3494 3497 3500 3502 3505 3508 3511 3514 3517 3520 3522 3525 3528 3531 3534 3537 3540 3543 3545 3548 3551 3554 3557 3559 3562 3565 3568 3571 3574 3576 3579 3582 3585 3587 3590 3593 3595 3598 3601 3604 3607 3609 3612 3614 3617 3620 3623 3626 3629 3632 3635 3638 3641 3644 3647 3650 3652 3655 3658 3661 3664 3667 3670 3673 3676 3679 3681 3684 3687 3690 3693 3696 3699 3701 3704 3707 3710 3713 3716 3719 3722 3725 3728 3730 3733 3735 3738 3741 3744 3747 3750 3752 3754 3757 3760 3763 3766 3769 3772 3775 3778 3781 3784 3787 3790 3793 3796 3799 3802 3805 3808 3811 3814 3817 3820 3822 3825 3828 3831 3834 3837 3840 3843 3846 3849 3852 3855 3858 3861 3864 3867 3870 3873 3876 3879 3882 3885 3888 3891 3894 3897 3900 3903 3906 3909 3912 3915 3918 3921 3924 3927 3930 3933 3936 3939 3942 3945 3948 3951 3954 3957 3960 3963 3966 3969 3972 3975 3978 3981 3984 3987 3990 3993 3996 3999 4002 4004 4007 4009 4012 4015 4018 4021 4024 4027 4030 4033 4036 4039 4042 4045 4048 4050 4053 4056 4059 4062 4064 4067 4070 4073 4076 4079 4082 4085 4088 4091 4094 4097 4100 4103 4106 4109 4112 4115 4118 4121 4124 4126 4129 4132 4135 4138 4141 4144 4147 4150 4153 4156 4159 4162 4165 4168 4171 4174 4177 4180 4183 4186 4189 4192 4195 4198 4201 4204 4207 4210 4213 4216 4219 4222 4225 4228 4231 4234 4237 4240 4243 4246 4249 4252 4255 4257 4260 4263 4266 4269 4272 4275 4278 4281 4284 4286 4288 4290 4292 4295 4298 4301 4304 4307 4310 4313 4316 4319 4322 4325 4328 4331 4334 4337 4339 4342 4345 4348 4351 4354 4357 4360 4363 4366 4368 4371 4374 4377 4380 4383 4386 4389 4391 4394 4397 4400 4403 4406 4409 4411 4414 4417 4420 4423 4425 4428 4431 4434 4437 4440 4442 4445 4448 4451 4454 4457 4460 4463 4465 4468 4471 4474 4477 4480 4483 4486 4489 4492 4494 4497 4500 4502 4504 4507 4510 4513 4516 4518 4521 4524 4526 4529 4532 4535 4538 4541 4543 4545 4548 4551 4554 4557 4560 4563 4566 4569 4572 4575 4578 4581 4584 4587 4590 4593 4596 4599 4602 4605 4608 4611 4614 4617 4620 4623 4626 4629 4632 4635 4638 4641 4644 4647 4650 4653 4656 4659 4662 4665 4668 4671 4674 4677 4680 4683 4686 4689 4692 4695 4698 4701 4704 4707 4710 4713 4716 4719 4722 4725 4728 4731 4734 4737 4740 4743 4746 4749 4752 4755 4758 4761 4764 4767 4770 4773 4776 4779 4782 4785 4787 4790 4793 4796 4799 4802 4805 4808 4810 4812 4815 4817 4820 4823 4826 4829 4832 4835 4838 4840 4843 4846 4849 4852 4855 4858 4861 4864 4867 4870 4872 4875 4878 4880 4883 4886 4889 4892 4895 4898 4901 4904 4907 4910 4913 4915 4918 4921 4924 4927 4930 4933 4936 4939 4942 4945 4948 4951 4954 4956 4958 4961 4964 4967 4970 4973 4976 4979 4982 4985 4988 4991 4994 4997 5000 5003 5006 5009 5012 5015 5018 5021 5024 5027 5030 5033 5036 5039 5042 5045 5048 5051 5054 5057 5060 5063 5066 5069 5072 5075 5078 5081 5083 5086 5089 5092 5095 5098 5100 5103 5106 5109 5112 5115 5118 5121 5124 5127 5130 5133 5136 5139 5142 5145 5148 5150 5152 5155 5158 5161 5164 5167 5169 5172 5175 5178 5181 5183 5186 5189 5192 5195 5198 5201 5203 5206 5208 5211 5214 5217 5220 5223 5226 5229 5232 5235 5237 5240 5243 5246 5249 5252 5254 5257 5260 5262 5265 5268 5271 5274 5277 5280 5283 5286 5289 5291 5294 5296 5299 5301 5304 5307 5310 5312 5315 5318 5320 5323 5325 5327 5330 5332 5335 5337 5340 5343 5346 5349 5352 5355 5358 5361 5363 5366 5369 5371 5374 5377 5380 5383 5386 5389 5391 5393 5396 5398 5401 5404 5407 5409 5412 5415 5418 5421 5423 5426 5428 5431 5434 5437 5440 5442 5444 5447 5450 5453 5456 5459 5462 5465 5468 5471 5474 5477 5480 5483 5486 5489 5492 5495 5498 5501 5503 5505 5507 5509 5512 5515 5517 5520 5522 5525 5528 5531 5533 5536 5538 5541 5543 5545 5547 5550 5553 5556 5559 5562 5564 5567 5570 5573 5576 5579 5581 5584 5586 5589 5592 5594 5597 5599 5602 5604 5607 5610 5613 5616 5618 5621 5624 5626 5629 5632 5635 5637 5639 5641 5643 5646 5648 5651 5653 5656 5659 5662 5664 5666 5668 5671 5673 5676 5678 5681 5684 5686 5688 5691 5694 5696 5699 5702 5704 5707 5709 5712 5715 5718 5721 5724 5726 5729 5731 5734 5736 5738 5741 5744 5746 5749 5751 5753 5756 5759 5762 5764 5767 5769 5772 5775 5778 5780 5783 5786 5789 5792 5794 5797 5799 5802 5805 5808 5811 5814 5817 5820 5823 5826 5828 5830 5833 5835 5838 5840 5843 5846 5848 5851 5854 5857 5860 5863 5866 5869 5872 5875 5878 5881 5884 5887 5890 5893 5896 5898 5900 5903 5906 5909 5912 5915 5918 5921 5924 5927 5930 5933 5936 5939 5942 5945 5948 5951 5954 5957 5960 5963 5966 5969 5972 5975 5978 5981 5983 5986 5989 5991 5994 5997 6000 6003 6006 6009 6011 6014 6017 6020 6022 6024 6027 6029 6032 6035 6037 6040 6043 6045 6048 6051 6053 6056 6058 6061 6064 6067 6070 6073 6076 6078 6081 6084 6087 6090 6093 6096 6099 6102 6105 6107 6110 6113 6116 6119 6122 6125 6127 6129 6132 6135 6138 6141 6143 6146 6149 6152 6155 6158 6161 6164 6167 6169 6172 6174 6177 6179 6182 6185 6188 6191 6194 6197 6200 6202 6205 6207 6209 6212 6215 6218 6221 6224 6227 6230 6233 6235 6238 6241 6244 6247 6249 6252 6254 6257 6260 6262 6265 6268 6270 6273 6276 6279 6282 6285 6288 6291 6294 6297 6300 6303 6306 6309 6312 6315 6318 6320 6323 6326 6329 6331 6334 6337 6340 6343 6346 6349 6352 6355 6358 6361 6364 6366 6369 6372 6375 6378 6380 6382 6385 6388 6391 6394 6397 6399 6402 6405 6408 6410 6413 6416 6419 6422 6425 6427 6430 6433 6436 6439 6442 6445 6448 6450 6453 6455 6457 6460 6462 6465 6468 6471 6474 6476 6478 6481 6484 6487 6489 6492 6494 6497 6499 6502 6505 6508 6510 6513 6516 6519 6521 6524 6527 6529 6532 6534 6536 6538 6541 6544 6546 6549 6551 6554 6556 6559 6562 6564 6566 6569 6572 6575 6577 6580 6583 6585 6588 6591 6594 6597 6600 6603 6606 6608 6611 6614 6617 6620 6623 6626 6629 6632 6635 6638 6641 6644 6647 6650 6653 6656 6659 6662 6665 6668 6671 6673 6676 6679 6681 6684 6687 6690 6693 6695 6698 6700 6703 6706 6709 6712 6715 6718 6721 6724 6727 6730 6733 6736 6739 6742 6745 6748 6751 6754 6757 6760 6763 6766 6769 6772 6775 6778 6781 6784 6787 6789 6792 6795 6798 6801 6804 6807 6809 6812 6815 6818 6821 6824 6827 6830 6833 6836 6839 6842 6845 6848 6851 6854 6856 6859 6862 6865 6867 6870 6872 6875 6878 6880 6883 6886 6889 6892 6894 6897 6900 6902 6905 6907 6909 6911 6914 6917 6920 6922 6925 6928 6930 6933 6935 6938 6941 6944 6947 6950 6953 6956 6959 6962 6965 6968 6971 6974 6976 6979 6982 6985 6988 6991 6994 6997 7000 7003 7006 7009 7012 7015 7018 7021 7024 7027 7030 7033 7036 7039 7042 7045 7048 7051 7054 7056 7059 7061 7064 7067 7070 7073 7076 7078 7081 7084 7087 7090 7093 7096 7099 7102 7105 7108 7111 7114 7117 7120 7123 7125 7128 7130 7133 7136 7138 7141 7144 7147 7150 7153 7156 7159 7162 7165 7168 7171 7174 7177 7180 7183 7186 7189 7192 7195 7197 7200 7203 7206 7209 7212 7215 7218 7221 7223 7226 7228 7231 7234 7237 7240 7242 7244 7247 7250 7253 7256 7259 7261 7263 7266 7269 7272 7275 7278 7280 7282 7285 7288 7291 7294 7297 7300 7302 7305 7308 7311 7314 7317 7320 7323 7326 7329 7332 7335 7338 7340 7343 7346 7349 7352 7355 7358 7361 7364 7367 7370 7373 7376 7379 7382 7385 7388 7391 7394 7397 7400 7403 7406 7408 7411 7414 7416 7419 7421 7424 7427 7430 7433 7435 7438 7441 7444 7447 7450 7453 7456 7459 7462 7465 7468 7471 7474 7477 7480 7483 7486 7489 7492 7495 7498 7501 7504 7507 7510 7513 7516 7519 7521 7524 7527 7529 7532 7535 7538 7540 7543 7546 7549 7552 7555 7557 7560 7563 7566 7569 7571 7574 7577 7580 7583 7586 7589 7592 7595 7598 7601 7604 7607 7610 7613 7616 7619 7622 7625 7628 7631 7634 7637 7640 7643 7646 7649 7651 7654 7657 7660 7662 7665 7667 7670 7672 7674 7677 7680 7683 7685 7688 7690 7692 7695 7698 7701 7703 7706 7709 7711 7714 7717 7720 7723 7726 7729 7731 7734 7737 7740 7743 7746 7749 7752 7755 7758 7760 7763 7766 7769 7772 7775 7777 7780 7783 7786 7789 7792 7795 7798 7801 7804 7806 7809 7812 7814 7817 7819 7822 7825 7828 7831 7834 7837 7840 7843 7846 7849 7852 7854 7857 7860 7863 7866 7869 7872 7874 7877 7880 7883 7886 7888 7890 7893 7895 7898 7901 7904 7906 7908 7911 7913 7916 7919 7921 7924 7927 7930 7933 7936 7939 7942 7945 7948 7951 7954 7957 7960 7963 7966 7969 7972 7975 7978 7981 7984 7987 7990 7993 7996 7999 8002 8005 8008 8011 8014 8017 8020 8023 8026 8029 8032 8035 8038 8041 8044 8047 8050 8053 8056 8059 8062 8065 8068 8071 8074 8077 8080 8083 8086 8089 8092 8095 8098 8101 8104 8107 8110 8113 8116 8119 8121 8124 8127 8130 8133 8136 8139 8142 8145 8148 8151 8154 8157 8160 8163 8166 8169 8171 8174 8177 8180 8183 8186 8189 8191 8194 8196 8198 8201 8204 8207 8210 8212 8215 8217 8220 8223 8226 8229 8231 8234 8237 8240 8242 8245 8247 8250 8253 8256 8259 8262 8264 8267 8269 8272 8275 8278 8280 8283 8286 8289 8292 8295 8298 8301 8304 8306 8309 8312 8315 8318 8320 8322 8325 8328 8331 8334 8336 8338 8341 8344 8347 8350 8353 8356 8359 8362 8364 8366 8369 8371 8374 8377 8380 8383 8385 8388 8391 8394 8396 8399 8402 8405 8408 8411 8414 8417 8420 8423 8426 8429 8432 8434 8437 8440 8443 8446 8449 8452 8455 8458 8461 8464 8467 8470 8473 8475 8478 8481 8484 8487 8490 8493 8496 8498 8501 8504 8507 8510 8513 8516 8519 8522 8525 8528 8531 8534 8537 8539 8542 8545 8548 8551 8554 8557 8560 8563 8566 8569 8572 8575 8578 8580 8583 8585 8588 8591 8594 8597 8600 8603 8606 8609 8612 8615 8618 8621 8624 8627 8630 8633 8636 8639 8642 8645 8648 8651 8654 8657 8660 8663 8666 8669 8672 8675 8678 8681 8684 8687 8690 8693 8696 8699 8702 8705 8708 8711 8714 8717 8720 8723 8726 8729 8732 8735 8738 8741 8744 8747 8750 8753 8756 8759 8762 8765 8768 8771 8774 8777 8780 8783 8786 8789 8792 8795 8798 8801 8804 8807 8810 8813 8816 8819 8822 8825 8828 8831 8834 8837 8840 8843 8846 8849 8852 8855 8858 8861 8864 8867 8870 8873 8876 8879 8882 8885 8888 8891 8894 8897 8900 8903 8906 8909 8912 8915 8918 8921 8924 8927 8930 8933 8936 8939 8942 8945 8948 8951 8954 8956 8959 8962 8965 8968 8971 8974 8976 8979 8982 8985 8988 8991 8993 8996 8999 9002 9005 9008 9010 9013 9016 9018 9021 9024 9027 9029 9032 9035 9038 9041 9044 9046 9049 9052 9055 9058 9061 9064 9067 9069 9072 9075 9078 9081 9084 9087 9090 9093 9096 9099 9102 9105 9108 9111 9114 9117 9120 9123 9126 9128 9131 9134 9137 9140 9143 9146 9149 9151 9154 9157 9160 9163 9166 9169 9171 9174 9176 9179 9182 9185 9187 9190 9193 9195 9198 9201 9204 9207 9210 9213 9216 9219 9222 9225 9227 9230 9233 9236 9239 9242 9245 9248 9251 9254 9257 9260 9263 9266 9269 9272 9274 9277 9280 9282 9285 9288 9291 9294 9297 9300 9303 9306 9309 9312 9315 9318 9321 9324 9327 9330 9332 9335 9338 9341 9344 9347 9350 9353 9356 9359 9362 9365 9368 9371 9374 9377 9379 9382 9385 9388 9391 9394 9397 9400 9403 9405 9408 9411 9414 9417 9420 9423 9426 9429 9432 9435 9438 9440 9443 9446 9449 9452 9455 9457 9460 9463 9466 9469 9472 9475 9478 9481 9483 9486 9489 9492 9495 9497 9500 9503 9505 9508 9511 9514 9517 9520 9523 9526 9528 9531 9534 9536 9539 9542 9544 9547 9550 9553 9556 9559 9562 9565 9568 9571 9574 9577 9580 9583 9585 9588 9591 9594 9597 9600 9603 9606 9609 9612 9615 9618 9621 9623 9626 9629 9631 9634 9637 9639 9642 9645 9648 9650 9653 9656 9659 9662 9665 9668 9671 9674 9677 9680 9683 9685 9688 9691 9694 9697 9700 9703 9706 9709 9712 9715 9718 9720 9723 9726 9729 9732 9735 9738 9741 9744 9747 9750 9753 9756 9759 9762 9765 9768 9771 9774 9777 9779 9782 9785 9788 9791 9794 9797 9800 9803 9806 9809 9812 9814 9817 9819 9822 9824 9827 9830 9833 9836 9838 9841 9844 9847 9850 9853 9856 9859 9862 9865 9868 9871 9874 9877 9880 9883 9886 9889 9892 9895 9898 9901 9904 9907 9910 9913 9916 9919 9922 9924 9927 9930 9933 9936 9938 9941 9944 9947 9949 9952 9955 9958 9960 9963 9966 9969 9972 9974 9977 9979 9982 9985 9987 9989 9992 9995 9998 10000 10003 10005 10008 10011 10013 10016 10018 10021 10024 10027 10029 10032 10035 10037 10040 10042 10045 10048 10051 10053 10056 10058 10061 10064 10066 10068 10071 10074 10077 10079 10081 10084 10087 10089 10092 10095 10098 10101 10104 10107 10110 10113 10116 10119 10122 10124 10126 10129 10132 10135 10138 10141 10144 10146 10149 10151 10154 10156 10159 10162 10164 10167 10170 10172 10175 10177 10180 10183 10186 10189 10192 10195 10198 10201 10204 10207 10210 10213 10216 10219 10222 10225 10228 10231 10234 10236 10239 10242 10245 10248 10251 10254 10257 10260 10263 10266 10269 10272 10275 10278 10281 10284 10287 10290 10293 10296 10299 10302 10305 10308 10311 10314 10317 10320 10323 10326 10329 10332 10334 10336 10339 10342 10345 10347 10350 10352 10355 10357 10360 10362 10365 10368 10371 10374 10376 10379 10382 10385 10388 10391 10394 10397 10399 10402 10405 10408 10411 10414 10417 10420 10423 10426 10429 10432 10435 10438 10441 10444 10446 10449 10452 10455 10458 10461 10463 10466 10469 10472 10475 10478 10481 10484 10486 10489 10492 10495 10498 10500 10503 10506 10509 10512 10515 10517 10520 10523 10526 10528 10531 10533 10536 10539 10542 10544 10547 10549 10552 10554 10557 10560 10562 10565 10568 10571 10573 10576 10579 10582 10585 10588 10590 10593 10596 10599 10601 10604 10607 10609 10612 10615 10617 10620 10623 10626 10629 10632 10635 10638 10641 10644 10647 10650 10653 10656 10659 10662 10665 10667 10670 10673 10675 10678 10681 10684 10687 10689 10692 10695 10698 10701 10704 10707 10710 10713 10716 10719 10722 10725 10728 10731 10734 10737 10740 10743 10745 10747 10750 10753 10756 10759 10762 10765 10768 10771 10774 10777 10780 10783 10786 10788 10791 10793 10796 10798 10800 10802 10805 10808 10811 10814 10817 10820 10823 10826 10829 10831 10834 10837 10839 10842 10845 10848 10851 10854 10857 10859 10862 10865 10868 10870 10873 10876 10878 10881 10884 10887 10890 10893 10896 10898 10900 10903 10906 10909 10912 10914 10917 10920 10922 10924 10927 10930 10933 10936 10939 10942 10945 10947 10949 10952 10955 10958 10961 10964 10966 10969 10971 10974 10977 10979 10982 10985 10987 10989 10992 10994 10997 11000 11003 11006 11008 11010 11013 11016 11019 11022 11024 11027 11030 11032 11035 11038 11040 11043 11046 11048 11051 11054 11057 11060 11063 11066 11069 11072 11075 11078 11081 11084 11087 11090 11093 11096 11099 11102 11105 11108 11111 11113 11116 11118 11120 11123 11126 11128 11131 11134 11137 11140 11143 11146 11149 11152 11155 11157 11160 11163 11166 11169 11172 11175 11178 11180 11183 11186 11189 11192 11195 11198 11201 11204 11207 11210 11213 11216 11219 11222 11225 11227 11230 11233 11236 11239 11242 11244 11246 11249 11252 11254 11256 11258 11261 11264 11267 11270 11273 11276 11278 11281 11283 11286 11289 11292 11295 11298 11301 11303 11306 11308 11311 11314 11317 11319 11322 11325 11328 11331 11334 11337 11340 11343 11346 11349 11351 11354 11357 11360 11363 11366 11369 11372 11375 11378 11381 11384 11387 11390 11393 11396 11399 11402 11405 11408 11411 11414 11417 11420 11423 11425 11428 11431 11434 11437 11440 11443 11446 11448 11450 11453 11456 11458 11460 11463 11466 11469 11472 11475 11478 11481 11484 11487 11490 11493 11496 11499 11502 11505 11508 11511 11514 11517 11520 11523 11526 11529 11532 11535 11538 11540 11543 11546 11549 11551 11554 11557 11559 11562 11565 11568 11571 11574 11577 11580 11583 11586 11589 11592 11595 11598 11601 11604 11607 11610 11613 11616 11619 11622 11625 11628 11631 11634 11637 11640 11643 11646 11649 11652 11655 11658 11661 11664 11667 11670 11673 11676 11679 11682 11685 11688 11691 11694 11697 11700 11703 11706 11709 11712 11714 11717 11720 11723 11726 11729 11732 11735 11738 11741 11744 11747 11749 11751 11754 11757 11760 11762 11765 11768 11771 11774 11777 11780 11783 11786 11789 11791 11794 11797 11800 11803 11805 11808 11811 11814 11817 11820 11823 11826 11829 11831 11833 11836 11839 11842 11845 11847 11850 11853 11856 11859 11862 11865 11867 11870 11873 11876 11879 11882 11884 11887 11890 11893 11895 11898 11901 11903 11906 11909 11911 11914 11917 11920 11923 11926 11929 11931 11934 11937 11940 11943 11946 11949 11952 11955 11958 11961 11964 11967 11970 11973 11976 11979 11982 11985 11988 11991 11994 11997 12000 12003 12006 12009 12012 12015 12018 12021 12024 12027 12030 12033 12036 12039 12042 12045 12048 12051 12054 12057 12060 12063 12066 12069 12072 12075 12078 12081 12084 12086 12089 12092 12095 12098 12101 12103 12106 12109 12112 12115 12117 12120 12123 12126 12129 12132 12135 12138 12141 12144 12147 12149 12151 12154 12157 12160 12163 12165 12168 12170 12173 12176 12179 12182 12185 12188 12191 12194 12197 12200 12203 12206 12209 12212 12215 12218 12221 12224 12227 12230 12233 12236 12239 12241 12244 12247 12250 12253 12256 12259 12262 12264 12267 12270 12273 12275 12278 12280 12283 12286 12289 12292 12295 12298 12301 12304 12307 12310 12313 12316 12319 12322 12325 12328 12331 12334 12337 12340 12343 12346 12349 12352 12355 12358 12361 12363 12366 12369 12372 12375 12378 12381 12384 12387 12390 12393 12396 12399 12402 12405 12408 12410 12413 12415 12418 12421 12424 12427 12429 12432 12435 12438 12441 12443 12446 12449 12452 12455 12458 12461 12464 12467 12470 12472 12475 12478 12481 12484 12487 12490 12493 12496 12498 12501 12504 12506 12509 12512 12514 12517 12520 12523 12526 12529 12532 12535 12538 12541 12543 12546 12549 12552 12555 12558 12561 12564 12567 12570 12573 12575 12578 12581 12584 12587 12589 12592 12595 12598 12601 12604 12607 12610 12613 12616 12619 12622 12625 12628 12631 12634 12637 12640 12643 12646 12649 12651 12654 12656 12659 12662 12665 12668 12671 12674 12677 12680 12683 12686 12689 12691 12694 12697 12699 12701 12704 12707 12710 12712 12715 12718 12720 12723 12726 12729 12732 12735 12738 12740 12743 12746 12748 12751 12753 12756 12759 12762 12765 12768 12771 12774 12776 12779 12781 12784 12786 12788 12791 12794 12797 12800 12803 12805 12807 12809 12812 12815 12818 12821 12823 12825 12828 12831 12834 12837 12839 12842 12845 12847 12850 12853 12855 12858 12861 12864 12867 12870 12873 12876 12879 12882 12885 12888 12891 12894 12897 12900 12903 12905 12907 12910 12913 12915 12918 12921 12924 12927 12929 12932 12935 12938 12941 12943 12946 12948 12951 12954 12957 12960 12963 12966 12969 12971 12973 12976 12979 12982 12985 12987 12990 12992 12994 12997 13000 13003 13006 13009 13012 13015 13018 13021 13024 13027 13030 13033 13036 13039 13042 13045 13048 13051 13054 13057 13060 13062 13065 13067 13070 13073 13075 13078 13081 13083 13085 13088 13091 13094 13097 13100 13103 13106 13109 13112 13114 13117 13120 13122 13124 13126 13129 13131 13134 13137 13140 13142 13144 13147 13150 13153 13155 13157 13160 13163 13166 13168 13170 13173 13175 13178 13180 13183 13186 13189 13191 13194 13196 13199 13202 13205 13207 13210 13213 13216 13219 13222 13225 13228 13231 13234 13237 13240 13242 13244 13247 13250 13252 13255 13258 13261 13263 13266 13268 13271 13274 13277 13279 13282 13285 13288 13291 13294 13297 13300 13303 13306 13309 13311 13314 13317 13320 13323 13326 13329 13331 13334 13337 13339 13342 13345 13348 13351 13354 13357 13360 13363 13366 13369 13372 13374 13377 13380 13383 13386 13389 13392 13395 13398 13401 13404 13407 13409 13411 13414 13416 13419 13422 13425 13428 13430 13432 13435 13438 13441 13444 13447 13450 13452 13455 13458 13461 13464 13467 13470 13472 13475 13478 13481 13483 13486 13488 13491 13494 13497 13500 13502 13505 13508 13510 13512 13515 13518 13520 13523 13526 13528 13531 13534 13537 13539 13542 13545 13548 13551 13554 13557 13560 13562 13564 13567 13570 13573 13576 13579 13582 13585 13588 13590 13592 13595 13598 13600 13603 13606 13609 13612 13615 13618 13620 13623 13626 13629 13632 13635 13638 13641 13644 13646 13649 13651 13654 13657 13660 13663 13665 13668 13671 13674 13677 13680 13683 13686 13689 13692 13695 13698 13700 13703 13705 13707 13710 13713 13715 13718 13721 13724 13727 13730 13732 13735 13737 13740 13743 13746 13749 13751 13754 13757 13760 13763 13766 13769 13772 13775 13778 13781 13783 13786 13789 13792 13795 13798 13801 13804 13807 13810 13813 13816 13819 13821 13824 13827 13830 13833 13835 13838 13841 13843 13846 13849 13852 13855 13858 13861 13864 13867 13870 13873 13876 13879 13882 13885 13887 13890 13893 13896 13899 13902 13905 13908 13911 13914 13917 13920 13923 13925 13928 13931 13934 13937 13940 13943 13945 13948 13951 13954 13957 13959 13961 13964 13967 13969 13972 13975 13977 13980 13983 13986 13989 13991 13994 13997 14000 14003 14006 14008 14011 14014 14017 14019 14022 14025 14028 14031 14034 14036 14039 14041 14044 14046 14048 14050 14053 14056 14059 14062 14065 14068 14071 14074 14076 14079 14082 14084 14087 14090 14093 14096 14099 14102 14105 14108 14111 14113 14116 14119 14122 14125 14128 14131 14134 14137 14140 14143 14146 14149 14152 14155 14158 14161 14164 14167 14170 14173 14176 14179 14182 14185 14188 14191 14194 14197 14200 14203 14205 14208 14210 14213 14216 14219 14221 14224 14227 14229 14232 14234 14236 14239 14241 14244 14246 14249 14252 14255 14258 14261 14264 14267 14270 14272 14275 14277 14280 14283 14285 14288 14290 14293 14295 14298 14301 14304 14307 14310 14313 14316 14319 14321 14323 14326 14329 14332 14334 14337 14339 14342 14344 14346 14349 14352 14355 14358 14361 14364 14367 14370 14373 14375 14378 14381 14383 14386 14389 14392 14395 14398 14401 14404 14407 14409 14412 14415 14417 14420 14423 14426 14429 14432 14435 14438 14441 14443 14446 14448 14451 14454 14457 14460 14463 14466 14469 14471 14474 14477 14480 14483 14486 14489 14492 14495 14498 14501 14503 14506 14509 14511 14513 14516 14518 14520 14522 14525 14528 14530 14533 14536 14538 14541 14544 14547 14550 14552 14555 14558 14561 14564 14567 14570 14573 14576 14579 14582 14585 14588 14591 14594 14597 14600 14603 14606 14609 14612 14615 14618 14621 14623 14626 14629 14632 14634 14637 14640 14643 14646 14648 14651 14654 14657 14660 14663 14666 14669 14672 14675 14678 14681 14683 14686 14689 14692 14695 14698 14701 14704 14707 14710 14713 14716 14719 14722 14725 14728 14731 14733 14736 14739 14742 14744 14747 14750 14753 14756 14759 14761 14764 14767 14770 14773 14775 14778 14781 14784 14787 14790 14793 14795 14798 14801 14804 14807 14810 14812 14815 14818 14820 14823 14826 14829 14831 14834 14837 14840 14842 14845 14848 14851 14853 14856 14859 14862 14865 14868 14871 14874 14876 14879 14882 14885 14888 14891 14893 14896 14899 14902 14904 14907 14910 14913 14916 14919 14921 14923 14926 14929 14932 14935 14938 14941 14944 14947 14949 14951 14954 14957 14960 14962 14965 14967 14970 14973 14976 14979 14982 14985 14988 14990 14993 14995 14998 15001 15004 15007 15009 15012 15014 15017 15019 15022 15025 15028 15031 15034 15037 15039 15042 15045 15048 15050 15053 15056 15059 15062 15065 15067 15070 15073 15076 15079 15082 15085 15088 15091 15094 15097 15100 15103 15106 15109 15112 15115 15118 15121 15124 15127 15130 15133 15135 15138 15140 15143 15146 15148 15151 15154 15157 15160 15163 15166 15168 15171 15174 15176 15179 15182 15185 15188 15191 15194 15197 15200 15203 15206 15209 15212 15215 15218 15221 15224 15227 15230 15233 15236 15239 15242 15245 15248 15250 15253 15256 15259 15262 15264 15267 15270 15273 15276 15279 15282 15285 15288 15291 15294 15297 15300 15303 15305 15308 15310 15313 15316 15319 15322 15325 15327 15330 15333 15336 15339 15342 15345 15348 15351 15354 15357 15360 15363 15366 15369 15372 15375 15378 15381 15384 15387 15389 15391 15394 15397 15400 15403 15406 15409 15412 15415 15418 15421 15424 15427 15430 15432 15435 15438 15441 15444 15447 15450 15453 15456 15459 15462 15465 15468 15471 15474 15477 15480 15483 15486 15488 15491 15494 15497 15500 15503 15506 15509 15512 15515 15518 15521 15524 15527 15530 15533 15536 15539 15542 15545 15548 15551 15553 15556 15559 15562 15565 15568 15570 15573 15576 15579 15582 15585 15588 15591 15594 15597 15600 15602 15605 15607 15610 15613 15616 15619 15622 15625 15628 15631 15634 15637 15640 15642 15645 15648 15650 15653 15656 15659 15662 15665 15668 15670 15672 15675 15678 15681 15683 15686 15689 15692 15695 15698 15701 15704 15707 15710 15713 15716 15719 15722 15725 15728 15731 15734 15737 15740 15743 15746 15749 15752 15755 15758 15761 15764 15767 15770 15773 15776 15779 15782 15785 15788 15791 15794 15797 15800 15802 15805 15808 15811 15814 15817 15820 15823 15826 15829 15832 15835 15838 15841 15844 15847 15850 15853 15856 15859 15862 15865 15868 15871 15874 15877 15880 15883 15885 15888 15891 15893 15896 15899 15902 15905 15907 15910 15913 15916 15918 15921 15924 15927 15930 15933 15936 15939 15942 15945 15948 15951 15954 15957 15960 15963 15965 15968 15971 15973 15976 15979 15982 15985 15988 15991 15994 15997 15999 16002 16005 16008 16011 16014 16017 16020 16022 16025 16028 16031 16034 16037 16040 16043 16046 16049 16052 16055 16058 16061 16064 16067 16070 16073 16076 16079 16082 16085 16088 16091 16094 16097 16100 16102 16105 16108 16111 16114 16117 16120 16123 16126 16129 16132 16135 16138 16141 16144 16146 16149 16152 16155 16158 16160 16163 16166 16169 16172 16175 16178 16181 16184 16187 16190 16193 16196 16199 16202 16205 16208 16211 16214 16217 16220 16223 16226 16229 16232 16235 16238 16241 16244 16246 16249 16252 16255 16257 16260 16263 16266 16269 16272 16275 16278 16280 16283 16286 16289 16292 16294 16297 16300 16302 16305 16308 16311 16314 16317 16319 16322 16324 16326 16329 16332 16335 16338 16341 16344 16347 16350 16353 16356 16359 16362 16365 16368 16371 16374 16377 16380 16383 16386 16389 16392 16395 16398 16401 16404 16407 16410 16413 16415 16418 16421 16424 16427 16430 16433 16435 16438 16441 16444 16446 16449 16452 16455 16457 16460 16463 16466 16468 16471 16474 16477 16480 16483 16486 16488 16491 16494 16497 16500 16503 16506 16508 16511 16514 16517 16520 16523 16526 16529 16532 16535 16538 16540 16543 16546 16549 16552 16555 16558 16561 16564 16567 16570 16573 16575 16578 16581 16584 16587 16589 16592 16595 16598 16600 16603 16606 16609 16612 16615 16618 16621 16624 16627 16630 16633 16636 16639 16642 16645 16648 16651 16654 16657 16660 16663 16666 16669 16672 16675 16678 16681 16684 16687 16690 16693 16696 16699 16702 16705 16708 16711 16714 16717 16720 16722 16724 16727 16730 16733 16736 16739 16742 16745 16748 16751 16753 16756 16758 16760 16763 16766 16769 16771 16773 16776 16779 16782 16785 16788 16791 16794 16797 16800 16803 16806 16808 16811 16814 16816 16818 16821 16824 16827 16830 16833 16836 16839 16842 16845 16848 16851 16854 16857 16860 16863 16866 16869 16872 16875 16878 16881 16884 16886 16889 16891 16894 16897 16900 16902 16904 16907 16910 16913 16916 16919 16921 16923 16925 16927 16930 16933 16936 16939 16942 16945 16948 16950 16953 16956 16959 16962 16965 16968 16971 16973 16976 16979 16981 16984 16987 16989 16992 16995 16998 17001 17004 17007 17010 17013 17016 17019 17022 17025 17028 17031 17034 17037 17040 17043 17045 17048 17051 17054 17057 17059 17062 17065 17068 17071 17074 17077 17080 17083 17086 17089 17092 17095 17098 17101 17104 17107 17110 17113 17116 17119 17121 17124 17127 17130 17132 17135 17138 17141 17144 17147 17150 17153 17156 17159 17162 17165 17168 17171 17173 17175 17178 17180 17183 17186 17189 17192 17194 17197 17200 17203 17206 17208 17211 17214 17217 17220 17223 17226 17229 17231 17234 17237 17240 17242 17245 17248 17251 17254 17257 17260 17263 17266 17269 17271 17273 17276 17279 17282 17284 17287 17290 17293 17296 17298 17301 17304 17306 17308 17311 17313 17316 17318 17321 17323 17326 17329 17332 17334 17337 17340 17343 17346 17349 17352 17355 17358 17361 17363 17366 17369 17372 17375 17377 17380 17382 17385 17388 17390 17393 17396 17399 17402 17405 17408 17411 17414 17417 17420 17423 17426 17429 17432 17435 17438 17440 17443 17446 17449 17452 17455 17458 17460 17463 17466 17468 17471 17474 17477 17480 17483 17486 17489 17492 17495 17498 17501 17504 17506 17509 17512 17515 17517 17520 17522 17525 17527 17530 17533 17536 17539 17541 17544 17547 17550 17553 17556 17559 17562 17564 17566 17569 17572 17575 17578 17581 17584 17587 17590 17593 17596 17599 17602 17605 17608 17611 17614 17617 17620 17623 17626 17629 17632 17635 17638 17641 17643 17646 17649 17652 17655 17658 17661 17663 17666 17669 17672 17675 17678 17681 17683 17686 17689 17692 17695 17698 17701 17704 17707 17710 17713 17716 17719 17722 17725 17727 17729 17731 17734 17737 17740 17743 17746 17749 17752 17755 17757 17760 17763 17766 17769 17771 17774 17777 17780 17783 17785 17788 17791 17794 17797 17800 17803 17805 17808 17811 17814 17816 17819 17822 17825 17828 17831 17834 17837 17840 17843 17846 17849 17852 17855 17858 17861 17864 17867 17870 17873 17876 17879 17882 17885 17888 17891 17894 17896 17899 17902 17905 17908 17910 17913 17916 17919 17922 17925 17928 17931 17933 17936 17939 17942 17945 17947 17950 17953 17956 17959 17962 17965 17968 17971 17974 17977 17979 17982 17985 17987 17990 17993 17996 17999 18002 18005 18008 18011 18014 18017 18020 18023 18026 18029 18032 18035 18038 18040 18043 18046 18049 18052 18055 18058 18061 18064 18067 18070 18073 18076 18079 18082 18085 18087 18090 18093 18095 18098 18101 18104 18107 18110 18113 18116 18119 18122 18125 18128 18131 18134 18137 18140 18143 18146 18149 18152 18155 18158 18160 18163 18166 18168 18171 18174 18177 18180 18183 18186 18189 18192 18195 18197 18200 18203 18206 18208 18211 18214 18217 18220 18223 18226 18229 18232 18235 18238 18241 18244 18247 18250 18253 18256 18259 18262 18265 18267 18270 18273 18276 18279 18281 18284 18287 18290 18293 18296 18299 18302 18305 18308 18311 18314 18317 18319 18322 18325 18328 18331 18334 18337 18340 18343 18346 18349 18352 18355 18358 18361 18364 18367 18370 18373 18376 18379 18382 18385 18388 18391 18394 18397 18400 18403 18406 18409 18412 18415 18418 18421 18424 18427 18430 18433 18436 18438 18440 18443 18446 18449 18452 18455 18458 18461 18464 18467 18469 18472 18475 18478 18481 18484 18487 18490 18493 18496 18499 18502 18504 18507 18510 18513 18516 18519 18521 18523 18526 18529 18532 18535 18537 18540 18543 18546 18548 18551 18554 18557 18560 18563 18566 18569 18572 18575 18577 18580 18583 18586 18589 18592 18595 18598 18601 18603 18605 18607 18610 18613 18615 18618 18621 18624 18627 18630 18633 18636 18639 18642 18645 18648 18651 18653 18656 18659 18662 18665 18668 18671 18674 18677 18680 18683 18686 18689 18691 18694 18697 18700 18703 18706 18709 18712 18714 18717 18720 18723 18726 18729 18732 18735 18738 18741 18744 18747 18750 18752 18755 18757 18760 18763 18766 18769 18772 18774 18777 18780 18783 18786 18789 18792 18795 18797 18800 18803 18806 18809 18812 18815 18818 18821 18824 18826 18829 18832 18834 18837 18840 18843 18846 18849 18852 18855 18858 18861 18864 18867 18870 18873 18876 18879 18882 18885 18887 18890 18893 18895 18898 18901 18904 18907 18910 18913 18916 18919 18922 18925 18928 18931 18934 18937 18940 18943 18946 18949 18952 18955 18958 18961 18964 18967 18970 18973 18976 18978 18981 18983 18986 18989 18992 18995 18998 19001 19004 19007 19010 19013 19015 19018 19021 19024 19027 19030 19033 19036 19039 19042 19045 19048 19051 19054 19057 19060 19063 19066 19069 19072 19075 19078 19081 19084 19087 19090 19093 19096 19099 19102 19105 19108 19111 19114 19117 19120 19123 19126 19129 19132 19135 19138 19141 19144 19147 19150 19152 19155 19158 19160 19163 19166 19168 19171 19174 19177 19180 19183 19185 19188 19191 19194 19197 19200 19203 19205 19208 19211 19213 19216 19219 19221 19223 19225 19228 19230 19232 19235 19238 19241 19244 19247 19249 19252 19255 19258 19260 19263 19266 19269 19272 19275 19277 19280 19282 19285 19288 19291 19294 19297 19299 19302 19305 19308 19311 19313 19316 19318 19321 19324 19327 19330 19333 19335 19338 19340 19343 19345 19348 19351 19354 19356 19359 19362 19365 19368 19370 19373 19376 19379 19382 19385 19388 19391 19394 19397 19400 19403 19406 19409 19412 19415 19418 19421 19424 19427 19430 19433 19436 19439 19441 19444 19447 19449 19452 19455 19458 19461 19463 19466 19469 19472 19475 19478 19481 19483 19486 19488 19491 19494 19497 19500 19503 19506 19509 19512 19515 19517 19519 19521 19524 19527 19529 19532 19535 19538 19541 19544 19547 19550 19553 19556 19559 19561 19563 19565 19568 19571 19574 19577 19580 19583 19586 19588 19591 19593 19596 19598 19601 19604 19607 19610 19612 19615 19618 19621 19623 19626 19629 19632 19635 19637 19640 19643 19645 19648 19651 19654 19657 19660 19663 19666 19669 19671 19674 19677 19680 19683 19685 19688 19691 19693 19696 19699 19702 19705 19708 19710 19713 19716 19719 19722 19725 19728 19731 19734 19737 19740 19743 19746 19749 19752 19755 19758 19761 19764 19767 19770 19773 19776 19779 19781 19784 19786 19789 19792 19795 19798 19800 19803 19806 19809 19811 19814 19816 19819 19822 19825 19828 19831 19834 19837 19840 19843 19845 19848 19850 19852 19855 19858 19861 19863 19866 19869 19872 19875 19878 19881 19884 19887 19890 19893 19896 19899 19902 19905 19908 19911 19914 19916 19919 19921 19924 19927 19930 19933 19936 19939 19942 19945 19948 19951 19954 19957 19960 19963 19966 19969 19972 19975 19978 19981 19984 19987 19990 19993 19996 19999 20002 20005 20008 20011 20014 20017 20020 20023 20026 20029 20032 20035 20038 20041 20044 20047 20050 20053 20055 20058 20061 20064 20067 20070 20073 20076 20079 20082 20085 20087 20090 20093 20096 20098 20101 20104 20107 20110 20113 20116 20119 20122 20124 20127 20130 20133 20135 20138 20141 20143 20146 20149 20152 20155 20158 20161 20164 20167 20169 20172 20175 20178 20181 20183 20186 20189 20192 20195 20198 20201 20204 20207 20209 20212 20215 20218 20221 20224 20227 20230 20233 20236 20239 20242 20245 20247 20249 20251 20254 20257 20260 20262 20265 20268 20270 20272 20275 20277 20280 20282 20285 20288 20291 20294 20296 20299 20302 20305 20308 20311 20314 20316 20319 20321 20324 20327 20330 20332 20335 20338 20341 20344 20346 20348 20351 20354 20357 20360 20363 20365 20368 20371 20374 20376 20379 20381 20383 20386 20389 20392 20395 20398 20400 20403 20406 20408 20411 20414 20416 20419 20422 20425 20428 20431 20434 20437 20440 20443 20446 20449 20452 20455 20458 20461 20464 20467 20470 20473 20476 20479 20481 20484 20486 20489 20492 20495 20498 20501 20504 20506 20509 20512 20515 20518 20521 20524 20527 20529 20532 20535 20538 20541 20544 20547 20550 20553 20556 20559 20562 20565 20568 20571 20574 20577 20580 20582 20585 20588 20590 20593 20596 20599 20602 20605 20608 20611 20614 20617 20620 20623 20626 20629 20632 20634 20637 20640 20642 20645 20648 20651 20654 20657 20659 20662 20664 20667 20670 20673 20675 20678 20681 20684 20687 20690 20693 20695 20698 20701 20704 20707 20709 20712 20715 20718 20721 20724 20726 20729 20732 20735 20738 20741 20744 20747 20750 20753 20756 20759 20762 20764 20767 20769 20772 20775 20778 20781 20784 20786 20789 20792 20795 20798 20801 20804 20807 20810 20813 20816 20818 20821 20824 20827 20830 20833 20836 20839 20842 20845 20848 20851 20854 20856 20859 20862 20865 20868 20870 20873 20876 20879 20882 20885 20888 20891 20894 20897 20899 20902 20904 20907 20910 20913 20916 20919 20922 20925 20927 20930 20932 20935 20937 20940 20943 20946 20949 20952 20955 20957 20960 20963 20966 20969 20972 20975 20978 20981 20984 20986 20989 20992 20995 20997 21000 21002 21005 21008 21011 21014 21016 21019 21022 21024 21027 21030 21033 21036 21039 21041 21044 21047 21050 21053 21056 21059 21062 21065 21068 21071 21074 21077 21080 21083 21085 21088 21091 21094 21097 21100 21103 21106 21109 21112 21115 21118 21120 21123 21126 21129 21132 21134 21137 21139 21142 21145 21148 21150 21153 21156 21158 21161 21163 21166 21169 21172 21175 21178 21181 21184 21186 21189 21192 21195 21198 21201 21204 21207 21210 21213 21216 21219 21222 21225 21228 21231 21234 21237 21240 21243 21246 21248 21251 21254 21256 21259 21261 21264 21267 21269 21272 21275 21278 21280 21282 21285 21288 21291 21294 21296 21298 21301 21304 21307 21309 21311 21314 21316 21319 21322 21324 21327 21330 21333 21336 21338 21341 21344 21347 21350 21353 21356 21359 21361 21364 21367 21370 21372 21374 21376 21379 21382 21385 21387 21389 21391 21394 21397 21400 21403 21405 21408 21411 21414 21417 21420 21422 21425 21428 21431 21434 21437 21440 21443 21446 21449 21451 21454 21457 21460 21463 21465 21467 21470 21473 21476 21479 21482 21485 21488 21491 21493 21496 21499 21502 21505 21508 21510 21513 21516 21518 21520 21523 21526 21529 21532 21534 21536 21539 21542 21544 21547 21550 21553 21556 21559 21562 21565 21568 21570 21573 21576 21579 21582 21585 21588 21591 21594 21596 21599 21602 21605 21607 21610 21613 21616 21619 21622 21625 21627 21630 21632 21635 21637 21640 21643 21645 21648 21651 21654 21657 21660 21662 21664 21667 21670 21673 21676 21678 21681 21684 21687 21690 21693 21695 21697 21700 21703 21705 21708 21710 21713 21716 21718 21721 21723 21726 21729 21732 21735 21738 21741 21743 21746 21748 21751 21754 21757 21759 21762 21765 21768 21770 21773 21776 21779 21782 21785 21788 21791 21794 21797 21800 21803 21806 21808 21811 21814 21817 21820 21823 21826 21829 21832 21835 21838 21841 21843 21846 21849 21852 21855 21858 21861 21864 21867 21870 21873 21876 21879 21882 21885 21888 21891 21893 21896 21899 21902 21905 21907 21910 21913 21915 21918 21921 21924 21927 21930 21933 21936 21938 21941 21944 21946 21949 21952 21955 21957 21960 21963 21966 21969 21972 21974 21977 21979 21982 21984 21987 21990 21993 21996 21998 22000 22002 22005 22007 22010 22013 22016 22019 22022 22025 22028 22031 22034 22037 22039 22042 22045 22047 22049 22052 22055 22057 22059 22062 22065 22068 22071 22073 22076 22079 22082 22084 22086 22089 22092 22094 22097 22099 22102 22104 22107 22110 22113 22115 22118 22121 22124 22127 22130 22132 22135 22138 22141 22144 22147 22150 22152 22154 22157 22160 22163 22166 22169 22172 22175 22178 22181 22184 22187 22190 22193 22195 22198 22201 22204 22207 22210 22212 22215 22218 22221 22224 22227 22230 22233 22236 22238 22241 22244 22246 22249 22251 22254 22257 22260 22263 22266 22269 22272 22275 22277 22280 22282 22285 22288 22291 22293 22295 22298 22301 22303 22305 22308 22310 22313 22315 22317 22320 22322 22325 22328 22330 22333 22336 22338 22341 22344 22347 22350 22352 22355 22358 22360 22363 22366 22369 22372 22375 22378 22381 22384 22387 22389 22392 22395 22398 22401 22404 22407 22410 22413 22415 22418 22421 22423 22426 22429 22432 22435 22437 22440 22443 22446 22449 22452 22455 22458 22461 22463 22465 22468 22471 22474 22476 22479 22481 22484 22486 22489 22492 22495 22498 22501 22504 22507 22510 22513 22515 22518 22521 22524 22526 22529 22532 22535 22537 22540 22543 22545 22548 22551 22554 22557 22560 22562 22564 22567 22569 22572 22575 22578 22581 22584 22587 22590 22593 22596 22599 22602 22605 22607 22610 22613 22615 22618 22620 22623 22626 22629 22632 22634 22637 22639 22642 22644 22647 22650 22653 22656 22659 22661 22664 22667 22669 22672 22675 22678 22680 22683 22685 22688 22691 22693 22696 22699 22701 22704 22707 22710 22713 22715 22718 22720 22723 22725 22728 22731 22733 22735 22737 22740 22743 22746 22749 22752 22755 22758 22761 22764 22767 22770 22773 22776 22779 22782 22785 22788 22790 22793 22796 22799 22802 22805 22808 22811 22814 22817 22820 22822 22825 22828 22831 22834 22837 22840 22843 22846 22849 22852 22855 22858 22861 22864 22867 22870 22873 22876 22879 22882 22885 22888 22891 22894 22897 22900 22903 22906 22909 22912 22915 22918 22921 22924 22927 22930 22933 22936 22939 22942 22945 22948 22951 22954 22956 22959 22962 22965 22968 22971 22974 22977 22979 22982 22985 22988 22991 22994 22997 23000 23002 23005 23008 23010 23013 23016 23019 23022 23025 23028 23031 23033 23036 23039 23041 23044 23046 23049 23052 23055 23057 23060 23063 23066 23069 23072 23075 23078 23081 23084 23087 23090 23093 23096 23098 23101 23104 23107 23109 23111 23114 23116 23119 23122 23125 23128 23131 23134 23137 23140 23143 23146 23149 23152 23155 23158 23161 23164 23167 23170 23173 23175 23178 23181 23183 23186 23189 23192 23195 23197 23200 23203 23206 23209 23212 23215 23218 23220 23223 23226 23229 23232 23234 23237 23240 23242 23245 23248 23250 23253 23256 23259 23261 23264 23267 23270 23272 23275 23278 23281 23284 23287 23290 23293 23296 23299 23302 23305 23308 23310 23313 23316 23318 23321 23324 23326 23329 23332 23335 23337 23340 23343 23345 23348 23351 23354 23357 23359 23362 23365 23368 23371 23373 23376 23378 23380 23383 23385 23387 23390 23393 23396 23399 23401 23404 23407 23410 23412 23415 23418 23420 23423 23426 23429 23432 23434 23437 23440 23443 23446 23449 23451 23454 23457 23459 23462 23464 23466 23469 23472 23475 23477 23480 23482 23485 23488 23491 23494 23497 23499 23501 23504 23506 23509 23512 23515 23518 23521 23524 23527 23530 23533 23536 23539 23542 23545 23548 23551 23553 23556 23559 23561 23563 23566 23568 23571 23574 23577 23580 23583 23586 23589 23592 23595 23597 23600 23603 23606 23609 23612 23615 23618 23621 23624 23627 23630 23633 23635 23638 23640 23643 23646 23649 23652 23655 23657 23660 23662 23665 23667 23670 23673 23676 23678 23681 23684 23687 23690 23692 23695 23698 23700 23703 23705 23708 23711 23713 23716 23719 23721 23724 23727 23729 23732 23735 23738 23741 23744 23747 23750 23753 23756 23759 23762 23764 23767 23770 23773 23775 23778 23780 23783 23786 23789 23792 23795 23797 23800 23803 23806 23808 23811 23814 23817 23820 23823 23826 23829 23832 23834 23837 23840 23843 23846 23849 23851 23854 23857 23860 23863 23866 23869 23872 23875 23878 23881 23884 23887 23890 23893 23896 23899 23902 23905 23908 23911 23913 23916 23919 23922 23924 23927 23930 23933 23936 23939 23941 23944 23947 23949 23952 23955 23958 23960 23963 23966 23969 23972 23975 23978 23981 23983 23985 23988 23991 23994 23997 24000 24002 24005 24008 24010 24013 24016 24019 24022 24024 24027 24030 24033 24036 24038 24041 24044 24047 24050 24053 24056 24059 24062 24065 24068 24071 24074 24077 24080 24083 24086 24089 24092 24095 24098 24101 24104 24107 24110 24113 24116 24119 24122 24124 24127 24130 24133 24136 24138 24141 24144 24147 24150 24153 24156 24158 24161 24164 24167 24170 24172 24175 24178 24180 24183 24186 24189 24192 24195 24197 24200 24203 24206 24208 24211 24214 24217 24219 24222 24224 24227 24230 24233 24236 24239 24242 24245 24247 24250 24252 24255 24258 24261 24263 24266 24269 24271 24274 24276 24279 24282 24285 24288 24291 24293 24296 24299 24302 24305 24308 24311 24314 24316 24319 24322 24325 24327 24330 24332 24335 24337 24340 24342 24345 24347 24350 24353 24356 24359 24362 24365 24368 24371 24374 24377 24380 24382 24385 24388 24391 24394 24396 24399 24402 24405 24408 24410 24413 24416 24419 24422 24425 24428 24431 24434 24437 24440 24443 24446 24449 24452 24455 24457 24460 24462 24465 24468 24471 24473 24476 24479 24482 24485 24488 24490 24493 24496 24499 24501 24504 24507 24510 24513 24515 24517 24520 24523 24526 24528 24531 24534 24537 24540 24543 24546 24549 24552 24554 24557 24560 24563 24566 24569 24572 24574 24577 24580 24583 24586 24589 24592 24595 24598 24600 24602 24605 24608 24611 24614 24617 24620 24622 24625 24628 24630 24633 24635 24638 24641 24644 24647 24650 24652 24655 24657 24660 24663 24666 24669 24672 24675 24678 24681 24684 24686 24689 24692 24695 24698 24701 24704 24707 24710 24712 24715 24718 24721 24724 24727 24730 24733 24736 24739 24742 24745 24748 24751 24754 24756 24759 24761 24764 24767 24770 24772 24775 24778 24781 24783 24786 24789 24792 24795 24798 24801 24804 24807 24810 24813 24815 24818 24821 24824 24826 24829 24832 24835 24838 24841 24844 24847 24850 24853 24856 24859 24862 24865 24867 24870 24873 24876 24879 24882 24885 24888 24891 24894 24897 24900 24903 24906 24908 24911 24914 24917 24920 24923 24925 24928 24931 24934 24937 24939 24942 24945 24948 24951 24954 24957 24960 24963 24966 24968 24971 24974 24977 24980 24983 24986 24989 24992 24994 24997 25000 25003 25006 25009 25012 25015 25018 25021 25024 25027 25030 25033 25036 25039 25042 25045 25048 25051 25054 25056 25059 25062 25064 25067 25070 25073 25076 25079 25082 25085 25088 25091 25094 25097 25100 25103 25106 25109 25112 25115 25118 25121 25124 25127 25130 25133 25136 25139 25142 25145 25148 25151 25153 25156 25159 25161 25164 25167 25170 25172 25175 25178 25180 25183 25186 25189 25191 25194 25196 25199 25202 25204 25207 25209 25212 25214 25217 25220 25223 25226 25228 25231 25234 25237 25240 25243 25246 25249 25251 25254 25257 25259 25262 25265 25267 25269 25271 25273 25276 25279 25282 25285 25288 25291 25294 25297 25300 25303 25306 25309 25312 25315 25318 25321 25324 25327 25330 25333 25336 25339 25342 25345 25348 25351 25354 25357 25359 25361 25364 25367 25370 25373 25375 25378 25380 25383 25386 25389 25391 25394 25397 25400 25403 25406 25409 25412 25415 25417 25420 25423 25426 25429 25431 25434 25437 25440 25443 25445 25448 25451 25453 25456 25458 25461 25464 25467 25469 25472 25475 25478 25481 25484 25487 25490 25493 25496 25499 25502 25505 25508 25511 25514 25517 25519 25522 25525 25528 25531 25534 25537 25540 25542 25545 25548 25551 25554 25557 25560 25563 25566 25569 25571 25574 25577 25580 25583 25586 25589 25592 25595 25598 25600 25603 25606 25609 25611 25614 25617 25620 25623 25626 25629 25632 25635 25638 25641 25644 25647 25650 25653 25656 25659 25662 25665 25668 25670 25673 25676 25679 25681 25684 25687 25690 25693 25696 25699 25702 25705 25708 25711 25714 25717 25720 25723 25726 25729 25732 25735 25738 25741 25744 25747 25750 25753 25756 25759 25762 25765 25767 25770 25772 25775 25778 25781 25783 25786 25789 25791 25794 25797 25800 25803 25806 25809 25812 25815 25818 25821 25823 25826 25829 25832 25835 25838 25840 25843 25846 25849 25852 25855 25858 25861 25864 25867 25869 25872 25875 25878 25881 25884 25887 25890 25893 25896 25899 25902 25905 25908 25911 25914 25917 25920 25923 25926 25929 25932 25935 25938 25941 25944 25947 25950 25953 25956 25959 25962 25965 25968 25971 25974 25977 25980 25983 25986 25989 25992 25995 25998 26001 26004 26007 26010 26013 26016 26019 26022 26025 26028 26031 26034 26037 26040 26043 26046 26049 26052 26055 26058 26061 26064 26067 26070 26073 26076 26079 26082 26085 26088 26090 26093 26095 26098 26101 26104 26107 26110 26113 26115 26118 26121 26124 26127 26130 26133 26136 26139 26142 26145 26147 26150 26153 26156 26159 26162 26165 26167 26170 26173 26175 26178 26181 26184 26187 26190 26193 26196 26198 26201 26204 26207 26210 26213 26216 26218 26221 26224 26227 26229 26232 26235 26238 26241 26244 26247 26249 26252 26255 26258 26260 26263 26266 26269 26272 26275 26278 26281 26284 26287 26290 26293 26296 26299 26302 26305 26308 26311 26314 26317 26320 26323 26326 26329 26332 26335 26338 26341 26344 26347 26350 26352 26355 26358 26360 26362 26365 26368 26371 26374 26377 26380 26383 26386 26389 26392 26395 26398 26400 26403 26406 26409 26412 26415 26418 26421 26424 26427 26430 26433 26435 26438 26441 26444 26447 26450 26452 26455 26458 26461 26464 26467 26469 26472 26475 26478 26481 26484 26487 26490 26493 26496 26498 26501 26504 26507 26510 26513 26516 26519 26522 26525 26527 26530 26533 26536 26539 26541 26544 26547 26550 26553 26556 26559 26562 26565 26568 26570 26573 26576 26578 26581 26584 26586 26589 26592 26595 26598 26601 26604 26606 26609 26612 26614 26617 26619 26622 26625 26627 26630 26633 26636 26639 26642 26645 26648 26651 26654 26657 26660 26663 26666 26669 26672 26675 26678 26681 26684 26687 26690 26693 26696 26699 26702 26705 26708 26711 26714 26717 26720 26723 26726 26729 26732 26735 26738 26741 26744 26747 26750 26753 26756 26759 26762 26765 26768 26771 26774 26777 26780 26782 26785 26788 26791 26794 26797 26800 26803 26806 26809 26812 26815 26818 26821 26824 26826 26828 26831 26834 26837 26840 26843 26846 26848 26850 26853 26856 26859 26862 26865 26868 26871 26874 26877 26880 26883 26886 26889 26892 26895 26898 26900 26902 26905 26907 26910 26913 26915 26918 26921 26924 26926 26929 26932 26935 26938 26941 26944 26947 26950 26953 26956 26959 26962 26965 26968 26971 26974 26977 26980 26983 26986 26989 26992 26995 26998 27001 27003 27006 27009 27012 27014 27017 27019 27022 27024 27027 27030 27033 27035 27038 27041 27044 27047 27050 27053 27055 27058 27060 27063 27066 27068 27071 27074 27077 27080 27083 27086 27088 27091 27094 27097 27100 27103 27106 27109 27112 27115 27118 27121 27124 27127 27130 27133 27136 27139 27142 27145 27148 27151 27154 27156 27159 27162 27165 27167 27170 27173 27176 27179 27182 27184 27187 27190 27192 27195 27198 27201 27203 27206 27209 27212 27215 27218 27221 27224 27227 27230 27233 27236 27239 27242 27245 27248 27251 27253 27256 27259 27261 27264 27266 27269 27272 27275 27277 27280 27283 27285 27288 27291 27294 27297 27300 27303 27305 27308 27311 27314 27317 27319 27322 27325 27327 27330 27333 27336 27338 27341 27344 27346 27349 27352 27354 27357 27360 27363 27366 27369 27371 27374 27377 27380 27383 27386 27389 27391 27394 27397 27400 27403 27405 27408 27411 27414 27417 27420 27423 27426 27429 27431 27434 27437 27440 27443 27446 27449 27452 27455 27458 27461 27464 27467 27469 27472 27475 27478 27481 27484 27487 27489 27492 27495 27498 27501 27504 27507 27510 27513 27516 27519 27522 27525 27527 27530 27533 27535 27538 27541 27544 27547 27550 27553 27556 27559 27562 27565 27567 27570 27572 27575 27578 27581 27584 27587 27590 27593 27596 27598 27600 27603 27606 27609 27611 27614 27617 27620 27622 27624 27626 27628 27631 27634 27637 27640 27643 27645 27648 27651 27653 27656 27659 27661 27664 27667 27670 27673 27676 27679 27682 27684 27687 27690 27693 27696 27699 27702 27705 27708 27711 27714 27716 27719 27722 27725 27728 27731 27733 27736 27739 27742 27745 27748 27751 27754 27757 27760 27763 27766 27769 27771 27774 27777 27780 27783 27786 27788 27791 27793 27796 27798 27801 27804 27806 27809 27812 27814 27817 27820 27822 27825 27827 27830 27833 27836 27838 27841 27844 27846 27848 27851 27854 27856 27859 27862 27864 27867 27870 27873 27875 27878 27881 27884 27887 27890 27892 27895 27898 27901 27904 27907 27910 27913 27916 27919 27921 27924 27926 27929 27932 27935 27937 27940 27943 27945 27948 27951 27954 27957 27960 27963 27966 27968 27971 27974 27977 27980 27982 27985 27988 27991 27994 27996 27999 28001 28004 28007 28010 28013 28016 28019 28022 28025 28028 28031 28034 28037 28040 28043 28046 28048 28051 28053 28056 28059 28062 28065 28068 28071 28074 28076 28079 28082 28085 28088 28091 28094 28096 28098 28101 28104 28107 28110 28113 28115 28117 28120 28123 28126 28129 28132 28135 28137 28140 28143 28146 28149 28152 28155 28158 28160 28162 28165 28168 28171 28174 28176 28178 28180 28183 28185 28187 28190 28193 28195 28198 28200 28203 28206 28209 28212 28215 28218 28220 28223 28225 28228 28231 28234 28237 28240 28243 28246 28249 28252 28255 28257 28260 28262 28265 28268 28270 28273 28276 28279 28282 28285 28288 28291 28293 28295 28298 28301 28304 28307 28310 28313 28316 28319 28322 28325 28328 28331 28334 28337 28340 28343 28345 28348 28351 28353 28355 28358 28361 28364 28367 28370 28373 28376 28379 28382 28385 28388 28391 28394 28397 28400 28403 28406 28409 28412 28414 28417 28420 28422 28425 28428 28431 28434 28437 28440 28443 28446 28449 28452 28455 28458 28461 28464 28467 28470 28473 28476 28478 28481 28483 28486 28489 28492 28495 28498 28501 28503 28506 28508 28511 28514 28517 28519 28522 28525 28528 28531 28534 28536 28539 28541 28544 28546 28549 28552 28555 28558 28561 28563 28565 28568 28571 28573 28576 28578 28581 28584 28587 28589 28592 28595 28598 28600 28603 28606 28608 28610 28613 28616 28619 28622 28625 28628 28631 28634 28637 28640 28643 28646 28649 28651 28654 28657 28660 28662 28665 28668 28671 28674 28677 28680 28683 28686 28688 28690 28693 28696 28699 28701 28704 28707 28710 28713 28716 28719 28722 28725 28728 28731 28734 28737 28740 28742 28745 28747 28750 28753 28756 28758 28761 28764 28767 28770 28773 28776 28779 28782 28785 28788 28791 28794 28796 28799 28802 28805 28808 28811 28814 28817 28820 28823 28826 28829 28832 28835 28837 28840 28843 28846 28849 28851 28854 28857 28859 28862 28865 28868 28871 28874 28876 28879 28882 28885 28888 28891 28894 28897 28900 28903 28906 28909 28912 28915 28918 28920 28923 28926 28929 28932 28935 28937 28940 28943 28946 28948 28951 28954 28957 28960 28963 28965 28968 28970 28973 28976 28979 28982 28985 28988 28991 28994 28997 29000 29003 29006 29009 29012 29015 29018 29021 29024 29027 29029 29032 29035 29038 29041 29044 29047 29049 29051 29054 29057 29060 29063 29066 29069 29071 29074 29076 29079 29082 29085 29088 29091 29094 29096 29099 29101 29103 29106 29109 29112 29114 29117 29120 29123 29126 29129 29132 29135 29138 29141 29144 29146 29149 29151 29154 29157 29160 29163 29166 29169 29171 29173 29176 29179 29182 29185 29188 29191 29194 29197 29200 29203 29206 29209 29212 29215 29218 29221 29224 29227 29230 29233 29236 29239 29242 29245 29247 29249 29252 29255 29258 29261 29264 29267 29270 29273 29276 29278 29281 29284 29287 29290 29293 29296 29299 29301 29304 29307 29309 29312 29315 29318 29321 29323 29326 29329 29331 29334 29337 29340 29342 29345 29348 29350 29353 29355 29358 29361 29364 29367 29370 29373 29376 29379 29382 29385 29387 29390 29393 29396 29399 29402 29405 29408 29411 29413 29416 29418 29421 29423 29426 29428 29431 29433 29436 29439 29442 29444 29447 29450 29453 29456 29459 29462 29465 29468 29471 29474 29476 29479 29482 29485 29488 29491 29493 29496 29499 29502 29504 29507 29510 29513 29516 29519 29522 29525 29528 29531 29534 29537 29540 29543 29546 29549 29551 29554 29557 29560 29563 29566 29569 29572 29575 29577 29580 29583 29585 29587 29590 29593 29596 29599 29602 29605 29607 29610 29613 29616 29619 29622 29625 29628 29630 29632 29635 29638 29640 29642 29645 29648 29651 29654 29657 29659 29662 29665 29668 29671 29674 29677 29680 29682 29685 29688 29691 29693 29696 29698 29701 29704 29707 29710 29713 29716 29719 29722 29725 29728 29731 29734 29737 29740 29743 29746 29749 29752 29755 29758 29761 29763 29766 29769 29771 29774 29777 29779 29782 29785 29788 29791 29793 29796 29799 29802 29805 29808 29811 29814 29817 29819 29821 29824 29827 29829 29832 29834 29837 29840 29843 29846 29849 29852 29855 29858 29861 29864 29866 29869 29872 29875 29877 29880 29883 29886 29889 29891 29894 29896 29899 29902 29905 29908 29911 29914 29917 29920 29923 29926 29929 29932 29935 29937 29940 29943 29946 29949 29952 29955 29957 29960 29962 29965 29968 29971 29974 29977 29979 29982 29985 29988 29990 29993 29996 29999 30002 30005 30008 30011 30014 30017 30020 30023 30026 30029 30032 30035 30038 30041 30043 30046 30048 30051 30054 30057 30060 30063 30066 30069 30072 30075 30078 30081 30084 30087 30089 30092 30095 30097 30100 30103 30105 30108 30110 30113 30116 30119 30122 30125 30128 30130 30133 30136 30139 30142 30145 30148 30151 30154 30157 30160 30163 30166 30169 30172 30175 30178 30181 30184 30187 30190 30193 30196 30199 30202 30205 30208 30211 30214 30217 30220 30223 30225 30228 30231 30234 30237 30240 30243 30245 30247 30250 30253 30256 30258 30261 30264 30266 30269 30272 30274 30277 30279 30282 30285 30288 30291 30293 30296 30299 30302 30305 30308 30310 30313 30316 30319 30322 30325 30328 30331 30334 30337 30340 30343 30346 30349 30352 30355 30357 30360 30362 30365 30368 30371 30374 30377 30379 30382 30385 30388 30390 30392 30395 30398 30401 30403 30405 30408 30411 30414 30417 30420 30422 30425 30428 30431 30434 30437 30439 30442 30445 30448 30451 30454 30457 30460 30463 30466 30469 30472 30475 30478 30480 30483 30486 30488 30491 30494 30497 30500 30503 30506 30509 30512 30515 30517 30520 30523 30526 30529 30532 30535 30538 30541 30544 30547 30550 30552 30555 30558 30560 30563 30566 30569 30572 30575 30578 30581 30584 30587 30590 30593 30596 30599 30602 30605 30608 30611 30614 30617 30620 30623 30626 30629 30632 30635 30638 30641 30644 30647 30649 30652 30654 30656 30659 30661 30664 30667 30670 30673 30676 30679 30681 30683 30685 30688 30691 30694 30697 30700 30703 30706 30709 30712 30714 30717 30720 30723 30726 30728 30731 30733 30736 30738 30740 30743 30746 30749 30752 30755 30758 30761 30764 30766 30769 30772 30774 30777 30779 30782 30785 30788 30791 30794 30797 30800 30803 30806 30808 30810 30813 30816 30818 30821 30823 30825 30828 30830 30833 30836 30838 30841 30843 30846 30848 30851 30853 30855 30858 30860 30863 30866 30868 30871 30874 30877 30880 30882 30885 30888 30890 30893 30895 30898 30901 30903 30906 30908 30911 30913 30916 30919 30922 30924 30927 30930 30933 30935 30938 30941 30944 30947 30950 30952 30955 30958 30961 30964 30967 30970 30973 30976 30979 30982 30985 30988 30991 30994 30996 30999 31001 31003 31006 31009 31011 31014 31017 31020 31023 31026 31029 31032 31035 31038 31041 31043 31046 31049 31052 31055 31058 31060 31063 31066 31069 31072 31074 31077 31079 31082 31085 31087 31089 31092 31095 31098 31101 31104 31107 31109 31112 31114 31116 31119 31122 31125 31127 31130 31132 31135 31138 31141 31143 31146 31149 31152 31155 31157 31160 31163 31166 31169 31172 31174 31176 31179 31181 31184 31186 31189 31191 31193 31195 31197 31199 31202 31205 31208 31211 31213 31216 31219 31222 31225 31228 31231 31234 31236 31239 31241 31244 31247 31249 31252 31255 31257 31260 31263 31266 31268 31270 31273 31276 31279 31282 31285 31288 31290 31293 31296 31298 31301 31304 31307 31310 31313 31315 31318 31321 31324 31327 31329 31332 31335 31338 31341 31344 31347 31350 31353 31356 31359 31362 31365 31368 31371 31374 31377 31380 31383 31386 31389 31392 31395 31398 31401 31404 31407 31410 31413 31416 31419 31422 31425 31428 31431 31434 31437 31440 31443 31446 31449 31452 31455 31458 31461 31464 31467 31470 31473 31476 31479 31482 31485 31488 31491 31494 31497 31500 31503 31506 31508 31511 31514 31516 31519 31521 31524 31527 31530 31533 31535 31538 31541 31544 31546 31549 31552 31555 31558 31561 31564 31567 31570 31573 31576 31579 31582 31585 31588 31590 31593 31596 31599 31602 31605 31607 31610 31613 31615 31618 31621 31624 
</DataArray>
<DataArray type="UInt32" Name="types" format="ascii">
5 5 5 5 3 5 5 5 5 5 5 5 3 5 5 5 5 3 5 5 5 5 5 3 5 5 5 5 5 3 5 5 5 3 5 5 3 5 5 5 5 3 5 5 5 5 3 5 3 5 5 5 5 5 5 5 5 5 3 5 5 5 5 5 5 3 5 5 5 5 5 5 3 5 5 5 5 5 3 5 5 3 5 5 5 5 5 5 5 5 5 3 5 5 5 3 5 5 5 5 5 5 5 5 5 5 5 5 5 5 5 5 5 5 5 5 5 5 5 3 5 5 5 5 5 3 5 5 3 5 5 5 5 5 5 5 5 5 5 5 5 5 5 5 3 5 5 5 5 5 5 5 3 5 5 5 5 5 5 3 3 5 5 5 5 5 5 5 3 5 5 5 5 5 3 5 5 5 5 5 5 5 5 5 5 5 5 5 3 5 5 5 3 5 3 5 5 5 5 5 5 3 5 5 3 5 5 5 5 5 3 5 5 5 5 5 5 5 3 5 3 5 5 5 5 5 5 5 5 5 5 3 5 5 3 5 3 5 3 5 5 5 5 3 3 5 5 5 5 3 5 5 3 5 3 5 5 5 3 5 5 5 5 5 5 5 5 5 5 3 5 3 5 5 5 5 5 5 5 5 5 5 5 5 5 5 5 5 5 5 5 5 5 5 5 5 5 5 5 5 5 5 5 5 5 5 5 5 5 5 5 5 5 5 5 5 5 5 5 5 5 5 5 5 5 5 5 5 5 5 5 5 5 5 5 5 5 5 5 5 5 5 5 5 3 5 5 5 5 5 3 5 5 5 5 5 5 5 5 5 3 5 3 5 5 5 3 5 3 5 5 5 5 5 5 5 5 5 5 5 5 5 5 5 5 5 5 5 5 5 5 5 5 5 5 5 5 5 5 5 5 5 5 5 5 5 5 5 5 5 5 5 5 5 5 5 5 5 5 5 5 3 5 5 3 5 3 5 5 5 5 5 5 5 5 5 5 5 5 5 5 5 5 5 5 5 5 5 5 3 5 3 5 5 5 5 5 5 5 3 5 5 5 5 5 5 5 5 5 5 5 5 5 5 5 5 5 3 5 5 3 5 5 5 5 5 5 5 5 5 5 3 5 5 5 5 5 5 5 5 5 5 3 5 3 5 3 3 5 5 5 5 3 5 5 5 5 5 3 5 5 5 5 5 5 5 5 5 3 5 5 3 5 3 5 5 5 5 5 5 5 5 5 5 5 5 3 5 5 5 3 5 5 5 5 5 3 5 5 3 5 5 5 5 3 5 3 5 5 5 5 5 5 5 5 5 5 5 5 3 5 5 5 5 5 3 5 5 3 5 5 3 5 5 5 5 5 5 3 5 5 5 5 3 5 3 5 3 5 5 5 5 5 5 5 5 5 5 5 5 5 5 3 5 5 5 5 5 5 5 5 5 5 5 5 5 5 5 5 5 5 5 5 5 5 5 5 5 5 5 5 5 5 5 5 5 5 5 5 5 5 5 5 5 5 5 5 5 5 5 5 5 5 5 5 5 5 5 5 5 5 5 5 5 5 5 5 5 5 5 5 5 3 3 5 5 5 5 3 5 5 3 5 5 5 5 5 3 5 5 5 5 5 5 3 5 3 5 5 5 5 3 5 5 5 3 5 3 5 5 5 5 5 5 5 3 5 5 5 3 5 5 5 5 5 5 5 5 5 5 5 5 5 5 5 5 5 5 5 5 5 5 5 3 5 5 5 5 5 5 3 5 5 5 5 3 5 3 5 5 5 5 5 5 5 5 5 5 5 5 5 3 5 5 5 5 5 5 5 5 5 5 5 5 5 5 5 5 5 5 5 5 5 5 5 5 5 5 5 5 5 5 5 5 5 3 5 5 3 5 3 5 5 5 5 3 5 5 5 5 3 5 5 5 5 5 3 5 5 5 5 5 3 5 5 3 5 5 5 5 5 5 5 3 5 5 3 5 5 5 5 3 5 5 5 5 5 5 5 5 5 5 5 5 5 5 5 5 5 5 5 5 5 5 5 5 5 5 5 5 5 5 5 5 5 5 5 5 5 5 5 5 5 5 5 3 5 5 5 5 5 5 5 5 5 5 5 5 5 5 3 5 5 5 5 5 5 5 3 5 5 5 5 5 3 5 5 5 5 3 5 5 5 5 5 5 3 5 5 3 5 5 3 5 3 5 3 5 5 5 5 3 3 5 5 3 5 5 5 3 5 5 5 3 5 5 5 5 5 5 5 5 5 5 5 5 5 5 5 3 5 5 5 5 5 5 5 5 5 3 5 5 5 5 5 5 3 3 5 5 5 5 5 5 5 5 3 5 5 5 5 5 3 5 5 5 3 5 5 5 3 5 5 5 5 5 5 5 5 5 5 5 5 5 5 5 5 5 3 5 5 5 5 5 5 5 5 3 5 5 5 5 5 5 5 5 5 3 5 5 5 5 5 5 5 5 3 5 5 5 5 3 5 5 5 5 5 5 5 5 5 5 3 5 5 5 3 3 5 3 5 5 5 3 3 3 5 5 5 5 5 5 5 3 5 5 5 3 3 5 5 3 3 5 5 5 3 5 5 5 5 5 3 5 5 5 5 5 5 5 5 5 5 3 5 5 5 5 5 5 5 5 5 5 5 5 5 5 5 5 5 5 5 5 3 5 5 5 5 3 5 5 5 5 5 5 5 5 5 5 5 5 5 3 5 5 5 5 5 5 5 3 5 5 5 5 5 5 5 5 5 5 5 5 5 5 5 5 5 5 3 5 5 5 5 5 5 3 5 5 5 5 5 5 5 3 5 5 5 5 3 5 5 5 5 5 3 5 5 5 3 5 5 3 5 5 5 5 3 5 3 5 5 5 5 5 5 5 5 5 5 5 5 3 5 5 5 5 5 5 5 5 5 3 5 5 5 5 5 5 3 5 5 5 5 5 5 5 5 5 3 5 3 5 5 5 5 5 3 3 5 5 5 5 5 5 5 5 5 5 5 5 5 5 5 5 5 5 5 5 5 5 3 5 5 5 5 5 5 5 5 5 5 5 5 5 5 5 5 5 5 5 5 5 5 5 5 5 5 5 5 5 5 5 5 5 5 5 5 5 5 5 5 5 5 5 5 5 5 5 5 5 5 5 5 5 5 5 5 5 5 5 5 3 5 3 5 5 5 5 5 5 5 5 5 5 5 5 5 3 5 5 5 5 3 5 5 5 5 5 5 5 5 5 5 5 5 5 5 5 5 5 5 5 5 3 5 5 5 5 5 5 5 5 5 5 5 5 5 5 5 5 5 5 5 5 5 5 5 5 5 5 5 5 5 5 5 5 5 5 5 5 5 5 5 5 5 5 5 3 5 5 5 5 5 5 5 5 5 3 3 3 3 5 5 5 5 5 5 5 5 5 5 5 5 5 5 5 3 5 5 5 5 5 5 5 5 5 3 5 5 5 5 5 5 5 3 5 5 5 5 5 5 3 5 5 5 5 3 5 5 5 5 5 3 5 5 5 5 5 5 5 3 5 5 5 5 5 5 5 5 5 3 5 5 3 3 5 5 5 5 3 5 5 3 5 5 5 5 5 3 3 5 5 5 5 5 5 5 5 5 5 5 5 5 5 5 5 5 5 5 5 5 5 5 5 5 5 5 5 5 5 5 5 5 5 5 5 5 5 5 5 5 5 5 5 5 5 5 5 5 5 5 5 5 5 5 5 5 5 5 5 5 5 5 5 5 5 5 5 5 5 5 5 5 5 5 5 5 5 5 5 3 5 5 5 5 5 5 5 3 3 5 3 5 5 5 5 5 5 5 3 5 5 5 5 5 5 5 5 5 5 3 5 5 3 5 5 5 5 5 5 5 5 5 5 5 3 5 5 5 5 5 5 5 5 5 5 5 5 5 3 3 5 5 5 5 5 5 5 5 5 5 5 5 5 5 5 5 5 5 5 5 5 5 5 5 5 5 5 5 5 5 5 5 5 5 5 5 5 5 5 5 5 3 5 5 5 5 5 3 5 5 5 5 5 5 5 5 5 5 5 5 5 5 5 5 3 3 5 5 5 5 5 3 5 5 5 5 3 5 5 5 5 5 5 3 5 3 5 5 5 5 5 5 5 5 5 3 5 5 5 5 5 3 5 5 3 5 5 5 5 5 5 5 5 5 3 5 3 5 3 5 5 5 3 5 5 3 5 3 3 5 3 5 3 5 5 5 5 5 5 5 5 3 5 5 3 5 5 5 5 5 5 3 3 5 3 5 5 5 3 5 5 5 5 3 5 3 5 5 5 5 3 3 5 5 5 5 5 5 5 5 5 5 5 5 5 5 5 5 5 5 5 3 3 3 3 5 5 3 5 3 5 5 5 3 5 3 5 3 3 3 5 5 5 5 5 3 5 5 5 5 5 3 5 3 5 5 3 5 3 5 3 5 5 5 5 3 5 5 3 5 5 5 3 3 3 3 5 3 5 3 5 5 5 3 3 3 5 3 5 3 5 5 3 3 5 5 3 5 5 3 5 3 5 5 5 5 5 3 5 3 5 3 3 5 5 3 5 3 3 5 5 5 3 5 3 5 5 5 3 5 5 5 5 3 5 3 5 5 5 5 5 5 5 5 5 3 3 5 3 5 3 5 5 3 5 5 5 5 5 5 5 5 5 5 5 5 5 5 5 5 3 3 5 5 5 5 5 5 5 5 5 5 5 5 5 5 5 5 5 5 5 5 5 5 5 5 5 5 5 3 5 5 3 5 5 5 5 5 5 3 5 5 5 3 3 5 3 5 5 3 5 5 3 5 5 3 5 3 5 5 5 5 5 5 3 5 5 5 5 5 5 5 5 5 3 5 5 5 5 5 5 3 3 5 5 5 5 3 5 5 5 5 5 5 5 5 3 5 3 5 3 5 5 5 5 5 5 5 3 5 3 3 5 5 5 5 5 5 5 5 3 5 5 5 5 3 5 3 5 5 3 5 5 3 5 5 5 5 5 5 5 5 5 5 5 5 5 5 5 5 3 5 5 5 3 5 5 5 5 5 5 5 5 5 5 5 3 5 5 5 5 3 3 5 5 5 5 5 3 5 5 5 3 5 5 5 5 5 3 5 5 5 5 5 5 5 3 5 3 3 5 3 5 5 5 5 3 3 5 5 5 3 5 3 5 3 5 5 5 3 5 5 5 3 5 5 3 5 3 3 3 5 5 3 5 3 5 3 5 5 3 3 5 5 5 3 5 5 3 5 5 5 5 5 5 5 3 5 5 5 5 5 5 5 5 5 5 5 5 5 5 5 5 5 5 5 5 5 3 5 5 3 5 5 5 5 3 5 3 5 5 5 5 5 5 5 5 5 5 5 5 5 5 5 5 5 5 5 5 5 5 5 5 5 5 5 5 5 3 5 5 5 5 5 5 3 5 5 5 5 5 5 5 5 5 5 5 5 5 5 5 3 5 5 5 3 5 3 5 5 3 5 5 5 5 3 5 5 3 5 3 3 3 5 5 5 3 5 5 3 5 3 5 5 5 5 5 5 5 5 5 5 5 5 5 3 5 5 5 5 5 5 5 5 5 5 5 5 5 5 5 5 5 5 5 5 5 5 5 5 5 5 3 5 3 5 5 5 5 5 3 5 5 5 5 5 5 5 5 5 5 5 5 5 5 5 3 5 3 5 5 3 5 5 5 5 5 5 5 5 5 5 5 5 5 5 5 5 5 5 5 3 5 5 5 5 5 5 5 5 3 5 3 5 5 5 5 3 3 5 5 5 5 5 3 3 5 5 5 5 5 3 3 5 5 5 5 5 5 3 5 5 5 5 5 5 5 5 5 5 5 5 3 5 5 5 5 5 5 5 5 5 5 5 5 5 5 5 5 5 5 5 5 5 5 3 5 5 3 5 3 5 5 5 5 3 5 5 5 5 5 5 5 5 5 5 5 5 5 5 5 5 5 5 5 5 5 5 5 5 5 5 5 5 3 5 5 3 5 5 5 3 5 5 5 5 5 3 5 5 5 5 3 5 5 5 5 5 5 5 5 5 5 5 5 5 5 5 5 5 5 5 5 5 5 5 5 5 5 3 5 5 5 3 5 3 5 3 3 5 5 5 3 5 3 3 5 5 5 3 5 5 3 5 5 5 5 5 5 3 5 5 5 5 5 5 5 5 5 3 5 5 5 5 5 3 5 5 5 5 5 5 5 5 5 3 5 5 3 5 3 5 5 5 5 5 5 5 5 5 5 5 3 5 5 5 5 5 5 3 5 5 5 5 3 3 5 3 5 5 5 3 3 5 3 5 5 3 5 5 5 5 5 5 5 5 5 5 5 5 5 5 5 5 5 5 5 5 5 5 5 5 5 5 5 5 5 5 5 5 5 5 5 5 5 5 5 5 5 5 5 5 5 5 5 5 5 5 5 5 5 5 5 5 5 5 5 5 5 5 5 5 5 5 3 5 5 5 5 5 5 5 5 5 5 5 5 5 5 5 5 3 5 5 5 5 5 5 3 5 3 3 5 5 5 5 3 5 3 5 5 5 5 3 5 5 5 3 5 3 5 5 5 5 5 3 5 3 5 5 5 3 5 5 5 5 5 5 5 5 3 5 5 5 5 3 3 5 5 5 5 3 3 5 5 5 5 5 5 5 5 3 3 5 3 5 5 5 5 3 5 5 5 3 5 5 5 5 5 5 5 5 5 5 5 5 3 5 5 5 5 5 5 5 5 5 5 5 5 5 3 5 5 5 5 5 5 5 3 5 5 5 5 5 5 5 5 5 5 5 5 5 3 5 5 5 5 5 5 5 5 5 5 5 5 5 3 5 3 5 5 5 5 5 5 5 5 5 5 5 5 5 5 5 5 5 5 5 5 5 5 5 5 5 5 5 5 5 5 5 5 5 5 5 5 5 5 5 5 5 5 5 5 5 5 5 5 5 5 5 5 5 5 5 5 5 5 5 5 5 5 5 5 5 5 5 5 5 5 5 5 5 5 5 5 5 5 5 5 5 5 5 5 5 5 5 5 5 5 5 5 5 5 5 5 5 5 5 5 5 5 5 5 5 5 5 5 5 5 5 5 5 5 5 5 5 5 5 5 5 5 5 3 5 5 5 5 5 5 3 5 5 5 5 5 3 5 5 5 5 5 3 5 5 3 5 5 5 3 5 5 5 5 5 3 5 5 5 5 5 5 5 3 5 5 5 5 5 5 5 5 5 5 5 5 5 5 5 5 5 5 5 3 5 5 5 5 5 5 5 3 5 5 5 5 5 5 3 5 3 5 5 5 3 5 5 3 5 5 5 5 5 5 5 5 5 5 3 5 5 5 5 5 5 5 5 5 5 5 5 5 5 5 3 5 5 3 5 5 5 5 5 5 5 5 5 5 5 5 5 5 5 5 3 5 5 5 5 5 5 5 5 5 5 5 5 5 5 5 3 5 5 5 5 5 5 5 5 3 5 5 5 5 5 5 5 5 5 5 5 3 5 5 5 5 5 3 5 5 5 5 5 5 5 5 3 5 5 5 5 3 5 5 3 5 5 5 5 5 5 5 3 5 5 3 5 5 3 5 5 5 5 5 5 5 5 5 5 5 5 5 3 5 5 5 5 5 5 5 5 5 5 5 5 3 5 5 3 5 5 3 5 5 5 3 5 5 5 5 5 5 5 5 5 5 5 3 5 5 5 5 5 5 5 5 5 5 5 3 5 5 5 5 5 5 5 5 5 5 5 5 5 5 5 5 5 5 5 3 5 5 5 5 5 5 5 5 5 5 5 3 5 3 5 3 5 5 5 5 3 5 5 5 5 5 5 5 5 5 5 5 5 5 5 5 5 5 5 5 5 5 5 5 5 5 5 5 5 3 5 5 5 5 3 5 5 5 3 5 5 5 3 5 5 5 5 3 5 3 5 5 3 3 5 5 5 3 5 3 5 5 3 5 3 5 5 5 3 5 5 3 5 3 5 5 5 3 5 3 5 5 3 3 5 5 5 3 3 5 5 3 5 5 5 5 5 5 5 5 5 5 5 3 3 5 5 5 5 5 5 3 5 3 5 3 5 5 3 5 5 3 5 3 5 5 5 5 5 5 5 5 5 5 5 5 5 5 5 5 5 5 5 3 5 5 5 5 5 5 5 5 5 5 5 5 5 5 5 5 5 5 5 5 5 5 5 5 5 5 5 5 5 5 5 5 3 3 5 5 5 3 5 3 5 3 5 3 5 5 5 5 3 5 5 5 5 5 5 5 3 5 5 5 5 5 5 5 5 5 5 5 5 5 5 5 3 5 5 5 5 5 3 5 5 5 5 5 5 5 3 5 5 5 5 3 5 5 5 5 5 3 5 5 5 3 5 3 5 5 5 3 5 3 5 3 5 5 3 5 5 5 3 5 5 5 5 5 3 5 5 5 3 5 5 3 5 5 3 5 5 5 5 5 5 5 5 5 5 5 5 5 5 5 5 3 5 5 3 5 5 5 5 3 5 5 5 5 5 5 5 5 5 5 5 5 5 5 5 5 5 5 3 3 5 5 5 5 5 5 5 5 5 5 5 5 5 3 5 3 5 3 3 3 5 5 5 5 5 5 5 5 5 3 5 5 3 5 5 5 5 5 5 3 5 5 5 3 5 5 3 5 5 5 5 5 5 3 3 5 5 5 5 3 5 5 3 3 5 5 5 5 5 5 5 3 3 5 5 5 5 5 3 5 3 5 5 3 5 5 3 3 5 3 5 5 5 5 3 3 5 5 5 5 3 5 5 3 5 5 3 5 5 3 5 5 5 5 5 5 5 5 5 5 5 5 5 5 5 5 5 5 5 5 5 3 5 3 3 5 5 3 5 5 5 5 5 5 5 5 5 3 5 5 5 5 5 5 5 3 5 5 5 5 5 5 5 5 5 5 5 5 5 5 5 3 5 5 5 5 5 3 3 5 5 3 3 3 5 5 5 5 5 5 3 5 3 5 5 5 5 5 5 3 5 3 5 5 5 3 5 5 5 5 5 5 5 5 5 5 3 5 5 5 5 5 5 5 5 5 5 5 5 5 5 5 5 5 5 5 5 5 5 5 5 3 5 5 5 5 5 5 5 3 3 5 5 3 3 5 5 5 5 5 5 5 5 5 5 5 5 5 5 5 5 5 5 5 5 5 5 5 5 5 5 3 5 5 5 3 5 5 3 5 5 5 5 5 5 5 5 5 5 5 5 5 5 5 5 5 5 5 5 5 5 5 5 5 5 5 5 5 5 5 5 5 5 5 5 5 5 5 5 5 5 5 5 5 5 5 5 5 5 5 3 5 5 5 5 5 5 5 5 5 5 5 3 3 5 5 5 3 5 5 5 5 5 5 5 5 5 3 5 5 5 5 3 5 5 5 5 5 5 5 5 3 3 5 5 5 5 3 5 5 5 5 5 5 3 5 5 5 5 5 3 5 5 5 3 5 5 3 5 5 3 5 5 5 5 5 5 3 5 5 5 5 5 5 5 5 5 5 5 5 5 5 5 5 5 5 5 5 5 5 5 5 5 5 5 5 5 5 5 5 5 5 5 5 5 5 5 5 5 5 5 5 5 5 5 5 5 5 5 3 5 5 5 5 5 3 5 5 5 5 3 5 5 5 5 5 5 5 5 5 5 3 3 5 5 5 5 3 5 3 5 5 5 5 5 5 5 5 5 5 5 5 5 5 5 5 5 5 5 5 5 5 5 3 5 5 5 5 5 5 5 3 5 5 5 3 5 3 5 5 5 5 5 5 5 5 5 5 5 5 5 5 5 5 5 5 5 5 5 5 5 5 5 5 5 3 5 5 5 5 5 5 5 5 5 5 5 5 5 5 5 3 5 3 5 5 5 5 3 5 5 5 5 3 5 5 5 5 5 5 5 5 5 3 5 5 5 5 5 5 5 5 3 5 5 3 5 5 3 5 5 5 5 5 5 5 5 5 3 5 5 5 5 5 5 5 5 5 5 3 5 5 5 5 3 5 5 5 5 5 5 5 5 5 5 5 5 5 5 5 5 5 5 5 5 3 5 3 5 5 5 5 5 5 5 5 5 5 5 3 5 5 3 3 5 5 5 3 5 5 3 5 5 5 5 5 5 3 5 5 3 5 3 5 5 5 5 5 5 5 3 5 3 5 3 3 5 5 5 5 5 3 3 3 5 5 5 5 3 3 5 5 5 5 3 5 5 3 5 5 3 5 5 5 5 5 5 5 5 5 5 5 5 5 5 5 5 3 3 5 5 3 5 5 5 5 3 5 5 5 5 3 5 3 5 5 5 5 5 5 5 3 3 5 5 5 5 3 5 3 3 5 5 5 5 5 5 5 5 5 5 5 5 5 5 5 5 5 5 5 5 5 5 3 5 3 5 5 3 5 5 3 3 5 5 5 5 5 5 5 5 5 3 5 5 3 3 3 5 3 5 5 5 3 3 5 5 5 3 3 5 5 5 3 3 5 3 5 3 5 5 5 3 5 3 5 5 5 3 5 5 5 5 5 5 5 5 5 5 5 3 3 5 5 3 5 5 5 3 5 3 5 5 5 3 5 5 5 5 5 5 5 5 5 5 3 5 5 5 5 5 5 3 5 5 3 5 5 5 5 5 5 5 5 5 5 5 3 5 5 5 5 5 5 5 5 5 5 5 3 3 5 3 5 5 5 5 3 3 5 5 5 5 5 5 3 5 5 5 5 5 5 3 5 5 5 3 5 3 5 5 5 5 3 5 5 3 3 5 5 3 5 5 3 5 5 5 3 5 5 5 5 5 5 5 3 3 5 5 5 5 5 5 5 5 3 3 5 5 3 5 5 5 5 5 5 3 5 5 5 5 5 5 5 5 3 5 3 5 5 5 5 3 5 5 5 5 5 5 5 5 5 5 5 3 5 3 3 5 5 3 5 5 5 5 5 3 5 3 5 5 5 5 3 5 5 5 5 5 5 5 5 5 5 3 5 5 5 5 5 5 5 5 5 5 5 5 3 5 5 5 5 3 5 5 3 5 5 5 5 5 5 5 5 5 5 5 5 5 5 3 5 5 5 5 5 5 5 5 5 5 5 5 3 5 5 5 5 5 5 3 5 5 5 5 3 3 5 5 3 5 5 3 5 5 5 5 3 5 5 5 5 5 3 5 5 5 3 5 5 5 5 5 3 5 3 5 3 3 3 5 5 5 5 5 5 5 5 3 5 5 3 5 5 5 5 5 5 5 5 5 3 5 5 5 5 5 5 5 5 5 5 5 5 5 5 5 5 5 5 5 5 5 5 5 5 5 5 5 5 5 5 3 5 3 5 5 5 3 5 5 3 5 3 3 5 3 5 3 5 5 5 5 5 5 5 5 3 5 3 5 5 3 5 3 5 3 5 5 5 5 5 5 5 5 3 3 5 5 5 3 5 3 5 3 3 5 5 5 5 5 5 5 5 5 3 5 5 3 5 5 5 5 5 5 5 5 3 5 5 3 5 5 5 5 5 5 5 5 3 5 3 5 5 5 5 5 5 5 3 5 5 5 5 5 5 5 5 5 5 3 5 5 3 3 5 3 3 3 5 5 3 5 5 3 5 5 5 5 3 5 5 5 5 5 5 5 5 5 5 5 5 5 5 5 5 5 5 5 5 5 5 5 3 5 5 5 3 5 5 5 5 3 5 5 5 5 5 5 5 5 5 5 5 3 5 5 5 5 5 5 5 5 5 5 5 5 5 5 5 5 3 5 5 5 3 5 5 5 5 5 3 5 5 5 5 3 5 5 5 5 5 5 3 5 5 5 5 5 3 5 5 3 5 5 5 3 5 5 5 3 5 5 5 3 5 5 5 5 5 5 5 3 5 5 5 5 5 3 5 5 5 3 5 5 5 5 5 3 3 5 5 5 5 5 5 5 5 3 3 5 5 5 3 5 3 5 5 5 5 5 5 5 3 5 3 5 5 5 5 3 5 3 5 3 5 5 5 5 5 5 3 5 5 5 3 5 5 5 5 5 3 5 5 5 5 5 5 5 5 5 5 5 5 5 5 5 5 5 5 5 5 5 5 3 5 3 5 5 3 5 5 5 5 5 5 3 5 5 3 5 5 5 5 5 5 5 5 5 5 5 5 5 5 5 5 5 5 5 5 5 5 5 5 3 5 5 5 5 3 5 5 5 5 5 5 5 5 5 5 5 5 5 3 5 3 5 5 5 5 5 3 5 5 5 5 5 5 5 5 5 5 5 5 5 5 5 5 5 5 5 5 3 3 5 5 5 5 5 5 5 5 5 5 5 5 5 3 5 5 5 5 5 5 5 5 5 5 5 5 5 5 5 5 5 5 3 5 5 5 5 5 5 5 5 5 5 5 5 5 5 5 5 5 5 5 5 5 3 5 5 5 5 5 3 5 5 5 5 5 5 5 5 5 5 3 5 3 5 5 5 5 5 5 5 5 5 5 5 3 5 5 3 5 5 5 5 5 5 3 3 5 5 5 3 5 5 5 5 5 5 5 5 5 5 5 5 5 5 5 5 5 5 5 5 5 5 5 5 5 5 5 5 5 5 5 5 5 5 5 5 5 5 5 3 5 5 5 5 5 5 5 5 5 5 5 5 5 5 5 5 5 5 5 5 5 5 5 5 5 5 5 3 5 5 3 5 5 5 5 3 5 5 5 3 5 5 5 5 5 5 5 5 5 5 5 5 5 5 5 3 5 5 3 5 5 5 5 5 5 5 5 3 5 5 5 5 5 5 5 3 5 5 5 5 5 5 5 5 5 5 5 5 5 5 5 5 5 5 5 5 5 5 5 5 5 5 3 5 5 5 5 5 5 5 5 5 5 5 5 5 5 3 5 5 5 5 3 5 5 5 5 5 5 5 5 5 5 5 5 5 5 5 5 5 5 5 5 5 5 5 5 5 5 5 5 3 5 5 5 3 5 5 5 5 5 5 5 3 5 5 5 5 3 5 5 3 5 5 5 5 5 3 5 3 3 5 5 5 5 5 5 5 5 5 5 5 5 5 5 5 5 5 5 5 5 5 5 5 5 5 5 5 5 5 3 5 5 5 5 5 5 3 5 5 5 3 5 5 5 3 5 5 5 3 5 5 5 5 5 5 3 5 5 5 5 5 5 3 5 5 5 5 5 5 5 5 5 5 3 5 5 5 5 5 5 5 5 5 5 5 3 5 5 5 5 3 5 5 5 3 5 5 5 5 5 5 5 5 5 5 5 5 5 5 5 5 5 5 5 5 5 5 5 5 5 5 5 5 5 5 5 5 5 5 5 5 5 5 5 5 3 3 5 5 5 5 5 5 5 5 5 3 5 3 3 5 5 5 3 3 5 5 5 5 5 5 5 5 5 5 5 3 5 5 3 3 5 5 5 5 5 5 5 5 5 5 5 5 5 5 5 5 5 5 5 5 5 5 3 5 3 5 5 5 3 3 5 5 5 5 5 3 3 3 3 5 5 5 5 5 5 5 3 5 5 5 5 5 5 5 3 5 5 3 5 5 3 5 5 5 5 5 5 5 5 5 5 5 5 5 5 5 5 5 5 3 5 5 5 5 3 5 5 5 5 5 5 5 5 5 5 5 5 5 5 5 5 5 5 5 5 3 5 5 5 3 5 5 5 5 5 5 5 5 5 5 5 5 5 3 3 5 3 5 5 5 5 3 5 5 5 5 3 5 5 5 5 5 5 5 3 5 5 5 3 5 5 5 5 5 5 5 5 5 3 3 5 5 5 3 5 5 5 5 3 5 5 3 3 5 3 5 3 5 3 5 5 5 3 5 5 5 5 5 5 5 5 5 3 5 5 5 5 3 5 3 5 5 3 5 5 5 5 5 5 5 5 5 5 5 5 5 5 5 5 3 5 5 5 5 5 5 3 5 5 3 5 5 5 5 5 5 5 5 5 5 5 5 3 5 5 5 3 5 3 5 3 5 5 5 5 3 5 5 5 5 5 5 5 3 3 5 5 5 5 5 5 5 5 5 5 5 5 5 5 5 5 5 5 5 5 5 5 5 5 5 3 5 5 5 5 5 5 3 5 5 5 5 5 5 3 5 5 5 5 5 5 5 5 5 5 5 5 5 5 3 3 3 5 5 5 5 5 5 5 5 3 5 5 5 5 3 5 5 5 5 3 5 5 5 5 5 5 3 5 5 5 3 5 5 5 5 5 5 5 5 5 5 5 5 5 5 5 5 5 5 5 5 5 5 5 5 5 5 3 5 5 5 5 3 5 5 5 5 5 5 5 3 5 5 5 5 3 5 5 5 5 5 5 5 5 5 5 3 5 5 3 5 5 5 5 5 5 5 5 5 5 5 5 5 5 5 5 5 3 5 5 5 5 5 5 5 5 5 5 5 5 5 5 5 3 5 5 3 5 5 5 5 5 5 5 5 5 5 5 5 5 5 5 5 5 5 5 5 5 3 5 5 3 5 5 5 5 5 5 5 5 5 3 5 5 5 3 5 5 5 5 5 5 5 5 5 5 5 5 5 5 5 5 5 5 5 3 5 5 5 5 3 5 5 5 5 5 5 5 5 5 5 5 5 3 5 5 5 5 5 5 5 5 5 5 5 5 5 5 5 5 5 5 5 5 5 5 5 5 5 5 5 5 5 5 5 5 5 5 5 5 5 5 5 3 3 5 5 5 5 5 5 5 5 5 3 5 5 5 5 5 5 5 5 5 5 5 3 5 5 5 5 5 3 3 5 5 5 5 3 5 5 5 3 5 5 5 5 5 5 5 5 5 3 5 5 5 5 5 5 5 5 3 3 3 5 5 3 5 5 5 5 5 5 5 5 5 5 5 5 3 5 5 5 5 5 5 5 5 5 5 5 5 3 5 5 5 5 5 5 5 3 5 5 5 5 5 5 5 5 5 5 5 5 3 5 3 5 5 5 5 5 3 5 5 5 5 5 5 5 3 5 5 5 5 5 5 5 5 5 3 5 5 3 5 5 5 5 5 5 5 5 5 5 5 5 5 5 5 5 5 3 5 5 3 5 5 5 5 5 5 5 5 5 5 5 5 5 5 5 5 5 5 5 5 5 5 5 5 5 5 5 3 5 3 5 5 5 5 5 5 5 5 5 5 3 5 5 5 5 5 5 5 5 5 5 5 5 5 5 5 5 5 5 5 5 5 5 5 5 5 5 5 5 5 5 5 5 5 5 5 5 5 5 5 5 5 5 5 5 5 3 5 5 3 5 5 3 5 5 5 5 5 3 5 5 5 5 5 5 3 5 5 3 5 5 3 3 3 5 3 3 5 5 5 5 5 3 5 5 5 3 5 5 5 5 5 3 5 3 5 5 5 5 5 3 5 5 5 5 3 5 3 5 5 5 5 5 3 5 3 5 3 5 5 5 3 5 5 5 5 3 5 5 5 5 5 5 5 5 5 5 5 5 5 5 5 5 5 5 5 5 5 5 5 3 5 5 3 5 5 5 5 3 5 5 5 5 5 5 3 5 3 5 5 5 5 5 5 5 5 5 3 3 3 5 5 3 5 5 5 5 5 5 5 5 5 5 3 3 3 5 5 5 5 5 5 5 3 5 3 5 3 5 5 5 5 3 5 5 5 3 5 5 5 5 3 5 5 3 5 5 5 5 5 5 5 5 3 5 5 5 5 3 5 5 3 5 5 5 5 5 3 5 5 5 5 5 5 5 5 5 5 5 5 5 5 5 5 5 5 5 5 5 5 5 3 5 3 5 5 5 5 3 5 5 5 3 5 3 5 5 5 5 5 5 5 5 5 3 5 3 3 5 5 5 3 5 5 5 5 5 5 5 5 5 5 5 5 5 5 5 5 5 3 5 3 5 5 5 5 5 5 5 5 5 5 5 5 5 5 5 5 5 5 5 5 5 5 5 5 5 5 5 5 5 5 5 5 5 5 5 5 5 5 5 5 5 5 5 5 3 5 5 5 5 5 5 5 5 5 5 3 5 5 5 3 5 5 5 5 5 5 5 5 3 5 5 5 3 5 5 3 5 5 5 5 5 5 5 5 3 5 5 5 5 3 5 5 5 5 5 5 5 5 3 5 5 5 5 5 5 5 5 5 5 5 5 3 3 3 5 5 5 3 5 5 3 3 5 3 5 3 5 5 5 5 3 5 5 5 5 5 5 3 5 3 5 5 5 3 5 5 5 5 3 3 5 5 5 5 5 3 5 5 5 3 5 3 3 5 5 5 5 5 3 5 5 3 5 5 3 5 5 5 5 5 5 5 5 5 5 5 5 5 5 5 5 5 5 5 5 5 3 5 3 5 5 5 5 5 5 3 5 5 5 5 5 5 5 3 5 5 5 5 5 5 5 5 5 5 5 5 5 5 5 5 5 3 5 5 3 5 5 5 5 5 5 5 5 5 5 5 5 5 5 3 5 5 3 5 5 5 5 5 3 5 3 5 5 5 3 5 5 5 5 5 5 3 5 5 5 5 3 5 5 5 5 5 3 5 5 5 5 5 5 5 5 5 5 5 5 3 5 3 5 5 5 5 5 3 5 5 5 5 5 5 5 5 5 5 3 5 5 5 5 5 5 5 5 5 5 5 5 3 5 5 5 5 3 5 5 5 5 5 5 5 5 5 3 5 3 5 5 5 5 5 5 5 3 5 3 5 3 5 5 5 5 5 5 3 5 5 5 5 5 5 5 5 5 3 5 5 5 3 5 3 5 5 5 5 3 5 5 3 5 5 5 5 5 3 5 5 5 5 5 5 5 5 5 5 5 5 5 5 3 5 5 5 5 5 5 5 5 5 5 5 3 5 5 5 5 3 5 3 5 5 5 3 5 5 3 5 3 5 5 5 5 5 5 5 3 5 5 5 5 5 5 5 5 5 5 5 5 5 5 5 5 5 5 5 5 3 5 5 3 5 3 5 5 3 5 5 5 3 3 5 5 5 5 3 3 5 5 5 3 3 5 3 5 5 3 5 5 5 5 3 5 5 5 5 5 5 5 3 5 5 5 3 3 3 5 5 5 3 3 3 5 5 5 5 3 5 5 5 5 5 3 5 5 5 5 5 5 5 5 5 3 5 5 5 5 3 3 5 5 5 5 5 5 5 5 3 5 5 5 5 5 3 5 5 3 3 5 5 5 5 3 3 5 5 3 5 5 5 5 5 5 5 5 3 5 5 5 5 5 5 5 5 3 5 5 5 3 5 5 5 5 5 5 3 5 3 5 3 5 5 3 5 5 5 5 5 3 3 5 5 5 5 3 5 5 5 5 5 3 3 5 5 3 5 3 5 5 3 5 3 5 5 5 5 5 5 3 5 3 5 5 5 3 5 5 5 3 5 5 5 5 5 5 5 5 5 5 5 5 3 5 5 5 5 5 5 5 5 5 5 5 3 5 5 5 5 5 5 5 5 5 5 5 5 5 5 5 5 3 5 5 5 5 3 5 5 3 5 5 5 5 5 5 5 3 5 5 3 5 5 5 3 5 5 5 5 5 3 5 3 5 3 5 5 5 5 3 3 3 5 3 5 5 5 5 5 5 5 5 5 5 3 5 5 3 3 5 5 3 3 5 5 5 5 3 5 5 5 3 3 5 5 3 5 3 5 3 5 5 5 3 5 5 5 5 5 3 5 5 5 5 5 5 3 3 5 5 5 5 5 5 5 5 5 5 5 5 5 3 5 5 5 5 5 3 5 5 5 5 5 5 5 5 3 5 5 3 5 3 5 5 5 5 5 5 5 5 3 5 3 5 5 5 3 3 5 5 3 3 5 3 5 3 3 5 3 5 5 3 5 5 3 5 5 5 5 3 5 5 3 5 5 5 5 5 5 5 5 5 3 5 5 5 5 5 5 5 5 3 5 5 3 5 5 5 5 3 5 5 5 5 5 5 5 5 3 3 5 5 5 3 5 3 5 3 5 5 5 5 5 5 5 5 5 3 5 5 5 3 5 5 5 3 5 5 3 5 5 5 5 5 3 3 5 3 5 5 5 5 5 5 5 5 5 5 5 5 3 5 5 3 5 3 5 5 5 5 3 5 3 5 3 5 5 5 5 5 3 5 5 3 5 5 5 3 5 3 5 5 3 5 5 3 5 5 5 5 3 5 3 5 3 5 5 3 3 3 5 5 5 5 5 5 5 5 5 5 5 5 5 5 5 5 5 3 5 5 5 5 5 5 5 5 5 5 3 5 5 5 5 5 5 5 5 5 5 5 5 5 5 5 5 5 5 5 5 5 5 5 5 5 5 5 5 5 5 5 5 5 5 5 5 5 5 5 5 5 5 5 5 3 5 5 5 5 5 5 5 3 5 5 5 5 5 5 5 3 5 5 3 5 5 5 5 5 5 5 3 5 5 3 5 3 5 5 5 3 5 5 5 5 5 5 5 5 5 5 5 5 5 3 5 5 5 3 3 5 3 5 5 5 5 5 5 5 5 5 5 5 5 5 5 5 5 5 5 5 3 5 5 3 5 5 5 5 3 5 5 5 5 5 5 5 3 5 5 5 5 3 5 5 3 5 5 3 5 5 5 3 5 5 5 3 5 5 5 5 5 5 5 5 5 5 5 5 3 5 5 3 5 5 3 5 5 5 3 5 5 3 5 5 5 5 3 5 5 5 5 3 5 3 3 5 3 3 5 5 5 5 3 5 5 5 3 5 5 3 5 5 5 5 3 5 5 5 5 5 3 5 5 3 5 3 3 5 5 5 3 5 3 5 5 5 5 5 3 3 5 3 5 5 5 5 5 5 5 5 5 5 5 5 5 5 5 3 5 5 3 3 5 3 5 5 5 5 5 5 5 5 5 3 5 5 5 5 5 5 5 5 5 5 5 5 3 5 3 5 5 5 5 5 3 5 3 5 3 5 5 5 3 5 5 5 5 3 5 5 3 5 3 5 5 3 5 5 3 5 5 3 5 5 5 5 5 5 5 5 5 5 5 3 5 5 5 3 5 3 5 5 5 5 5 3 5 5 5 3 5 5 5 5 5 5 5 5 3 5 5 5 5 5 3 5 5 5 5 5 5 5 5 5 5 5 5 5 5 5 5 5 5 5 5 3 5 5 5 3 5 5 5 5 5 3 5 5 3 5 5 5 3 5 5 5 5 5 5 5 3 3 5 5 5 5 5 3 5 5 3 5 5 5 5 3 5 5 5 5 3 5 5 5 5 5 5 5 5 5 5 5 5 5 5 5 5 5 5 5 5 5 5 5 5 5 5 5 5 3 5 5 5 5 3 5 5 5 5 5 5 3 5 5 5 5 3 5 5 3 5 5 5 5 5 3 5 5 5 3 5 5 5 3 5 3 5 5 5 5 5 5 5 3 5 3 5 5 5 3 5 5 3 5 3 5 5 5 5 5 3 5 5 5 5 5 5 5 3 5 5 5 3 5 3 5 3 5 3 5 3 5 5 5 5 5 5 5 5 5 5 5 3 5 5 5 5 3 5 5 5 5 3 5 5 5 5 5 5 5 5 5 5 5 5 5 5 5 3 5 3 5 5 5 3 5 5 5 5 5 3 5 5 5 3 5 5 5 5 3 3 5 5 5 3 5 5 5 5 5 5 5 5 3 5 5 5 5 5 5 3 5 5 5 5 5 5 5 5 3 3 5 5 5 5 5 5 3 5 5 3 5 3 5 5 5 5 5 3 5 3 5 5 5 5 5 5 5 5 5 3 5 5 5 5 5 5 5 5 3 5 5 5 5 5 5 5 5 5 5 5 5 5 5 3 5 3 5 5 5 3 5 5 5 3 5 5 5 5 5 5 5 5 5 5 3 5 5 5 3 5 5 5 5 5 5 5 5 5 5 5 5 5 3 5 5 5 5 5 5 5 5 5 5 5 5 5 3 5 5 5 5 5 3 5 5 5 5 3 5 5 5 5 5 5 5 5 5 3 5 5 5 5 5 5 5 5 3 5 5 5 5 5 5 5 5 5 5 5 5 5 5 5 5 5 5 5 5 3 5 5 3 5 5 5 5 5 5 5 5 5 5 5 5 5 5 5 5 5 5 5 5 5 5 5 5 5 5 5 5 5 3 5 5 3 5 5 5 3 5 5 3 5 5 5 3 5 3 5 5 3 5 3 5 3 5 5 5 5 3 5 5 5 5 5 5 5 3 5 5 3 5 5 3 3 3 3 5 5 5 5 5 5 5 5 5 5 5 5 5 5 5 5 5 5 5 5 5 5 5 5 5 5 5 5 3 3 5 5 5 5 3 5 3 5 5 5 3 5 5 5 5 5 5 5 5 3 5 5 5 5 3 5 5 5 5 3 5 5 3 5 3 5 5 5 3 5 5 5 5 5 5 5 5 5 5 5 5 5 5 5 5 3 5 5 5 5 5 5 5 3 5 5 5 5 5 5 5 5 5 3 5 5 5 5 5 5 5 5 5 3 5 5 5 3 5 5 5 5 5 5 5 5 5 5 5 5 5 5 5 5 5 5 5 3 5 5 5 3 5 5 5 5 5 5 5 5 5 5 5 5 5 5 5 5 5 5 5 5 5 5 5 5 5 5 5 5 3 5 3 5 5 5 3 5 5 3 5 5 5 5 5 5 5 5 5 5 3 5 5 5 5 5 3 5 5 5 5 5 5 5 5 5 3 5 5 5 5 5 5 5 5 5 5 5 5 5 5 5 5 5 5 5 5 5 5 5 5 5 5 5 5 5 5 5 5 5 5 5 5 5 5 5 5 5 5 5 5 5 5 5 5 5 5 5 5 5 5 5 5 5 5 5 5 5 5 5 5 5 5 5 5 5 5 5 5 5 3 5 3 5 5 5 5 5 5 3 5 5 5 5 5 5 5 5 5 5 3 5 5 5 5 5 5 3 5 5 3 5 5 5 5 5 5 5 3 5 5 5 5 5 5 3 5 5 5 3 5 5 5 5 5 5 3 5 5 5 3 5 5 5 5 5 5 5 5 5 5 5 5 5 5 5 5 5 5 5 5 5 5 5 5 5 5 5 5 5 5 3 5 5 3 3 5 5 5 5 5 5 5 5 5 5 5 5 3 5 5 5 5 5 5 5 5 5 5 5 3 5 5 5 5 5 3 5 5 5 5 5 3 5 5 5 5 5 5 5 5 5 3 5 5 5 5 5 5 5 5 5 3 5 5 5 5 3 5 5 5 5 5 5 5 5 5 3 5 5 3 5 5 3 5 5 5 5 5 5 3 5 5 3 5 3 5 5 3 5 5 5 5 5 5 5 5 5 5 5 5 5 5 5 5 5 5 5 5 5 5 5 5 5 5 5 5 5 5 5 5 5 5 5 5 5 5 5 5 5 5 5 5 5 5 5 5 5 5 5 3 5 5 5 5 5 5 5 5 5 5 5 5 5 5 3 3 5 5 5 5 5 5 3 3 5 5 5 5 5 5 5 5 5 5 5 5 5 5 5 5 3 3 5 3 5 5 3 5 5 5 3 5 5 5 5 5 5 5 5 5 5 5 5 5 5 5 5 5 5 5 5 5 5 5 5 5 3 5 5 5 3 5 3 5 3 5 5 5 3 5 5 5 5 5 5 3 5 3 5 5 3 5 5 5 5 5 5 3 5 5 5 5 5 5 5 5 5 5 5 5 5 5 5 5 5 5 5 5 5 5 3 5 5 5 3 5 5 5 5 5 3 5 5 3 5 5 5 3 5 5 5 5 5 5 5 5 5 5 5 5 5 5 5 5 3 5 5 3 5 3 5 5 5 3 5 5 3 5 5 5 5 5 5 3 5 5 5 5 3 5 5 3 5 5 5 3 5 5 3 5 5 3 5 5 5 5 5 3 5 5 5 5 5 5 3 5 5 5 5 3 5 5 5 5 5 5 5 5 3 5 5 5 5 5 5 5 5 5 5 5 5 3 5 5 5 5 5 5 3 5 5 5 5 5 5 5 5 5 5 5 5 3 5 5 3 5 5 5 5 5 5 5 5 5 5 3 5 3 5 5 5 5 5 5 5 5 3 3 5 5 5 3 5 5 5 3 3 3 3 5 5 5 5 5 3 5 5 3 5 5 3 5 5 5 5 5 5 5 3 5 5 5 5 5 5 5 5 5 5 3 5 5 5 5 5 3 5 5 5 5 5 5 5 5 5 5 5 5 3 5 5 5 5 5 3 5 3 5 3 5 5 3 5 5 3 5 5 3 5 3 5 5 5 3 5 5 3 3 5 5 3 5 5 3 5 5 5 3 5 5 5 5 5 3 5 5 5 5 5 5 5 5 5 3 5 3 5 5 5 3 5 5 3 5 5 5 5 5 5 5 3 5 5 5 5 3 5 5 5 5 3 5 3 5 5 5 5 5 5 5 5 5 5 5 5 5 5 5 3 5 3 5 5 5 5 5 5 5 3 5 5 5 5 5 5 3 3 5 5 5 5 5 3 3 5 5 5 5 5 5 3 5 5 5 5 5 5 5 3 3 5 5 5 5 3 3 3 5 3 3 5 5 3 5 3 5 5 5 5 5 5 3 5 3 5 5 5 5 5 5 5 5 5 5 3 5 3 5 5 3 5 5 5 5 5 5 5 3 3 5 5 5 5 5 5 5 5 5 5 5 5 5 5 5 5 3 5 5 3 3 5 5 5 5 5 5 5 5 5 5 5 5 5 5 5 5 5 5 5 3 5 5 3 5 5 5 5 5 5 5 5 5 5 5 5 5 5 5 5 5 5 3 5 3 5 5 5 5 5 5 3 5 3 5 5 5 3 5 5 5 5 5 3 5 3 5 3 5 5 5 5 5 3 3 5 5 3 5 3 5 5 5 3 5 5 5 3 5 5 3 3 5 5 5 5 5 5 5 5 5 5 5 5 5 3 5 5 5 3 5 5 5 5 5 5 5 5 3 3 5 5 5 3 5 5 5 5 5 5 5 5 5 5 5 5 5 3 5 3 5 5 5 3 5 5 5 5 5 5 5 5 5 5 5 5 3 5 5 5 5 5 5 5 5 5 5 5 5 5 3 5 5 5 5 3 5 5 3 5 5 5 5 5 3 5 5 5 5 5 5 5 5 5 5 5 5 5 5 3 5 5 5 5 5 3 5 5 5 3 5 5 5 5 5 3 5 3 5 5 5 5 5 5 5 5 5 5 5 5 5 5 5 5 5 5 5 3 5 5 5 5 5 5 3 3 5 5 5 5 5 5 3 5 3 5 5 5 5 5 5 3 5 3 3 5 5 5 3 5 5 5 5 5 5 5 5 5 5 3 5 3 5 5 5 5 5 5 3 3 5 5 5 5 5 5 5 5 5 5 5 5 5 5 5 5 5 5 5 5 5 5 5 5 3 3 5 5 5 5 5 5 5 5 5 3 5 5 5 5 5 5 5 3 5 5 3 5 5 5 5 3 5 5 3 5 5 5 3 5 5 3 5 3 5 5 5 5 5 5 5 5 5 5 3 5 5 5 5 5 5 5 5 3 5 3 5 3 5 3 5 3 5 5 5 3 5 5 5 5 5 5 5 5 5 5 3 5 5 5 5 5 3 5 5 5 3 5 5 5 5 5 5 5 5 5 5 5 5 5 5 5 3 5 5 5 5 5 5 5 5 3 5 5 3 3 5 5 5 5 5 5 3 5 5 5 5 5 5 5 3 3 5 5 3 3 5 5 5 5 5 3 5 5 5 5 5 5 5 3 5 5 5 3 5 3 5 5 5 5 5 5 5 5 5 5 5 5 5 5 5 5 5 5 5 5 5 3 5 5 3 5 5 3 5 5 5 5 3 5 5 5 5 5 5 5 5 3 3 5 5 3 5 3 5 5 5 5 5 5 5 5 5 5 3 5 5 5 3 5 5 5 5 3 5 3 5 5 5 5 5 5 5 5 5 5 5 5 5 3 5 5 5 5 5 5 3 5 3 5 5 5 5 5 3 5 5 5 3 5 5 5 5 5 5 5 5 5 5 5 5 5 5 5 5 5 3 5 3 5 5 5 5 5 5 5 5 5 5 5 5 5 3 5 5 3 5 5 3 5 3 5 5 5 5 5 5 3 5 5 5 5 5 5 5 5 5 5 5 5 5 5 5 5 5 5 5 5 5 5 5 5 5 5 5 5 5 5 5 3 5 5 5 5 5 5 3 3 5 5 5 3 5 5 3 5 5 3 5 3 5 5 5 5 3 5 5 5 5 5 3 5 5 5 5 5 5 5 5 5 5 5 5 5 5 5 3 5 3 5 5 5 5 5 3 5 5 5 3 3 5 5 5 3 3 5 5 5 5 5 3 5 5 5 5 5 3 5 5 5 5 5 5 5 5 5 5 5 5 5 3 5 5 3 5 5 5 5 5 5 5 5 5 3 5 5 5 5 5 5 5 5 5 5 5 3 5 5 3 5 5 5 5 5 5 5 5 5 5 5 5 5 5 5 5 5 5 5 5 5 5 5 5 5 5 5 5 5 3 5 3 3 5 3 5 5 5 5 5 5 3 3 3 5 5 5 5 5 5 5 5 5 3 5 5 5 5 3 5 3 5 3 3 5 5 5 5 5 5 5 5 3 5 5 3 5 3 5 5 5 5 5 5 5 5 5 3 3 5 5 3 5 3 3 5 3 5 5 3 5 3 5 3 5 3 3 5 3 5 5 3 5 5 5 5 3 5 5 3 5 3 5 5 3 5 3 5 3 5 5 5 3 5 5 5 3 5 5 5 5 5 3 5 5 5 5 5 5 5 5 5 5 5 5 5 5 3 5 3 3 5 5 3 5 5 5 5 5 5 5 5 5 5 3 5 5 5 5 5 3 5 5 5 5 3 5 3 5 5 3 3 5 5 5 5 5 5 3 5 3 3 5 5 5 3 5 3 5 5 5 3 5 5 5 5 3 5 5 5 5 5 3 3 5 3 5 3 5 3 3 3 3 3 5 5 5 5 3 5 5 5 5 5 5 5 3 5 3 5 5 3 5 5 3 5 5 5 3 3 5 5 5 5 5 5 3 5 5 3 5 5 5 5 5 3 5 5 5 5 3 5 5 5 5 5 5 5 5 5 5 5 5 5 5 5 5 5 5 5 5 5 5 5 5 5 5 5 5 5 5 5 5 5 5 5 5 5 5 5 5 5 5 5 5 5 5 5 5 5 5 5 5 5 5 5 5 5 5 5 3 5 5 3 5 3 5 5 5 5 3 5 5 5 3 5 5 5 5 5 5 5 5 5 5 5 5 5 5 3 5 5 5 5 5 3 5 5 3 5 5 5 
</DataArray>
</Cells>
<PointData Scalars="" Vectors="displacement," Tensors="">
<DataArray type="Float64" Name="displacement" NumberOfComponents="3" format="ascii">
0.055001359760733379 0.05499121096556428 0 0.054993958751965506 0.051536009288745112 0 0.052845488241808236 0.055330325835726987 0 0.055001359760733379 0.05499121096556428 0 0.052845488241808236 0.055330325835726987 0 0.050438691067794153 0.055798385155180187 0 0.055001359760733379 0.05499121096556428 0 0.050438691067794153 0.055798385155180187 0 0.045799498958407153 0.054999964735726312 0 0.054999977033544076 0.051518079919410417 0 0.057999149754000091 0.050640539848420575 0 0.056906323853725536 0.048859774726417435 0 0.054998897897038122 0.0515189805367363 0 0.055696194530522644 0.053121023427820602 0 0.057999149754000091 0.050640539848420575 0 0.058170859946241965 0.049021646802816121 0 0.056906323853725536 0.048859774726417435 0 0.058170859946241965 0.049021646802816121 0 0.058075840455084099 0.048191964472157151 0 0.056906323853725536 0.048859774726417435 0 0.058075840455084099 0.048191964472157151 0 0.056906323853725536 0.048859774726417435 0 0.057308658125005768 0.0475372973978248 0 0.054999977033544076 0.051518079919410417 0 0.056906323853725536 0.048859774726417435 0 0.054999930534152919 0.049012941386109239 0 0.056906323853725536 0.048859774726417435 0 0.054999930534152919 0.049012941386109239 0 0.056101064124180144 0.047524968581931427 0 0.054236651772203881 0.04179147066161059 0 0.05373728686837892 0.042274575354984689 0 0.054289054141822932 0.04275759660226635 0 0.054892177377228006 0.042311333802583236 0 0.054236651772203881 0.04179147066161059 0 0.054289054141822932 0.04275759660226635 0 0.057151437955851619 0.045370538264084895 0 0.052988766504572987 0.052540707177711705 0 0.057999149754000091 0.050640539848420575 0 0.058170859946241965 0.049021646802816121 0 0.059572235271293635 0.048636794307464877 0 0.057999149754000091 0.050640539848420575 0 0.059572235271293635 0.048636794307464877 0 0.060848494348377656 0.049847578422569816 0 0.058075840455084099 0.048191964472157151 0 0.059572235271293635 0.048636794307464877 0 0.058334916046166203 0.04727131794031264 0 0.058170859946241965 0.049021646802816121 0 0.058075840455084099 0.048191964472157151 0 0.059572235271293635 0.048636794307464877 0 0.055696194530522644 0.053121023427820602 0 0.052988766504572987 0.052540707177711705 0 0.052845488241808236 0.055330325835726987 0 0.049575805472525887 0.057899123075082465 0 0.050438691067794153 0.055798385155180187 0 0.049575805472525887 0.057899123075082465 0 0.050438691067794153 0.055798385155180187 0 0.047822473709060828 0.05732057399774277 0 0.050438691067794153 0.055798385155180187 0 0.045905996068679476 0.056759654167207928 0 0.047822473709060828 0.05732057399774277 0 0.050438691067794153 0.055798385155180187 0 0.045799498958407153 0.054999964735726312 0 0.045905996068679476 0.056759654167207928 0 0.045905996068679476 0.056759654167207928 0 0.047519948993295022 0.058115427185410684 0 0.045931428128704654 0.058448836976286334 0 0.046045335040087523 0.056690003954691683 0 0.04766121022964738 0.057973181982282691 0 0.045799498958407153 0.054999964735726312 0 0.042548371159191571 0.05732197217991767 0 0.039081819479680022 0.054999493848190084 0 0.045799498958407153 0.054999964735726312 0 0.045905996068679476 0.056759654167207928 0 0.042548371159191571 0.05732197217991767 0 0.045905996068679476 0.056759654167207928 0 0.042548371159191571 0.05732197217991767 0 0.044160404413325888 0.05877163433712896 0 0.042548371159191571 0.05732197217991767 0 0.044160404413325888 0.05877163433712896 0 0.041436689600273545 0.059952406248666906 0 0.044160404413325888 0.05877163433712896 0 0.043322110683755272 0.060951709399093619 0 0.046218773433782612 0.060235697169403218 0 0.0473172034301328 0.052328679048717831 0 0.049535243772520873 0.050780993590555705 0 0.05216523270407223 0.041844528611951641 0 0.053113208783885882 0.042014656930202204 0 0.052703805784824712 0.042132456979587216 0 0.05216523270407223 0.041844528611951641 0 0.052703805784824712 0.042132456979587216 0 0.052278727108582737 0.042126346027996822 0 0.044160404413325888 0.05877163433712896 0 0.043322110683755272 0.060951709399093619 0 0.041436689600273545 0.059952406248666906 0 0.0473172034301328 0.052328679048717831 0 0.046680699064071435 0.045012591783546926 0 0.043322110683755272 0.060951709399093619 0 0.041436689600273545 0.059952406248666906 0 0.040500733449786316 0.061594336120294892 0 0.049154109365617094 0.059458037837017863 0 0.047519948993295022 0.058115427185410684 0 0.046218773433782612 0.060235697169403218 0 0.052988766504572987 0.052540707177711705 0 0.04766121022964738 0.057973181982282691 0 0.045905996068679476 0.056759654167207928 0 0.044160404413325888 0.05877163433712896 0 0.045931428128704654 0.058448836976286334 0 0.044160404413325888 0.05877163433712896 0 0.045931428128704654 0.058448836976286334 0 0.046218773433782612 0.060235697169403218 0 0.047519948993295022 0.058115427185410684 0 0.045931428128704654 0.058448836976286334 0 0.046218773433782612 0.060235697169403218 0 0.053113208783885882 0.042014656930202204 0 0.052703805784824712 0.042132456979587216 0 0.053167026230776668 0.042509162369289588 0 0.052988766504572987 0.052540707177711705 0 0.049535243772520873 0.050780993590555705 0 0.054236651772203881 0.04179147066161059 0 0.053113208783885882 0.042014656930202204 0 0.05373728686837892 0.042274575354984689 0 0.053113208783885882 0.042014656930202204 0 0.05373728686837892 0.042274575354984689 0 0.053167026230776668 0.042509162369289588 0 0.05373728686837892 0.042274575354984689 0 0.053167026230776668 0.042509162369289588 0 0.054289054141822932 0.04275759660226635 0 0.055555998989590745 0.043255588765013855 0 0.054777759913840499 0.042337458678881168 0 0.056253897067016979 0.043228869278675336 0 0.053966981667418534 0.042462865772628797 0 0.05506972627828316 0.04284232643703758 0 0.055555998989590745 0.043255588765013855 0 0.054777759913840499 0.042337458678881168 0 0.054708499801596762 0.043344219436162464 0 0.053966981667418534 0.042462865772628797 0 0.05239123613736129 0.042162403112946931 0 0.052703805784824712 0.042132456979587216 0 0.053167026230776668 0.042509162369289588 0 0.052278727108582737 0.042126346027996822 0 0.054777759913840499 0.042337458678881168 0 0.052278727108582737 0.042126346027996822 0 0.053459119523090362 0.042836715916508443 0 0.054777759913840499 0.042337458678881168 0 0.054207210969053711 0.042961181999157209 0 0.053459119523090362 0.042836715916508443 0 0.054207210969053711 0.042961181999157209 0 0.05388038405877045 0.043302810309153769 0 0.053459119523090362 0.042836715916508443 0 0.054777759913840499 0.042337458678881168 0 0.054207210969053711 0.042961181999157209 0 0.054708499801596762 0.043344219436162464 0 0.053900782476443337 0.043899875744796639 0 0.05503801450188997 0.043994684243040462 0 0.053666744037152277 0.04409499502800248 0 0.054207210969053711 0.042961181999157209 0 0.054708499801596762 0.043344219436162464 0 0.05388038405877045 0.043302810309153769 0 0.05388038405877045 0.043302810309153769 0 0.053900782476443337 0.043899875744796639 0 0.053113245874078507 0.043340745155311368 0 0.054708499801596762 0.043344219436162464 0 0.05388038405877045 0.043302810309153769 0 0.053900782476443337 0.043899875744796639 0 0.053768678725977313 0.0384647545178841 0 0.055561016504854413 0.036200824963818927 0 0.054708499801596762 0.043344219436162464 0 0.053900782476443337 0.043899875744796639 0 0.05503801450188997 0.043994684243040462 0 0.05503801450188997 0.043994684243040462 0 0.05588052379859456 0.043798792636895206 0 0.055303761707086799 0.04360186707354833 0 0.055555998989590745 0.043255588765013855 0 0.05588052379859456 0.043798792636895206 0 0.055303761707086799 0.04360186707354833 0 0.055555998989590745 0.043255588765013855 0 0.05588052379859456 0.043798792636895206 0 0.056141656570022389 0.043569649538971272 0 0.054708499801596762 0.043344219436162464 0 0.05503801450188997 0.043994684243040462 0 0.055303761707086799 0.04360186707354833 0 0.055555998989590745 0.043255588765013855 0 0.054708499801596762 0.043344219436162464 0 0.055303761707086799 0.04360186707354833 0 0.051309451152886598 0.0339620710198731 0 0.046680699064071435 0.045012591783546926 0 0.05161846587057993 0.043059606896037807 0 0.052278727108582737 0.042126346027996822 0 0.050263104203537141 0.042197187242282129 0 0.05216523270407223 0.041844528611951641 0 0.052278727108582737 0.042126346027996822 0 0.050263104203537141 0.042197187242282129 0 0.05161846587057993 0.043059606896037807 0 0.052590273329296666 0.042802943066604981 0 0.053113245874078507 0.043340745155311368 0 0.05161846587057993 0.043059606896037807 0 0.052590273329296666 0.042802943066604981 0 0.052278727108582737 0.042126346027996822 0 0.052590273329296666 0.042802943066604981 0 0.052278727108582737 0.042126346027996822 0 0.053459119523090362 0.042836715916508443 0 0.052590273329296666 0.042802943066604981 0 0.053459119523090362 0.042836715916508443 0 0.053113245874078507 0.043340745155311368 0 0.051309451152886598 0.0339620710198731 0 0.055561016504854413 0.036200824963818927 0 0.05161846587057993 0.043059606896037807 0 0.053113245874078507 0.043340745155311368 0 0.053424274057496869 0.04411573787823192 0 0.051649175396556134 0.027268695830222494 0 0.051364416080347391 0.026962180124134802 0 0.051500205603713614 0.026293302123884029 0 0.05388038405877045 0.043302810309153769 0 0.053459119523090362 0.042836715916508443 0 0.053113245874078507 0.043340745155311368 0 0.053900782476443337 0.043899875744796639 0 0.053113245874078507 0.043340745155311368 0 0.053424274057496869 0.04411573787823192 0 0.051649175396556134 0.027268695830222494 0 0.051500205603713614 0.026293302123884029 0 0.052008792453822082 0.026640291107439741 0 0.056138600513901446 0.030617349668331132 0 0.055818585272979566 0.031149779562706679 0 0.051500205603713614 0.026293302123884029 0 0.051875454380392941 0.026031653786834526 0 0.051997192173199432 0.025411609384011574 0 0.051500205603713614 0.026293302123884029 0 0.051875454380392941 0.026031653786834526 0 0.052008792453822082 0.026640291107439741 0 0.055561016504854413 0.036200824963818927 0 0.056138600513901446 0.030617349668331132 0 0.060213398850641482 0.035919097312602857 0 0.059983029785473978 0.036044325489654548 0 0.060265260064926461 0.036260680865590936 0 0.059983029785473978 0.036044325489654548 0 0.060097393981804435 0.036373068101026786 0 0.060265260064926461 0.036260680865590936 0 0.060097393981804435 0.036373068101026786 0 0.060265260064926461 0.036260680865590936 0 0.060260079607206501 0.036512672230283261 0 0.059983029785473978 0.036044325489654548 0 0.059713684361317611 0.036152921752757486 0 0.059849469488279641 0.036393964327109403 0 0.059983029785473978 0.036044325489654548 0 0.060097393981804435 0.036373068101026786 0 0.059849469488279641 0.036393964327109403 0 0.05588052379859456 0.043798792636895206 0 0.055569173246412133 0.044457503915667655 0 0.056338607404296887 0.044060386607326571 0 0.05503801450188997 0.043994684243040462 0 0.05588052379859456 0.043798792636895206 0 0.055569173246412133 0.044457503915667655 0 0.05503801450188997 0.043994684243040462 0 0.053666744037152277 0.04409499502800248 0 0.055569173246412133 0.044457503915667655 0 0.060213398850641482 0.035919097312602857 0 0.060533146110356491 0.036182393667599955 0 0.060265260064926461 0.036260680865590936 0 0.055561016504854413 0.036200824963818927 0 0.05842858758738087 0.040851193052778657 0 0.060533146110356491 0.036182393667599955 0 0.060265260064926461 0.036260680865590936 0 0.060458081310661764 0.036472250722838738 0 0.060265260064926461 0.036260680865590936 0 0.060458081310661764 0.036472250722838738 0 0.060260079607206501 0.036512672230283261 0 0.060533146110356491 0.036182393667599955 0 0.060774100939774513 0.036429416569823708 0 0.060458081310661764 0.036472250722838738 0 0.05842858758738087 0.040851193052778657 0 0.058586915883642926 0.040099205161970061 0 0.056588007292651163 0.043878448731738157 0 0.056338607404296887 0.044060386607326571 0 0.056615315041507353 0.04373705732205628 0 0.055569173246412133 0.044457503915667655 0 0.056588007292651163 0.043878448731738157 0 0.056338607404296887 0.044060386607326571 0 0.056338607404296887 0.044060386607326571 0 0.056541228232529224 0.044026541947374702 0 0.056615315041507353 0.04373705732205628 0 0.056619308417759126 0.044051051621241913 0 0.056541228232529224 0.044026541947374702 0 0.056615315041507353 0.04373705732205628 0 0.056619308417759126 0.044051051621241913 0 0.056615315041507353 0.04373705732205628 0 0.056518645618409795 0.043669226248889921 0 0.056615315041507353 0.04373705732205628 0 0.056431703131425183 0.04314704925286772 0 0.05658749781724115 0.042859398348699028 0 0.056588007292651163 0.043878448731738157 0 0.056615315041507353 0.04373705732205628 0 0.05658749781724115 0.042859398348699028 0 0.056431703131425183 0.04314704925286772 0 0.056055858658722021 0.043075677560771908 0 0.056088933822728379 0.042388427976767541 0 0.056431703131425183 0.04314704925286772 0 0.056055858658722021 0.043075677560771908 0 0.056518645618409795 0.043669226248889921 0 0.056615315041507353 0.04373705732205628 0 0.056431703131425183 0.04314704925286772 0 0.056518645618409795 0.043669226248889921 0 0.054999867360491013 0.041499366072724538 0 0.056055858658722021 0.043075677560771908 0 0.054999983742545409 0.04400147766222693 0 0.054999867360491013 0.041499366072724538 0 0.056055858658722021 0.043075677560771908 0 0.056088933822728379 0.042388427976767541 0 0.056055858658722021 0.043075677560771908 0 0.054999983742545409 0.04400147766222693 0 0.05643057561924443 0.04416686007262343 0 0.056055858658722021 0.043075677560771908 0 0.056518645618409795 0.043669226248889921 0 0.05643057561924443 0.04416686007262343 0 0.056619308417759126 0.044051051621241913 0 0.056518645618409795 0.043669226248889921 0 0.05643057561924443 0.04416686007262343 0 0.056619308417759126 0.044051051621241913 0 0.05643057561924443 0.04416686007262343 0 0.056657508388018481 0.044467102674784098 0 0.05643057561924443 0.04416686007262343 0 0.056469102786547473 0.045314491704251683 0 0.056657508388018481 0.044467102674784098 0 0.054999983742545409 0.04400147766222693 0 0.05643057561924443 0.04416686007262343 0 0.056469102786547473 0.045314491704251683 0 0.054999983742545409 0.04400147766222693 0 0.056469102786547473 0.045314491704251683 0 0.054999629023651603 0.046506485118792504 0 0.056469102786547473 0.045314491704251683 0 0.054999629023651603 0.046506485118792504 0 0.056101064124180144 0.047524968581931427 0 0.054999930534152919 0.049012941386109239 0 0.054999629023651603 0.046506485118792504 0 0.056101064124180144 0.047524968581931427 0 0.056469102786547473 0.045314491704251683 0 0.056657508388018481 0.044467102674784098 0 0.056707297063093305 0.044112319427984881 0 0.056469102786547473 0.045314491704251683 0 0.056101064124180144 0.047524968581931427 0 0.057308658125005768 0.0475372973978248 0 0.056839260009657326 0.045502737375835788 0 0.056781105309933987 0.044780457459479617 0 0.056469102786547473 0.045314491704251683 0 0.057308658125005768 0.0475372973978248 0 0.058334916046166203 0.04727131794031264 0 0.056906323853725536 0.048859774726417435 0 0.056101064124180144 0.047524968581931427 0 0.057308658125005768 0.0475372973978248 0 0.057308658125005768 0.0475372973978248 0 0.058334916046166203 0.04727131794031264 0 0.058005956111370847 0.047567473890744984 0 0.058075840455084099 0.048191964472157151 0 0.057308658125005768 0.0475372973978248 0 0.058005956111370847 0.047567473890744984 0 0.058075840455084099 0.048191964472157151 0 0.058334916046166203 0.04727131794031264 0 0.058005956111370847 0.047567473890744984 0 0.057151437955851619 0.045370538264084895 0 0.056781105309933987 0.044780457459479617 0 0.054892177377228006 0.042311333802583236 0 0.055562446788732935 0.042907966594337016 0 0.054289054141822932 0.04275759660226635 0 0.056707297063093305 0.044112319427984881 0 0.056505631872582902 0.043901557661475653 0 0.056253897067016979 0.043228869278675336 0 0.056781105309933987 0.044780457459479617 0 0.05506972627828316 0.04284232643703758 0 0.056657508388018481 0.044467102674784098 0 0.056707297063093305 0.044112319427984881 0 0.056505631872582902 0.043901557661475653 0 0.055555998989590745 0.043255588765013855 0 0.056253897067016979 0.043228869278675336 0 0.056141656570022389 0.043569649538971272 0 0.056505631872582902 0.043901557661475653 0 0.056253897067016979 0.043228869278675336 0 0.056141656570022389 0.043569649538971272 0 0.056505631872582902 0.043901557661475653 0 0.056141656570022389 0.043569649538971272 0 0.056355667262678877 0.043881451733423241 0 0.05588052379859456 0.043798792636895206 0 0.056141656570022389 0.043569649538971272 0 0.056355667262678877 0.043881451733423241 0 0.05588052379859456 0.043798792636895206 0 0.056338607404296887 0.044060386607326571 0 0.056355667262678877 0.043881451733423241 0 0.056338607404296887 0.044060386607326571 0 0.056541228232529224 0.044026541947374702 0 0.056355667262678877 0.043881451733423241 0 0.056541228232529224 0.044026541947374702 0 0.056355667262678877 0.043881451733423241 0 0.056584467924181564 0.044107918661045166 0 0.056619308417759126 0.044051051621241913 0 0.056541228232529224 0.044026541947374702 0 0.056584467924181564 0.044107918661045166 0 0.056619308417759126 0.044051051621241913 0 0.056657508388018481 0.044467102674784098 0 0.056584467924181564 0.044107918661045166 0 0.056657508388018481 0.044467102674784098 0 0.056505631872582902 0.043901557661475653 0 0.056584467924181564 0.044107918661045166 0 0.056505631872582902 0.043901557661475653 0 0.056355667262678877 0.043881451733423241 0 0.056584467924181564 0.044107918661045166 0 0.030604838795282769 0.054999974733215787 0 0.032300672910073346 0.056892976400302948 0 0.039081819479680022 0.054999493848190084 0 0.029434088521147261 0.056526802764001176 0 0.02993998020868616 0.056090285539283427 0 0.030375030128599701 0.056217831762853117 0 0.028478478970597573 0.055807144564033649 0 0.030375030128599701 0.056217831762853117 0 0.029499887804729685 0.056767866163586797 0 0.029185315833801215 0.056091375748713465 0 0.030167674639516268 0.056227735759205907 0 0.029948297341429873 0.055831127435427466 0 0.02993998020868616 0.056090285539283427 0 0.030487298902399422 0.055882046401266323 0 0.02993998020868616 0.056090285539283427 0 0.030487298902399422 0.055882046401266323 0 0.030375030128599701 0.056217831762853117 0 0.029948297341429873 0.055831127435427466 0 0.02993998020868616 0.056090285539283427 0 0.029431289690418357 0.055979058377699543 0 0.029434088521147261 0.056526802764001176 0 0.02993998020868616 0.056090285539283427 0 0.029431289690418357 0.055979058377699543 0 0.029948297341429873 0.055831127435427466 0 0.029838312881125467 0.055539717385228407 0 0.029155562735578663 0.055591331844534235 0 0.029948297341429873 0.055831127435427466 0 0.029431289690418357 0.055979058377699543 0 0.029155562735578663 0.055591331844534235 0 0.028805381930595481 0.054999827256612913 0 0.026206167311060263 0.055744254055398297 0 0.026952712056451673 0.056352615820707504 0 0.02880644614430914 0.054999995375037178 0 0.028074418164969694 0.055875747600320748 0 0.028810684203827451 0.054999701358254452 0 0.029838312881125467 0.055539717385228407 0 0.029155562735578663 0.055591331844534235 0 0.028810684203827451 0.054999701358254452 0 0.029838312881125467 0.055539717385228407 0 0.03060046770382617 0.054999556638679184 0 0.029838312881125467 0.055539717385228407 0 0.03060046770382617 0.054999556638679184 0 0.030714040406679872 0.055501089525818538 0 0.029948297341429873 0.055831127435427466 0 0.029838312881125467 0.055539717385228407 0 0.030714040406679872 0.055501089525818538 0 0.029948297341429873 0.055831127435427466 0 0.030714040406679872 0.055501089525818538 0 0.030487298902399422 0.055882046401266323 0 0.032300672910073346 0.056892976400302948 0 0.033989898997840232 0.058744531200083501 0 0.036327253504332448 0.058399281017256929 0 0.030604372296349526 0.055000151457682125 0 0.031537416901025427 0.056223038796509195 0 0.031537416901025427 0.056223038796509195 0 0.032487028961642926 0.056972203478542288 0 0.031101981174925557 0.055794488273405128 0 0.031134800814571709 0.055793889002050144 0 0.030815111436792657 0.055162413559227783 0 0.030714040406679872 0.055501089525818538 0 0.031101981174925557 0.055794488273405128 0 0.031134800814571709 0.055793889002050144 0 0.031134800814571709 0.055793889002050144 0 0.030487298902399422 0.055882046401266323 0 0.03074700198323297 0.056082437046636707 0 0.030714040406679872 0.055501089525818538 0 0.031134800814571709 0.055793889002050144 0 0.030487298902399422 0.055882046401266323 0 0.030487298902399422 0.055882046401266323 0 0.03074700198323297 0.056082437046636707 0 0.030375030128599701 0.056217831762853117 0 0.030375030128599701 0.056217831762853117 0 0.031071961601242034 0.056521802093657737 0 0.030412694281529387 0.056871659406741562 0 0.03074700198323297 0.056082437046636707 0 0.030375030128599701 0.056217831762853117 0 0.031071961601242034 0.056521802093657737 0 0.031274049479011343 0.054729530135046597 0 0.03084102824909463 0.058405479605709743 0 0.031134800814571709 0.055793889002050144 0 0.031587668252265479 0.054873912397501348 0 0.030815111436792657 0.055162413559227783 0 0.031134800814571709 0.055793889002050144 0 0.03074700198323297 0.056082437046636707 0 0.031071961601242034 0.056521802093657737 0 0.035678624945435 0.060547003080818243 0 0.036327253504332448 0.058399281017256929 0 0.037978584306981054 0.060512682567159831 0 0.035678624945435 0.060547003080818243 0 0.037978584306981054 0.060512682567159831 0 0.037326241699964034 0.062298711617720243 0 0.036327253504332448 0.058399281017256929 0 0.038886487764617908 0.058649756361827274 0 0.037978584306981054 0.060512682567159831 0 0.032487028961642926 0.056972203478542288 0 0.032794038506754303 0.059752405573426787 0 0.033989898997840232 0.058744531200083501 0 0.035678624945435 0.060547003080818243 0 0.036327253504332448 0.058399281017256929 0 0.032300672910073346 0.056892976400302948 0 0.036327253504332448 0.058399281017256929 0 0.039081819479680022 0.054999493848190084 0 0.042548371159191571 0.05732197217991767 0 0.039081819479680022 0.054999493848190084 0 0.038886487764617908 0.058649756361827274 0 0.036327253504332448 0.058399281017256929 0 0.039081819479680022 0.054999493848190084 0 0.038886487764617908 0.058649756361827274 0 0.041436689600273545 0.059952406248666906 0 0.038886487764617908 0.058649756361827274 0 0.03935924879849638 0.06037720973407476 0 0.042548371159191571 0.05732197217991767 0 0.041436689600273545 0.059952406248666906 0 0.038886487764617908 0.058649756361827274 0 0.038886487764617908 0.058649756361827274 0 0.03935924879849638 0.06037720973407476 0 0.037978584306981054 0.060512682567159831 0 0.037978584306981054 0.060512682567159831 0 0.039157011254491843 0.061090152380695859 0 0.038897915778089202 0.061943575178596451 0 0.03935924879849638 0.06037720973407476 0 0.037978584306981054 0.060512682567159831 0 0.039157011254491843 0.061090152380695859 0 0.03935924879849638 0.06037720973407476 0 0.039157011254491843 0.061090152380695859 0 0.040500733449786316 0.061594336120294892 0 0.041436689600273545 0.059952406248666906 0 0.03935924879849638 0.06037720973407476 0 0.040500733449786316 0.061594336120294892 0 0.051649175396556134 0.027268695830222494 0 0.052176600327261548 0.027884588017181029 0 0.052257797252662545 0.027292148317263166 0 0.052176600327261548 0.027884588017181029 0 0.052805447441357158 0.02780483771510988 0 0.052257797252662545 0.027292148317263166 0 0.046680699064071435 0.045012591783546926 0 0.045960205698171913 0.044758764558004455 0 0.039157011254491843 0.061090152380695859 0 0.040500733449786316 0.061594336120294892 0 0.038897915778089202 0.061943575178596451 0 0.037978584306981054 0.060512682567159831 0 0.038897915778089202 0.061943575178596451 0 0.037326241699964034 0.062298711617720243 0 0.052805447441357158 0.02780483771510988 0 0.052962110226303621 0.026790838268048695 0 0.053459425927217481 0.027693922565367641 0 0.045960205698171913 0.044758764558004455 0 0.043776753623207591 0.043010626773486584 0 0.052805447441357158 0.02780483771510988 0 0.052962110226303621 0.026790838268048695 0 0.052257797252662545 0.027292148317263166 0 0.052466386065193299 0.024800089529656986 0 0.043776753623207591 0.043010626773486584 0 0.051649175396556134 0.027268695830222494 0 0.052257797252662545 0.027292148317263166 0 0.052008792453822082 0.026640291107439741 0 0.052962110226303621 0.026790838268048695 0 0.052257797252662545 0.027292148317263166 0 0.052008792453822082 0.026640291107439741 0 0.051875454380392941 0.026031653786834526 0 0.052008792453822082 0.026640291107439741 0 0.052183576548684267 0.025629861719635751 0 0.052962110226303621 0.026790838268048695 0 0.052008792453822082 0.026640291107439741 0 0.052183576548684267 0.025629861719635751 0 0.051875454380392941 0.026031653786834526 0 0.052183576548684267 0.025629861719635751 0 0.051997192173199432 0.025411609384011574 0 0.059713684361317611 0.036152921752757486 0 0.059379269273043316 0.036280922172703713 0 0.059849469488279641 0.036393964327109403 0 0.055818585272979566 0.031149779562706679 0 0.053754976856905383 0.02672830956606681 0 0.051997192173199432 0.025411609384011574 0 0.052172795234219631 0.025308730108554538 0 0.052210482986302126 0.025181773931945046 0 0.052183576548684267 0.025629861719635751 0 0.051997192173199432 0.025411609384011574 0 0.052172795234219631 0.025308730108554538 0 0.051041748510316939 0.022730649580384676 0 0.053754976856905383 0.02672830956606681 0 0.050690676334163763 0.02042585338696476 0 0.052528596488943313 0.024501866671620656 0 0.048843745899557714 0.019499477040644718 0 0.052222845939776226 0.025150156060437433 0 0.052528596488943313 0.024501866671620656 0 0.052210482986302126 0.025181773931945046 0 0.052172795234219631 0.025308730108554538 0 0.052222845939776226 0.025150156060437433 0 0.052210482986302126 0.025181773931945046 0 0.052183576548684267 0.025629861719635751 0 0.052172795234219631 0.025308730108554538 0 0.052222845939776226 0.025150156060437433 0 0.051962969836947245 0.025964283698990211 0 0.052183576548684267 0.025629861719635751 0 0.052195140260558916 0.025323072363832983 0 0.052466386065193299 0.024800089529656986 0 0.05238731139460695 0.026169445828042943 0 0.052183576548684267 0.025629861719635751 0 0.052222845939776226 0.025150156060437433 0 0.052195140260558916 0.025323072363832983 0 0.052222845939776226 0.025150156060437433 0 0.052195140260558916 0.025323072363832983 0 0.052528596488943313 0.024501866671620656 0 0.051962969836947245 0.025964283698990211 0 0.052195140260558916 0.025323072363832983 0 0.05303248593382575 0.02577787091141738 0 0.052195140260558916 0.025323072363832983 0 0.052528596488943313 0.024501866671620656 0 0.05303248593382575 0.02577787091141738 0 0.052528596488943313 0.024501866671620656 0 0.053907298944397178 0.024431251897595017 0 0.05303248593382575 0.02577787091141738 0 0.050690676334163763 0.02042585338696476 0 0.052528596488943313 0.024501866671620656 0 0.054475749522422699 0.022878751909396859 0 0.050690676334163763 0.02042585338696476 0 0.051490037115448486 0.017136124042613377 0 0.051224942170232407 0.018896556474967307 0 0.050171307454877773 0.020246210954786719 0 0.05378219228819018 0.019705852752181775 0 0.051490037115448486 0.017136124042613377 0 0.051004144892218363 0.015892294931910078 0 0.051440536803356127 0.018420521939321526 0 0.051412215481093891 0.016255396792182672 0 0.051927336930851206 0.016744773542356376 0 0.051004144892218363 0.015892294931910078 0 0.052731883160828608 0.015437378592518701 0 0.051543550010901738 0.01584018698829151 0 0.051490037115448486 0.017136124042613377 0 0.051440536803356127 0.018420521939321526 0 0.051224942170232407 0.018896556474967307 0 0.052528596488943313 0.024501866671620656 0 0.054475749522422699 0.022878751909396859 0 0.053907298944397178 0.024431251897595017 0 0.054475749522422699 0.022878751909396859 0 0.055174335391701551 0.02427853199699823 0 0.053907298944397178 0.024431251897595017 0 0.055174335391701551 0.02427853199699823 0 0.053907298944397178 0.024431251897595017 0 0.054528940460076863 0.025256665633251518 0 0.053907298944397178 0.024431251897595017 0 0.054528940460076863 0.025256665633251518 0 0.05303248593382575 0.02577787091141738 0 0.054528940460076863 0.025256665633251518 0 0.054310516569312822 0.02732521821029377 0 0.055307453073573536 0.026216720662773547 0 0.054528940460076863 0.025256665633251518 0 0.05303248593382575 0.02577787091141738 0 0.054310516569312822 0.02732521821029377 0 0.05303248593382575 0.02577787091141738 0 0.052716679034710785 0.027543506914069905 0 0.054310516569312822 0.02732521821029377 0 0.051962969836947245 0.025964283698990211 0 0.05303248593382575 0.02577787091141738 0 0.052716679034710785 0.027543506914069905 0 0.032794038506754303 0.059752405573426787 0 0.043776753623207591 0.043010626773486584 0 0.031587668252265479 0.054873912397501348 0 0.030815111436792657 0.055162413559227783 0 0.031044051229739234 0.054134826380959664 0 0.030815111436792657 0.055162413559227783 0 0.030414713993595226 0.054294801836427632 0 0.031044051229739234 0.054134826380959664 0 0.043776753623207591 0.043010626773486584 0 0.043326954270179512 0.040454139540971823 0 0.031587668252265479 0.054873912397501348 0 0.031044051229739234 0.054134826380959664 0 0.031809748853202431 0.053871658448510606 0 0.03084102824909463 0.058405479605709743 0 0.038921140706560275 0.042404416669757555 0 0.031071961601242034 0.056521802093657737 0 0.030412694281529387 0.056871659406741562 0 0.031143185267984905 0.057369537518024594 0 0.038921140706560275 0.042404416669757555 0 0.033047930791887982 0.045584655761935412 0 0.039157841717622918 0.032608841827578054 0 0.039126655329984258 0.033369491336115054 0 0.038400503391577474 0.033443628440007943 0 0.039157841717622918 0.032608841827578054 0 0.038400503391577474 0.033443628440007943 0 0.037763998475805825 0.032877984393534489 0 0.030412694281529387 0.056871659406741562 0 0.031143185267984905 0.057369537518024594 0 0.029779329383370717 0.057865082577716505 0 0.056118512254796298 0.026986072396671237 0 0.055307453073573536 0.026216720662773547 0 0.056324546696934298 0.025271276281941622 0 0.043326954270179512 0.040454139540971823 0 0.038921140706560275 0.042404416669757555 0 0.038921140706560275 0.042404416669757555 0 0.047619569968974818 0.028191918641988077 0 0.054310516569312822 0.02732521821029377 0 0.056118512254796298 0.026986072396671237 0 0.055307453073573536 0.026216720662773547 0 0.055174335391701551 0.02427853199699823 0 0.056324546696934298 0.025271276281941622 0 0.056436445710572443 0.023676790592087951 0 0.054528940460076863 0.025256665633251518 0 0.055307453073573536 0.026216720662773547 0 0.056324546696934298 0.025271276281941622 0 0.055174335391701551 0.02427853199699823 0 0.054528940460076863 0.025256665633251518 0 0.056324546696934298 0.025271276281941622 0 0.047619569968974818 0.028191918641988077 0 0.047973145527967262 0.022992823226671493 0 0.054475749522422699 0.022878751909396859 0 0.055174335391701551 0.02427853199699823 0 0.056436445710572443 0.023676790592087951 0 0.051490037115448486 0.017136124042613377 0 0.050460292091153276 0.014768903687850613 0 0.051004144892218363 0.015892294931910078 0 0.05378219228819018 0.019705852752181775 0 0.047973145527967262 0.022992823226671493 0 0.050460292091153276 0.014768903687850613 0 0.05085441790390488 0.015667468978335587 0 0.050103880063080176 0.015282523016168696 0 0.047973145527967262 0.022992823226671493 0 0.049774171349247449 0.013304589563668973 0 0.050460292091153276 0.014768903687850613 0 0.051004144892218363 0.015892294931910078 0 0.05085441790390488 0.015667468978335587 0 0.051004144892218363 0.015892294931910078 0 0.05085441790390488 0.015667468978335587 0 0.051543550010901738 0.01584018698829151 0 0.050211208807499644 0.013144182478483302 0 0.048489785051884962 0.014501236243730228 0 0.046380789079459167 0.012060225683047345 0 0.047973145527967262 0.022992823226671493 0 0.041224009844006114 0.02317840869909563 0 0.050211208807499644 0.013144182478483302 0 0.048489785051884962 0.014501236243730228 0 0.050103880063080176 0.015282523016168696 0 0.039126655329984258 0.033369491336115054 0 0.039139457885822022 0.034146426669794908 0 0.038400503391577474 0.033443628440007943 0 0.039139457885822022 0.034146426669794908 0 0.038400503391577474 0.033443628440007943 0 0.037734906736678224 0.034023043078728069 0 0.037734906736678224 0.034023043078728069 0 0.0369995832754033 0.033525128827359384 0 0.037763998475805825 0.032877984393534489 0 0.038400503391577474 0.033443628440007943 0 0.037734906736678224 0.034023043078728069 0 0.037763998475805825 0.032877984393534489 0 0.046380789079459167 0.012060225683047345 0 0.044132194627855434 0.01385056367141687 0 0.046754240926009515 0.015408509217383305 0 0.048489785051884962 0.014501236243730228 0 0.046380789079459167 0.012060225683047345 0 0.046754240926009515 0.015408509217383305 0 0.046380789079459167 0.012060225683047345 0 0.044132194627855434 0.01385056367141687 0 0.042424347719687866 0.010681275399157513 0 0.0369995832754033 0.033525128827359384 0 0.037763998475805825 0.032877984393534489 0 0.036174238042001441 0.033188314229996949 0 0.037734906736678224 0.034023043078728069 0 0.0369995832754033 0.033525128827359384 0 0.036151994826662377 0.0338615990360987 0 0.041224009844006114 0.02317840869909563 0 0.039979269081702309 0.020897823979264447 0 0.0369995832754033 0.033525128827359384 0 0.036174238042001441 0.033188314229996949 0 0.036151994826662377 0.0338615990360987 0 0.033047930791887982 0.045584655761935412 0 0.031587089771388792 0.047190008385629957 0 0.029779329383370717 0.057865082577716505 0 0.028165355918460807 0.057157834188762476 0 0.027959081363954252 0.058324903229502449 0 0.030412694281529387 0.056871659406741562 0 0.029779329383370717 0.057865082577716505 0 0.029499887804729685 0.056767866163586797 0 0.030375030128599701 0.056217831762853117 0 0.030412694281529387 0.056871659406741562 0 0.029499887804729685 0.056767866163586797 0 0.029779329383370717 0.057865082577716505 0 0.029499887804729685 0.056767866163586797 0 0.028165355918460807 0.057157834188762476 0 0.028478478970597573 0.055807144564033649 0 0.029499887804729685 0.056767866163586797 0 0.028165355918460807 0.057157834188762476 0 0.043628791151898473 0.022230224787652967 0 0.04351566151548196 0.020518835259154034 0 0.041964986234307042 0.021388735806726872 0 0.043628791151898473 0.022230224787652967 0 0.045721481615681334 0.020596178772050822 0 0.04351566151548196 0.020518835259154034 0 0.043628791151898473 0.022230224787652967 0 0.045721481615681334 0.020596178772050822 0 0.045436238392093618 0.022485584054598478 0 0.045721481615681334 0.020596178772050822 0 0.046949895035354496 0.021457992618176248 0 0.048438842053004152 0.019970652992701659 0 0.045721481615681334 0.020596178772050822 0 0.046949895035354496 0.021457992618176248 0 0.045436238392093618 0.022485584054598478 0 0.045721481615681334 0.020596178772050822 0 0.047215159365263659 0.018900178134394544 0 0.045551397331574782 0.018699931156233966 0 0.045721481615681334 0.020596178772050822 0 0.047215159365263659 0.018900178134394544 0 0.048438842053004152 0.019970652992701659 0 0.04351566151548196 0.020518835259154034 0 0.043317705247957784 0.018399212452647602 0 0.045551397331574782 0.018699931156233966 0 0.045721481615681334 0.020596178772050822 0 0.04351566151548196 0.020518835259154034 0 0.045551397331574782 0.018699931156233966 0 0.043317705247957784 0.018399212452647602 0 0.044914213876608773 0.01674782490333513 0 0.041853676230425671 0.015983392865537863 0 0.043317705247957784 0.018399212452647602 0 0.044914213876608773 0.01674782490333513 0 0.045551397331574782 0.018699931156233966 0 0.044132194627855434 0.01385056367141687 0 0.044914213876608773 0.01674782490333513 0 0.041853676230425671 0.015983392865537863 0 0.044132194627855434 0.01385056367141687 0 0.044914213876608773 0.01674782490333513 0 0.046754240926009515 0.015408509217383305 0 0.044914213876608773 0.01674782490333513 0 0.046754240926009515 0.015408509217383305 0 0.047110291246134813 0.01736543841317445 0 0.044914213876608773 0.01674782490333513 0 0.047110291246134813 0.01736543841317445 0 0.045551397331574782 0.018699931156233966 0 0.047215159365263659 0.018900178134394544 0 0.047110291246134813 0.01736543841317445 0 0.045551397331574782 0.018699931156233966 0 0.047215159365263659 0.018900178134394544 0 0.047110291246134813 0.01736543841317445 0 0.048942908499129988 0.018018614940476137 0 0.048942908499129988 0.018018614940476137 0 0.049091544442156999 0.016301547217288749 0 0.050560557763460953 0.017212711037884521 0 0.047110291246134813 0.01736543841317445 0 0.048942908499129988 0.018018614940476137 0 0.049091544442156999 0.016301547217288749 0 0.048489785051884962 0.014501236243730228 0 0.046754240926009515 0.015408509217383305 0 0.049091544442156999 0.016301547217288749 0 0.046754240926009515 0.015408509217383305 0 0.047110291246134813 0.01736543841317445 0 0.049091544442156999 0.016301547217288749 0 0.048489785051884962 0.014501236243730228 0 0.049091544442156999 0.016301547217288749 0 0.050103880063080176 0.015282523016168696 0 0.05085441790390488 0.015667468978335587 0 0.051203953482682342 0.016220826564362027 0 0.051543550010901738 0.01584018698829151 0 0.05085441790390488 0.015667468978335587 0 0.050413201011860871 0.016168948642316272 0 0.051203953482682342 0.016220826564362027 0 0.049091544442156999 0.016301547217288749 0 0.050103880063080176 0.015282523016168696 0 0.050413201011860871 0.016168948642316272 0 0.05085441790390488 0.015667468978335587 0 0.050103880063080176 0.015282523016168696 0 0.050413201011860871 0.016168948642316272 0 0.049091544442156999 0.016301547217288749 0 0.050413201011860871 0.016168948642316272 0 0.050560557763460953 0.017212711037884521 0 0.051203953482682342 0.016220826564362027 0 0.050560557763460953 0.017212711037884521 0 0.051855549921501876 0.017050948944980469 0 0.050413201011860871 0.016168948642316272 0 0.051203953482682342 0.016220826564362027 0 0.050560557763460953 0.017212711037884521 0 0.050560557763460953 0.017212711037884521 0 0.051557753389367078 0.018169477508452325 0 0.051855549921501876 0.017050948944980469 0 0.048942908499129988 0.018018614940476137 0 0.050560557763460953 0.017212711037884521 0 0.050292466613507676 0.018889883127390917 0 0.050560557763460953 0.017212711037884521 0 0.050292466613507676 0.018889883127390917 0 0.051557753389367078 0.018169477508452325 0 0.050292466613507676 0.018889883127390917 0 0.051723939025568495 0.019408351035653408 0 0.051557753389367078 0.018169477508452325 0 0.050292466613507676 0.018889883127390917 0 0.048438842053004152 0.019970652992701659 0 0.050870576375932043 0.020547776367940883 0 0.050292466613507676 0.018889883127390917 0 0.050870576375932043 0.020547776367940883 0 0.051723939025568495 0.019408351035653408 0 0.047215159365263659 0.018900178134394544 0 0.048942908499129988 0.018018614940476137 0 0.048438842053004152 0.019970652992701659 0 0.048942908499129988 0.018018614940476137 0 0.050292466613507676 0.018889883127390917 0 0.048438842053004152 0.019970652992701659 0 0.046949895035354496 0.021457992618176248 0 0.048438842053004152 0.019970652992701659 0 0.048936060134151929 0.021856777591996092 0 0.048936060134151929 0.021856777591996092 0 0.050870576375932043 0.020547776367940883 0 0.051275691854277938 0.022338003049306006 0 0.048438842053004152 0.019970652992701659 0 0.048936060134151929 0.021856777591996092 0 0.050870576375932043 0.020547776367940883 0 0.050870576375932043 0.020547776367940883 0 0.052623905934069494 0.021571763382618302 0 0.051275691854277938 0.022338003049306006 0 0.053142368519761223 0.020446959913471837 0 0.052623905934069494 0.021571763382618302 0 0.054754604540609313 0.021922356905588983 0 0.052623905934069494 0.021571763382618302 0 0.054754604540609313 0.021922356905588983 0 0.053577445802242621 0.022926222871626111 0 0.050870576375932043 0.020547776367940883 0 0.053142368519761223 0.020446959913471837 0 0.052623905934069494 0.021571763382618302 0 0.053142368519761223 0.020446959913471837 0 0.054754604540609313 0.021922356905588983 0 0.055247563161207221 0.020673548785302993 0 0.054754604540609313 0.021922356905588983 0 0.055247563161207221 0.020673548785302993 0 0.05645951810703341 0.021464355673435409 0 0.053142368519761223 0.020446959913471837 0 0.055247563161207221 0.020673548785302993 0 0.054045805813083041 0.019590312205097486 0 0.055247563161207221 0.020673548785302993 0 0.054045805813083041 0.019590312205097486 0 0.055178538581716834 0.019302034788956569 0 0.054045805813083041 0.019590312205097486 0 0.055178538581716834 0.019302034788956569 0 0.053873695247563365 0.018501819779821349 0 0.054045805813083041 0.019590312205097486 0 0.052807009412383234 0.019039749208543028 0 0.053873695247563365 0.018501819779821349 0 0.050870576375932043 0.020547776367940883 0 0.053142368519761223 0.020446959913471837 0 0.051723939025568495 0.019408351035653408 0 0.053142368519761223 0.020446959913471837 0 0.052807009412383234 0.019039749208543028 0 0.051723939025568495 0.019408351035653408 0 0.053142368519761223 0.020446959913471837 0 0.054045805813083041 0.019590312205097486 0 0.052807009412383234 0.019039749208543028 0 0.052807009412383234 0.019039749208543028 0 0.051723939025568495 0.019408351035653408 0 0.051557753389367078 0.018169477508452325 0 0.052807009412383234 0.019039749208543028 0 0.051557753389367078 0.018169477508452325 0 0.052777718761166881 0.017808723132863743 0 0.052807009412383234 0.019039749208543028 0 0.052777718761166881 0.017808723132863743 0 0.053873695247563365 0.018501819779821349 0 0.052777718761166881 0.017808723132863743 0 0.051855549921501876 0.017050948944980469 0 0.052897604255660417 0.016863177627690767 0 0.052777718761166881 0.017808723132863743 0 0.052897604255660417 0.016863177627690767 0 0.053785596238907697 0.017533759627052795 0 0.051557753389367078 0.018169477508452325 0 0.052777718761166881 0.017808723132863743 0 0.051855549921501876 0.017050948944980469 0 0.051203953482682342 0.016220826564362027 0 0.051855549921501876 0.017050948944980469 0 0.052200245214596125 0.01619765053527247 0 0.051855549921501876 0.017050948944980469 0 0.052200245214596125 0.01619765053527247 0 0.052897604255660417 0.016863177627690767 0 0.052200245214596125 0.01619765053527247 0 0.052897604255660417 0.016863177627690767 0 0.05339743703541449 0.016220275253114314 0 0.052200245214596125 0.01619765053527247 0 0.052731883160828608 0.015437378592518701 0 0.051543550010901738 0.01584018698829151 0 0.052200245214596125 0.01619765053527247 0 0.052731883160828608 0.015437378592518701 0 0.05339743703541449 0.016220275253114314 0 0.051203953482682342 0.016220826564362027 0 0.052200245214596125 0.01619765053527247 0 0.051543550010901738 0.01584018698829151 0 0.051440536803356127 0.018420521939321526 0 0.051224942170232407 0.018896556474967307 0 0.05092976673847379 0.018659242012640787 0 0.052731883160828608 0.015437378592518701 0 0.05339743703541449 0.016220275253114314 0 0.055000981057664107 0.016144730500933166 0 0.051927336930851206 0.016744773542356376 0 0.053654549333549323 0.019915527698137158 0 0.050690676334163763 0.02042585338696476 0 0.051224942170232407 0.018896556474967307 0 0.05092976673847379 0.018659242012640787 0 0.052897604255660417 0.016863177627690767 0 0.05339743703541449 0.016220275253114314 0 0.053617598808098202 0.016791500842072288 0 0.05339743703541449 0.016220275253114314 0 0.053617598808098202 0.016791500842072288 0 0.054418441868255021 0.016561050996370539 0 0.05339743703541449 0.016220275253114314 0 0.054418441868255021 0.016561050996370539 0 0.055000981057664107 0.016144730500933166 0 0.054418441868255021 0.016561050996370539 0 0.055082400546898391 0.016112737131385512 0 0.054888512070894659 0.017512403670889569 0 0.054896959746217965 0.018288722859808842 0 0.053654549333549323 0.019915527698137158 0 0.054418441868255021 0.016561050996370539 0 0.054888512070894659 0.017512403670889569 0 0.053785596238907697 0.017533759627052795 0 0.053617598808098202 0.016791500842072288 0 0.054418441868255021 0.016561050996370539 0 0.053785596238907697 0.017533759627052795 0 0.052897604255660417 0.016863177627690767 0 0.053617598808098202 0.016791500842072288 0 0.053785596238907697 0.017533759627052795 0 0.052777718761166881 0.017808723132863743 0 0.053785596238907697 0.017533759627052795 0 0.053873695247563365 0.018501819779821349 0 0.054888512070894659 0.017512403670889569 0 0.053785596238907697 0.017533759627052795 0 0.053873695247563365 0.018501819779821349 0 0.055178538581716834 0.019302034788956569 0 0.054888512070894659 0.017512403670889569 0 0.053873695247563365 0.018501819779821349 0 0.055178538581716834 0.019302034788956569 0 0.054888512070894659 0.017512403670889569 0 0.05624372885851904 0.018233374934182457 0 0.055082400546898391 0.016112737131385512 0 0.054888512070894659 0.017512403670889569 0 0.05624372885851904 0.018233374934182457 0 0.055082400546898391 0.016112737131385512 0 0.05624372885851904 0.018233374934182457 0 0.057795885396310399 0.017404753803382148 0 0.053654549333549323 0.019915527698137158 0 0.057460877954080336 0.021679046921831938 0 0.053408428886181698 0.025006761250065533 0 0.055535598159885791 0.023538015782247679 0 0.057159151096129478 0.02691130411086446 0 0.053654549333549323 0.019915527698137158 0 0.053754976856905383 0.02672830956606681 0 0.050690676334163763 0.02042585338696476 0 0.05092976673847379 0.018659242012640787 0 0.048843745899557714 0.019499477040644718 0 0.055535598159885791 0.023538015782247679 0 0.058226148755683528 0.026173974538042676 0 0.057159151096129478 0.02691130411086446 0 0.059379269273043316 0.036280922172703713 0 0.059691164459215781 0.036588698159531828 0 0.059849469488279641 0.036393964327109403 0 0.053754976856905383 0.02672830956606681 0 0.059919188296995704 0.032439346678365233 0 0.058226148755683528 0.026173974538042676 0 0.057159151096129478 0.02691130411086446 0 0.060903050126264333 0.028798241312264026 0 0.057460877954080336 0.021679046921831938 0 0.059908223460333435 0.029521316725744349 0 0.057795885396310399 0.017404753803382148 0 0.05805496709224954 0.019286227926661181 0 0.060300563478441947 0.018774246027503879 0 0.05624372885851904 0.018233374934182457 0 0.057795885396310399 0.017404753803382148 0 0.05805496709224954 0.019286227926661181 0 0.05805496709224954 0.019286227926661181 0 0.057763396714090705 0.020915668740992897 0 0.059468239052341665 0.020473570395376405 0 0.05805496709224954 0.019286227926661181 0 0.056475766837167325 0.019834363637410167 0 0.057763396714090705 0.020915668740992897 0 0.05624372885851904 0.018233374934182457 0 0.05805496709224954 0.019286227926661181 0 0.056475766837167325 0.019834363637410167 0 0.055178538581716834 0.019302034788956569 0 0.05624372885851904 0.018233374934182457 0 0.056475766837167325 0.019834363637410167 0 0.055247563161207221 0.020673548785302993 0 0.055178538581716834 0.019302034788956569 0 0.056475766837167325 0.019834363637410167 0 0.056475766837167325 0.019834363637410167 0 0.05645951810703341 0.021464355673435409 0 0.057763396714090705 0.020915668740992897 0 0.055247563161207221 0.020673548785302993 0 0.056475766837167325 0.019834363637410167 0 0.05645951810703341 0.021464355673435409 0 0.054754604540609313 0.021922356905588983 0 0.05645951810703341 0.021464355673435409 0 0.056458035539029949 0.02281541512304024 0 0.05645951810703341 0.021464355673435409 0 0.057533968483142038 0.022350676008467317 0 0.057763396714090705 0.020915668740992897 0 0.05645951810703341 0.021464355673435409 0 0.057533968483142038 0.022350676008467317 0 0.056458035539029949 0.02281541512304024 0 0.057533968483142038 0.022350676008467317 0 0.058666872358371938 0.022108581317135841 0 0.057763396714090705 0.020915668740992897 0 0.058666872358371938 0.022108581317135841 0 0.057763396714090705 0.020915668740992897 0 0.059468239052341665 0.020473570395376405 0 0.057580729908203322 0.023601680025153549 0 0.058541656820582648 0.023887178678812904 0 0.058207596871480631 0.023036975897716312 0 0.057580729908203322 0.023601680025153549 0 0.058541656820582648 0.023887178678812904 0 0.058110743515921673 0.024461485455596729 0 0.058541656820582648 0.023887178678812904 0 0.059069485902113923 0.022902766440758799 0 0.058207596871480631 0.023036975897716312 0 0.058666872358371938 0.022108581317135841 0 0.059069485902113923 0.022902766440758799 0 0.058207596871480631 0.023036975897716312 0 0.058541656820582648 0.023887178678812904 0 0.059069485902113923 0.022902766440758799 0 0.059834150736000069 0.023302874342117596 0 0.057533968483142038 0.022350676008467317 0 0.057580729908203322 0.023601680025153549 0 0.058207596871480631 0.023036975897716312 0 0.057533968483142038 0.022350676008467317 0 0.058666872358371938 0.022108581317135841 0 0.058207596871480631 0.023036975897716312 0 0.057533968483142038 0.022350676008467317 0 0.057580729908203322 0.023601680025153549 0 0.056458035539029949 0.02281541512304024 0 0.056458035539029949 0.02281541512304024 0 0.056720248995714276 0.023899548428210335 0 0.05561098423027766 0.023568257101124035 0 0.057580729908203322 0.023601680025153549 0 0.056458035539029949 0.02281541512304024 0 0.056720248995714276 0.023899548428210335 0 0.057580729908203322 0.023601680025153549 0 0.056720248995714276 0.023899548428210335 0 0.057455256586725255 0.024563516801763934 0 0.056720248995714276 0.023899548428210335 0 0.057455256586725255 0.024563516801763934 0 0.05651334314869521 0.024739128512258211 0 0.056720248995714276 0.023899548428210335 0 0.05651334314869521 0.024739128512258211 0 0.05561098423027766 0.023568257101124035 0 0.05651334314869521 0.024739128512258211 0 0.057419431152761144 0.025262542009861135 0 0.05658368593615154 0.025740128565508648 0 0.057455256586725255 0.024563516801763934 0 0.05651334314869521 0.024739128512258211 0 0.057419431152761144 0.025262542009861135 0 0.057455256586725255 0.024563516801763934 0 0.057419431152761144 0.025262542009861135 0 0.058239152284854767 0.025205644104849892 0 0.057419431152761144 0.025262542009861135 0 0.058239152284854767 0.025205644104849892 0 0.058202522212129862 0.025963588445519464 0 0.057455256586725255 0.024563516801763934 0 0.058239152284854767 0.025205644104849892 0 0.058110743515921673 0.024461485455596729 0 0.058239152284854767 0.025205644104849892 0 0.058110743515921673 0.024461485455596729 0 0.05877483925424546 0.024908706119470964 0 0.057580729908203322 0.023601680025153549 0 0.057455256586725255 0.024563516801763934 0 0.058110743515921673 0.024461485455596729 0 0.058541656820582648 0.023887178678812904 0 0.058110743515921673 0.024461485455596729 0 0.05877483925424546 0.024908706119470964 0 0.058239152284854767 0.025205644104849892 0 0.058876369342897465 0.025521668995121257 0 0.058643402465106853 0.025763692256799663 0 0.058239152284854767 0.025205644104849892 0 0.05877483925424546 0.024908706119470964 0 0.058876369342897465 0.025521668995121257 0 0.058643402465106853 0.025763692256799663 0 0.058795754892850674 0.026091728254034378 0 0.058979512164741767 0.025918601209199255 0 0.058876369342897465 0.025521668995121257 0 0.058643402465106853 0.025763692256799663 0 0.058979512164741767 0.025918601209199255 0 0.058643402465106853 0.025763692256799663 0 0.058202522212129862 0.025963588445519464 0 0.058795754892850674 0.026091728254034378 0 0.058239152284854767 0.025205644104849892 0 0.058643402465106853 0.025763692256799663 0 0.058202522212129862 0.025963588445519464 0 0.058202522212129862 0.025963588445519464 0 0.058795754892850674 0.026091728254034378 0 0.0586908747377613 0.026350432366606825 0 0.0586908747377613 0.026350432366606825 0 0.058993983707964021 0.026028293756053061 0 0.058733286046460179 0.026629918105614728 0 0.058795754892850674 0.026091728254034378 0 0.0586908747377613 0.026350432366606825 0 0.059000267933232438 0.026189781200244098 0 0.0586908747377613 0.026350432366606825 0 0.059000267933232438 0.026189781200244098 0 0.058993983707964021 0.026028293756053061 0 0.057834442066621847 0.026410612634746242 0 0.055753814238720861 0.027276537855996132 0 0.058733286046460179 0.026629918105614728 0 0.0586908747377613 0.026350432366606825 0 0.057834442066621847 0.026410612634746242 0 0.058733286046460179 0.026629918105614728 0 0.057419431152761144 0.025262542009861135 0 0.058202522212129862 0.025963588445519464 0 0.05658368593615154 0.025740128565508648 0 0.058202522212129862 0.025963588445519464 0 0.057834442066621847 0.026410612634746242 0 0.05658368593615154 0.025740128565508648 0 0.058202522212129862 0.025963588445519464 0 0.0586908747377613 0.026350432366606825 0 0.057834442066621847 0.026410612634746242 0 0.057834442066621847 0.026410612634746242 0 0.05658368593615154 0.025740128565508648 0 0.055753814238720861 0.027276537855996132 0 0.05658368593615154 0.025740128565508648 0 0.055753814238720861 0.027276537855996132 0 0.053984774697778661 0.025645910258322597 0 0.058698642851288271 0.027205487337357608 0 0.058246755676749064 0.026627084128449007 0 0.061482650576995888 0.027268595601642662 0 0.061128872914466115 0.026024555970411468 0 0.061624504157998389 0.025847924963393529 0 0.060403728558885025 0.026876539854696624 0 0.061482650576995888 0.027268595601642662 0 0.061128872914466115 0.026024555970411468 0 0.058698642851288271 0.027205487337357608 0 0.054097458772645976 0.026476929413607356 0 0.052101695140775062 0.028715009346541753 0 0.053984774697778661 0.025645910258322597 0 0.050771694738078681 0.025519594443688412 0 0.054097458772645976 0.026476929413607356 0 0.053573821047234321 0.026359913281084401 0 0.055753814238720861 0.027276537855996132 0 0.053617621564558821 0.026817120348305978 0 0.053984774697778661 0.025645910258322597 0 0.053984774697778661 0.025645910258322597 0 0.052344562967570459 0.024027367013048428 0 0.050771694738078681 0.025519594443688412 0 0.053984774697778661 0.025645910258322597 0 0.052344562967570459 0.024027367013048428 0 0.054882309605877616 0.024519211143862914 0 0.05658368593615154 0.025740128565508648 0 0.053984774697778661 0.025645910258322597 0 0.054882309605877616 0.024519211143862914 0 0.05651334314869521 0.024739128512258211 0 0.05658368593615154 0.025740128565508648 0 0.054882309605877616 0.024519211143862914 0 0.05651334314869521 0.024739128512258211 0 0.054882309605877616 0.024519211143862914 0 0.05561098423027766 0.023568257101124035 0 0.054882309605877616 0.024519211143862914 0 0.05561098423027766 0.023568257101124035 0 0.053577445802242621 0.022926222871626111 0 0.054754604540609313 0.021922356905588983 0 0.056458035539029949 0.02281541512304024 0 0.05561098423027766 0.023568257101124035 0 0.054754604540609313 0.021922356905588983 0 0.05561098423027766 0.023568257101124035 0 0.053577445802242621 0.022926222871626111 0 0.052344562967570459 0.024027367013048428 0 0.054882309605877616 0.024519211143862914 0 0.053577445802242621 0.022926222871626111 0 0.052623905934069494 0.021571763382618302 0 0.053577445802242621 0.022926222871626111 0 0.051275691854277938 0.022338003049306006 0 0.052344562967570459 0.024027367013048428 0 0.053577445802242621 0.022926222871626111 0 0.051275691854277938 0.022338003049306006 0 0.052344562967570459 0.024027367013048428 0 0.049469884205914721 0.02348436622079509 0 0.051275691854277938 0.022338003049306006 0 0.048936060134151929 0.021856777591996092 0 0.049469884205914721 0.02348436622079509 0 0.051275691854277938 0.022338003049306006 0 0.048936060134151929 0.021856777591996092 0 0.049469884205914721 0.02348436622079509 0 0.046609684047082725 0.023454645686807687 0 0.046949895035354496 0.021457992618176248 0 0.048936060134151929 0.021856777591996092 0 0.046609684047082725 0.023454645686807687 0 0.048157017478822318 0.024857715087546292 0 0.045856600895530265 0.025583900214767613 0 0.046609684047082725 0.023454645686807687 0 0.049469884205914721 0.02348436622079509 0 0.048157017478822318 0.024857715087546292 0 0.046609684047082725 0.023454645686807687 0 0.052344562967570459 0.024027367013048428 0 0.049469884205914721 0.02348436622079509 0 0.050771694738078681 0.025519594443688412 0 0.048157017478822318 0.024857715087546292 0 0.050771694738078681 0.025519594443688412 0 0.049017814803471567 0.027415336854104109 0 0.049469884205914721 0.02348436622079509 0 0.048157017478822318 0.024857715087546292 0 0.050771694738078681 0.025519594443688412 0 0.052101695140775062 0.028715009346541753 0 0.050771694738078681 0.025519594443688412 0 0.049017814803471567 0.027415336854104109 0 0.054097458772645976 0.026476929413607356 0 0.04685290399084556 0.026267013370038384 0 0.061482650576995888 0.027268595601642662 0 0.062448571762159226 0.025801758563731979 0 0.061624504157998389 0.025847924963393529 0 0.054097458772645976 0.026476929413607356 0 0.054353429152195445 0.026410602517216563 0 0.046904212049497442 0.025929428157930885 0 0.045827617246614633 0.026297368235961363 0 0.046069638248360238 0.025662189087007289 0 0.046904212049497442 0.025929428157930885 0 0.045827617246614633 0.026297368235961363 0 0.046213677508852191 0.027006047794100773 0 0.045827617246614633 0.026297368235961363 0 0.045533646564772538 0.025898266769296081 0 0.044850052339665165 0.026391438078156401 0 0.045827617246614633 0.026297368235961363 0 0.044850052339665165 0.026391438078156401 0 0.045120915017668003 0.027240880743722776 0 0.045827617246614633 0.026297368235961363 0 0.045533646564772538 0.025898266769296081 0 0.046069638248360238 0.025662189087007289 0 0.045533646564772538 0.025898266769296081 0 0.046069638248360238 0.025662189087007289 0 0.045856600895530265 0.025583900214767613 0 0.048157017478822318 0.024857715087546292 0 0.049017814803471567 0.027415336854104109 0 0.045856600895530265 0.025583900214767613 0 0.04685290399084556 0.026267013370038384 0 0.046286519984100619 0.025838761490476533 0 0.045856600895530265 0.025583900214767613 0 0.044557484913857498 0.025771907059805133 0 0.043909877005308767 0.024894575660990587 0 0.045533646564772538 0.025898266769296081 0 0.045856600895530265 0.025583900214767613 0 0.044557484913857498 0.025771907059805133 0 0.045533646564772538 0.025898266769296081 0 0.044557484913857498 0.025771907059805133 0 0.044850052339665165 0.026391438078156401 0 0.044557484913857498 0.025771907059805133 0 0.044850052339665165 0.026391438078156401 0 0.043589893518501448 0.026107785341537546 0 0.044850052339665165 0.026391438078156401 0 0.043589893518501448 0.026107785341537546 0 0.043940231265838847 0.026899976066719667 0 0.043589893518501448 0.026107785341537546 0 0.043940231265838847 0.026899976066719667 0 0.042707108602482967 0.02657285923006476 0 0.044557484913857498 0.025771907059805133 0 0.043589893518501448 0.026107785341537546 0 0.043224200600822632 0.025401317503549306 0 0.043224200600822632 0.025401317503549306 0 0.043909877005308767 0.024894575660990587 0 0.042380035819388887 0.024627661049178809 0 0.044557484913857498 0.025771907059805133 0 0.043224200600822632 0.025401317503549306 0 0.043909877005308767 0.024894575660990587 0 0.043909877005308767 0.024894575660990587 0 0.043003309686984265 0.023677140027977141 0 0.042380035819388887 0.024627661049178809 0 0.043909877005308767 0.024894575660990587 0 0.044685263351996282 0.023814155364531294 0 0.043003309686984265 0.023677140027977141 0 0.045856600895530265 0.025583900214767613 0 0.043909877005308767 0.024894575660990587 0 0.044685263351996282 0.023814155364531294 0 0.045856600895530265 0.025583900214767613 0 0.044685263351996282 0.023814155364531294 0 0.046609684047082725 0.023454645686807687 0 0.046949895035354496 0.021457992618176248 0 0.046609684047082725 0.023454645686807687 0 0.045436238392093618 0.022485584054598478 0 0.044685263351996282 0.023814155364531294 0 0.046609684047082725 0.023454645686807687 0 0.045436238392093618 0.022485584054598478 0 0.043628791151898473 0.022230224787652967 0 0.044685263351996282 0.023814155364531294 0 0.043003309686984265 0.023677140027977141 0 0.043628791151898473 0.022230224787652967 0 0.044685263351996282 0.023814155364531294 0 0.045436238392093618 0.022485584054598478 0 0.058495428025669406 0.036254601530310189 0 0.056952372451713709 0.03603729890019948 0 0.058544742550189724 0.036489932968663694 0 0.057086195108316515 0.036314102107243812 0 0.057564419335420988 0.037710465547707621 0 0.058544742550189724 0.036489932968663694 0 0.057564419335420988 0.037710465547707621 0 0.058515272920737472 0.037658434503355445 0 0.058495428025669406 0.036254601530310189 0 0.05965352184663672 0.036440283399806463 0 0.058544742550189724 0.036489932968663694 0 0.058515272920737472 0.037658434503355445 0 0.059164609854803249 0.037197178178488985 0 0.058380275988169354 0.035999601908792131 0 0.059263109105147212 0.035699017382448864 0 0.059714918293596791 0.0364616550912076 0 0.058544742550189724 0.036489932968663694 0 0.059164609854803249 0.037197178178488985 0 0.059714918293596791 0.0364616550912076 0 0.058380275988169354 0.035999601908792131 0 0.059263109105147212 0.035699017382448864 0 0.058828426439588528 0.034611731133397175 0 0.059263109105147212 0.035699017382448864 0 0.060035971023597159 0.035874742435913994 0 0.058828426439588528 0.034611731133397175 0 0.058380275988169354 0.035999601908792131 0 0.056903361422110471 0.035768515827725868 0 0.057676122951629979 0.034576787793814345 0 0.058380275988169354 0.035999601908792131 0 0.057676122951629979 0.034576787793814345 0 0.058828426439588528 0.034611731133397175 0 0.05628705623526805 0.034535937294639545 0 0.056903361422110471 0.035768515827725868 0 0.057676122951629979 0.034576787793814345 0 0.054999882370635834 0.035786238214577014 0 0.05628705623526805 0.034535937294639545 0 0.056903361422110471 0.035768515827725868 0 0.054999882370635834 0.035786238214577014 0 0.05628705623526805 0.034535937294639545 0 0.054999882735757399 0.032976574669987761 0 0.055000363281347726 0.035787412307517308 0 0.056952372451713709 0.03603729890019948 0 0.054999992967148359 0.035788009729807238 0 0.056013133870904126 0.037199551641876535 0 0.057086195108316515 0.036314102107243812 0 0.054999992967148359 0.035788009729807238 0 0.056013133870904126 0.037199551641876535 0 0.054999997525294622 0.038641089106286677 0 0.057086195108316515 0.036314102107243812 0 0.056713511955942326 0.037542340548450036 0 0.057564419335420988 0.037710465547707621 0 0.056013133870904126 0.037199551641876535 0 0.057086195108316515 0.036314102107243812 0 0.056713511955942326 0.037542340548450036 0 0.057564419335420988 0.037710465547707621 0 0.056048340258796056 0.038550973302316771 0 0.057785102950301356 0.038937990826614179 0 0.056713511955942326 0.037542340548450036 0 0.057564419335420988 0.037710465547707621 0 0.056048340258796056 0.038550973302316771 0 0.056013133870904126 0.037199551641876535 0 0.054999997525294622 0.038641089106286677 0 0.056048340258796056 0.038550973302316771 0 0.056013133870904126 0.037199551641876535 0 0.056713511955942326 0.037542340548450036 0 0.056048340258796056 0.038550973302316771 0 0.054999910539367147 0.041496969336106762 0 0.054999997525294622 0.038641089106286677 0 0.056048340258796056 0.038550973302316771 0 0.054999910539367147 0.041496969336106762 0 0.056048340258796056 0.038550973302316771 0 0.056860135601419233 0.040925483735015956 0 0.05500045133390892 0.041496829705118955 0 0.056147281315738588 0.041697451837122854 0 0.056048340258796056 0.038550973302316771 0 0.056860135601419233 0.040925483735015956 0 0.058787578232816586 0.040368587993327772 0 0.056147281315738588 0.041697451837122854 0 0.05845216575339636 0.039268236291717162 0 0.056431703131425183 0.04314704925286772 0 0.056088933822728379 0.042388427976767541 0 0.05658749781724115 0.042859398348699028 0 0.056105547201068799 0.038654713642796212 0 0.05845216575339636 0.039268236291717162 0 0.058586915883642926 0.040099205161970061 0 0.05845216575339636 0.039268236291717162 0 0.057785102950301356 0.038937990826614179 0 0.058515272920737472 0.037658434503355445 0 0.059469361741479931 0.037948311538183115 0 0.057564419335420988 0.037710465547707621 0 0.057785102950301356 0.038937990826614179 0 0.058515272920737472 0.037658434503355445 0 0.058515272920737472 0.037658434503355445 0 0.059164609854803249 0.037197178178488985 0 0.059469361741479931 0.037948311538183115 0 0.060774100939774513 0.036429416569823708 0 0.060938697158096876 0.036601695279165333 0 0.060699163508200364 0.036668276548744723 0 0.05845216575339636 0.039268236291717162 0 0.060295332094449386 0.037050156790770741 0 0.060699163508200364 0.036668276548744723 0 0.060458081310661764 0.036472250722838738 0 0.060386552638708541 0.036855217112104981 0 0.060774100939774513 0.036429416569823708 0 0.060699163508200364 0.036668276548744723 0 0.060458081310661764 0.036472250722838738 0 0.060458081310661764 0.036472250722838738 0 0.060386552638708541 0.036855217112104981 0 0.060260079607206501 0.036512672230283261 0 0.060386552638708541 0.036855217112104981 0 0.059951316290510481 0.03697159401537576 0 0.060339787521481919 0.036765870318223669 0 0.060386552638708541 0.036855217112104981 0 0.060304768161462872 0.036785655061001017 0 0.060339787521481919 0.036765870318223669 0 0.060295332094449386 0.037050156790770741 0 0.060231408816388783 0.037008591153624787 0 0.059469361741479931 0.037948311538183115 0 0.060386552638708541 0.036855217112104981 0 0.059951316290510481 0.03697159401537576 0 0.059164609854803249 0.037197178178488985 0 0.059469361741479931 0.037948311538183115 0 0.059951316290510481 0.03697159401537576 0 0.059691164459215781 0.036588698159531828 0 0.059849469488279641 0.036393964327109403 0 0.060116729611710676 0.03663045707179171 0 0.060097393981804435 0.036373068101026786 0 0.059849469488279641 0.036393964327109403 0 0.060116729611710676 0.03663045707179171 0 0.060386552638708541 0.036855217112104981 0 0.060260079607206501 0.036512672230283261 0 0.060116729611710676 0.03663045707179171 0 0.060097393981804435 0.036373068101026786 0 0.060260079607206501 0.036512672230283261 0 0.060116729611710676 0.03663045707179171 0 0.060116729611710676 0.03663045707179171 0 0.060304768161462872 0.036785655061001017 0 0.060029789365365918 0.036827051384861566 0 0.060386552638708541 0.036855217112104981 0 0.060116729611710676 0.03663045707179171 0 0.060304768161462872 0.036785655061001017 0 0.059691164459215781 0.036588698159531828 0 0.060116729611710676 0.03663045707179171 0 0.060029789365365918 0.036827051384861566 0 0.059919188296995704 0.032439346678365233 0 0.059908223460333435 0.029521316725744349 0 0.060300563478441947 0.018774246027503879 0 0.059468239052341665 0.020473570395376405 0 0.062178698133087781 0.020752804108540777 0 0.05805496709224954 0.019286227926661181 0 0.060300563478441947 0.018774246027503879 0 0.059468239052341665 0.020473570395376405 0 0.059908223460333435 0.029521316725744349 0 0.06076313740400343 0.027093272602260025 0 0.060304768161462872 0.036785655061001017 0 0.060029789365365918 0.036827051384861566 0 0.060435845029139332 0.036715043914057083 0 0.059908223460333435 0.029521316725744349 0 0.06037535427373289 0.036201639751345611 0 0.059454918759764858 0.033977364130345369 0 0.05991130962923142 0.034367487663792273 0 0.059829027965548176 0.034443530470036288 0 0.060304768161462872 0.036785655061001017 0 0.060435845029139332 0.036715043914057083 0 0.060339787521481919 0.036765870318223669 0 0.05991130962923142 0.034367487663792273 0 0.059829027965548176 0.034443530470036288 0 0.059867768663132981 0.034456790471385806 0 0.062178698133087781 0.020752804108540777 0 0.060136710491253652 0.022166491431448724 0 0.061421088989638571 0.022710927842631835 0 0.062178698133087781 0.020752804108540777 0 0.061421088989638571 0.022710927842631835 0 0.062576414320209994 0.023128148969542899 0 0.059468239052341665 0.020473570395376405 0 0.062178698133087781 0.020752804108540777 0 0.060136710491253652 0.022166491431448724 0 0.058666872358371938 0.022108581317135841 0 0.059069485902113923 0.022902766440758799 0 0.060136710491253652 0.022166491431448724 0 0.058666872358371938 0.022108581317135841 0 0.059468239052341665 0.020473570395376405 0 0.060136710491253652 0.022166491431448724 0 0.059164609854803249 0.037197178178488985 0 0.059951316290510481 0.03697159401537576 0 0.059714918293596791 0.0364616550912076 0 0.059714918293596791 0.0364616550912076 0 0.060150142606093332 0.036575307214228914 0 0.060035971023597159 0.035874742435913994 0 0.059951316290510481 0.03697159401537576 0 0.059714918293596791 0.0364616550912076 0 0.060150142606093332 0.036575307214228914 0 0.059951316290510481 0.03697159401537576 0 0.060150142606093332 0.036575307214228914 0 0.060339787521481919 0.036765870318223669 0 0.06037535427373289 0.036201639751345611 0 0.059720248709089513 0.035108102800076119 0 0.060435845029139332 0.036715043914057083 0 0.060150142606093332 0.036575307214228914 0 0.060035971023597159 0.035874742435913994 0 0.060435845029139332 0.036715043914057083 0 0.060150142606093332 0.036575307214228914 0 0.060339787521481919 0.036765870318223669 0 0.059829027965548176 0.034443530470036288 0 0.059867768663132981 0.034456790471385806 0 0.059911888748894512 0.034395638654522803 0 0.06076313740400343 0.027093272602260025 0 0.062183103628119157 0.028680026597054181 0 0.062178698133087781 0.020752804108540777 0 0.063945896145245346 0.022651635209477598 0 0.062576414320209994 0.023128148969542899 0 0.05991130962923142 0.034367487663792273 0 0.059867768663132981 0.034456790471385806 0 0.059738814578062717 0.034608292163949686 0 0.059867768663132981 0.034456790471385806 0 0.059738814578062717 0.034608292163949686 0 0.059911888748894512 0.034395638654522803 0 0.059738814578062717 0.034608292163949686 0 0.05956120216496897 0.034315201473415741 0 0.059911888748894512 0.034395638654522803 0 0.059738814578062717 0.034608292163949686 0 0.05956120216496897 0.034315201473415741 0 0.058828426439588528 0.034611731133397175 0 0.059720248709089513 0.035108102800076119 0 0.058894475002111216 0.03467486736965391 0 0.059263109105147212 0.035699017382448864 0 0.059714918293596791 0.0364616550912076 0 0.060035971023597159 0.035874742435913994 0 0.063945896145245346 0.022651635209477598 0 0.063966960050160129 0.023635162286127102 0 0.065624029191914776 0.024432655580703528 0 0.062183103628119157 0.028680026597054181 0 0.061176402086396756 0.028937964445758139 0 0.05956120216496897 0.034315201473415741 0 0.059911888748894512 0.034395638654522803 0 0.059526387745950961 0.033724576349838241 0 0.063966960050160129 0.023635162286127102 0 0.06370986734563977 0.0243233168494063 0 0.065624029191914776 0.024432655580703528 0 0.063945896145245346 0.022651635209477598 0 0.063966960050160129 0.023635162286127102 0 0.062576414320209994 0.023128148969542899 0 0.063966960050160129 0.023635162286127102 0 0.06370986734563977 0.0243233168494063 0 0.062576414320209994 0.023128148969542899 0 0.061060693252882499 0.02672865333436561 0 0.059365511797119387 0.028121680804731115 0 0.059323929358045549 0.026737847462783133 0 0.059234866027552305 0.027075160682185195 0 0.059157544386107423 0.027469602840120164 0 0.061060693252882499 0.02672865333436561 0 0.061176402086396756 0.028937964445758139 0 0.059323929358045549 0.026737847462783133 0 0.05929374581590019 0.026814590478051372 0 0.059234866027552305 0.027075160682185195 0 0.061746297255657161 0.02674056031478363 0 0.061798350074706083 0.026703691001903552 0 0.061536608862819003 0.026803098250720421 0 0.061746297255657161 0.02674056031478363 0 0.061798350074706083 0.026703691001903552 0 0.06194852225867295 0.026679416486050583 0 0.059323929358045549 0.026737847462783133 0 0.059320615234686444 0.026649150270492351 0 0.05929374581590019 0.026814590478051372 0 0.059323929358045549 0.026737847462783133 0 0.059320615234686444 0.026649150270492351 0 0.059328099547615927 0.026453419001359918 0 0.059320615234686444 0.026649150270492351 0 0.059324612219479801 0.026585774648597866 0 0.05929374581590019 0.026814590478051372 0 0.059324612219479801 0.026585774648597866 0 0.05929374581590019 0.026814590478051372 0 0.059296502333875373 0.026738250816145826 0 0.059324612219479801 0.026585774648597866 0 0.059324110846012322 0.02649383248322475 0 0.059296502333875373 0.026738250816145826 0 0.059259035177953938 0.026936324200522624 0 0.059214817636644969 0.027003592037924816 0 0.059296502333875373 0.026738250816145826 0 0.05929374581590019 0.026814590478051372 0 0.059234866027552305 0.027075160682185195 0 0.059259035177953938 0.026936324200522624 0 0.05929374581590019 0.026814590478051372 0 0.059259035177953938 0.026936324200522624 0 0.059296502333875373 0.026738250816145826 0 0.059234866027552305 0.027075160682185195 0 0.059259035177953938 0.026936324200522624 0 0.059214817636644969 0.027003592037924816 0 0.06314406201393849 0.025470616442571231 0 0.061176402086396756 0.028937964445758139 0 0.061293425920455197 0.028851737743565802 0 0.059559275698718703 0.029023753545018183 0 0.059989262374414154 0.028727360242805731 0 0.059307426710112097 0.028806095758449741 0 0.059989262374414154 0.028727360242805731 0 0.058673922291810385 0.028650179152880539 0 0.059234866027552305 0.027075160682185195 0 0.05911517151236096 0.027392702601653725 0 0.059214817636644969 0.027003592037924816 0 0.058951996214551244 0.027804608778720187 0 0.059157544386107423 0.027469602840120164 0 0.058673922291810385 0.028650179152880539 0 0.059234866027552305 0.027075160682185195 0 0.05911517151236096 0.027392702601653725 0 0.059157544386107423 0.027469602840120164 0 0.059365511797119387 0.028121680804731115 0 0.058752773350475504 0.028440070003314211 0 0.05911517151236096 0.027392702601653725 0 0.058951996214551244 0.027804608778720187 0 0.059157544386107423 0.027469602840120164 0 0.059307426710112097 0.028806095758449741 0 0.059559275698718703 0.029023753545018183 0 0.059989262374414154 0.028727360242805731 0 0.060501920534309153 0.028594817191906999 0 0.061176402086396756 0.028937964445758139 0 0.058541656820582648 0.023887178678812904 0 0.05877483925424546 0.024908706119470964 0 0.06086692134381419 0.024356781926164032 0 0.058541656820582648 0.023887178678812904 0 0.059834150736000069 0.023302874342117596 0 0.06091753768085538 0.02420482699194736 0 0.0587415743402257 0.023899959374480702 0 0.060789327169131664 0.024533997144680207 0 0.059069485902113923 0.022902766440758799 0 0.060136710491253652 0.022166491431448724 0 0.059834150736000069 0.023302874342117596 0 0.060136710491253652 0.022166491431448724 0 0.059834150736000069 0.023302874342117596 0 0.060748638529038571 0.023311002893976779 0 0.060136710491253652 0.022166491431448724 0 0.060748638529038571 0.023311002893976779 0 0.061421088989638571 0.022710927842631835 0 0.059834150736000069 0.023302874342117596 0 0.060748638529038571 0.023311002893976779 0 0.06091753768085538 0.02420482699194736 0 0.06370986734563977 0.0243233168494063 0 0.062576414320209994 0.023128148969542899 0 0.061730139836971017 0.024313870211437015 0 0.060748638529038571 0.023311002893976779 0 0.06091753768085538 0.02420482699194736 0 0.061484340415991434 0.023520978647140072 0 0.060789327169131664 0.024533997144680207 0 0.061735297849091125 0.025303778561876409 0 0.06091753768085538 0.02420482699194736 0 0.061484340415991434 0.023520978647140072 0 0.061730139836971017 0.024313870211437015 0 0.061484340415991434 0.023520978647140072 0 0.061421088989638571 0.022710927842631835 0 0.062576414320209994 0.023128148969542899 0 0.060748638529038571 0.023311002893976779 0 0.061484340415991434 0.023520978647140072 0 0.061421088989638571 0.022710927842631835 0 0.061484340415991434 0.023520978647140072 0 0.062576414320209994 0.023128148969542899 0 0.061730139836971017 0.024313870211437015 0 0.061060693252882499 0.02672865333436561 0 0.06003022820976564 0.025316475981660078 0 0.06260461961736459 0.024700848935115455 0 0.061495013305729061 0.024532074596215991 0 0.060990079496852714 0.024778848905916449 0 0.06314406201393849 0.025470616442571231 0 0.061735297849091125 0.025303778561876409 0 0.059323929358045549 0.026737847462783133 0 0.059328099547615927 0.026453419001359918 0 0.059331252153317852 0.025977413765010733 0 0.061060693252882499 0.02672865333436561 0 0.061735297849091125 0.025303778561876409 0 0.059320615234686444 0.026649150270492351 0 0.059324612219479801 0.026585774648597866 0 0.059328099547615927 0.026453419001359918 0 0.059324612219479801 0.026585774648597866 0 0.059328099547615927 0.026453419001359918 0 0.059329771217018906 0.026408467375150416 0 0.059324612219479801 0.026585774648597866 0 0.059329771217018906 0.026408467375150416 0 0.059324110846012322 0.02649383248322475 0 0.059329771217018906 0.026408467375150416 0 0.05932374799762391 0.026376320720732569 0 0.059324110846012322 0.02649383248322475 0 0.059329771217018906 0.026408467375150416 0 0.059315517986908942 0.026230112157295427 0 0.05932374799762391 0.026376320720732569 0 0.059328099547615927 0.026453419001359918 0 0.059329771217018906 0.026408467375150416 0 0.05932536995021713 0.026243127418699681 0 0.05932536995021713 0.026243127418699681 0 0.059315517986908942 0.026230112157295427 0 0.059303448811001039 0.026080010684860631 0 0.059329771217018906 0.026408467375150416 0 0.05932536995021713 0.026243127418699681 0 0.059315517986908942 0.026230112157295427 0 0.059315517986908942 0.026230112157295427 0 0.059264494204438654 0.026053625363198569 0 0.059292129390169979 0.026222853404239375 0 0.059315517986908942 0.026230112157295427 0 0.059303448811001039 0.026080010684860631 0 0.059264494204438654 0.026053625363198569 0 0.059328099547615927 0.026453419001359918 0 0.05932536995021713 0.026243127418699681 0 0.059331252153317852 0.025977413765010733 0 0.05932536995021713 0.026243127418699681 0 0.059303448811001039 0.026080010684860631 0 0.059331252153317852 0.025977413765010733 0 0.06086692134381419 0.024356781926164032 0 0.061495013305729061 0.024532074596215991 0 0.060990079496852714 0.024778848905916449 0 0.05877483925424546 0.024908706119470964 0 0.06086692134381419 0.024356781926164032 0 0.060990079496852714 0.024778848905916449 0 0.058854210753866099 0.025062813513151448 0 0.06003022820976564 0.025316475981660078 0 0.05877483925424546 0.024908706119470964 0 0.059331252153317852 0.025977413765010733 0 0.059086276118415673 0.025605596039410032 0 0.059331252153317852 0.025977413765010733 0 0.059233549008563514 0.025886149417291553 0 0.059086276118415673 0.025605596039410032 0 0.059303448811001039 0.026080010684860631 0 0.059331252153317852 0.025977413765010733 0 0.059233549008563514 0.025886149417291553 0 0.059264494204438654 0.026053625363198569 0 0.059102706291804467 0.025796544909793533 0 0.05918910765636947 0.026057654571844339 0 0.059233549008563514 0.025886149417291553 0 0.059264494204438654 0.026053625363198569 0 0.059102706291804467 0.025796544909793533 0 0.059303448811001039 0.026080010684860631 0 0.059233549008563514 0.025886149417291553 0 0.059264494204438654 0.026053625363198569 0 0.059233549008563514 0.025886149417291553 0 0.059086276118415673 0.025605596039410032 0 0.059102706291804467 0.025796544909793533 0 0.058876369342897465 0.025521668995121257 0 0.059102706291804467 0.025796544909793533 0 0.058979512164741767 0.025918601209199255 0 0.05877483925424546 0.024908706119470964 0 0.058876369342897465 0.025521668995121257 0 0.059086276118415673 0.025605596039410032 0 0.058876369342897465 0.025521668995121257 0 0.059086276118415673 0.025605596039410032 0 0.059102706291804467 0.025796544909793533 0 0.058795754892850674 0.026091728254034378 0 0.059089095946175028 0.026114935329170197 0 0.058979512164741767 0.025918601209199255 0 0.058795754892850674 0.026091728254034378 0 0.059089095946175028 0.026114935329170197 0 0.059000267933232438 0.026189781200244098 0 0.059089095946175028 0.026114935329170197 0 0.058979512164741767 0.025918601209199255 0 0.05918910765636947 0.026057654571844339 0 0.059102706291804467 0.025796544909793533 0 0.058979512164741767 0.025918601209199255 0 0.05918910765636947 0.026057654571844339 0 0.05918910765636947 0.026057654571844339 0 0.059218512002065335 0.026165094529802379 0 0.059292129390169979 0.026222853404239375 0 0.059264494204438654 0.026053625363198569 0 0.05918910765636947 0.026057654571844339 0 0.059292129390169979 0.026222853404239375 0 0.059089095946175028 0.026114935329170197 0 0.05918910765636947 0.026057654571844339 0 0.059218512002065335 0.026165094529802379 0 0.059089095946175028 0.026114935329170197 0 0.059218512002065335 0.026165094529802379 0 0.059180340794879396 0.026161919212294899 0 0.059218512002065335 0.026165094529802379 0 0.059277725933583672 0.026247037378967261 0 0.059180340794879396 0.026161919212294899 0 0.059218512002065335 0.026165094529802379 0 0.059277725933583672 0.026247037378967261 0 0.059292129390169979 0.026222853404239375 0 0.059277725933583672 0.026247037378967261 0 0.059292129390169979 0.026222853404239375 0 0.059309990442700501 0.0263513399794186 0 0.059315517986908942 0.026230112157295427 0 0.059292129390169979 0.026222853404239375 0 0.05932374799762391 0.026376320720732569 0 0.059309990442700501 0.0263513399794186 0 0.059324110846012322 0.02649383248322475 0 0.059311399979141755 0.026455582850774192 0 0.059292129390169979 0.026222853404239375 0 0.059309990442700501 0.0263513399794186 0 0.05932374799762391 0.026376320720732569 0 0.059309990442700501 0.0263513399794186 0 0.05932374799762391 0.026376320720732569 0 0.059324110846012322 0.02649383248322475 0 0.059277725933583672 0.026247037378967261 0 0.059309990442700501 0.0263513399794186 0 0.059311399979141755 0.026455582850774192 0 0.059277725933583672 0.026247037378967261 0 0.059275589010016574 0.026250937041019898 0 0.059311399979141755 0.026455582850774192 0 0.059277725933583672 0.026247037378967261 0 0.059275589010016574 0.026250937041019898 0 0.059224300051555524 0.026123841424052278 0 0.059275589010016574 0.026250937041019898 0 0.059237770846576721 0.026044000226441176 0 0.059224300051555524 0.026123841424052278 0 0.059237770846576721 0.026044000226441176 0 0.059179321787846177 0.025935069501405637 0 0.059224300051555524 0.026123841424052278 0 0.059237770846576721 0.026044000226441176 0 0.059179321787846177 0.025935069501405637 0 0.059181404789950778 0.02573839078848416 0 0.059179321787846177 0.025935069501405637 0 0.059224300051555524 0.026123841424052278 0 0.059122430032949362 0.026066061537769993 0 0.059277725933583672 0.026247037378967261 0 0.059224300051555524 0.026123841424052278 0 0.059180340794879396 0.026161919212294899 0 0.059224300051555524 0.026123841424052278 0 0.059180340794879396 0.026161919212294899 0 0.059122430032949362 0.026066061537769993 0 0.059180340794879396 0.026161919212294899 0 0.059122430032949362 0.026066061537769993 0 0.059000267933232438 0.026189781200244098 0 0.059089095946175028 0.026114935329170197 0 0.059180340794879396 0.026161919212294899 0 0.059000267933232438 0.026189781200244098 0 0.059122430032949362 0.026066061537769993 0 0.059000267933232438 0.026189781200244098 0 0.058993983707964021 0.026028293756053061 0 0.059116028653327414 0.026766506437604389 0 0.059125196858503593 0.027106150746634177 0 0.059248463449193885 0.026718505191782618 0 0.059116028653327414 0.026766506437604389 0 0.058929703634465126 0.027419353221093106 0 0.058674345000970941 0.026849422744363784 0 0.059116028653327414 0.026766506437604389 0 0.058929703634465126 0.027419353221093106 0 0.059125196858503593 0.027106150746634177 0 0.05911517151236096 0.027392702601653725 0 0.058929703634465126 0.027419353221093106 0 0.059125196858503593 0.027106150746634177 0 0.05911517151236096 0.027392702601653725 0 0.058951996214551244 0.027804608778720187 0 0.058929703634465126 0.027419353221093106 0 0.05911517151236096 0.027392702601653725 0 0.059125196858503593 0.027106150746634177 0 0.059214817636644969 0.027003592037924816 0 0.059214817636644969 0.027003592037924816 0 0.059296502333875373 0.026738250816145826 0 0.059248463449193885 0.026718505191782618 0 0.059125196858503593 0.027106150746634177 0 0.059214817636644969 0.027003592037924816 0 0.059248463449193885 0.026718505191782618 0 0.059296502333875373 0.026738250816145826 0 0.059311399979141755 0.026455582850774192 0 0.059248463449193885 0.026718505191782618 0 0.059324110846012322 0.02649383248322475 0 0.059296502333875373 0.026738250816145826 0 0.059311399979141755 0.026455582850774192 0 0.059311399979141755 0.026455582850774192 0 0.059248463449193885 0.026718505191782618 0 0.059263451289717245 0.026331725526297679 0 0.059116028653327414 0.026766506437604389 0 0.059248463449193885 0.026718505191782618 0 0.059263451289717245 0.026331725526297679 0 0.059275589010016574 0.026250937041019898 0 0.059237770846576721 0.026044000226441176 0 0.059263451289717245 0.026331725526297679 0 0.059275589010016574 0.026250937041019898 0 0.059311399979141755 0.026455582850774192 0 0.059263451289717245 0.026331725526297679 0 0.059237770846576721 0.026044000226441176 0 0.059263451289717245 0.026331725526297679 0 0.059211009972687974 0.025870472485727339 0 0.059263451289717245 0.026331725526297679 0 0.059132288822977642 0.02613289992177285 0 0.059211009972687974 0.025870472485727339 0 0.059132288822977642 0.02613289992177285 0 0.058674345000970941 0.026849422744363784 0 0.058914777913806962 0.025404134033805394 0 0.059116028653327414 0.026766506437604389 0 0.059132288822977642 0.02613289992177285 0 0.058674345000970941 0.026849422744363784 0 0.059116028653327414 0.026766506437604389 0 0.059263451289717245 0.026331725526297679 0 0.059132288822977642 0.02613289992177285 0 0.057809792588019993 0.02654051074932684 0 0.057656891460465869 0.027771883027207189 0 0.056099414401543694 0.027295196353253195 0 0.058674345000970941 0.026849422744363784 0 0.057809792588019993 0.02654051074932684 0 0.057656891460465869 0.027771883027207189 0 0.057656891460465869 0.027771883027207189 0 0.057697323319215892 0.028903660872426681 0 0.056463106897790639 0.029587527757088387 0 0.057656891460465869 0.027771883027207189 0 0.058358660161233124 0.027939985061571408 0 0.057697323319215892 0.028903660872426681 0 0.058358660161233124 0.027939985061571408 0 0.058214172907685699 0.028687460041379027 0 0.057697323319215892 0.028903660872426681 0 0.058674345000970941 0.026849422744363784 0 0.057656891460465869 0.027771883027207189 0 0.058358660161233124 0.027939985061571408 0 0.058929703634465126 0.027419353221093106 0 0.058674345000970941 0.026849422744363784 0 0.058358660161233124 0.027939985061571408 0 0.058358660161233124 0.027939985061571408 0 0.058700390621560086 0.028038261680888594 0 0.058214172907685699 0.028687460041379027 0 0.058929703634465126 0.027419353221093106 0 0.058358660161233124 0.027939985061571408 0 0.058700390621560086 0.028038261680888594 0 0.058951996214551244 0.027804608778720187 0 0.058929703634465126 0.027419353221093106 0 0.058700390621560086 0.028038261680888594 0 0.059307426710112097 0.028806095758449741 0 0.059544003500642644 0.028977025982142322 0 0.057984998570966471 0.02944043591097362 0 0.060845117786925557 0.032159472554831973 0 0.058990907461403536 0.032318153648746843 0 0.058991304677104187 0.032484355424188191 0 0.059307426710112097 0.028806095758449741 0 0.058673922291810385 0.028650179152880539 0 0.057984998570966471 0.02944043591097362 0 0.061176402086396756 0.028937964445758139 0 0.058427252742765133 0.033363901971504725 0 0.061176402086396756 0.028937964445758139 0 0.058263937774202371 0.031033443128480519 0 0.058951996214551244 0.027804608778720187 0 0.058700390621560086 0.028038261680888594 0 0.058673922291810385 0.028650179152880539 0 0.058673922291810385 0.028650179152880539 0 0.058214172907685699 0.028687460041379027 0 0.057984998570966471 0.02944043591097362 0 0.058700390621560086 0.028038261680888594 0 0.058673922291810385 0.028650179152880539 0 0.058214172907685699 0.028687460041379027 0 0.058990907461403536 0.032318153648746843 0 0.058991304677104187 0.032484355424188191 0 0.057149118542468944 0.032366338682817179 0 0.058263937774202371 0.031033443128480519 0 0.056837050528225637 0.031527657987976888 0 0.057697323319215892 0.028903660872426681 0 0.057984998570966471 0.02944043591097362 0 0.056686465737128912 0.030677975683456385 0 0.058214172907685699 0.028687460041379027 0 0.057697323319215892 0.028903660872426681 0 0.057984998570966471 0.02944043591097362 0 0.058427252742765133 0.033363901971504725 0 0.057017939861601072 0.033036862623355964 0 0.058381424618323845 0.03364408583068397 0 0.057676122951629979 0.034576787793814345 0 0.058828426439588528 0.034611731133397175 0 0.058381424618323845 0.03364408583068397 0 0.057676122951629979 0.034576787793814345 0 0.056893066681475625 0.033422363366285089 0 0.059526387745950961 0.033724576349838241 0 0.058381424618323845 0.03364408583068397 0 0.058828426439588528 0.034611731133397175 0 0.05956120216496897 0.034315201473415741 0 0.059526387745950961 0.033724576349838241 0 0.058828426439588528 0.034611731133397175 0 0.054999936521740317 0.032974641535015552 0 0.057151450439693212 0.032722873042228186 0 0.055000036532993159 0.032328178742855262 0 0.055000288791354462 0.032975199385685827 0 0.057017939861601072 0.033036862623355964 0 0.05628705623526805 0.034535937294639545 0 0.054999882735757399 0.032976574669987761 0 0.056893066681475625 0.033422363366285089 0 0.05628705623526805 0.034535937294639545 0 0.057676122951629979 0.034576787793814345 0 0.056893066681475625 0.033422363366285089 0 0.057697323319215892 0.028903660872426681 0 0.056686465737128912 0.030677975683456385 0 0.056463106897790639 0.029587527757088387 0 0.058991304677104187 0.032484355424188191 0 0.057151450439693212 0.032722873042228186 0 0.057149118542468944 0.032366338682817179 0 0.056686465737128912 0.030677975683456385 0 0.055000514285067331 0.032326367624293605 0 0.056463106897790639 0.029587527757088387 0 0.057151450439693212 0.032722873042228186 0 0.057149118542468944 0.032366338682817179 0 0.055000036532993159 0.032328178742855262 0 0.056837050528225637 0.031527657987976888 0 0.055000121814629474 0.032327357222842891 0 0.055000514285067331 0.032326367624293605 0 0.054998760290896155 0.030580409195753298 0 0.056463106897790639 0.029587527757088387 0 0.055000299472398526 0.03058162987031441 0 0.056503395668474447 0.027791758076030116 0 0.054998760290896155 0.030580409195753298 0 0.056463106897790639 0.029587527757088387 0 0.056099414401543694 0.027295196353253195 0 0.057656891460465869 0.027771883027207189 0 0.056463106897790639 0.029587527757088387 0 0.056099414401543694 0.027295196353253195 0 0.056770470535345875 0.028250701682905922 0 0.054999989806950506 0.02817682018584506 0 0.05588584647369111 0.0270160985506494 0 0.055000000512304657 0.030582425000835769 0 0.056770470535345875 0.028250701682905922 0 0.054999989806950506 0.02817682018584506 0 0.056604755968816235 0.025699002478695932 0 0.055000378698491066 0.025771164975339204 0 0.056770470535345875 0.028250701682905922 0 0.05588584647369111 0.0270160985506494 0 0.056765757070126835 0.025865909905817733 0 0.05588584647369111 0.0270160985506494 0 0.056765757070126835 0.025865909905817733 0 0.054999996694233805 0.025771278382246802 0 0.054999989806950506 0.02817682018584506 0 0.05588584647369111 0.0270160985506494 0 0.054999996694233805 0.025771278382246802 0 0.056604755968816235 0.025699002478695932 0 0.057707342698837441 0.025605356818478441 0 0.057809792588019993 0.02654051074932684 0 0.056099414401543694 0.027295196353253195 0 0.057220966902993324 0.025524263004838271 0 0.056503395668474447 0.027791758076030116 0 0.057707342698837441 0.025605356818478441 0 0.056770470535345875 0.028250701682905922 0 0.056765757070126835 0.025865909905817733 0 0.058520242391553581 0.025946321174529059 0 0.056390645665245605 0.025499178349099715 0 0.057203760180548825 0.024597933075764827 0 0.056124308450426798 0.024399622190916841 0 0.056390645665245605 0.025499178349099715 0 0.057203760180548825 0.024597933075764827 0 0.057618072969027205 0.025416138492983655 0 0.057203760180548825 0.024597933075764827 0 0.056124308450426798 0.024399622190916841 0 0.056840872087137104 0.023480914855052444 0 0.054999798513518251 0.025770318158697878 0 0.056124308450426798 0.024399622190916841 0 0.054999673569033479 0.022533328689827329 0 0.056390645665245605 0.025499178349099715 0 0.054999798513518251 0.025770318158697878 0 0.056124308450426798 0.024399622190916841 0 0.058674345000970941 0.026849422744363784 0 0.057809792588019993 0.02654051074932684 0 0.058914777913806962 0.025404134033805394 0 0.058780338398624579 0.025326667068307749 0 0.057707342698837441 0.025605356818478441 0 0.057809792588019993 0.02654051074932684 0 0.058914777913806962 0.025404134033805394 0 0.057220966902993324 0.025524263004838271 0 0.058914777913806962 0.025404134033805394 0 0.057754125352848809 0.025139822379946931 0 0.057980706372301842 0.024854968211093804 0 0.057203760180548825 0.024597933075764827 0 0.057618072969027205 0.025416138492983655 0 0.057980706372301842 0.024854968211093804 0 0.057707342698837441 0.025605356818478441 0 0.057971981564945041 0.025064272544304635 0 0.057203760180548825 0.024597933075764827 0 0.057980706372301842 0.024854968211093804 0 0.058053418056187224 0.023968534981092977 0 0.058486962798797344 0.024643625411546317 0 0.058854093548101068 0.024184680960253002 0 0.058053418056187224 0.023968534981092977 0 0.057980706372301842 0.024854968211093804 0 0.058486962798797344 0.024643625411546317 0 0.058053418056187224 0.023968534981092977 0 0.058914777913806962 0.025404134033805394 0 0.058854093548101068 0.024184680960253002 0 0.059235838822119843 0.024571276370161078 0 0.058914777913806962 0.025404134033805394 0 0.057980706372301842 0.024854968211093804 0 0.058486962798797344 0.024643625411546317 0 0.058914777913806962 0.025404134033805394 0 0.058486962798797344 0.024643625411546317 0 0.058854093548101068 0.024184680960253002 0 0.058854093548101068 0.024184680960253002 0 0.058995903995083802 0.023204357355884692 0 0.059731030334872634 0.024007142549180908 0 0.058854093548101068 0.024184680960253002 0 0.059731030334872634 0.024007142549180908 0 0.059235838822119843 0.024571276370161078 0 0.058854093548101068 0.024184680960253002 0 0.058995903995083802 0.023204357355884692 0 0.058130201933443405 0.022741324025751044 0 0.058053418056187224 0.023968534981092977 0 0.058130201933443405 0.022741324025751044 0 0.056840872087137104 0.023480914855052444 0 0.058854093548101068 0.024184680960253002 0 0.058053418056187224 0.023968534981092977 0 0.058130201933443405 0.022741324025751044 0 0.058130201933443405 0.022741324025751044 0 0.059253570520456274 0.021724907355674953 0 0.057930571412773857 0.020125001864490837 0 0.058130201933443405 0.022741324025751044 0 0.056881249645959905 0.021772426107306175 0 0.057930571412773857 0.020125001864490837 0 0.058995903995083802 0.023204357355884692 0 0.059253570520456274 0.021724907355674953 0 0.059731030334872634 0.024007142549180908 0 0.058995903995083802 0.023204357355884692 0 0.058130201933443405 0.022741324025751044 0 0.059253570520456274 0.021724907355674953 0 0.054999673569033479 0.022533328689827329 0 0.056840872087137104 0.023480914855052444 0 0.056881249645959905 0.021772426107306175 0 0.056124308450426798 0.024399622190916841 0 0.054999673569033479 0.022533328689827329 0 0.056840872087137104 0.023480914855052444 0 0.057203760180548825 0.024597933075764827 0 0.058053418056187224 0.023968534981092977 0 0.056840872087137104 0.023480914855052444 0 0.058130201933443405 0.022741324025751044 0 0.056840872087137104 0.023480914855052444 0 0.056881249645959905 0.021772426107306175 0 0.054999673569033479 0.022533328689827329 0 0.056881249645959905 0.021772426107306175 0 0.056369193416458012 0.020108216532040132 0 0.054999590442983894 0.019295242356131281 0 0.056725335950222937 0.018222925226380169 0 0.056369193416458012 0.020108216532040132 0 0.054999673569033479 0.022533328689827329 0 0.054999590442983894 0.019295242356131281 0 0.056369193416458012 0.020108216532040132 0 0.054999590442983894 0.019295242356131281 0 0.056725335950222937 0.018222925226380169 0 0.055000026512224631 0.016056989257005716 0 0.056278399811031825 0.017785994147456449 0 0.057894082318171426 0.019912493178518485 0 0.055801998230359917 0.017211978504337599 0 0.057930571412773857 0.020125001864490837 0 0.057343823264221161 0.017157068015939893 0 0.055801998230359917 0.017211978504337599 0 0.057343823264221161 0.017157068015939893 0 0.056103722652277893 0.015789768220792293 0 0.056725335950222937 0.018222925226380169 0 0.056369193416458012 0.020108216532040132 0 0.057930571412773857 0.020125001864490837 0 0.056881249645959905 0.021772426107306175 0 0.056369193416458012 0.020108216532040132 0 0.057930571412773857 0.020125001864490837 0 0.059253570520456274 0.021724907355674953 0 0.057930571412773857 0.020125001864490837 0 0.059607517494794808 0.018288557130169386 0 0.059253570520456274 0.021724907355674953 0 0.059607517494794808 0.018288557130169386 0 0.061215547966496149 0.021413769628293403 0 0.058781846994001755 0.016401754105485361 0 0.059324303144003464 0.02152298762087345 0 0.057972892523503516 0.015467316742050635 0 0.05856740312722835 0.014675796084369129 0 0.05878793839268967 0.015611814220390234 0 0.059607517494794808 0.018288557130169386 0 0.057343823264221161 0.017157068015939893 0 0.05718473666054523 0.014671397768776176 0 0.057930571412773857 0.020125001864490837 0 0.059607517494794808 0.018288557130169386 0 0.057343823264221161 0.017157068015939893 0 0.057972892523503516 0.015467316742050635 0 0.057711793954700046 0.014421058932217122 0 0.05718473666054523 0.014671397768776176 0 0.058781846994001755 0.016401754105485361 0 0.057251267710611113 0.014926128018734571 0 0.057711793954700046 0.014421058932217122 0 0.05718473666054523 0.014671397768776176 0 0.057598898396428358 0.013556126593374396 0 0.057638628978686192 0.014321128226581841 0 0.058775001746737762 0.014515632492395434 0 0.057711793954700046 0.014421058932217122 0 0.058080791781701328 0.013564482563466687 0 0.058283654054462411 0.014123261373881075 0 0.057972892523503516 0.015467316742050635 0 0.057711793954700046 0.014421058932217122 0 0.05856740312722835 0.014675796084369129 0 0.057711793954700046 0.014421058932217122 0 0.058080791781701328 0.013564482563466687 0 0.057598898396428358 0.013556126593374396 0 0.057917534251367142 0.012877201903926966 0 0.057598898396428358 0.013556126593374396 0 0.057556987502358645 0.012518301477366609 0 0.058080791781701328 0.013564482563466687 0 0.057917534251367142 0.012877201903926966 0 0.057598898396428358 0.013556126593374396 0 0.057917534251367142 0.012877201903926966 0 0.058265594587887812 0.012846346549705954 0 0.058099851628475592 0.012412937120357221 0 0.058080791781701328 0.013564482563466687 0 0.057917534251367142 0.012877201903926966 0 0.058265594587887812 0.012846346549705954 0 0.05718473666054523 0.014671397768776176 0 0.057598898396428358 0.013556126593374396 0 0.056993558763406033 0.013206482639621034 0 0.057598898396428358 0.013556126593374396 0 0.056993558763406033 0.013206482639621034 0 0.057556987502358645 0.012518301477366609 0 0.056993558763406033 0.013206482639621034 0 0.055968885745053099 0.014562664797056018 0 0.05613546465491593 0.013282785793817791 0 0.05718473666054523 0.014671397768776176 0 0.056993558763406033 0.013206482639621034 0 0.055968885745053099 0.014562664797056018 0 0.055968885745053099 0.014562664797056018 0 0.05613546465491593 0.013282785793817791 0 0.054999751847436572 0.013312354320769024 0 0.055968885745053099 0.014562664797056018 0 0.054998679658269801 0.016054121342031717 0 0.054999751847436572 0.013312354320769024 0 0.056278399811031825 0.017785994147456449 0 0.055000118936049433 0.016056931676236855 0 0.055801998230359917 0.017211978504337599 0 0.054998679658269801 0.016054121342031717 0 0.056103722652277893 0.015789768220792293 0 0.055968885745053099 0.014562664797056018 0 0.054998679658269801 0.016054121342031717 0 0.056103722652277893 0.015789768220792293 0 0.057343823264221161 0.017157068015939893 0 0.05718473666054523 0.014671397768776176 0 0.056103722652277893 0.015789768220792293 0 0.05718473666054523 0.014671397768776176 0 0.055968885745053099 0.014562664797056018 0 0.056103722652277893 0.015789768220792293 0 0.054686702525910978 0.016447086575563308 0 0.055948410996316915 0.016035160682129717 0 0.055522145075269674 0.018392704978762563 0 0.054686702525910978 0.016447086575563308 0 0.054127568184584605 0.017024508071606513 0 0.055522145075269674 0.018392704978762563 0 0.054686702525910978 0.016447086575563308 0 0.055948410996316915 0.016035160682129717 0 0.054644089582339982 0.01518894817990246 0 0.054686702525910978 0.016447086575563308 0 0.054644089582339982 0.01518894817990246 0 0.053717506982470999 0.015919302998905947 0 0.054686702525910978 0.016447086575563308 0 0.054127568184584605 0.017024508071606513 0 0.053717506982470999 0.015919302998905947 0 0.057100875219816313 0.01714824296470974 0 0.055948410996316915 0.016035160682129717 0 0.056990776730182983 0.014743253566961319 0 0.057100875219816313 0.01714824296470974 0 0.055948410996316915 0.016035160682129717 0 0.055522145075269674 0.018392704978762563 0 0.055948410996316915 0.016035160682129717 0 0.056990776730182983 0.014743253566961319 0 0.055602123254573019 0.0140851095212692 0 0.056990776730182983 0.014743253566961319 0 0.058251159126597681 0.012940512647684935 0 0.056802731717647527 0.013105796210340583 0 0.056990776730182983 0.014743253566961319 0 0.055602123254573019 0.0140851095212692 0 0.056802731717647527 0.013105796210340583 0 0.055948410996316915 0.016035160682129717 0 0.055602123254573019 0.0140851095212692 0 0.054644089582339982 0.01518894817990246 0 0.054644089582339982 0.01518894817990246 0 0.054587913847917204 0.014265090352975934 0 0.053318733698347734 0.014749724433816414 0 0.055602123254573019 0.0140851095212692 0 0.054644089582339982 0.01518894817990246 0 0.054587913847917204 0.014265090352975934 0 0.054587913847917204 0.014265090352975934 0 0.053318733698347734 0.014749724433816414 0 0.054781135595604651 0.013354120975346993 0 0.055602123254573019 0.0140851095212692 0 0.054587913847917204 0.014265090352975934 0 0.054781135595604651 0.013354120975346993 0 0.055395257193505548 0.012422315332549885 0 0.055535563044814794 0.012809071327007497 0 0.055018889443939206 0.014593563208321034 0 0.055395257193505548 0.012422315332549885 0 0.055535563044814794 0.012809071327007497 0 0.055966730500284674 0.011130788459709582 0 0.059434266400207464 0.012828311411830304 0 0.058857097783413449 0.012491379619195967 0 0.058843954148169092 0.011950269865381459 0 0.059434266400207464 0.012828311411830304 0 0.058857097783413449 0.012491379619195967 0 0.058817231815249803 0.01297211623589687 0 0.059434266400207464 0.012828311411830304 0 0.058817231815249803 0.01297211623589687 0 0.058855032933834373 0.013563303856952194 0 0.054644089582339982 0.01518894817990246 0 0.053318733698347734 0.014749724433816414 0 0.053717506982470999 0.015919302998905947 0 0.058265594587887812 0.012846346549705954 0 0.058575845740534038 0.012635318347702524 0 0.058458702628242515 0.013312600988166657 0 0.058265594587887812 0.012846346549705954 0 0.058575845740534038 0.012635318347702524 0 0.058302749542436166 0.012212683370794255 0 0.058575845740534038 0.012635318347702524 0 0.058817231815249803 0.01297211623589687 0 0.058458702628242515 0.013312600988166657 0 0.058575845740534038 0.012635318347702524 0 0.058857097783413449 0.012491379619195967 0 0.058817231815249803 0.01297211623589687 0 0.058817231815249803 0.01297211623589687 0 0.058458702628242515 0.013312600988166657 0 0.058855032933834373 0.013563303856952194 0 0.058080791781701328 0.013564482563466687 0 0.058265594587887812 0.012846346549705954 0 0.058458702628242515 0.013312600988166657 0 0.058855032933834373 0.013563303856952194 0 0.058283654054462411 0.014123261373881075 0 0.059141772356967 0.014419374509009535 0 0.05856740312722835 0.014675796084369129 0 0.059526935667346605 0.014977801832019997 0 0.059034712026937879 0.01518509245337293 0 0.058775001746737762 0.014515632492395434 0 0.056717843378073979 0.016180779561709314 0 0.058458702628242515 0.013312600988166657 0 0.058855032933834373 0.013563303856952194 0 0.058283654054462411 0.014123261373881075 0 0.058080791781701328 0.013564482563466687 0 0.058458702628242515 0.013312600988166657 0 0.058283654054462411 0.014123261373881075 0 0.057468353511962673 0.012247722599401187 0 0.056717843378073979 0.016180779561709314 0 0.053318733698347734 0.014749724433816414 0 0.053717506982470999 0.015919302998905947 0 0.052482940027149587 0.017295939196704628 0 0.054170878934637526 0.01385652360621932 0 0.056717843378073979 0.016180779561709314 0 0.059434266400207464 0.012828311411830304 0 0.058855032933834373 0.013563303856952194 0 0.059141772356967 0.014419374509009535 0 0.054127568184584605 0.017024508071606513 0 0.053717506982470999 0.015919302998905947 0 0.052482940027149587 0.017295939196704628 0 0.057817441466815153 0.02205244524670065 0 0.057753523489520266 0.02232152578336441 0 0.058226906623006364 0.022711242187913948 0 0.057817441466815153 0.02205244524670065 0 0.058226906623006364 0.022711242187913948 0 0.058804779938804778 0.022424392909242651 0 0.056717843378073979 0.016180779561709314 0 0.057796673632954772 0.018522770858500119 0 0.057753523489520266 0.02232152578336441 0 0.057663458648381301 0.022721574588278809 0 0.058226906623006364 0.022711242187913948 0 0.05856740312722835 0.014675796084369129 0 0.059034712026937879 0.01518509245337293 0 0.05878793839268967 0.015611814220390234 0 0.059526935667346605 0.014977801832019997 0 0.059446779027623076 0.015352509561076335 0 0.059034712026937879 0.01518509245337293 0 0.059446779027623076 0.015352509561076335 0 0.059034712026937879 0.01518509245337293 0 0.05915391435195215 0.015517961110020032 0 0.057796673632954772 0.018522770858500119 0 0.05840789343017716 0.019079168187720937 0 0.059034712026937879 0.01518509245337293 0 0.05915391435195215 0.015517961110020032 0 0.05878793839268967 0.015611814220390234 0 0.059446779027623076 0.015352509561076335 0 0.05915391435195215 0.015517961110020032 0 0.059342478358654069 0.015932435619676902 0 0.05915391435195215 0.015517961110020032 0 0.05878793839268967 0.015611814220390234 0 0.059342478358654069 0.015932435619676902 0 0.057972892523503516 0.015467316742050635 0 0.05878793839268967 0.015611814220390234 0 0.05904575002382989 0.016957103567677243 0 0.05878793839268967 0.015611814220390234 0 0.059342478358654069 0.015932435619676902 0 0.05904575002382989 0.016957103567677243 0 0.05840789343017716 0.019079168187720937 0 0.059324303144003464 0.02152298762087345 0 0.057663458648381301 0.022721574588278809 0 0.058011847866873176 0.023246515954748116 0 0.057464280971720766 0.023428650718686907 0 0.058226906623006364 0.022711242187913948 0 0.058011847866873176 0.023246515954748116 0 0.058655100965530234 0.023385182026008294 0 0.057663458648381301 0.022721574588278809 0 0.058226906623006364 0.022711242187913948 0 0.058011847866873176 0.023246515954748116 0 0.058804779938804778 0.022424392909242651 0 0.05912798566249923 0.023062827498652211 0 0.058655100965530234 0.023385182026008294 0 0.058226906623006364 0.022711242187913948 0 0.058804779938804778 0.022424392909242651 0 0.058655100965530234 0.023385182026008294 0 0.056717843378073979 0.016180779561709314 0 0.056907394588140099 0.020877832955745867 0 0.054127568184584605 0.017024508071606513 0 0.052482940027149587 0.017295939196704628 0 0.055522145075269674 0.018392704978762563 0 0.057100875219816313 0.01714824296470974 0 0.055522145075269674 0.018392704978762563 0 0.058241049209205954 0.019820127666384933 0 0.056907394588140099 0.020877832955745867 0 0.059054529948574352 0.021111681794947407 0 0.058804779938804778 0.022424392909242651 0 0.05912798566249923 0.023062827498652211 0 0.059582408514897024 0.022464732212249129 0 0.05912798566249923 0.023062827498652211 0 0.059141405432558497 0.023928227795670727 0 0.058655100965530234 0.023385182026008294 0 0.058655100965530234 0.023385182026008294 0 0.058789389753249453 0.024180553438449624 0 0.058001290021592516 0.024031148831999916 0 0.059141405432558497 0.023928227795670727 0 0.058655100965530234 0.023385182026008294 0 0.058789389753249453 0.024180553438449624 0 0.058789389753249453 0.024180553438449624 0 0.05898785386443578 0.024693262956606028 0 0.058822267916482242 0.024677273991882614 0 0.059141405432558497 0.023928227795670727 0 0.05898785386443578 0.024693262956606028 0 0.059274343924525866 0.024699045432274708 0 0.059141405432558497 0.023928227795670727 0 0.058789389753249453 0.024180553438449624 0 0.05898785386443578 0.024693262956606028 0 0.059324303144003464 0.02152298762087345 0 0.059876074828773884 0.024374336168939172 0 0.059253570520456274 0.021724907355674953 0 0.061215547966496149 0.021413769628293403 0 0.059731030334872634 0.024007142549180908 0 0.059569640248882151 0.024788433788762561 0 0.059219009984429458 0.02443597360133612 0 0.059731030334872634 0.024007142549180908 0 0.059324303144003464 0.02152298762087345 0 0.058774163619400813 0.024425962097262527 0 0.058011847866873176 0.023246515954748116 0 0.058655100965530234 0.023385182026008294 0 0.058001290021592516 0.024031148831999916 0 0.058011847866873176 0.023246515954748116 0 0.057464280971720766 0.023428650718686907 0 0.058001290021592516 0.024031148831999916 0 0.059219009984429458 0.02443597360133612 0 0.058822267916482242 0.024677273991882614 0 0.059277341513890754 0.024690840116263428 0 0.058789389753249453 0.024180553438449624 0 0.058001290021592516 0.024031148831999916 0 0.058822267916482242 0.024677273991882614 0 0.058774163619400813 0.024425962097262527 0 0.058723782900861929 0.024493919498635084 0 0.059219009984429458 0.02443597360133612 0 0.059731030334872634 0.024007142549180908 0 0.059277341513890754 0.024690840116263428 0 0.059731030334872634 0.024007142549180908 0 0.059235838822119843 0.024571276370161078 0 0.059277341513890754 0.024690840116263428 0 0.058914777913806962 0.025404134033805394 0 0.059277341513890754 0.024690840116263428 0 0.059171045916161055 0.025485698487687256 0 0.058914777913806962 0.025404134033805394 0 0.059235838822119843 0.024571276370161078 0 0.059277341513890754 0.024690840116263428 0 0.058822267916482242 0.024677273991882614 0 0.059277341513890754 0.024690840116263428 0 0.059142552233040525 0.02532487257981968 0 0.059277341513890754 0.024690840116263428 0 0.059142552233040525 0.02532487257981968 0 0.059171045916161055 0.025485698487687256 0 0.059237770846576721 0.026044000226441176 0 0.059211009972687974 0.025870472485727339 0 0.059181404789950778 0.02573839078848416 0 0.059142552233040525 0.02532487257981968 0 0.059211009972687974 0.025870472485727339 0 0.059181404789950778 0.02573839078848416 0 0.059132288822977642 0.02613289992177285 0 0.059211009972687974 0.025870472485727339 0 0.059171045916161055 0.025485698487687256 0 0.059142552233040525 0.02532487257981968 0 0.059211009972687974 0.025870472485727339 0 0.059171045916161055 0.025485698487687256 0 0.059132288822977642 0.02613289992177285 0 0.058914777913806962 0.025404134033805394 0 0.059171045916161055 0.025485698487687256 0 0.05898785386443578 0.024693262956606028 0 0.059064029874205164 0.025302283554313458 0 0.058999730117644263 0.025145623908598001 0 0.05898785386443578 0.024693262956606028 0 0.059064029874205164 0.025302283554313458 0 0.059274343924525866 0.024699045432274708 0 0.059064029874205164 0.025302283554313458 0 0.058999730117644263 0.025145623908598001 0 0.059100341192692925 0.025665535664167381 0 0.05898785386443578 0.024693262956606028 0 0.058822267916482242 0.024677273991882614 0 0.058999730117644263 0.025145623908598001 0 0.058822267916482242 0.024677273991882614 0 0.059142552233040525 0.02532487257981968 0 0.058999730117644263 0.025145623908598001 0 0.059142552233040525 0.02532487257981968 0 0.059100341192692925 0.025665535664167381 0 0.059181404789950778 0.02573839078848416 0 0.059142552233040525 0.02532487257981968 0 0.058999730117644263 0.025145623908598001 0 0.059100341192692925 0.025665535664167381 0 0.059179321787846177 0.025935069501405637 0 0.059122430032949362 0.026066061537769993 0 0.059100341192692925 0.025665535664167381 0 0.059179321787846177 0.025935069501405637 0 0.059100341192692925 0.025665535664167381 0 0.059181404789950778 0.02573839078848416 0 0.059064029874205164 0.025302283554313458 0 0.059100341192692925 0.025665535664167381 0 0.058993983707964021 0.026028293756053061 0 0.059122430032949362 0.026066061537769993 0 0.059100341192692925 0.025665535664167381 0 0.058993983707964021 0.026028293756053061 0 0.058993983707964021 0.026028293756053061 0 0.059232288902245057 0.025459243459287219 0 0.058733286046460179 0.026629918105614728 0 0.059064029874205164 0.025302283554313458 0 0.058993983707964021 0.026028293756053061 0 0.059232288902245057 0.025459243459287219 0 0.059064029874205164 0.025302283554313458 0 0.059232288902245057 0.025459243459287219 0 0.059274343924525866 0.024699045432274708 0 0.059232288902245057 0.025459243459287219 0 0.059274343924525866 0.024699045432274708 0 0.060062360235108032 0.024474218089314857 0 0.059232288902245057 0.025459243459287219 0 0.059728258811327997 0.02562455588354089 0 0.060062360235108032 0.024474218089314857 0 0.059232288902245057 0.025459243459287219 0 0.059728258811327997 0.02562455588354089 0 0.058733286046460179 0.026629918105614728 0 0.060403728558885025 0.026876539854696624 0 0.059728258811327997 0.02562455588354089 0 0.058733286046460179 0.026629918105614728 0 0.060403728558885025 0.026876539854696624 0 0.059728258811327997 0.02562455588354089 0 0.060716588118570392 0.025195715220918381 0 0.060403728558885025 0.026876539854696624 0 0.061128872914466115 0.026024555970411468 0 0.060716588118570392 0.025195715220918381 0 0.061128872914466115 0.026024555970411468 0 0.061348592292701322 0.025153138838008415 0 0.060716588118570392 0.025195715220918381 0 0.061128872914466115 0.026024555970411468 0 0.061348592292701322 0.025153138838008415 0 0.061624504157998389 0.025847924963393529 0 0.061384582662193932 0.024602263286561302 0 0.060716588118570392 0.025195715220918381 0 0.061056343897792367 0.024284089021493663 0 0.061384582662193932 0.024602263286561302 0 0.061862053845345009 0.023870743909833798 0 0.061715791211302232 0.024653471963144415 0 0.061348592292701322 0.025153138838008415 0 0.061384582662193932 0.024602263286561302 0 0.061715791211302232 0.024653471963144415 0 0.061348592292701322 0.025153138838008415 0 0.061384582662193932 0.024602263286561302 0 0.060716588118570392 0.025195715220918381 0 0.060716588118570392 0.025195715220918381 0 0.061056343897792367 0.024284089021493663 0 0.060062360235108032 0.024474218089314857 0 0.059728258811327997 0.02562455588354089 0 0.060716588118570392 0.025195715220918381 0 0.060062360235108032 0.024474218089314857 0 0.061056343897792367 0.024284089021493663 0 0.061219949347283892 0.023269115879069633 0 0.060062360235108032 0.024474218089314857 0 0.061056343897792367 0.024284089021493663 0 0.061862053845345009 0.023870743909833798 0 0.061219949347283892 0.023269115879069633 0 0.061384582662193932 0.024602263286561302 0 0.061056343897792367 0.024284089021493663 0 0.061862053845345009 0.023870743909833798 0 0.061862053845345009 0.023870743909833798 0 0.061219949347283892 0.023269115879069633 0 0.062242790511977904 0.021768357055197217 0 0.06098667919634352 0.022256931442143881 0 0.060672889863583788 0.01944955193125656 0 0.060018686564994261 0.020673853556282918 0 0.061624801701442564 0.01820138673065988 0 0.059135120869413318 0.017239275743818856 0 0.061219949347283892 0.023269115879069633 0 0.05984204467309772 0.023260607373095758 0 0.060974554582059491 0.021898168867471809 0 0.061219949347283892 0.023269115879069633 0 0.05984204467309772 0.023260607373095758 0 0.060062360235108032 0.024474218089314857 0 0.05912798566249923 0.023062827498652211 0 0.059141405432558497 0.023928227795670727 0 0.05984204467309772 0.023260607373095758 0 0.059141405432558497 0.023928227795670727 0 0.05984204467309772 0.023260607373095758 0 0.059274343924525866 0.024699045432274708 0 0.05984204467309772 0.023260607373095758 0 0.059274343924525866 0.024699045432274708 0 0.060062360235108032 0.024474218089314857 0 0.044032250921370072 0.027892560118422505 0 0.043094638936194168 0.027306580579311571 0 0.042542938216753076 0.028069866559694307 0 0.044032250921370072 0.027892560118422505 0 0.043940231265838847 0.026899976066719667 0 0.043094638936194168 0.027306580579311571 0 0.044032250921370072 0.027892560118422505 0 0.043519684512505707 0.028539894667273712 0 0.042542938216753076 0.028069866559694307 0 0.043940231265838847 0.026899976066719667 0 0.043094638936194168 0.027306580579311571 0 0.042707108602482967 0.02657285923006476 0 0.044032250921370072 0.027892560118422505 0 0.043940231265838847 0.026899976066719667 0 0.045120915017668003 0.027240880743722776 0 0.044850052339665165 0.026391438078156401 0 0.043940231265838847 0.026899976066719667 0 0.045120915017668003 0.027240880743722776 0 0.044032250921370072 0.027892560118422505 0 0.045120915017668003 0.027240880743722776 0 0.045234172057494998 0.02828720652450566 0 0.045120915017668003 0.027240880743722776 0 0.046213677508852191 0.027006047794100773 0 0.045234172057494998 0.02828720652450566 0 0.054353429152195445 0.026410602517216563 0 0.054534209445023504 0.025380494682019025 0 0.045827617246614633 0.026297368235961363 0 0.045120915017668003 0.027240880743722776 0 0.046213677508852191 0.027006047794100773 0 0.061348592292701322 0.025153138838008415 0 0.061624504157998389 0.025847924963393529 0 0.061715791211302232 0.024653471963144415 0 0.062448571762159226 0.025801758563731979 0 0.061624504157998389 0.025847924963393529 0 0.061715791211302232 0.024653471963144415 0 0.062448571762159226 0.025801758563731979 0 0.061715791211302232 0.024653471963144415 0 0.064111821748043002 0.022655824810864294 0 0.061715791211302232 0.024653471963144415 0 0.062173998778834047 0.022017738328252233 0 0.064111821748043002 0.022655824810864294 0 0.060018686564994261 0.020673853556282918 0 0.062173998778834047 0.022017738328252233 0 0.063234686777691396 0.019981489705831593 0 0.060018686564994261 0.020673853556282918 0 0.061715791211302232 0.024653471963144415 0 0.062173998778834047 0.022017738328252233 0 0.06098667919634352 0.022256931442143881 0 0.06167609589398082 0.024508024553467418 0 0.060018686564994261 0.020673853556282918 0 0.063234686777691396 0.019981489705831593 0 0.061624801701442564 0.01820138673065988 0 0.063234686777691396 0.019981489705831593 0 0.065399268608281241 0.019236888308692295 0 0.063844148643139281 0.018153053682191174 0 0.063234686777691396 0.019981489705831593 0 0.063844148643139281 0.018153053682191174 0 0.061624801701442564 0.01820138673065988 0 0.063234686777691396 0.019981489705831593 0 0.064111821748043002 0.022655824810864294 0 0.065399268608281241 0.019236888308692295 0 0.062173998778834047 0.022017738328252233 0 0.063234686777691396 0.019981489705831593 0 0.064111821748043002 0.022655824810864294 0 0.054534209445023504 0.025380494682019025 0 0.055596305165513407 0.024739218875114363 0 0.045234172057494998 0.02828720652450566 0 0.044176574308986159 0.028633039280810939 0 0.044102169350731114 0.029116703057052804 0 0.044032250921370072 0.027892560118422505 0 0.045234172057494998 0.02828720652450566 0 0.044176574308986159 0.028633039280810939 0 0.044176574308986159 0.028633039280810939 0 0.044102169350731114 0.029116703057052804 0 0.043903714786137679 0.029138397335305016 0 0.043903714786137679 0.029138397335305016 0 0.043529144177639076 0.031106135199493498 0 0.042814793476528862 0.030052705678263604 0 0.044034408187713869 0.030629501054903748 0 0.042814256256249225 0.02602116620863007 0 0.044102169350731114 0.029116703057052804 0 0.043903714786137679 0.029138397335305016 0 0.04433712475105759 0.028493250811912191 0 0.043903714786137679 0.029138397335305016 0 0.042790214195674581 0.029009895972390991 0 0.042814793476528862 0.030052705678263604 0 0.043903714786137679 0.029138397335305016 0 0.043519684512505707 0.028539894667273712 0 0.042790214195674581 0.029009895972390991 0 0.044176574308986159 0.028633039280810939 0 0.043903714786137679 0.029138397335305016 0 0.043519684512505707 0.028539894667273712 0 0.044032250921370072 0.027892560118422505 0 0.044176574308986159 0.028633039280810939 0 0.043519684512505707 0.028539894667273712 0 0.043519684512505707 0.028539894667273712 0 0.042790214195674581 0.029009895972390991 0 0.042542938216753076 0.028069866559694307 0 0.052854747024454911 0.012970193492268859 0 0.039078798366626331 0.0065930684057933916 0 0.04168827162921359 0.0093258436623188338 0 0.042270325581035689 0.0049468213751145398 0 0.043447750578536407 0.0075034854085937021 0 0.04168827162921359 0.0093258436623188338 0 0.04218373508799033 0.0096330724891944518 0 0.043447750578536407 0.0075034854085937021 0 0.044575379563011233 0.010334194327241619 0 0.034965034378456585 0.00089474793329535733 0 0.066495383159334218 0.016256375200154615 0 0.066529563196338529 0.015547400266862047 0 0.065591697457105733 0.016428369144904142 0 0.066529563196338529 0.015547400266862047 0 0.065591697457105733 0.016428369144904142 0 0.065064107687627035 0.015709033396085249 0 0.048979586189293302 0.018059927791921435 0 0.044575379563011233 0.010334194327241619 0 0.040250238524099223 0.01839945918642482 0 0.039703367180881091 0.019260865538848621 0 0.037225235054412956 0.017734113808334614 0 0.048979586189293302 0.018059927791921435 0 0.052854747024454911 0.012970193492268859 0 0.048855004493850003 0.017374095635738534 0 0.050077383155573994 0.0086498662180759869 0 0.053041614993698784 0.010485720725266205 0 0.052854747024454911 0.012970193492268859 0 0.044575379563011233 0.010334194327241619 0 0.043903714786137679 0.029138397335305016 0 0.044394105960721193 0.028494264994343609 0 0.04433712475105759 0.028493250811912191 0 0.065399268608281241 0.019236888308692295 0 0.066495383159334218 0.016256375200154615 0 0.065337911768480639 0.017453659256520513 0 0.044102169350731114 0.029116703057052804 0 0.044391117964283716 0.02819997584948538 0 0.04433712475105759 0.028493250811912191 0 0.040250238524099223 0.01839945918642482 0 0.040459665988539319 0.016958094962884793 0 0.037225235054412956 0.017734113808334614 0 0.055596305165513407 0.024739218875114363 0 0.048979586189293302 0.018059927791921435 0 0.048979586189293302 0.018059927791921435 0 0.042814256256249225 0.02602116620863007 0 0.044391117964283716 0.02819997584948538 0 0.044400345427976294 0.028477380656079052 0 0.04433712475105759 0.028493250811912191 0 0.066495383159334218 0.016256375200154615 0 0.065591697457105733 0.016428369144904142 0 0.065337911768480639 0.017453659256520513 0 0.042814256256249225 0.02602116620863007 0 0.043056891274185959 0.02612919825076938 0 0.065591697457105733 0.016428369144904142 0 0.065337911768480639 0.017453659256520513 0 0.064099700450455696 0.016799962661301352 0 0.065399268608281241 0.019236888308692295 0 0.065337911768480639 0.017453659256520513 0 0.063844148643139281 0.018153053682191174 0 0.065337911768480639 0.017453659256520513 0 0.064099700450455696 0.016799962661301352 0 0.063844148643139281 0.018153053682191174 0 0.052854747024454911 0.012970193492268859 0 0.062021201025198501 0.01220290621877604 0 0.064099700450455696 0.016799962661301352 0 0.065064107687627035 0.015709033396085249 0 0.064125681069692811 0.014017395828764915 0 0.064099700450455696 0.016799962661301352 0 0.063490332842404115 0.015393739660427098 0 0.06461221043511603 0.014346750131054662 0 0.066529563196338529 0.015547400266862047 0 0.065064107687627035 0.015709033396085249 0 0.064125681069692811 0.014017395828764915 0 0.064390087063073601 0.017229104569305174 0 0.062021201025198501 0.01220290621877604 0 0.065591697457105733 0.016428369144904142 0 0.064099700450455696 0.016799962661301352 0 0.065064107687627035 0.015709033396085249 0 0.063490332842404115 0.015393739660427098 0 0.061904729165346284 0.015208184125017886 0 0.062966552606745607 0.013980255363044109 0 0.063490332842404115 0.015393739660427098 0 0.062719207441891411 0.016710984114753448 0 0.061904729165346284 0.015208184125017886 0 0.064099700450455696 0.016799962661301352 0 0.063490332842404115 0.015393739660427098 0 0.062719207441891411 0.016710984114753448 0 0.064099700450455696 0.016799962661301352 0 0.063844148643139281 0.018153053682191174 0 0.062719207441891411 0.016710984114753448 0 0.063844148643139281 0.018153053682191174 0 0.062719207441891411 0.016710984114753448 0 0.061624801701442564 0.01820138673065988 0 0.062719207441891411 0.016710984114753448 0 0.061624801701442564 0.01820138673065988 0 0.061108147300841416 0.016426414652360128 0 0.061108147300841416 0.016426414652360128 0 0.061904729165346284 0.015208184125017886 0 0.060259963794875804 0.01511692698299417 0 0.061904729165346284 0.015208184125017886 0 0.06166161816512427 0.013624054124371726 0 0.060259963794875804 0.01511692698299417 0 0.062719207441891411 0.016710984114753448 0 0.061108147300841416 0.016426414652360128 0 0.061904729165346284 0.015208184125017886 0 0.061904729165346284 0.015208184125017886 0 0.06166161816512427 0.013624054124371726 0 0.062966552606745607 0.013980255363044109 0 0.061510606700798331 0.012027466918367504 0 0.062378418404777258 0.012441446585667471 0 0.062470763280443493 0.011316778824738248 0 0.06166161816512427 0.013624054124371726 0 0.061510606700798331 0.012027466918367504 0 0.060516127269167767 0.013166564575982956 0 0.06166161816512427 0.013624054124371726 0 0.061510606700798331 0.012027466918367504 0 0.062378418404777258 0.012441446585667471 0 0.062378418404777258 0.012441446585667471 0 0.063627473388810835 0.011547358743404611 0 0.062362351721172618 0.0099197001317872409 0 0.062345682745020982 0.012182818458856591 0 0.062430127272401936 0.010690667381774715 0 0.062378418404777258 0.012441446585667471 0 0.063627473388810835 0.011547358743404611 0 0.063947050445779099 0.013044524924733398 0 0.063947050445779099 0.013044524924733398 0 0.062966552606745607 0.013980255363044109 0 0.063910479075371729 0.0138547094556076 0 0.062378418404777258 0.012441446585667471 0 0.063947050445779099 0.013044524924733398 0 0.062966552606745607 0.013980255363044109 0 0.06166161816512427 0.013624054124371726 0 0.062378418404777258 0.012441446585667471 0 0.062966552606745607 0.013980255363044109 0 0.063490332842404115 0.015393739660427098 0 0.063910838422599578 0.01436773674870215 0 0.06461221043511603 0.014346750131054662 0 0.062966552606745607 0.013980255363044109 0 0.063910838422599578 0.01436773674870215 0 0.063910479075371729 0.0138547094556076 0 0.063490332842404115 0.015393739660427098 0 0.062966552606745607 0.013980255363044109 0 0.063910838422599578 0.01436773674870215 0 0.051750617413173071 0.0088454039348396483 0 0.053060729601185526 0.0015557523508630355 0 0.056400244178323511 0.0062971243617645925 0 0.063947050445779099 0.013044524924733398 0 0.06461221043511603 0.014346750131054662 0 0.065098187675445313 0.012090059931602082 0 0.062021201025198501 0.01220290621877604 0 0.059470349833788648 0.0065015848144864526 0 0.063910838422599578 0.01436773674870215 0 0.063910479075371729 0.0138547094556076 0 0.06461221043511603 0.014346750131054662 0 0.063947050445779099 0.013044524924733398 0 0.063910479075371729 0.0138547094556076 0 0.06461221043511603 0.014346750131054662 0 0.063627473388810835 0.011547358743404611 0 0.065098187675445313 0.012090059931602082 0 0.064084263639732783 0.0098941770568036855 0 0.063627473388810835 0.011547358743404611 0 0.063947050445779099 0.013044524924733398 0 0.065098187675445313 0.012090059931602082 0 0.053060729601185526 0.0015557523508630355 0 0.057217094026949834 0.00062776084089352863 0 0.054316121405593505 -0.005180796917301801 0 0.053060729601185526 0.0015557523508630355 0 0.057217094026949834 0.00062776084089352863 0 0.056400244178323511 0.0062971243617645925 0 0.0410016879150664 0.0019136056360955335 0 0.039078798366626331 0.0065930684057933916 0 0.039078798366626331 0.0065930684057933916 0 0.026385415555507573 0.0012236816712620044 0 0.025078233761085526 0.0040967675672807617 0 0.027045096227290764 0.003412178012951482 0 0.028530515553828753 0.010813771882003657 0 0.027045096227290764 0.003412178012951482 0 0.028530515553828753 0.010813771882003657 0 0.028687432271117558 0.00045416137354365122 0 0.025078233761085526 0.0040967675672807617 0 0.027045096227290764 0.003412178012951482 0 0.02594497482867069 0.0010197851654286595 0 0.027045096227290764 0.003412178012951482 0 0.0273548319581009 0.0010641511578084754 0 0.028687432271117558 0.00045416137354365122 0 0.027045096227290764 0.003412178012951482 0 0.0273548319581009 0.0010641511578084754 0 0.02594497482867069 0.0010197851654286595 0 0.05966504663411161 0.013804299564649864 0 0.060354354164054935 0.0069227276723843826 0 0.056400244178323511 0.0062971243617645925 0 0.057217094026949834 0.00062776084089352863 0 0.060354354164054935 0.0069227276723843826 0 0.056400244178323511 0.0062971243617645925 0 0.05966504663411161 0.013804299564649864 0 0.051750617413173071 0.0088454039348396483 0 0.056400244178323511 0.0062971243617645925 0 0.039078798366626331 0.0065930684057933916 0 0.034965034378456585 0.00089474793329535733 0 0.059909764607352839 0.01900071654147115 0 0.058241049209205954 0.019820127666384933 0 0.058881856246651473 0.016686669105515025 0 0.057100875219816313 0.01714824296470974 0 0.058241049209205954 0.019820127666384933 0 0.058881856246651473 0.016686669105515025 0 0.05912798566249923 0.023062827498652211 0 0.05984204467309772 0.023260607373095758 0 0.059582408514897024 0.022464732212249129 0 0.05984204467309772 0.023260607373095758 0 0.059582408514897024 0.022464732212249129 0 0.060974554582059491 0.021898168867471809 0 0.059909764607352839 0.01900071654147115 0 0.058241049209205954 0.019820127666384933 0 0.060974554582059491 0.021898168867471809 0 0.059054529948574352 0.021111681794947407 0 0.060954806081709827 0.021892921869223207 0 0.061219949347283892 0.023269115879069633 0 0.060974554582059491 0.021898168867471809 0 0.062242790511977904 0.021768357055197217 0 0.061624801701442564 0.01820138673065988 0 0.061108147300841416 0.016426414652360128 0 0.059135120869413318 0.017239275743818856 0 0.061108147300841416 0.016426414652360128 0 0.059135120869413318 0.017239275743818856 0 0.060259963794875804 0.01511692698299417 0 0.060672889863583788 0.01944955193125656 0 0.060227128431625469 0.016013650066261965 0 0.059909764607352839 0.01900071654147115 0 0.060974554582059491 0.021898168867471809 0 0.06174851723364759 0.017650124145070868 0 0.060974554582059491 0.021898168867471809 0 0.062242790511977904 0.021768357055197217 0 0.06174851723364759 0.017650124145070868 0 0.059135120869413318 0.017239275743818856 0 0.060259963794875804 0.01511692698299417 0 0.058738083157946534 0.014319521010465481 0 0.060227128431625469 0.016013650066261965 0 0.059611238824006908 0.013012315769017844 0 0.058738083157946534 0.014319521010465481 0 0.060516127269167767 0.013166564575982956 0 0.0596173464583147 0.012578573399607123 0 0.06166161816512427 0.013624054124371726 0 0.060259963794875804 0.01511692698299417 0 0.060516127269167767 0.013166564575982956 0 0.060259963794875804 0.01511692698299417 0 0.058738083157946534 0.014319521010465481 0 0.060516127269167767 0.013166564575982956 0 0.060516127269167767 0.013166564575982956 0 0.0596173464583147 0.012578573399607123 0 0.060438567624995984 0.011325950231107556 0 0.061510606700798331 0.012027466918367504 0 0.060516127269167767 0.013166564575982956 0 0.060438567624995984 0.011325950231107556 0 0.0596173464583147 0.012578573399607123 0 0.058654214741381827 0.012029795604741215 0 0.060438567624995984 0.011325950231107556 0 0.058738083157946534 0.014319521010465481 0 0.0596173464583147 0.012578573399607123 0 0.058654214741381827 0.012029795604741215 0 0.059909764607352839 0.01900071654147115 0 0.06174851723364759 0.017650124145070868 0 0.058881856246651473 0.016686669105515025 0 0.06174851723364759 0.017650124145070868 0 0.0606082875183531 0.013941841333220578 0 0.058881856246651473 0.016686669105515025 0 0.057100875219816313 0.01714824296470974 0 0.056990776730182983 0.014743253566961319 0 0.058881856246651473 0.016686669105515025 0 0.0606082875183531 0.013941841333220578 0 0.058881856246651473 0.016686669105515025 0 0.058251159126597681 0.012940512647684935 0 0.056990776730182983 0.014743253566961319 0 0.058881856246651473 0.016686669105515025 0 0.058251159126597681 0.012940512647684935 0 0.058251159126597681 0.012940512647684935 0 0.058814278851920372 0.010587063153018595 0 0.057195661046266583 0.011529328827613112 0 0.058814278851920372 0.010587063153018595 0 0.057195661046266583 0.011529328827613112 0 0.057307869692077427 0.010014556063316662 0 0.058814278851920372 0.010587063153018595 0 0.059712301298937107 0.010435951974092913 0 0.059610457776353994 0.009396411406275498 0 0.058654214741381827 0.012029795604741215 0 0.058814278851920372 0.010587063153018595 0 0.059712301298937107 0.010435951974092913 0 0.0606082875183531 0.013941841333220578 0 0.058251159126597681 0.012940512647684935 0 0.058814278851920372 0.010587063153018595 0 0.059611238824006908 0.013012315769017844 0 0.058865855981181985 0.01076112450396601 0 0.058654214741381827 0.012029795604741215 0 0.060438567624995984 0.011325950231107556 0 0.059712301298937107 0.010435951974092913 0 0.060438567624995984 0.011325950231107556 0 0.06071197280581251 0.010255926266642502 0 0.06147952083337848 0.01075751547894112 0 0.060438567624995984 0.011325950231107556 0 0.06071197280581251 0.010255926266642502 0 0.059712301298937107 0.010435951974092913 0 0.06071197280581251 0.010255926266642502 0 0.059712301298937107 0.010435951974092913 0 0.060452086694022703 0.0090877108127203812 0 0.059712301298937107 0.010435951974092913 0 0.059610457776353994 0.009396411406275498 0 0.060452086694022703 0.0090877108127203812 0 0.059610457776353994 0.009396411406275498 0 0.060452086694022703 0.0090877108127203812 0 0.059920534741626258 0.0083548739119081433 0 0.059610457776353994 0.009396411406275498 0 0.059920534741626258 0.0083548739119081433 0 0.058896700413499238 0.0088097300093665232 0 0.06071197280581251 0.010255926266642502 0 0.060452086694022703 0.0090877108127203812 0 0.061515033888862224 0.009643643860909051 0 0.06048687217264756 0.0090756231591674289 0 0.061521063468732838 0.0095454106623451551 0 0.060452086694022703 0.0090877108127203812 0 0.061272346642854872 0.0092609992831392506 0 0.061062083300145606 0.008163082035916475 0 0.060452086694022703 0.0090877108127203812 0 0.059920534741626258 0.0083548739119081433 0 0.061062083300145606 0.008163082035916475 0 0.059920534741626258 0.0083548739119081433 0 0.061062083300145606 0.008163082035916475 0 0.060427576676873776 0.0071346743919995315 0 0.059920534741626258 0.0083548739119081433 0 0.058896700413499238 0.0088097300093665232 0 0.059171238516797023 0.0077375847674536419 0 0.058896700413499238 0.0088097300093665232 0 0.058050644214236009 0.0080348619071265639 0 0.059171238516797023 0.0077375847674536419 0 0.058896700413499238 0.0088097300093665232 0 0.058050644214236009 0.0080348619071265639 0 0.057929866444491634 0.0090343379448869481 0 0.058814278851920372 0.010587063153018595 0 0.058896700413499238 0.0088097300093665232 0 0.057929866444491634 0.0090343379448869481 0 0.058814278851920372 0.010587063153018595 0 0.057929866444491634 0.0090343379448869481 0 0.057307869692077427 0.010014556063316662 0 0.058814278851920372 0.010587063153018595 0 0.059610457776353994 0.009396411406275498 0 0.058896700413499238 0.0088097300093665232 0 0.03698661596764545 0.0027800575870848675 0 0.031906917445913431 0.0027527639356817392 0 0.028982879436726092 0.00033468109403258676 0 0.029268603526340423 -0.00074232745624469544 0 0.029435776220526899 0.0017345282154163535 0 0.028982879436726092 0.00033468109403258676 0 0.028032923499848161 0.0013616147693832966 0 0.027999987484179908 0.00014148564043976394 0 0.028982879436726092 0.00033468109403258676 0 0.028913898815551259 -0.00034237248106427779 0 0.029268603526340423 -0.00074232745624469544 0 0.028982879436726092 0.00033468109403258676 0 0.028913898815551259 -0.00034237248106427779 0 0.028630007252706952 -0.0002977554374281173 0 0.028630007252706952 -0.0002977554374281173 0 0.028729957780099631 -0.00048222529529390367 0 0.028392273811925595 -0.00081291347889311675 0 0.028913898815551259 -0.00034237248106427779 0 0.028630007252706952 -0.0002977554374281173 0 0.028729957780099631 -0.00048222529529390367 0 0.028982879436726092 0.00033468109403258676 0 0.028630007252706952 -0.0002977554374281173 0 0.027999987484179908 0.00014148564043976394 0 0.028630007252706952 -0.0002977554374281173 0 0.028392273811925595 -0.00081291347889311675 0 0.027999987484179908 0.00014148564043976394 0 0.0410016879150664 0.0019136056360955335 0 0.045754102936803362 0.0016124203067259971 0 0.025078233761085526 0.0040967675672807617 0 0.02594497482867069 0.0010197851654286595 0 0.022979719681581592 -0.0015135338361390019 0 0.028729957780099631 -0.00048222529529390367 0 0.028535084233483454 -3.3493404142485143e-05 0 0.028392273811925595 -0.00081291347889311675 0 0.028535084233483454 -3.3493404142485143e-05 0 0.0267674257130588 -0.00020983330831333819 0 0.023241544088110775 -0.0026484990529796752 0 0.028729957780099631 -0.00048222529529390367 0 0.028535084233483454 -3.3493404142485143e-05 0 0.029268603526340423 -0.00074232745624469544 0 0.024641030795852895 -0.0020273976919640345 0 0.03698661596764545 0.0027800575870848675 0 0.028535084233483454 -3.3493404142485143e-05 0 0.0267674257130588 -0.00020983330831333819 0 0.027910953375400761 0.00044314584780438696 0 0.0267674257130588 -0.00020983330831333819 0 0.0273548319581009 0.0010641511578084754 0 0.027910953375400761 0.00044314584780438696 0 0.0267674257130588 -0.00020983330831333819 0 0.0273548319581009 0.0010641511578084754 0 0.02594497482867069 0.0010197851654286595 0 0.0273548319581009 0.0010641511578084754 0 0.027910953375400761 0.00044314584780438696 0 0.028687432271117558 0.00045416137354365122 0 0.028535084233483454 -3.3493404142485143e-05 0 0.027910953375400761 0.00044314584780438696 0 0.028687432271117558 0.00045416137354365122 0 0.02594497482867069 0.0010197851654286595 0 0.024732996032112122 -0.00084580831451455609 0 0.022979719681581592 -0.0015135338361390019 0 0.0267674257130588 -0.00020983330831333819 0 0.02594497482867069 0.0010197851654286595 0 0.024732996032112122 -0.00084580831451455609 0 0.0267674257130588 -0.00020983330831333819 0 0.024732996032112122 -0.00084580831451455609 0 0.023241544088110775 -0.0026484990529796752 0 0.028913898815551259 -0.00034237248106427779 0 0.028729957780099631 -0.00048222529529390367 0 0.029268603526340423 -0.00074232745624469544 0 0.047427385394881276 0.0061780375580033353 0 0.044635163812801137 0.0048385410177601458 0 0.046761310788959766 0.0094667276389885837 0 0.059470349833788648 0.0065015848144864526 0 0.045754102936803362 0.0016124203067259971 0 0.065209473770863488 0.0087734907545865201 0 0.065545985153138225 0.0094681028665416066 0 0.064084263639732783 0.0098941770568036855 0 0.065098187675445313 0.012090059931602082 0 0.065545985153138225 0.0094681028665416066 0 0.064084263639732783 0.0098941770568036855 0 0.065209473770863488 0.0087734907545865201 0 0.064084263639732783 0.0098941770568036855 0 0.062564156989868572 0.0075223162837581257 0 0.03698661596764545 0.0027800575870848675 0 0.048779198211727617 0.0065205450932596344 0 0.048779198211727617 0.0065205450932596344 0 0.045754102936803362 0.0016124203067259971 0 0.024732996032112122 -0.00084580831451455609 0 0.023241544088110775 -0.0026484990529796752 0 0.022979719681581592 -0.0015135338361390019 0 0.03698661596764545 0.0027800575870848675 0 0.045754102936803362 0.0016124203067259971 0 0.035631859129998597 0.0040730266701075246 0 0.035618788073536661 0.0041337243005994291 0 0.035410838923934235 0.0041815061015018345 0 0.053384198312514723 0.00702977142550411 0 0.053286153548913716 0.006985046536712702 0 0.053309803078409726 0.0069110889229152921 0 0.035615750495537543 0.0040644463304896445 0 0.035631859129998597 0.0040730266701075246 0 0.035410838923934235 0.0041815061015018345 0 0.048779198211727617 0.0065205450932596344 0 0.043923708399599942 0.0047634446549485463 0 0.048779198211727617 0.0065205450932596344 0 0.061970895218987479 0.0084870724618884771 0 0.061970895218987479 0.0084870724618884771 0 0.062430127272401936 0.010690667381774715 0 0.062607905355375679 0.010156003192497614 0 0.062470763280443493 0.011316778824738248 0 0.06147952083337848 0.01075751547894112 0 0.064084263639732783 0.0098941770568036855 0 0.062564156989868572 0.0075223162837581257 0 0.062362351721172618 0.0099197001317872409 0 0.063627473388810835 0.011547358743404611 0 0.064084263639732783 0.0098941770568036855 0 0.062362351721172618 0.0099197001317872409 0 0.061510606700798331 0.012027466918367504 0 0.060438567624995984 0.011325950231107556 0 0.06147952083337848 0.01075751547894112 0 0.061510606700798331 0.012027466918367504 0 0.062470763280443493 0.011316778824738248 0 0.06147952083337848 0.01075751547894112 0 0.06071197280581251 0.010255926266642502 0 0.06147952083337848 0.01075751547894112 0 0.061515033888862224 0.009643643860909051 0 0.062607905355375679 0.010156003192497614 0 0.06147952083337848 0.01075751547894112 0 0.061515033888862224 0.009643643860909051 0 0.061970895218987479 0.0084870724618884771 0 0.061521063468732838 0.0095454106623451551 0 0.061272346642854872 0.0092609992831392506 0 0.061062083300145606 0.008163082035916475 0 0.062247879182564345 0.0081490602119251611 0 0.061062083300145606 0.008163082035916475 0 0.062247879182564345 0.0081490602119251611 0 0.061843131506985352 0.0068760588425335542 0 0.035643795573391077 0.0045718337694097069 0 0.035855044374319037 0.0041106220691462655 0 0.035657959449606466 0.0057060840670202836 0 0.047075632011352217 0.0069351465977052044 0 0.049691945228639518 0.007893568849602732 0 0.047075632011352217 0.0069351465977052044 0 0.036035979581556674 0.0071718500370144518 0 0.035643795573391077 0.0045718337694097069 0 0.035855044374319037 0.0041106220691462655 0 0.035563080400240484 0.004244019081422799 0 0.053286153548913716 0.006985046536712702 0 0.053192508281714304 0.0067781876578469 0 0.053309803078409726 0.0069110889229152921 0 0.061970895218987479 0.0084870724618884771 0 0.047075632011352217 0.0069351465977052044 0 0.047075632011352217 0.0069351465977052044 0 0.043923708399599942 0.0047634446549485463 0 0.062117360758402455 0.0096445397427682242 0 0.061272346642854872 0.0092609992831392506 0 0.062247879182564345 0.0081490602119251611 0 0.035855044374319037 0.0041106220691462655 0 0.035618788073536661 0.0041337243005994291 0 0.035563080400240484 0.004244019081422799 0 0.035618788073536661 0.0041337243005994291 0 0.035563080400240484 0.004244019081422799 0 0.035410838923934235 0.0041815061015018345 0 0.036135546027975883 0.0043417866368307299 0 0.031734863454001783 0.0054011964201004002 0 0.035643795573391077 0.0045718337694097069 0 0.031207042744809128 0.0053079962617131292 0 0.033791713847769127 0.0057046729051719773 0 0.035643795573391077 0.0045718337694097069 0 0.035563080400240484 0.004244019081422799 0 0.035410814397817778 0.0044026953174216687 0 0.035643795573391077 0.0045718337694097069 0 0.035410814397817778 0.0044026953174216687 0 0.035216064609930847 0.0045392504417544315 0 0.035563080400240484 0.004244019081422799 0 0.035410814397817778 0.0044026953174216687 0 0.035410838923934235 0.0041815061015018345 0 0.028059636183551846 0.0030273578440469223 0 0.028883641689162215 0.0052904690927310519 0 0.026863432561177229 0.0046321320343209581 0 0.031906917445913431 0.0027527639356817392 0 0.031734863454001783 0.0054011964201004002 0 0.035410814397817778 0.0044026953174216687 0 0.035410838923934235 0.0041815061015018345 0 0.035216064609930847 0.0045392504417544315 0 0.028059636183551846 0.0030273578440469223 0 0.029435776220526899 0.0017345282154163535 0 0.028883641689162215 0.0052904690927310519 0 0.028059636183551846 0.0030273578440469223 0 0.029435776220526899 0.0017345282154163535 0 0.028032923499848161 0.0013616147693832966 0 0.028982879436726092 0.00033468109403258676 0 0.029435776220526899 0.0017345282154163535 0 0.028032923499848161 0.0013616147693832966 0 0.031580436487603211 0.0095113447211077496 0 0.030452332795076139 0.0075448337756931719 0 0.029237907656863467 0.0088744476215262894 0 0.031580436487603211 0.0095113447211077496 0 0.029826766412309812 0.010993246785345826 0 0.029237907656863467 0.0088744476215262894 0 0.031580436487603211 0.0095113447211077496 0 0.031989082855119491 0.007746407507978231 0 0.030452332795076139 0.0075448337756931719 0 0.031580436487603211 0.0095113447211077496 0 0.031989082855119491 0.007746407507978231 0 0.033554360978187425 0.0081831106829722087 0 0.030452332795076139 0.0075448337756931719 0 0.030964333541224878 0.00608446673594707 0 0.031680613250376251 0.0067664273115610992 0 0.031207042744809128 0.0053079962617131292 0 0.032288996120157509 0.006192101509663101 0 0.033791713847769127 0.0057046729051719773 0 0.031524421993639196 0.00572062970439837 0 0.031734863454001783 0.0054011964201004002 0 0.030964333541224878 0.00608446673594707 0 0.031207042744809128 0.0053079962617131292 0 0.032288996120157509 0.006192101509663101 0 0.032288996120157509 0.006192101509663101 0 0.031680613250376251 0.0067664273115610992 0 0.032598765209602587 0.0070129784499748911 0 0.030964333541224878 0.00608446673594707 0 0.032288996120157509 0.006192101509663101 0 0.031680613250376251 0.0067664273115610992 0 0.031989082855119491 0.007746407507978231 0 0.030452332795076139 0.0075448337756931719 0 0.031680613250376251 0.0067664273115610992 0 0.031989082855119491 0.007746407507978231 0 0.031680613250376251 0.0067664273115610992 0 0.032598765209602587 0.0070129784499748911 0 0.032598765209602587 0.0070129784499748911 0 0.033413731459999811 0.006410616979276567 0 0.033554360978187425 0.0081831106829722087 0 0.033413731459999811 0.006410616979276567 0 0.034329906782743162 0.0069180057400354865 0 0.033554360978187425 0.0081831106829722087 0 0.032288996120157509 0.006192101509663101 0 0.032598765209602587 0.0070129784499748911 0 0.033413731459999811 0.006410616979276567 0 0.032288996120157509 0.006192101509663101 0 0.033413731459999811 0.006410616979276567 0 0.033791713847769127 0.0057046729051719773 0 0.033791713847769127 0.0057046729051719773 0 0.034329906782743162 0.0069180057400354865 0 0.035657959449606466 0.0057060840670202836 0 0.035643795573391077 0.0045718337694097069 0 0.033791713847769127 0.0057046729051719773 0 0.035657959449606466 0.0057060840670202836 0 0.033413731459999811 0.006410616979276567 0 0.033791713847769127 0.0057046729051719773 0 0.034329906782743162 0.0069180057400354865 0 0.034329906782743162 0.0069180057400354865 0 0.033554360978187425 0.0081831106829722087 0 0.035377656309094348 0.0087297233154888399 0 0.031989082855119491 0.007746407507978231 0 0.032598765209602587 0.0070129784499748911 0 0.033554360978187425 0.0081831106829722087 0 0.031580436487603211 0.0095113447211077496 0 0.033554360978187425 0.0081831106829722087 0 0.033956873522469719 0.010459167831422013 0 0.033554360978187425 0.0081831106829722087 0 0.035377656309094348 0.0087297233154888399 0 0.033956873522469719 0.010459167831422013 0 0.035377656309094348 0.0087297233154888399 0 0.036789182532913793 0.008135289059860322 0 0.036229099635122053 0.010308689298807773 0 0.035377656309094348 0.0087297233154888399 0 0.036229099635122053 0.010308689298807773 0 0.033956873522469719 0.010459167831422013 0 0.036540784182771908 0.008188559859210463 0 0.036329672186146404 0.0081006150645788737 0 0.036789182532913793 0.008135289059860322 0 0.034329906782743162 0.0069180057400354865 0 0.035377656309094348 0.0087297233154888399 0 0.035657959449606466 0.0057060840670202836 0 0.035536088152988317 0.0085377841848845015 0 0.036035979581556674 0.0071718500370144518 0 0.035377656309094348 0.0087297233154888399 0 0.036329672186146404 0.0081006150645788737 0 0.036789182532913793 0.008135289059860322 0 0.061062083300145606 0.008163082035916475 0 0.061843131506985352 0.0068760588425335542 0 0.060427576676873776 0.0071346743919995315 0 0.036789182532913793 0.008135289059860322 0 0.038176906435121824 0.010327394714263064 0 0.036229099635122053 0.010308689298807773 0 0.061843131506985352 0.0068760588425335542 0 0.061475407485207766 0.0053912777691164935 0 0.060427576676873776 0.0071346743919995315 0 0.049691945228639518 0.007893568849602732 0 0.049729763155801555 0.0077038298902336669 0 0.038176906435121824 0.010327394714263064 0 0.03724965580573255 0.01242765532240059 0 0.039643414040059888 0.013264118822657513 0 0.038176906435121824 0.010327394714263064 0 0.03724965580573255 0.01242765532240059 0 0.036229099635122053 0.010308689298807773 0 0.03724965580573255 0.01242765532240059 0 0.039643414040059888 0.013264118822657513 0 0.036632316644212591 0.015101878127622927 0 0.03724965580573255 0.01242765532240059 0 0.034907291049470456 0.013016983814330117 0 0.036632316644212591 0.015101878127622927 0 0.03724965580573255 0.01242765532240059 0 0.034907291049470456 0.013016983814330117 0 0.036229099635122053 0.010308689298807773 0 0.034907291049470456 0.013016983814330117 0 0.036229099635122053 0.010308689298807773 0 0.033956873522469719 0.010459167831422013 0 0.034907291049470456 0.013016983814330117 0 0.033956873522469719 0.010459167831422013 0 0.031576046120267834 0.012943095856245812 0 0.034907291049470456 0.013016983814330117 0 0.031576046120267834 0.012943095856245812 0 0.033975156036369074 0.015501292103519766 0 0.031576046120267834 0.012943095856245812 0 0.027511991945470875 0.014541598419218203 0 0.031298020154936462 0.016248126550979545 0 0.031580436487603211 0.0095113447211077496 0 0.031576046120267834 0.012943095856245812 0 0.029826766412309812 0.010993246785345826 0 0.031580436487603211 0.0095113447211077496 0 0.033956873522469719 0.010459167831422013 0 0.031576046120267834 0.012943095856245812 0 0.057958257743867723 0.0055106778869554052 0 0.058318005169913305 0.0073160969087879401 0 0.059695925624035327 0.0055770611388875841 0 0.057958257743867723 0.0055106778869554052 0 0.058318005169913305 0.0073160969087879401 0 0.05577117768269034 0.0060016768512041602 0 0.058223081957711455 0.007267270786284803 0 0.056918997011486519 0.0064019271631462578 0 0.058050644214236009 0.0080348619071265639 0 0.058318005169913305 0.0073160969087879401 0 0.058037707664530383 0.0069063772326879982 0 0.059171238516797023 0.0077375847674536419 0 0.058318005169913305 0.0073160969087879401 0 0.059695925624035327 0.0055770611388875841 0 0.058050644214236009 0.0080348619071265639 0 0.059171238516797023 0.0077375847674536419 0 0.058318005169913305 0.0073160969087879401 0 0.059171238516797023 0.0077375847674536419 0 0.060427576676873776 0.0071346743919995315 0 0.059695925624035327 0.0055770611388875841 0 0.059920534741626258 0.0083548739119081433 0 0.059171238516797023 0.0077375847674536419 0 0.060427576676873776 0.0071346743919995315 0 0.061475407485207766 0.0053912777691164935 0 0.060427576676873776 0.0071346743919995315 0 0.059695925624035327 0.0055770611388875841 0 0.059695925624035327 0.0055770611388875841 0 0.059605623205694909 0.0033563712801724212 0 0.058468612211509091 0.004041633080918627 0 0.049729763155801555 0.0077038298902336669 0 0.05032431420247864 0.0087292917402910005 0 0.061475407485207766 0.0053912777691164935 0 0.059695925624035327 0.0055770611388875841 0 0.060862787912985078 0.0034561045050748281 0 0.059695925624035327 0.0055770611388875841 0 0.060862787912985078 0.0034561045050748281 0 0.059605623205694909 0.0033563712801724212 0 0.060862787912985078 0.0034561045050748281 0 0.059605623205694909 0.0033563712801724212 0 0.059494559686760401 0.0019302852250568004 0 0.059605623205694909 0.0033563712801724212 0 0.058342511378031203 0.0027976800435620939 0 0.059069666919614218 0.0025906100485553378 0 0.058342511378031203 0.0027976800435620939 0 0.058468612211509091 0.004041633080918627 0 0.057450278340452784 0.0028285848525664084 0 0.058468612211509091 0.004041633080918627 0 0.057206556916565482 0.0039524186887812986 0 0.057450278340452784 0.0028285848525664084 0 0.059605623205694909 0.0033563712801724212 0 0.058342511378031203 0.0027976800435620939 0 0.058468612211509091 0.004041633080918627 0 0.057958257743867723 0.0055106778869554052 0 0.059695925624035327 0.0055770611388875841 0 0.058468612211509091 0.004041633080918627 0 0.057958257743867723 0.0055106778869554052 0 0.058468612211509091 0.004041633080918627 0 0.057206556916565482 0.0039524186887812986 0 0.057958257743867723 0.0055106778869554052 0 0.057206556916565482 0.0039524186887812986 0 0.05577117768269034 0.0060016768512041602 0 0.057206556916565482 0.0039524186887812986 0 0.056601304337382911 0.0027924154844756644 0 0.055404971462097545 0.0033194632702245991 0 0.057206556916565482 0.0039524186887812986 0 0.057450278340452784 0.0028285848525664084 0 0.056601304337382911 0.0027924154844756644 0 0.055404971462097545 0.0033194632702245991 0 0.054763046238550855 0.0020259436349641196 0 0.055816357136192124 0.0020713490195653191 0 0.056601304337382911 0.0027924154844756644 0 0.055404971462097545 0.0033194632702245991 0 0.055816357136192124 0.0020713490195653191 0 0.055404971462097545 0.0033194632702245991 0 0.053925861807482302 0.0025252528853545613 0 0.053632118743038151 0.004593081208090489 0 0.055404971462097545 0.0033194632702245991 0 0.053925861807482302 0.0025252528853545613 0 0.054763046238550855 0.0020259436349641196 0 0.055404971462097545 0.0033194632702245991 0 0.053632118743038151 0.004593081208090489 0 0.05577117768269034 0.0060016768512041602 0 0.057206556916565482 0.0039524186887812986 0 0.055404971462097545 0.0033194632702245991 0 0.05577117768269034 0.0060016768512041602 0 0.055314442460856268 0.0053322436677088478 0 0.056918997011486519 0.0064019271631462578 0 0.057182209750300077 0.0057340110374081458 0 0.058037707664530383 0.0069063772326879982 0 0.057285426542668397 0.0072088914023505464 0 0.058037707664530383 0.0069063772326879982 0 0.057285426542668397 0.0072088914023505464 0 0.057588831754945051 0.0083249068124253874 0 0.057285426542668397 0.0072088914023505464 0 0.057588831754945051 0.0083249068124253874 0 0.057271765809625168 0.0086260310495586794 0 0.058050644214236009 0.0080348619071265639 0 0.058037707664530383 0.0069063772326879982 0 0.057588831754945051 0.0083249068124253874 0 0.055633422864921241 0.0071149309443388556 0 0.055137901397726008 0.0079538829397404892 0 0.056387092215159418 0.0073857925155093769 0 0.055633422864921241 0.0071149309443388556 0 0.055137901397726008 0.0079538829397404892 0 0.054626429119208661 0.0069247614424336182 0 0.056176165741459325 0.0085999929768024973 0 0.057383355009927958 0.008620989225511624 0 0.055137901397726008 0.0079538829397404892 0 0.056387092215159418 0.0073857925155093769 0 0.057271765809625168 0.0086260310495586794 0 0.057285426542668397 0.0072088914023505464 0 0.056387092215159418 0.0073857925155093769 0 0.057271765809625168 0.0086260310495586794 0 0.057182209750300077 0.0057340110374081458 0 0.057285426542668397 0.0072088914023505464 0 0.05641802712582248 0.0060803298079162137 0 0.057285426542668397 0.0072088914023505464 0 0.056387092215159418 0.0073857925155093769 0 0.05641802712582248 0.0060803298079162137 0 0.05641802712582248 0.0060803298079162137 0 0.056563162052651252 0.0053478897235558834 0 0.056504283238667276 0.0054862406867183721 0 0.055633422864921241 0.0071149309443388556 0 0.05641802712582248 0.0060803298079162137 0 0.054626429119208661 0.0069247614424336182 0 0.05641802712582248 0.0060803298079162137 0 0.056563162052651252 0.0053478897235558834 0 0.056680266225133065 0.0049575168852363516 0 0.056490295659297647 0.0059425682453056487 0 0.055455937830022062 0.0060042148317356577 0 0.055633422864921241 0.0071149309443388556 0 0.056387092215159418 0.0073857925155093769 0 0.05641802712582248 0.0060803298079162137 0 0.056504283238667276 0.0054862406867183721 0 0.056587425516123536 0.0051356556108469627 0 0.056602095627667381 0.005118218111732349 0 0.056563162052651252 0.0053478897235558834 0 0.056504283238667276 0.0054862406867183721 0 0.056602095627667381 0.005118218111732349 0 0.056504283238667276 0.0054862406867183721 0 0.056587425516123536 0.0051356556108469627 0 0.056496927416629796 0.0052331753874088607 0 0.055314442460856268 0.0053322436677088478 0 0.054556692194930229 0.0029501717372639579 0 0.057182209750300077 0.0057340110374081458 0 0.05641802712582248 0.0060803298079162137 0 0.056504283238667276 0.0054862406867183721 0 0.057182209750300077 0.0057340110374081458 0 0.056504283238667276 0.0054862406867183721 0 0.056496927416629796 0.0052331753874088607 0 0.053925861807482302 0.0025252528853545613 0 0.054097832180100586 0.0019379886071620401 0 0.054437451448287641 0.0014224794949542479 0 0.053925861807482302 0.0025252528853545613 0 0.054097832180100586 0.0019379886071620401 0 0.053932740137449725 0.0019696254264175267 0 0.053925861807482302 0.0025252528853545613 0 0.053632118743038151 0.004593081208090489 0 0.051307056557315302 0.0031825941667799409 0 0.053261473405847234 0.0023623430892596264 0 0.054556692194930229 0.0029501717372639579 0 0.054996423481198355 0.0015329255201648577 0 0.054734888634397585 0.0017744844717344269 0 0.056021237407276915 0.0021445513221462044 0 0.054996423481198355 0.0015329255201648577 0 0.054493758500869266 0.0011561722001812067 0 0.055601297636747829 0.0015336027112481069 0 0.054996423481198355 0.0015329255201648577 0 0.054437451448287641 0.0014224794949542479 0 0.054734888634397585 0.0017744844717344269 0 0.054472490722259223 0.0022463282350892295 0 0.054556692194930229 0.0029501717372639579 0 0.054097832180100586 0.0019379886071620401 0 0.054437451448287641 0.0014224794949542479 0 0.054734888634397585 0.0017744844717344269 0 0.054097832180100586 0.0019379886071620401 0 0.054734888634397585 0.0017744844717344269 0 0.054479052548043451 0.0019692319905208196 0 0.054556692194930229 0.0029501717372639579 0 0.056899150294352357 0.0030284396939173949 0 0.054996423481198355 0.0015329255201648577 0 0.055601297636747829 0.0015336027112481069 0 0.056021237407276915 0.0021445513221462044 0 0.055601297636747829 0.0015336027112481069 0 0.056855031627723741 0.001242925111030138 0 0.056021237407276915 0.0021445513221462044 0 0.054493758500869266 0.0011561722001812067 0 0.055601297636747829 0.0015336027112481069 0 0.056855031627723741 0.001242925111030138 0 0.05712865994452989 0.0015509431043632016 0 0.059685753999717379 -2.2325383404761153e-05 0 0.058115838892188652 -0.00065656136959499909 0 0.057058377816606283 0.0015434733895697262 0 0.05811746134373684 0.0010592576991392045 0 0.05712865994452989 0.0015509431043632016 0 0.056855031627723741 0.001242925111030138 0 0.056021237407276915 0.0021445513221462044 0 0.056899150294352357 0.0030284396939173949 0 0.05617165798275868 0.0030151151657395654 0 0.056808287108979547 0.0047648069466994071 0 0.056823369362520366 0.0043697522385209246 0 0.056382010866590074 0.002952236317870921 0 0.05712865994452989 0.0015509431043632016 0 0.056855031627723741 0.001242925111030138 0 0.056382010866590074 0.002952236317870921 0 0.056808287108979547 0.0047648069466994071 0 0.056823369362520366 0.0043697522385209246 0 0.056732912672954799 0.0048144413228248363 0 0.056587425516123536 0.0051356556108469627 0 0.056496927416629796 0.0052331753874088607 0 0.056808287108979547 0.0047648069466994071 0 0.056808287108979547 0.0047648069466994071 0 0.056732912672954799 0.0048144413228248363 0 0.056602095627667381 0.005118218111732349 0 0.056587425516123536 0.0051356556108469627 0 0.056808287108979547 0.0047648069466994071 0 0.056602095627667381 0.005118218111732349 0 0.056732912672954799 0.0048144413228248363 0 0.056602095627667381 0.005118218111732349 0 0.056659688854678508 0.0050819315364185706 0 0.056092721713716369 0.0012544009330070008 0 0.055000207264388146 0.0026543719384365897 0 0.054999381461963148 -0.00038872413829757225 0 0.056092721713716369 0.0012544009330070008 0 0.056778652981655228 -0.00050580820911598891 0 0.054999381461963148 -0.00038872413829757225 0 0.05712865994452989 0.0015509431043632016 0 0.056092721713716369 0.0012544009330070008 0 0.056778652981655228 -0.00050580820911598891 0 0.056823369362520366 0.0043697522385209246 0 0.056382010866590074 0.002952236317870921 0 0.056820942531613898 0.0038213381623524428 0 0.05712865994452989 0.0015509431043632016 0 0.056092721713716369 0.0012544009330070008 0 0.056382010866590074 0.002952236317870921 0 0.055000275949131552 0.002655263729840525 0 0.056802926940954172 0.0040532600198419375 0 0.056092721713716369 0.0012544009330070008 0 0.056382010866590074 0.002952236317870921 0 0.055000207264388146 0.0026543719384365897 0 0.056382010866590074 0.002952236317870921 0 0.055000207264388146 0.0026543719384365897 0 0.056820942531613898 0.0038213381623524428 0 0.054999674610676549 0.0050780666910879273 0 0.056082290583458434 0.0043404550103947536 0 0.056502760890077608 0.0049857560861427475 0 0.055000100905912452 0.0026565399168372067 0 0.054999674610676549 0.0050780666910879273 0 0.056082290583458434 0.0043404550103947536 0 0.055000100905912452 0.0026565399168372067 0 0.056082290583458434 0.0043404550103947536 0 0.056899718426375451 0.004248862764438195 0 0.056082290583458434 0.0043404550103947536 0 0.056605259415315475 0.0045779541766787614 0 0.056502760890077608 0.0049857560861427475 0 0.056082290583458434 0.0043404550103947536 0 0.056899718426375451 0.004248862764438195 0 0.056605259415315475 0.0045779541766787614 0 0.056899718426375451 0.004248862764438195 0 0.056605259415315475 0.0045779541766787614 0 0.056801570901241404 0.0047011643527734969 0 0.056605259415315475 0.0045779541766787614 0 0.056502760890077608 0.0049857560861427475 0 0.056801570901241404 0.0047011643527734969 0 0.057071146241536717 0.0052771556216518441 0 0.056576409497634796 0.0067827303312924239 0 0.056502760890077608 0.0049857560861427475 0 0.056801570901241404 0.0047011643527734969 0 0.056891808132055487 0.0047963817485523917 0 0.057674729428411578 0.0068073778910508094 0 0.057239575261366187 0.005679915441186908 0 0.059388307402445974 0.0061376184622123978 0 0.057674729428411578 0.0068073778910508094 0 0.057239575261366187 0.005679915441186908 0 0.056500543703411628 0.0065284607248934168 0 0.057674729428411578 0.0068073778910508094 0 0.056500543703411628 0.0065284607248934168 0 0.055767868448215234 0.0076329976206616704 0 0.054999831364986256 0.0050792433337595241 0 0.057239575261366187 0.005679915441186908 0 0.056500543703411628 0.0065284607248934168 0 0.054999831364986256 0.0050792433337595241 0 0.056500543703411628 0.0065284607248934168 0 0.055767868448215234 0.0076329976206616704 0 0.055000104572993438 0.0050793634660981123 0 0.057071146241536717 0.0052771556216518441 0 0.054999831364986256 0.0050792433337595241 0 0.054999871665170202 0.007824913200996023 0 0.055767868448215234 0.0076329976206616704 0 0.056680266225133065 0.0049575168852363516 0 0.056745627892764786 0.0050185574234940132 0 0.056846324921574723 0.0047872182388907997 0 0.056823369362520366 0.0043697522385209246 0 0.056732912672954799 0.0048144413228248363 0 0.056745627892764786 0.0050185574234940132 0 0.056563162052651252 0.0053478897235558834 0 0.056680266225133065 0.0049575168852363516 0 0.056745627892764786 0.0050185574234940132 0 0.056563162052651252 0.0053478897235558834 0 0.056602095627667381 0.005118218111732349 0 0.056659688854678508 0.0050819315364185706 0 0.056563162052651252 0.0053478897235558834 0 0.056745627892764786 0.0050185574234940132 0 0.056659688854678508 0.0050819315364185706 0 0.056732912672954799 0.0048144413228248363 0 0.056745627892764786 0.0050185574234940132 0 0.056659688854678508 0.0050819315364185706 0 0.056823369362520366 0.0043697522385209246 0 0.056820942531613898 0.0038213381623524428 0 0.056745627892764786 0.0050185574234940132 0 0.056899718426375451 0.004248862764438195 0 0.056745627892764786 0.0050185574234940132 0 0.056846324921574723 0.0047872182388907997 0 0.056802926940954172 0.0040532600198419375 0 0.056825372117985613 0.0048814706278193874 0 0.056899718426375451 0.004248862764438195 0 0.056801570901241404 0.0047011643527734969 0 0.056846324921574723 0.0047872182388907997 0 0.057316825322491348 0.0074826227318168428 0 0.056576409497634796 0.0067827303312924239 0 0.056672746554407342 0.00834581267024684 0 0.057248021318621667 0.0085241238154298068 0 0.057015301381391471 0.0087152536682760951 0 0.056801570901241404 0.0047011643527734969 0 0.056846324921574723 0.0047872182388907997 0 0.056891808132055487 0.0047963817485523917 0 0.055137901397726008 0.0079538829397404892 0 0.054626429119208661 0.0069247614424336182 0 0.053145384883075054 0.0075055172774426224 0 0.057789961416177885 0.0090619565290943112 0 0.057248021318621667 0.0085241238154298068 0 0.057584306516613608 0.0090681767545276425 0 0.056680266225133065 0.0049575168852363516 0 0.056846324921574723 0.0047872182388907997 0 0.056891808132055487 0.0047963817485523917 0 0.055455937830022062 0.0060042148317356577 0 0.056576409497634796 0.0067827303312924239 0 0.056176165741459325 0.0085999929768024973 0 0.056576409497634796 0.0067827303312924239 0 0.057789961416177885 0.0090619565290943112 0 0.057584306516613608 0.0090681767545276425 0 0.057769337335959493 0.0093276422299388671 0 0.057556605903267853 0.009389629023009714 0 0.057584306516613608 0.0090681767545276425 0 0.057769337335959493 0.0093276422299388671 0 0.057556605903267853 0.009389629023009714 0 0.057707052888513168 0.0096591500421476101 0 0.057769337335959493 0.0093276422299388671 0 0.057556605903267853 0.009389629023009714 0 0.057584306516613608 0.0090681767545276425 0 0.057307667738554273 0.0089934134315935998 0 0.057248021318621667 0.0085241238154298068 0 0.057307667738554273 0.0089934134315935998 0 0.057015301381391471 0.0087152536682760951 0 0.057248021318621667 0.0085241238154298068 0 0.057584306516613608 0.0090681767545276425 0 0.057307667738554273 0.0089934134315935998 0 0.057307667738554273 0.0089934134315935998 0 0.057015301381391471 0.0087152536682760951 0 0.057050949941799815 0.0090725131582151813 0 0.057015301381391471 0.0087152536682760951 0 0.057050949941799815 0.0090725131582151813 0 0.05677476694126922 0.008729999798343456 0 0.057556605903267853 0.009389629023009714 0 0.057307667738554273 0.0089934134315935998 0 0.05732915836342499 0.0094551278259440343 0 0.057307667738554273 0.0089934134315935998 0 0.057050949941799815 0.0090725131582151813 0 0.05732915836342499 0.0094551278259440343 0 0.057050949941799815 0.0090725131582151813 0 0.05732915836342499 0.0094551278259440343 0 0.057209464645388897 0.0099133067497354337 0 0.05732915836342499 0.0094551278259440343 0 0.057209464645388897 0.0099133067497354337 0 0.057613232253764989 0.010042663490779563 0 0.057050949941799815 0.0090725131582151813 0 0.057209464645388897 0.0099133067497354337 0 0.056769871632309586 0.0091797233483887804 0 0.057209464645388897 0.0099133067497354337 0 0.056629167375613805 0.0097789006878012744 0 0.056916883314689699 0.010851205202628488 0 0.057209464645388897 0.0099133067497354337 0 0.057613232253764989 0.010042663490779563 0 0.057424024522233663 0.010811933372059896 0 0.057613232253764989 0.010042663490779563 0 0.057940783630811912 0.010549337042702509 0 0.057860645631474063 0.0099013398149488379 0 0.057613232253764989 0.010042663490779563 0 0.057707052888513168 0.0096591500421476101 0 0.057860645631474063 0.0099013398149488379 0 0.057707052888513168 0.0096591500421476101 0 0.057769337335959493 0.0093276422299388671 0 0.057860645631474063 0.0099013398149488379 0 0.057556605903267853 0.009389629023009714 0 0.057613232253764989 0.010042663490779563 0 0.057707052888513168 0.0096591500421476101 0 0.057556605903267853 0.009389629023009714 0 0.05732915836342499 0.0094551278259440343 0 0.057613232253764989 0.010042663490779563 0 0.054999871665170202 0.007824913200996023 0 0.055767868448215234 0.0076329976206616704 0 0.055857496791538286 0.0091855229274361797 0 0.055767868448215234 0.0076329976206616704 0 0.056427053123480161 0.0086098735175501023 0 0.055857496791538286 0.0091855229274361797 0 0.057316825322491348 0.0074826227318168428 0 0.055805286526937774 0.0077758961065998271 0 0.056672746554407342 0.00834581267024684 0 0.055767868448215234 0.0076329976206616704 0 0.056427053123480161 0.0086098735175501023 0 0.056672746554407342 0.00834581267024684 0 0.057015301381391471 0.0087152536682760951 0 0.05677476694126922 0.008729999798343456 0 0.056672746554407342 0.00834581267024684 0 0.056427053123480161 0.0086098735175501023 0 0.05677476694126922 0.008729999798343456 0 0.056427053123480161 0.0086098735175501023 0 0.05677476694126922 0.008729999798343456 0 0.056769871632309586 0.0091797233483887804 0 0.057050949941799815 0.0090725131582151813 0 0.05677476694126922 0.008729999798343456 0 0.056769871632309586 0.0091797233483887804 0 0.056629167375613805 0.0097789006878012744 0 0.055857496791538286 0.0091855229274361797 0 0.056057749804899429 0.010901891372109175 0 0.056427053123480161 0.0086098735175501023 0 0.056769871632309586 0.0091797233483887804 0 0.056629167375613805 0.0097789006878012744 0 0.057209464645388897 0.0099133067497354337 0 0.056769871632309586 0.0091797233483887804 0 0.056629167375613805 0.0097789006878012744 0 0.056427053123480161 0.0086098735175501023 0 0.056629167375613805 0.0097789006878012744 0 0.055857496791538286 0.0091855229274361797 0 0.055857496791538286 0.0091855229274361797 0 0.054999507420825426 0.010567904489852054 0 0.056057749804899429 0.010901891372109175 0 0.054999871665170202 0.007824913200996023 0 0.055857496791538286 0.0091855229274361797 0 0.054999507420825426 0.010567904489852054 0 0.054999507420825426 0.010567904489852054 0 0.056057749804899429 0.010901891372109175 0 0.054999751847436572 0.013312354320769024 0 0.056629167375613805 0.0097789006878012744 0 0.056057749804899429 0.010901891372109175 0 0.056916883314689699 0.010851205202628488 0 0.056057749804899429 0.010901891372109175 0 0.056551636022155641 0.012057503298562268 0 0.056916883314689699 0.010851205202628488 0 0.056993558763406033 0.013206482639621034 0 0.056551636022155641 0.012057503298562268 0 0.05613546465491593 0.013282785793817791 0 0.056057749804899429 0.010901891372109175 0 0.056551636022155641 0.012057503298562268 0 0.054999751847436572 0.013312354320769024 0 0.056551636022155641 0.012057503298562268 0 0.05613546465491593 0.013282785793817791 0 0.054999751847436572 0.013312354320769024 0 0.057738396447625989 0.010908744461457639 0 0.057424024522233663 0.010811933372059896 0 0.057593270812374052 0.011559795547140745 0 0.057738396447625989 0.010908744461457639 0 0.057593270812374052 0.011559795547140745 0 0.057836946920970085 0.01148356639777685 0 0.057738396447625989 0.010908744461457639 0 0.058026768638990048 0.011199614235353261 0 0.057940783630811912 0.010549337042702509 0 0.057738396447625989 0.010908744461457639 0 0.058026768638990048 0.011199614235353261 0 0.057836946920970085 0.01148356639777685 0 0.057613232253764989 0.010042663490779563 0 0.057738396447625989 0.010908744461457639 0 0.057940783630811912 0.010549337042702509 0 0.057613232253764989 0.010042663490779563 0 0.057738396447625989 0.010908744461457639 0 0.057424024522233663 0.010811933372059896 0 0.057209464645388897 0.0099133067497354337 0 0.057424024522233663 0.010811933372059896 0 0.056916883314689699 0.010851205202628488 0 0.057424024522233663 0.010811933372059896 0 0.056916883314689699 0.010851205202628488 0 0.057228863205073303 0.011809544650838262 0 0.056551636022155641 0.012057503298562268 0 0.056916883314689699 0.010851205202628488 0 0.057228863205073303 0.011809544650838262 0 0.057424024522233663 0.010811933372059896 0 0.057228863205073303 0.011809544650838262 0 0.057593270812374052 0.011559795547140745 0 0.057228863205073303 0.011809544650838262 0 0.057556987502358645 0.012518301477366609 0 0.057593270812374052 0.011559795547140745 0 0.056993558763406033 0.013206482639621034 0 0.056551636022155641 0.012057503298562268 0 0.057228863205073303 0.011809544650838262 0 0.056993558763406033 0.013206482639621034 0 0.057228863205073303 0.011809544650838262 0 0.057556987502358645 0.012518301477366609 0 0.057917534251367142 0.012877201903926966 0 0.057556987502358645 0.012518301477366609 0 0.057835553748261714 0.012104815989412205 0 0.057556987502358645 0.012518301477366609 0 0.057835553748261714 0.012104815989412205 0 0.057593270812374052 0.011559795547140745 0 0.057835553748261714 0.012104815989412205 0 0.057593270812374052 0.011559795547140745 0 0.057836946920970085 0.01148356639777685 0 0.058026768638990048 0.011199614235353261 0 0.057836946920970085 0.01148356639777685 0 0.058060751484536655 0.011811207018178085 0 0.057835553748261714 0.012104815989412205 0 0.057836946920970085 0.01148356639777685 0 0.058060751484536655 0.011811207018178085 0 0.057917534251367142 0.012877201903926966 0 0.057835553748261714 0.012104815989412205 0 0.058099851628475592 0.012412937120357221 0 0.057835553748261714 0.012104815989412205 0 0.058060751484536655 0.011811207018178085 0 0.058099851628475592 0.012412937120357221 0 0.058302749542436166 0.012212683370794255 0 0.058554419290125628 0.012008918188578329 0 0.058274808571632725 0.011566388891506333 0 0.058265594587887812 0.012846346549705954 0 0.058099851628475592 0.012412937120357221 0 0.058302749542436166 0.012212683370794255 0 0.058060751484536655 0.011811207018178085 0 0.058099851628475592 0.012412937120357221 0 0.058302749542436166 0.012212683370794255 0 0.058575845740534038 0.012635318347702524 0 0.058857097783413449 0.012491379619195967 0 0.058554419290125628 0.012008918188578329 0 0.058575845740534038 0.012635318347702524 0 0.058302749542436166 0.012212683370794255 0 0.058554419290125628 0.012008918188578329 0 0.058857097783413449 0.012491379619195967 0 0.058554419290125628 0.012008918188578329 0 0.058843954148169092 0.011950269865381459 0 0.058524602050436247 0.011409271671870148 0 0.058274808571632725 0.011566388891506333 0 0.058216495297288687 0.010930820714901647 0 0.058554419290125628 0.012008918188578329 0 0.058524602050436247 0.011409271671870148 0 0.058843954148169092 0.011950269865381459 0 0.058554419290125628 0.012008918188578329 0 0.058524602050436247 0.011409271671870148 0 0.058274808571632725 0.011566388891506333 0 0.058060751484536655 0.011811207018178085 0 0.058302749542436166 0.012212683370794255 0 0.058274808571632725 0.011566388891506333 0 0.058026768638990048 0.011199614235353261 0 0.058060751484536655 0.011811207018178085 0 0.058274808571632725 0.011566388891506333 0 0.058026768638990048 0.011199614235353261 0 0.058216495297288687 0.010930820714901647 0 0.057940783630811912 0.010549337042702509 0 0.058026768638990048 0.011199614235353261 0 0.058274808571632725 0.011566388891506333 0 0.058216495297288687 0.010930820714901647 0 0.058216495297288687 0.010930820714901647 0 0.058440059961920608 0.010831617682007126 0 0.058161964785909445 0.010279937130045892 0 0.058524602050436247 0.011409271671870148 0 0.058216495297288687 0.010930820714901647 0 0.058440059961920608 0.010831617682007126 0 0.058161964785909445 0.010279937130045892 0 0.057940783630811912 0.010549337042702509 0 0.057860645631474063 0.0099013398149488379 0 0.058216495297288687 0.010930820714901647 0 0.058161964785909445 0.010279937130045892 0 0.057940783630811912 0.010549337042702509 0 0.058527769371073499 0.010519802819235331 0 0.059086844332170978 0.010666964522239863 0 0.058216999409100842 0.0099062435070008462 0 0.058440059961920608 0.010831617682007126 0 0.058161964785909445 0.010279937130045892 0 0.058527769371073499 0.010519802819235331 0 0.058161964785909445 0.010279937130045892 0 0.058527769371073499 0.010519802819235331 0 0.058216999409100842 0.0099062435070008462 0 0.058440059961920608 0.010831617682007126 0 0.058527769371073499 0.010519802819235331 0 0.058820354980110436 0.011272819581371397 0 0.058524602050436247 0.011409271671870148 0 0.058440059961920608 0.010831617682007126 0 0.058820354980110436 0.011272819581371397 0 0.058527769371073499 0.010519802819235331 0 0.059086844332170978 0.010666964522239863 0 0.058820354980110436 0.011272819581371397 0 0.057468353511962673 0.012247722599401187 0 0.057399435553225027 0.010749108303571217 0 0.059434266400207464 0.012828311411830304 0 0.059086844332170978 0.010666964522239863 0 0.058820354980110436 0.011272819581371397 0 0.054170878934637526 0.01385652360621932 0 0.055346583899692964 0.011575336315153678 0 0.053318733698347734 0.014749724433816414 0 0.054781135595604651 0.013354120975346993 0 0.054526816511915932 0.011969811484337839 0 0.055395257193505548 0.012422315332549885 0 0.055812369200016192 0.010465950805213816 0 0.055966730500284674 0.011130788459709582 0 0.059434266400207464 0.012828311411830304 0 0.058820354980110436 0.011272819581371397 0 0.058843954148169092 0.011950269865381459 0 0.058524602050436247 0.011409271671870148 0 0.058820354980110436 0.011272819581371397 0 0.058843954148169092 0.011950269865381459 0 0.054781135595604651 0.013354120975346993 0 0.055913901723240823 0.012326450121418267 0 0.054526816511915932 0.011969811484337839 0 0.055602123254573019 0.0140851095212692 0 0.054781135595604651 0.013354120975346993 0 0.055913901723240823 0.012326450121418267 0 0.055913901723240823 0.012326450121418267 0 0.054526816511915932 0.011969811484337839 0 0.056394184062163892 0.011000912585333613 0 0.058251159126597681 0.012940512647684935 0 0.056802731717647527 0.013105796210340583 0 0.057195661046266583 0.011529328827613112 0 0.055602123254573019 0.0140851095212692 0 0.055913901723240823 0.012326450121418267 0 0.056802731717647527 0.013105796210340583 0 0.055913901723240823 0.012326450121418267 0 0.056802731717647527 0.013105796210340583 0 0.057195661046266583 0.011529328827613112 0 0.055913901723240823 0.012326450121418267 0 0.057195661046266583 0.011529328827613112 0 0.056394184062163892 0.011000912585333613 0 0.057195661046266583 0.011529328827613112 0 0.057307869692077427 0.010014556063316662 0 0.056394184062163892 0.011000912585333613 0 0.057307869692077427 0.010014556063316662 0 0.056394184062163892 0.011000912585333613 0 0.056573233947727501 0.0097692193033105286 0 0.055346583899692964 0.011575336315153678 0 0.056321102689936092 0.0099417189909759857 0 0.055812369200016192 0.010465950805213816 0 0.055966730500284674 0.011130788459709582 0 0.056573233947727501 0.0097692193033105286 0 0.054526816511915932 0.011969811484337839 0 0.056394184062163892 0.011000912585333613 0 0.056573233947727501 0.0097692193033105286 0 0.057307869692077427 0.010014556063316662 0 0.056573233947727501 0.0097692193033105286 0 0.057294148098933337 0.0092007841075983053 0 0.055812369200016192 0.010465950805213816 0 0.056573233947727501 0.0097692193033105286 0 0.057304271010365601 0.0091410212341612625 0 0.057399435553225027 0.010749108303571217 0 0.057339377829260664 0.0093616132931848926 0 0.056573233947727501 0.0097692193033105286 0 0.057304271010365601 0.0091410212341612625 0 0.057294148098933337 0.0092007841075983053 0 0.057929866444491634 0.0090343379448869481 0 0.057307869692077427 0.010014556063316662 0 0.057294148098933337 0.0092007841075983053 0 0.058050644214236009 0.0080348619071265639 0 0.057929866444491634 0.0090343379448869481 0 0.057588831754945051 0.0083249068124253874 0 0.057929866444491634 0.0090343379448869481 0 0.057294148098933337 0.0092007841075983053 0 0.057588831754945051 0.0083249068124253874 0 0.057304271010365601 0.0091410212341612625 0 0.057294148098933337 0.0092007841075983053 0 0.057588831754945051 0.0083249068124253874 0 0.057304271010365601 0.0091410212341612625 0 0.057588831754945051 0.0083249068124253874 0 0.057271765809625168 0.0086260310495586794 0 0.057271765809625168 0.0086260310495586794 0 0.05768893411238802 0.0091215873824295295 0 0.057750046554586612 0.0093367362115423843 0 0.057789961416177885 0.0090619565290943112 0 0.057271765809625168 0.0086260310495586794 0 0.05768893411238802 0.0091215873824295295 0 0.057304271010365601 0.0091410212341612625 0 0.057271765809625168 0.0086260310495586794 0 0.057750046554586612 0.0093367362115423843 0 0.057789961416177885 0.0090619565290943112 0 0.057769337335959493 0.0093276422299388671 0 0.05768893411238802 0.0091215873824295295 0 0.057769337335959493 0.0093276422299388671 0 0.05768893411238802 0.0091215873824295295 0 0.057913511765188323 0.0096067987993332798 0 0.057769337335959493 0.0093276422299388671 0 0.057913511765188323 0.0096067987993332798 0 0.057860645631474063 0.0099013398149488379 0 0.058161964785909445 0.010279937130045892 0 0.057913511765188323 0.0096067987993332798 0 0.057860645631474063 0.0099013398149488379 0 0.058161964785909445 0.010279937130045892 0 0.057913511765188323 0.0096067987993332798 0 0.058216999409100842 0.0099062435070008462 0 0.059086844332170978 0.010666964522239863 0 0.057304271010365601 0.0091410212341612625 0 0.058216999409100842 0.0099062435070008462 0 0.057304271010365601 0.0091410212341612625 0 0.058216999409100842 0.0099062435070008462 0 0.057750046554586612 0.0093367362115423843 0 0.05768893411238802 0.0091215873824295295 0 0.057913511765188323 0.0096067987993332798 0 0.057750046554586612 0.0093367362115423843 0 0.057913511765188323 0.0096067987993332798 0 0.058216999409100842 0.0099062435070008462 0 0.057750046554586612 0.0093367362115423843 0 0.0042943623499701947 0.0027982227574225313 0 0.0064782151154175634 0.0024747507045412599 0 0.0059502433704114194 0.001123220281447272 0 0.0042943623499701947 0.0027982227574225313 0 0.0059502433704114194 0.001123220281447272 0 0.0042772496301331587 0.00059934372543951294 0 0.0024582069010598922 0.0025122761937480141 0 0.0040502539569270005 0.00079972574199364919 0 0.0028365373855553737 0.001889670620950176 0 0.0042943623499701947 0.0027982227574225313 0 0.0042772496301331587 0.00059934372543951294 0 0.0028365373855553737 0.001889670620950176 0 0.0029238340782106005 0.0037386901082206258 0 0.0042943623499701947 0.0027982227574225313 0 0.0029238340782106005 0.0037386901082206258 0 0.0042943623499701947 0.0027982227574225313 0 0.0039020813179246362 0.004209119529198951 0 0.0042943623499701947 0.0027982227574225313 0 0.0052754626532053846 0.0035360133205234426 0 0.0039020813179246362 0.004209119529198951 0 0.0042943623499701947 0.0027982227574225313 0 0.0052754626532053846 0.0035360133205234426 0 0.0064782151154175634 0.0024747507045412599 0 0.0052754626532053846 0.0035360133205234426 0 0.0067802921202167014 0.0037274220628467714 0 0.0064782151154175634 0.0024747507045412599 0 0.0067802921202167014 0.0037274220628467714 0 0.0064782151154175634 0.0024747507045412599 0 0.0083930954077599783 0.0036594999373362157 0 0.0083930954077599783 0.0036594999373362157 0 0.0093895936591584604 0.0022843458436417855 0 0.010567209992342693 0.00379115796653958 0 0.0083930954077599783 0.0036594999373362157 0 0.0098542194118839358 0.0052597823467691847 0 0.010567209992342693 0.00379115796653958 0 0.0064782151154175634 0.0024747507045412599 0 0.0083930954077599783 0.0036594999373362157 0 0.0093895936591584604 0.0022843458436417855 0 0.0093895936591584604 0.0022843458436417855 0 0.0081127923724268591 0.00088047638287525759 0 0.010811487102147695 0.00078415318801056089 0 0.0064782151154175634 0.0024747507045412599 0 0.0093895936591584604 0.0022843458436417855 0 0.0081127923724268591 0.00088047638287525759 0 0.0064782151154175634 0.0024747507045412599 0 0.0081127923724268591 0.00088047638287525759 0 0.0059502433704114194 0.001123220281447272 0 0.0059502433704114194 0.001123220281447272 0 0.0075398599718463181 -0.001045873708591142 0 0.0054264011691236196 -0.0007314655728198258 0 0.0081127923724268591 0.00088047638287525759 0 0.0059502433704114194 0.001123220281447272 0 0.0075398599718463181 -0.001045873708591142 0 0.0081127923724268591 0.00088047638287525759 0 0.0099932381752870173 -0.001372958261339878 0 0.010811487102147695 0.00078415318801056089 0 0.0081127923724268591 0.00088047638287525759 0 0.0099932381752870173 -0.001372958261339878 0 0.0075398599718463181 -0.001045873708591142 0 0.0099932381752870173 -0.001372958261339878 0 0.0084296923695013817 -0.0026956444041988437 0 0.010119984933541722 -0.0039404234562921336 0 0.0099932381752870173 -0.001372958261339878 0 0.0084296923695013817 -0.0026956444041988437 0 0.0075398599718463181 -0.001045873708591142 0 0.0084296923695013817 -0.0026956444041988437 0 0.0075398599718463181 -0.001045873708591142 0 0.0055824157265140688 -0.0027161489604042338 0 0.0075398599718463181 -0.001045873708591142 0 0.0055824157265140688 -0.0027161489604042338 0 0.0054264011691236196 -0.0007314655728198258 0 0.0055824157265140688 -0.0027161489604042338 0 0.0029152447924577179 -0.0013565174880312981 0 0.0027889004272946792 -0.0036664602688378225 0 0.0055824157265140688 -0.0027161489604042338 0 0.0054264011691236196 -0.0007314655728198258 0 0.0029152447924577179 -0.0013565174880312981 0 0.0059502433704114194 0.001123220281447272 0 0.0054264011691236196 -0.0007314655728198258 0 0.0042772496301331587 0.00059934372543951294 0 0.0054264011691236196 -0.0007314655728198258 0 0.0042772496301331587 0.00059934372543951294 0 0.0029152447924577179 -0.0013565174880312981 0 0.0017155305041153127 0.00077650312690120623 0 0.0029152447924577179 -0.0013565174880312981 0 8.3410911303607083e-05 -0.00056006117234975409 0 0.0015945814256350861 0.0031977762027891729 0 0.0042772496301331587 0.00059934372543951294 0 0.0017155305041153127 0.00077650312690120623 0 0.0042772496301331587 0.00059934372543951294 0 0.0017155305041153127 0.00077650312690120623 0 0.0029152447924577179 -0.0013565174880312981 0 0.0029152447924577179 -0.0013565174880312981 0 0.0027889004272946792 -0.0036664602688378225 0 6.5150783428173474e-05 -0.0029860201004647288 0 -0.0021989739121242584 -0.0013531207999527874 0 8.3410911303607083e-05 -0.00056006117234975409 0 6.5150783428173474e-05 -0.0029860201004647288 0 0.0029152447924577179 -0.0013565174880312981 0 8.3410911303607083e-05 -0.00056006117234975409 0 6.5150783428173474e-05 -0.0029860201004647288 0 -0.0021989739121242584 -0.0013531207999527874 0 -0.0045438096821916055 -0.002385759627588629 0 -0.0044405008529506797 -0.00026493899436531284 0 -0.0021989739121242584 -0.0013531207999527874 0 -0.0045438096821916055 -0.002385759627588629 0 -0.0023723622340770462 -0.0036886569946811424 0 -0.0021989739121242584 -0.0013531207999527874 0 -0.0023723622340770462 -0.0036886569946811424 0 6.5150783428173474e-05 -0.0029860201004647288 0 -0.0021989739121242584 -0.0013531207999527874 0 -0.0044405008529506797 -0.00026493899436531284 0 -0.0018569076650023567 0.001796148499629952 0 0.0017155305041153127 0.00077650312690120623 0 8.3410911303607083e-05 -0.00056006117234975409 0 -0.0018569076650023567 0.001796148499629952 0 -0.0021989739121242584 -0.0013531207999527874 0 8.3410911303607083e-05 -0.00056006117234975409 0 -0.0018569076650023567 0.001796148499629952 0 -0.0073759695803856358 -0.00074226444638498677 0 -0.0066313710762219103 -0.0033752675162220173 0 -0.0098507549573233315 -0.0019962539587001786 0 -0.0073759695803856358 -0.00074226444638498677 0 -0.0045438096821916055 -0.002385759627588629 0 -0.0066313710762219103 -0.0033752675162220173 0 -0.0073759695803856358 -0.00074226444638498677 0 -0.0045438096821916055 -0.002385759627588629 0 -0.0044405008529506797 -0.00026493899436531284 0 -0.0073759695803856358 -0.00074226444638498677 0 -0.0044405008529506797 -0.00026493899436531284 0 -0.006105643985271976 0.0012748394873082073 0 -0.0044405008529506797 -0.00026493899436531284 0 -0.006105643985271976 0.0012748394873082073 0 -0.0018569076650023567 0.001796148499629952 0 -0.0073759695803856358 -0.00074226444638498677 0 -0.006105643985271976 0.0012748394873082073 0 -0.0085166241017060329 0.001425242292710687 0 -0.0082587045174361377 0.0015549066975961206 0 -0.0060210828012845921 0.0028753670978846702 0 -0.006105643985271976 0.0012748394873082073 0 -0.0085166241017060329 0.001425242292710687 0 -0.004881806371896647 0.003752637610728895 0 -0.006105643985271976 0.0012748394873082073 0 -0.004881806371896647 0.003752637610728895 0 -0.0018569076650023567 0.001796148499629952 0 -0.0068131849596297306 0.0018837588279281207 0 -0.0079638297515760154 0.0029630124125358186 0 -0.0059173921440468132 0.003506558489997277 0 -0.0085166241017060329 0.001425242292710687 0 -0.0068131849596297306 0.0018837588279281207 0 -0.0079638297515760154 0.0029630124125358186 0 -0.0085166241017060329 0.001425242292710687 0 -0.0079638297515760154 0.0029630124125358186 0 -0.0097002375321845816 0.0021918137277643726 0 0.0015945814256350861 0.0031977762027891729 0 -0.0018569076650023567 0.001796148499629952 0 -0.0010418960080167679 0.0054781834359610487 0 0.0015945814256350861 0.0031977762027891729 0 0.0017155305041153127 0.00077650312690120623 0 -0.0018569076650023567 0.001796148499629952 0 -0.004881806371896647 0.003752637610728895 0 -0.0018569076650023567 0.001796148499629952 0 -0.0010418960080167679 0.0054781834359610487 0 -0.0068131849596297306 0.0018837588279281207 0 -0.0048943252410553516 0.0026018261028815668 0 -0.0059173921440468132 0.003506558489997277 0 -0.0060210828012845921 0.0028753670978846702 0 -0.0019222914529659037 0.003048377400480974 0 -0.0019222914529659037 0.003048377400480974 0 -0.0055395644844968561 0.0032261816063762806 0 0.0024582069010598922 0.0025122761937480141 0 -0.0019222914529659037 0.003048377400480974 0 0.0014899664562454103 0.0030061264451564018 0 -0.0019222914529659037 0.003048377400480974 0 -0.00032085936810098703 0.0021051363302520523 0 -0.0029864343078171208 0.0010171588550833524 0 -0.0030485812643585753 0.0028545718909797719 0 0.0028365373855553737 0.001889670620950176 0 0.0029238340782106005 0.0037386901082206258 0 0.0014225322064451672 0.0031237918413647928 0 -0.00032085936810098703 0.0021051363302520523 0 -0.0018557964896182772 0.0042691232393144221 0 -0.0030485812643585753 0.0028545718909797719 0 -0.0018557964896182772 0.0042691232393144221 0 -0.0030485812643585753 0.0028545718909797719 0 -0.0042492311037967221 0.0042992544790696318 0 -0.0049121398932893559 0.0027775139749722875 0 -0.0042492311037967221 0.0042992544790696318 0 -0.0067656031360283225 0.0043595373183784357 0 -0.0029864343078171208 0.0010171588550833524 0 -0.0030485812643585753 0.0028545718909797719 0 -0.0049121398932893559 0.0027775139749722875 0 -0.0030485812643585753 0.0028545718909797719 0 -0.0049121398932893559 0.0027775139749722875 0 -0.0042492311037967221 0.0042992544790696318 0 -0.0042492311037967221 0.0042992544790696318 0 -0.0053438322823439266 0.0057223791706732217 0 -0.0067656031360283225 0.0043595373183784357 0 -0.0042492311037967221 0.0042992544790696318 0 -0.0053438322823439266 0.0057223791706732217 0 -0.0032340004037354274 0.0057347512382795807 0 -0.0018557964896182772 0.0042691232393144221 0 -0.0042492311037967221 0.0042992544790696318 0 -0.0032340004037354274 0.0057347512382795807 0 -0.0032340004037354274 0.0057347512382795807 0 -0.0023771137384142327 0.0068586728788545956 0 -0.00096114547331547834 0.005818464037717774 0 -0.0018557964896182772 0.0042691232393144221 0 -0.0032340004037354274 0.0057347512382795807 0 -0.00096114547331547834 0.005818464037717774 0 -0.0079638297515760154 0.0029630124125358186 0 -0.0083490706419110747 0.0043094512204449554 0 -0.010053966695752146 0.0036070257188740079 0 -0.0079638297515760154 0.0029630124125358186 0 -0.0067656031360283225 0.0043595373183784357 0 -0.0083490706419110747 0.0043094512204449554 0 -0.0079638297515760154 0.0029630124125358186 0 -0.0059173921440468132 0.003506558489997277 0 -0.0067656031360283225 0.0043595373183784357 0 -0.0055395644844968561 0.0032261816063762806 0 -0.0065936692085571654 0.0042059102731571967 0 -0.0053438322823439266 0.0057223791706732217 0 -0.0067656031360283225 0.0043595373183784357 0 -0.007371974136798647 0.005779175503730135 0 -0.0067656031360283225 0.0043595373183784357 0 -0.0083490706419110747 0.0043094512204449554 0 -0.007371974136798647 0.005779175503730135 0 -0.0083490706419110747 0.0043094512204449554 0 -0.007371974136798647 0.005779175503730135 0 -0.0093464067559361833 0.0055561327643398051 0 -0.007371974136798647 0.005779175503730135 0 -0.0078264253544094685 0.0077496645696664831 0 -0.0093464067559361833 0.0055561327643398051 0 -0.0053438322823439266 0.0057223791706732217 0 -0.007371974136798647 0.005779175503730135 0 -0.0061764091172238442 0.006969935059223018 0 -0.007371974136798647 0.005779175503730135 0 -0.0061764091172238442 0.006969935059223018 0 -0.0078264253544094685 0.0077496645696664831 0 -0.0061764091172238442 0.006969935059223018 0 -0.0078264253544094685 0.0077496645696664831 0 -0.0054566690863531078 0.0081039555518828219 0 -0.0078264253544094685 0.0077496645696664831 0 -0.0054566690863531078 0.0081039555518828219 0 -0.0062053727740151087 0.009139968413910014 0 -0.0023771137384142327 0.0068586728788545956 0 -0.0034534346925554761 0.008538897528481193 0 -7.2828228276163585e-05 0.0073352448107610879 0 -0.0034394286841816766 0.0068680273529787951 0 -0.0009401485601389164 0.0053479892429512685 0 -0.0023771137384142327 0.0068586728788545956 0 -0.0043945983527354316 0.0070482203940966043 0 -0.0034534346925554761 0.008538897528481193 0 -0.0023771137384142327 0.0068586728788545956 0 -7.2828228276163585e-05 0.0073352448107610879 0 -0.00096114547331547834 0.005818464037717774 0 -0.0032340004037354274 0.0057347512382795807 0 -0.0023771137384142327 0.0068586728788545956 0 -0.0043945983527354316 0.0070482203940966043 0 -0.0053438322823439266 0.0057223791706732217 0 -0.0032340004037354274 0.0057347512382795807 0 -0.0043945983527354316 0.0070482203940966043 0 -0.0053438322823439266 0.0057223791706732217 0 -0.0061764091172238442 0.006969935059223018 0 -0.0043945983527354316 0.0070482203940966043 0 -0.0061764091172238442 0.006969935059223018 0 -0.0043945983527354316 0.0070482203940966043 0 -0.0054566690863531078 0.0081039555518828219 0 -0.0054566690863531078 0.0081039555518828219 0 -0.0034534346925554761 0.008538897528481193 0 -0.0062053727740151087 0.009139968413910014 0 -0.0034394286841816766 0.0068680273529787951 0 -0.0058654550220137661 0.0078523854276999414 0 -0.0043945983527354316 0.0070482203940966043 0 -0.0054566690863531078 0.0081039555518828219 0 -0.0034534346925554761 0.008538897528481193 0 -0.0035896462536822468 0.0052480324059928076 0 -0.0024398903248692653 0.0053108162097519774 0 -0.0013854710230152706 0.0037869127644382522 0 -0.0035896462536822468 0.0052480324059928076 0 -0.0024398903248692653 0.0053108162097519774 0 -0.0033258811824761307 0.0066157952492759842 0 -0.0024398903248692653 0.0053108162097519774 0 -0.00052881185269343703 0.0050709381565073692 0 -0.0013854710230152706 0.0037869127644382522 0 -0.0024398903248692653 0.0053108162097519774 0 -0.00052881185269343703 0.0050709381565073692 0 -0.0010157893945956439 0.0063373536849778197 0 -0.00052881185269343703 0.0050709381565073692 0 7.0341057795610348e-05 0.0059307382673904844 0 0.0012474348300414962 0.0051011815788332424 0 0.0029799578161547151 0.0056095000294266164 0 0.0021222944530161023 0.0062530545687691308 0 7.0341057795610348e-05 0.0059307382673904844 0 0.0012474348300414962 0.0051011815788332424 0 0.00057525300233651658 0.0072151998774200336 0 -0.00052881185269343703 0.0050709381565073692 0 0.00033988378098630495 0.0038778191926839168 0 0.0012474348300414962 0.0051011815788332424 0 -0.00052881185269343703 0.0050709381565073692 0 7.0341057795610348e-05 0.0059307382673904844 0 -0.0010157893945956439 0.0063373536849778197 0 0.00033988378098630495 0.0038778191926839168 0 -0.0013854710230152706 0.0037869127644382522 0 0.00084531045180505273 0.0023234459906736728 0 -0.0009401485601389164 0.0053479892429512685 0 0.0031897227024634354 0.0058316471955007273 0 0.00033988378098630495 0.0038778191926839168 0 0.00084531045180505273 0.0023234459906736728 0 0.001937546724189465 0.0030124140256367221 0 -0.00052881185269343703 0.0050709381565073692 0 0.00033988378098630495 0.0038778191926839168 0 -0.0013854710230152706 0.0037869127644382522 0 -7.2828228276163585e-05 0.0073352448107610879 0 -0.00096114547331547834 0.005818464037717774 0 0.00073199544593390811 0.0058634794382841585 0 -0.0018557964896182772 0.0042691232393144221 0 -0.00096114547331547834 0.005818464037717774 0 0.00098460006932088407 0.0048591936528395814 0 -0.00096114547331547834 0.005818464037717774 0 0.00073199544593390811 0.0058634794382841585 0 0.00098460006932088407 0.0048591936528395814 0 0.0031897227024634354 0.0058316471955007273 0 0.0015284202229332861 0.0053331940860623693 0 -7.2828228276163585e-05 0.0073352448107610879 0 0.00073199544593390811 0.0058634794382841585 0 0.0023851191045997657 0.0058040282741595207 0 0.0052541021477612027 0.007936733980178353 0 0.0047084586686478138 0.0056657540465060345 0 0.00098460006932088407 0.0048591936528395814 0 0.00073199544593390811 0.0058634794382841585 0 0.0023851191045997657 0.0058040282741595207 0 0.00098460006932088407 0.0048591936528395814 0 0.0052541021477612027 0.007936733980178353 0 0.0047084586686478138 0.0056657540465060345 0 0.0065159872958971601 0.0067772031936729352 0 0.0047084586686478138 0.0056657540465060345 0 0.0039020813179246362 0.004209119529198951 0 0.00098460006932088407 0.0048591936528395814 0 0.0047084586686478138 0.0056657540465060345 0 0.0039020813179246362 0.004209119529198951 0 0.0059872023224683858 0.0047973984195493462 0 0.0052754626532053846 0.0035360133205234426 0 0.0039020813179246362 0.004209119529198951 0 0.0059872023224683858 0.0047973984195493462 0 0.0014899664562454103 0.0030061264451564018 0 0.003570899850602007 0.0040118982663149933 0 -0.00032085936810098703 0.0021051363302520523 0 -0.0018557964896182772 0.0042691232393144221 0 0.00098460006932088407 0.0048591936528395814 0 -0.00032085936810098703 0.0021051363302520523 0 0.0039020813179246362 0.004209119529198951 0 0.00098460006932088407 0.0048591936528395814 0 0.0098542194118839358 0.0052597823467691847 0 0.008041431284179619 0.0054530268007153826 0 0.009340767622466984 0.0066272592647530293 0 0.0083930954077599783 0.0036594999373362157 0 0.0098542194118839358 0.0052597823467691847 0 0.008041431284179619 0.0054530268007153826 0 0.0067802921202167014 0.0037274220628467714 0 0.0083930954077599783 0.0036594999373362157 0 0.008041431284179619 0.0054530268007153826 0 0.0067802921202167014 0.0037274220628467714 0 0.0059872023224683858 0.0047973984195493462 0 0.008041431284179619 0.0054530268007153826 0 0.0052754626532053846 0.0035360133205234426 0 0.0067802921202167014 0.0037274220628467714 0 0.0059872023224683858 0.0047973984195493462 0 0.0047084586686478138 0.0056657540465060345 0 0.0059872023224683858 0.0047973984195493462 0 0.0065159872958971601 0.0067772031936729352 0 0.0059872023224683858 0.0047973984195493462 0 0.008041431284179619 0.0054530268007153826 0 0.0065159872958971601 0.0067772031936729352 0 0.0080759050493207363 0.0064424088226143683 0 0.0056148822453740794 0.00568860889650583 0 0.008041431284179619 0.0054530268007153826 0 0.0065159872958971601 0.0067772031936729352 0 0.007013957328142922 0.0084675590184852736 0 0.008041431284179619 0.0054530268007153826 0 0.0075187218691390627 0.007983422668807149 0 0.009340767622466984 0.0066272592647530293 0 0.0031897227024634354 0.0058316471955007273 0 0.0053104647042308811 0.0059867892745595255 0 0.0031897227024634354 0.0058316471955007273 0 0.0056148822453740794 0.00568860889650583 0 0.0054619159615087853 0.0074865319730931246 0 0.0065159872958971601 0.0067772031936729352 0 0.007013957328142922 0.0084675590184852736 0 0.0075187218691390627 0.007983422668807149 0 0.009340767622466984 0.0066272592647530293 0 0.010321931024611996 0.007761328830664189 0 0.0098542194118839358 0.0052597823467691847 0 0.009340767622466984 0.0066272592647530293 0 0.010874875192798131 0.0067010207283706357 0 0.009340767622466984 0.0066272592647530293 0 0.010321931024611996 0.007761328830664189 0 0.010874875192798131 0.0067010207283706357 0 0.0056148822453740794 0.00568860889650583 0 0.0093293422580760059 0.0078278882088089561 0 0.0075187218691390627 0.007983422668807149 0 0.010321931024611996 0.007761328830664189 0 0.010391634044198308 0.0094137801030088394 0 0.00033988378098630495 0.0038778191926839168 0 0.001937546724189465 0.0030124140256367221 0 0.0012474348300414962 0.0051011815788332424 0 0.0056148822453740794 0.00568860889650583 0 0.0029799578161547151 0.0056095000294266164 0 0.0055044198591714007 0.004389174027280454 0 0.0074196901930340779 0.0055783932918775508 0 0.0049068123413257923 0.0062191555445623697 0 0.0049068123413257923 0.0062191555445623697 0 0.0068209175909088003 0.0074201824329086542 0 0.0043019305483693862 0.0080523341109865042 0 0.0074196901930340779 0.0055783932918775508 0 0.0049068123413257923 0.0062191555445623697 0 0.0068209175909088003 0.0074201824329086542 0 0.010391634044198308 0.0094137801030088394 0 0.01287954731353068 0.0091462308947277172 0 0.013317649168179761 0.010259430983476488 0 0.0074196901930340779 0.0055783932918775508 0 0.0093519834948325338 0.0067792114707548859 0 0.0068209175909088003 0.0074201824329086542 0 0.01027940692219557 0.0068629926953387233 0 0.0059762032212380082 0.0050141385812257303 0 0.0093293422580760059 0.0078278882088089561 0 0.01027940692219557 0.0068629926953387233 0 0.010391634044198308 0.0094137801030088394 0 0.011698149120141426 0.0079931742413118945 0 0.01287954731353068 0.0091462308947277172 0 0.011698149120141426 0.0079931742413118945 0 0.013071211915946483 0.0080482022429446583 0 0.01287954731353068 0.0091462308947277172 0 0.010321931024611996 0.007761328830664189 0 0.010391634044198308 0.0094137801030088394 0 0.011698149120141426 0.0079931742413118945 0 0.013955068392877945 0.0085570161997679407 0 0.014734865818361803 0.0082655798161001496 0 0.01399486230864244 0.0073906211926556813 0 0.013955068392877945 0.0085570161997679407 0 0.013071211915946483 0.0080482022429446583 0 0.01399486230864244 0.0073906211926556813 0 0.013955068392877945 0.0085570161997679407 0 0.013071211915946483 0.0080482022429446583 0 0.01287954731353068 0.0091462308947277172 0 0.013955068392877945 0.0085570161997679407 0 0.01287954731353068 0.0091462308947277172 0 0.014040503529171631 0.009200111962792407 0 0.013955068392877945 0.0085570161997679407 0 0.014040503529171631 0.009200111962792407 0 0.014751400632747659 0.0089417547939399794 0 0.014040503529171631 0.009200111962792407 0 0.014500252325937523 0.0094351472730983925 0 0.014751400632747659 0.0089417547939399794 0 0.013317649168179761 0.010259430983476488 0 0.014254647355640644 0.0099559311948208534 0 0.015523866555337091 0.0099847334585712096 0 0.014040503529171631 0.009200111962792407 0 0.014500252325937523 0.0094351472730983925 0 0.014069949896786916 0.0095954065396838904 0 0.014040503529171631 0.009200111962792407 0 0.014069949896786916 0.0095954065396838904 0 0.013593586675340224 0.0097236104018937706 0 0.014069949896786916 0.0095954065396838904 0 0.013842063265883097 0.0098764566361410119 0 0.013593586675340224 0.0097236104018937706 0 0.014069949896786916 0.0095954065396838904 0 0.013842063265883097 0.0098764566361410119 0 0.014178599029809433 0.0097786026837112447 0 0.014069949896786916 0.0095954065396838904 0 0.014278007902122025 0.0096384617049603064 0 0.014178599029809433 0.0097786026837112447 0 0.014278007902122025 0.0096384617049603064 0 0.014517742981152354 0.0097201789203835934 0 0.014178599029809433 0.0097786026837112447 0 0.014500252325937523 0.0094351472730983925 0 0.014278007902122025 0.0096384617049603064 0 0.014517742981152354 0.0097201789203835934 0 0.014500252325937523 0.0094351472730983925 0 0.014069949896786916 0.0095954065396838904 0 0.014278007902122025 0.0096384617049603064 0 0.01287954731353068 0.0091462308947277172 0 0.014040503529171631 0.009200111962792407 0 0.013593586675340224 0.0097236104018937706 0 0.01287954731353068 0.0091462308947277172 0 0.013593586675340224 0.0097236104018937706 0 0.013317649168179761 0.010259430983476488 0 0.013842063265883097 0.0098764566361410119 0 0.013593586675340224 0.0097236104018937706 0 0.013317649168179761 0.010259430983476488 0 0.013842063265883097 0.0098764566361410119 0 0.013317649168179761 0.010259430983476488 0 0.014254647355640644 0.0099559311948208534 0 0.014254647355640644 0.0099559311948208534 0 0.014517742981152354 0.0097201789203835934 0 0.014986657600440665 0.0097598514400609754 0 0.014254647355640644 0.0099559311948208534 0 0.014517742981152354 0.0097201789203835934 0 0.014178599029809433 0.0097786026837112447 0 0.013842063265883097 0.0098764566361410119 0 0.014254647355640644 0.0099559311948208534 0 0.014178599029809433 0.0097786026837112447 0 0.014254647355640644 0.0099559311948208534 0 0.014986657600440665 0.0097598514400609754 0 0.015523866555337091 0.0099847334585712096 0 0.014517742981152354 0.0097201789203835934 0 0.014986657600440665 0.0097598514400609754 0 0.014868517184384349 0.0095568303583749813 0 0.014986657600440665 0.0097598514400609754 0 0.015527348669743059 0.0097003439662197641 0 0.01532011962116025 0.0095016703720163902 0 0.014986657600440665 0.0097598514400609754 0 0.01532011962116025 0.0095016703720163902 0 0.014868517184384349 0.0095568303583749813 0 0.015527348669743059 0.0097003439662197641 0 0.015864567321602283 0.0094717320103861729 0 0.015942255313534614 0.0095791957711548401 0 0.015527348669743059 0.0097003439662197641 0 0.01532011962116025 0.0095016703720163902 0 0.015864567321602283 0.0094717320103861729 0 0.01532011962116025 0.0095016703720163902 0 0.015997495176531682 0.0091780641385841109 0 0.015433249407765151 0.0090477086381673261 0 0.01532011962116025 0.0095016703720163902 0 0.015864567321602283 0.0094717320103861729 0 0.015997495176531682 0.0091780641385841109 0 0.01532011962116025 0.0095016703720163902 0 0.014908688584603095 0.0093337659758248037 0 0.015433249407765151 0.0090477086381673261 0 0.014500252325937523 0.0094351472730983925 0 0.014908688584603095 0.0093337659758248037 0 0.014751400632747659 0.0089417547939399794 0 0.014500252325937523 0.0094351472730983925 0 0.014908688584603095 0.0093337659758248037 0 0.014868517184384349 0.0095568303583749813 0 0.014500252325937523 0.0094351472730983925 0 0.014517742981152354 0.0097201789203835934 0 0.014868517184384349 0.0095568303583749813 0 0.01532011962116025 0.0095016703720163902 0 0.014908688584603095 0.0093337659758248037 0 0.014868517184384349 0.0095568303583749813 0 0.016292530812635719 0.0091912966802222655 0 0.01641672264104535 0.0091280625090491511 0 0.01623688500572423 0.009342662422922289 0 0.015864567321602283 0.0094717320103861729 0 0.016292530812635719 0.0091912966802222655 0 0.01623688500572423 0.009342662422922289 0 0.015864567321602283 0.0094717320103861729 0 0.015997495176531682 0.0091780641385841109 0 0.016292530812635719 0.0091912966802222655 0 0.015997495176531682 0.0091780641385841109 0 0.016292530812635719 0.0091912966802222655 0 0.016435008429077271 0.0089071593768770101 0 0.016435008429077271 0.0089071593768770101 0 0.017145650940139479 0.0083819096847627811 0 0.016571029576902822 0.0089691148538893102 0 0.016292530812635719 0.0091912966802222655 0 0.016435008429077271 0.0089071593768770101 0 0.016571029576902822 0.0089691148538893102 0 0.015997495176531682 0.0091780641385841109 0 0.016435008429077271 0.0089071593768770101 0 0.016160118361621803 0.0086328909865463922 0 0.015997495176531682 0.0091780641385841109 0 0.016160118361621803 0.0086328909865463922 0 0.015433249407765151 0.0090477086381673261 0 0.016435008429077271 0.0089071593768770101 0 0.016160118361621803 0.0086328909865463922 0 0.017145650940139479 0.0083819096847627811 0 0.014751400632747659 0.0089417547939399794 0 0.015433249407765151 0.0090477086381673261 0 0.015394624881753008 0.008575230785149027 0 0.014908688584603095 0.0093337659758248037 0 0.014751400632747659 0.0089417547939399794 0 0.015433249407765151 0.0090477086381673261 0 0.016160118361621803 0.0086328909865463922 0 0.015433249407765151 0.0090477086381673261 0 0.015394624881753008 0.008575230785149027 0 0.015394624881753008 0.008575230785149027 0 0.014734865818361803 0.0082655798161001496 0 0.015526411217381285 0.0077968805167551603 0 0.016160118361621803 0.0086328909865463922 0 0.015394624881753008 0.008575230785149027 0 0.015526411217381285 0.0077968805167551603 0 0.014751400632747659 0.0089417547939399794 0 0.015394624881753008 0.008575230785149027 0 0.014734865818361803 0.0082655798161001496 0 0.013955068392877945 0.0085570161997679407 0 0.014751400632747659 0.0089417547939399794 0 0.014734865818361803 0.0082655798161001496 0 0.014734865818361803 0.0082655798161001496 0 0.015526411217381285 0.0077968805167551603 0 0.01399486230864244 0.0073906211926556813 0 0.015526411217381285 0.0077968805167551603 0 0.016439790678189934 0.0066389052545343932 0 0.014833125377196645 0.0060840136916618668 0 0.015526411217381285 0.0077968805167551603 0 0.014833125377196645 0.0060840136916618668 0 0.01399486230864244 0.0073906211926556813 0 0.017145650940139479 0.0083819096847627811 0 0.016439790678189934 0.0066389052545343932 0 0.019293400760966237 0.006035211944815805 0 0.016160118361621803 0.0086328909865463922 0 0.015526411217381285 0.0077968805167551603 0 0.017145650940139479 0.0083819096847627811 0 0.015526411217381285 0.0077968805167551603 0 0.017145650940139479 0.0083819096847627811 0 0.016439790678189934 0.0066389052545343932 0 0.016439790678189934 0.0066389052545343932 0 0.019293400760966237 0.006035211944815805 0 0.016738232903895929 0.0046991062184445582 0 0.014833125377196645 0.0060840136916618668 0 0.014584610566487934 0.0041951531313331085 0 0.016738232903895929 0.0046991062184445582 0 0.016439790678189934 0.0066389052545343932 0 0.014833125377196645 0.0060840136916618668 0 0.016738232903895929 0.0046991062184445582 0 0.013289196742950159 0.0057187101118578113 0 0.012489133955976985 0.0040285517159797295 0 0.014584610566487934 0.0041951531313331085 0 0.014833125377196645 0.0060840136916618668 0 0.013289196742950159 0.0057187101118578113 0 0.014584610566487934 0.0041951531313331085 0 0.014833125377196645 0.0060840136916618668 0 0.013289196742950159 0.0057187101118578113 0 0.01399486230864244 0.0073906211926556813 0 0.013289196742950159 0.0057187101118578113 0 0.01159936595523098 0.005423437580994464 0 0.01242824336626564 0.0068708091985698015 0 0.013289196742950159 0.0057187101118578113 0 0.01159936595523098 0.005423437580994464 0 0.012489133955976985 0.0040285517159797295 0 0.0098542194118839358 0.0052597823467691847 0 0.01159936595523098 0.005423437580994464 0 0.010567209992342693 0.00379115796653958 0 0.0098542194118839358 0.0052597823467691847 0 0.01159936595523098 0.005423437580994464 0 0.010874875192798131 0.0067010207283706357 0 0.01159936595523098 0.005423437580994464 0 0.01242824336626564 0.0068708091985698015 0 0.010874875192798131 0.0067010207283706357 0 0.010321931024611996 0.007761328830664189 0 0.011698149120141426 0.0079931742413118945 0 0.010874875192798131 0.0067010207283706357 0 0.011698149120141426 0.0079931742413118945 0 0.013071211915946483 0.0080482022429446583 0 0.01242824336626564 0.0068708091985698015 0 0.011698149120141426 0.0079931742413118945 0 0.01242824336626564 0.0068708091985698015 0 0.010874875192798131 0.0067010207283706357 0 0.013071211915946483 0.0080482022429446583 0 0.01242824336626564 0.0068708091985698015 0 0.01399486230864244 0.0073906211926556813 0 0.013289196742950159 0.0057187101118578113 0 0.01242824336626564 0.0068708091985698015 0 0.01399486230864244 0.0073906211926556813 0 0.029826766412309812 0.010993246785345826 0 0.027511991945470875 0.014541598419218203 0 0.026905133623357683 0.010333144600121668 0 0.029826766412309812 0.010993246785345826 0 0.026905133623357683 0.010333144600121668 0 0.029237907656863467 0.0088744476215262894 0 0.031576046120267834 0.012943095856245812 0 0.029826766412309812 0.010993246785345826 0 0.027511991945470875 0.014541598419218203 0 0.033603658763249819 0.0019838963015334863 0 0.033076262337149276 0.0018254240908847075 0 0.033349840789476476 0.0021080091725920137 0 0.031158715345948825 0.0083176837349648505 0 0.024740203551487754 0.0076961766869462558 0 0.027511991945470875 0.014541598419218203 0 0.026905133623357683 0.010333144600121668 0 0.02312672312285995 0.012351106999292759 0 0.026905133623357683 0.010333144600121668 0 0.02312672312285995 0.012351106999292759 0 0.023932492366124641 0.0094536167130979277 0 0.022476507460988487 0.011107990015805033 0 0.02312672312285995 0.012351106999292759 0 0.023932492366124641 0.0094536167130979277 0 0.022476507460988487 0.011107990015805033 0 0.021744979650754299 0.0093636615852686796 0 0.023932492366124641 0.0094536167130979277 0 0.022476507460988487 0.011107990015805033 0 0.020059673832426635 0.010638490335478637 0 0.021744979650754299 0.0093636615852686796 0 0.022476507460988487 0.011107990015805033 0 0.023044294749287063 0.012500100078498225 0 0.020059673832426635 0.010638490335478637 0 0.016391527561724441 0.0091046766817496419 0 0.016489515070345823 0.0090436416656741389 0 0.016628841910340756 0.0089233598292196778 0 0.024740203551487754 0.0076961766869462558 0 0.017945577888993123 0.0094462194717612677 0 0.02439259809567151 0.010560182542131738 0 0.024740203551487754 0.0076961766869462558 0 0.016391527561724441 0.0091046766817496419 0 0.016325940851560628 0.0090161116022027255 0 0.016018518114957914 0.0088383832213637173 0 0.024740203551487754 0.0076961766869462558 0 0.024382267096289115 0.0052536017438510399 0 0.016391527561724441 0.0091046766817496419 0 0.016325940851560628 0.0090161116022027255 0 0.016489515070345823 0.0090436416656741389 0 0.016489515070345823 0.0090436416656741389 0 0.01641672264104535 0.0091280625090491511 0 0.016571029576902822 0.0089691148538893102 0 0.016325940851560628 0.0090161116022027255 0 0.016489515070345823 0.0090436416656741389 0 0.01641672264104535 0.0091280625090491511 0 0.016325940851560628 0.0090161116022027255 0 0.01641672264104535 0.0091280625090491511 0 0.016329846659461154 0.0091008395331338421 0 0.016292530812635719 0.0091912966802222655 0 0.01641672264104535 0.0091280625090491511 0 0.016571029576902822 0.0089691148538893102 0 0.017145650940139479 0.0083819096847627811 0 0.016571029576902822 0.0089691148538893102 0 0.016628841910340756 0.0089233598292196778 0 0.016489515070345823 0.0090436416656741389 0 0.016571029576902822 0.0089691148538893102 0 0.016628841910340756 0.0089233598292196778 0 0.017325689920840218 0.0087054141778079713 0 0.017945577888993123 0.0094462194717612677 0 0.020132727415476542 0.0082720221665670886 0 0.019293400760966237 0.006035211944815805 0 0.022385536884171234 0.0073602895996615287 0 0.017145650940139479 0.0083819096847627811 0 0.020132727415476542 0.0082720221665670886 0 0.019293400760966237 0.006035211944815805 0 0.017145650940139479 0.0083819096847627811 0 0.020059673832426635 0.010638490335478637 0 0.020132727415476542 0.0082720221665670886 0 0.020059673832426635 0.010638490335478637 0 0.020132727415476542 0.0082720221665670886 0 0.021744979650754299 0.0093636615852686796 0 0.019293400760966237 0.006035211944815805 0 0.022385536884171234 0.0073602895996615287 0 0.023577162391619926 0.0039251884538343742 0 0.020132727415476542 0.0082720221665670886 0 0.022385536884171234 0.0073602895996615287 0 0.021744979650754299 0.0093636615852686796 0 0.022385536884171234 0.0073602895996615287 0 0.021744979650754299 0.0093636615852686796 0 0.023932492366124641 0.0094536167130979277 0 0.022385536884171234 0.0073602895996615287 0 0.023932492366124641 0.0094536167130979277 0 0.027050063539105655 0.006159765931837923 0 0.026905133623357683 0.010333144600121668 0 0.023932492366124641 0.0094536167130979277 0 0.027050063539105655 0.006159765931837923 0 0.022385536884171234 0.0073602895996615287 0 0.025651519766130681 0.0063785572459257147 0 0.023577162391619926 0.0039251884538343742 0 0.022794826888547681 0.0072870659279017577 0 0.025911042884855656 0.0063362353940802866 0 0.025651519766130681 0.0063785572459257147 0 0.026863432561177229 0.0046321320343209581 0 0.023577162391619926 0.0039251884538343742 0 0.030452332795076139 0.0075448337756931719 0 0.030964333541224878 0.00608446673594707 0 0.027050063539105655 0.006159765931837923 0 0.031734863454001783 0.0054011964201004002 0 0.025911042884855656 0.0063362353940802866 0 0.030964333541224878 0.00608446673594707 0 0.031156837751360623 0.0051928033675147887 0 0.027050063539105655 0.006159765931837923 0 0.028883641689162215 0.0052904690927310519 0 0.025651519766130681 0.0063785572459257147 0 0.026863432561177229 0.0046321320343209581 0 0.026905133623357683 0.010333144600121668 0 0.027050063539105655 0.006159765931837923 0 0.029237907656863467 0.0088744476215262894 0 0.030452332795076139 0.0075448337756931719 0 0.027050063539105655 0.006159765931837923 0 0.029237907656863467 0.0088744476215262894 0 0.028032923499848161 0.0013616147693832966 0 0.02656238629713022 0.0025417026018816216 0 0.026783445345684106 0.00086323484061472892 0 0.02656238629713022 0.0025417026018816216 0 0.024965171495268414 0.0013454220376641927 0 0.026783445345684106 0.00086323484061472892 0 0.028059636183551846 0.0030273578440469223 0 0.028032923499848161 0.0013616147693832966 0 0.02656238629713022 0.0025417026018816216 0 0.028059636183551846 0.0030273578440469223 0 0.02656238629713022 0.0025417026018816216 0 0.026863432561177229 0.0046321320343209581 0 0.02656238629713022 0.0025417026018816216 0 0.026863432561177229 0.0046321320343209581 0 0.023577162391619926 0.0039251884538343742 0 0.02656238629713022 0.0025417026018816216 0 0.023577162391619926 0.0039251884538343742 0 0.024965171495268414 0.0013454220376641927 0 0.023577162391619926 0.0039251884538343742 0 0.024965171495268414 0.0013454220376641927 0 0.022591456114185216 0.00015544222911197664 0 0.020074010617852283 0.0031425530601474692 0 0.021511170911235483 7.0961763919606297e-05 0 0.023577162391619926 0.0039251884538343742 0 0.019881600104239016 0.0031708167241150903 0 0.022591456114185216 0.00015544222911197664 0 0.019293400760966237 0.006035211944815805 0 0.023577162391619926 0.0039251884538343742 0 0.019881600104239016 0.0031708167241150903 0 0.019293400760966237 0.006035211944815805 0 0.019881600104239016 0.0031708167241150903 0 0.016738232903895929 0.0046991062184445582 0 0.019881600104239016 0.0031708167241150903 0 0.018690160642019636 0.0010206261486477059 0 0.021250536329619978 0.00035455191063583945 0 0.018690160642019636 0.0010206261486477059 0 0.019037201689762435 -0.0011800953699163646 0 0.021250536329619978 0.00035455191063583945 0 0.019037201689762435 -0.0011800953699163646 0 0.017331202534776709 -0.0028754317089843646 0 0.020169656186487549 -0.0037113472598420717 0 0.019037201689762435 -0.0011800953699163646 0 0.020849666292216709 -0.0017348945524564006 0 0.020169656186487549 -0.0037113472598420717 0 0.020849666292216709 -0.0017348945524564006 0 0.022939382531887962 -0.002404323061394598 0 0.020169656186487549 -0.0037113472598420717 0 0.020849666292216709 -0.0017348945524564006 0 0.021250536329619978 0.00035455191063583945 0 0.022939382531887962 -0.002404323061394598 0 0.019037201689762435 -0.0011800953699163646 0 0.020849666292216709 -0.0017348945524564006 0 0.021250536329619978 0.00035455191063583945 0 0.022591456114185216 0.00015544222911197664 0 0.025912918993892819 -0.00032498936401993955 0 0.024818600858733157 -0.0029546913637606589 0 0.024965171495268414 0.0013454220376641927 0 0.022591456114185216 0.00015544222911197664 0 0.025912918993892819 -0.00032498936401993955 0 0.024965171495268414 0.0013454220376641927 0 0.025912918993892819 -0.00032498936401993955 0 0.026783445345684106 0.00086323484061472892 0 0.021511170911235483 7.0961763919606297e-05 0 0.026700444940851543 -0.00088471348422347411 0 0.026700444940851543 -0.00088471348422347411 0 0.028743014363408318 -0.00091394299338060537 0 0.028535084233483454 -3.3493404142485143e-05 0 0.030811308966901461 0.00022307327604753456 0 0.028687432271117558 0.00045416137354365122 0 0.028535084233483454 -3.3493404142485143e-05 0 0.030811308966901461 0.00022307327604753456 0 0.028392273811925595 -0.00081291347889311675 0 0.025912918993892819 -0.00032498936401993955 0 0.024818600858733157 -0.0029546913637606589 0 0.028392273811925595 -0.00081291347889311675 0 0.025912918993892819 -0.00032498936401993955 0 0.028392273811925595 -0.00081291347889311675 0 0.027999987484179908 0.00014148564043976394 0 0.025912918993892819 -0.00032498936401993955 0 0.026783445345684106 0.00086323484061472892 0 0.027999987484179908 0.00014148564043976394 0 0.028032923499848161 0.0013616147693832966 0 0.026783445345684106 0.00086323484061472892 0 0.027999987484179908 0.00014148564043976394 0 0.013883535067575115 0.0022829249891574204 0 0.012982813333987315 0.00087029998066311229 0 0.015725467613638112 -0.00017263069389525308 0 0.013883535067575115 0.0022829249891574204 0 0.012982813333987315 0.00087029998066311229 0 0.011645558383163732 0.0023566708681405984 0 0.0093895936591584604 0.0022843458436417855 0 0.011645558383163732 0.0023566708681405984 0 0.010811487102147695 0.00078415318801056089 0 0.012982813333987315 0.00087029998066311229 0 0.011645558383163732 0.0023566708681405984 0 0.010811487102147695 0.00078415318801056089 0 0.0093895936591584604 0.0022843458436417855 0 0.011645558383163732 0.0023566708681405984 0 0.010567209992342693 0.00379115796653958 0 0.011645558383163732 0.0023566708681405984 0 0.010567209992342693 0.00379115796653958 0 0.012489133955976985 0.0040285517159797295 0 0.01159936595523098 0.005423437580994464 0 0.010567209992342693 0.00379115796653958 0 0.012489133955976985 0.0040285517159797295 0 0.013883535067575115 0.0022829249891574204 0 0.011645558383163732 0.0023566708681405984 0 0.012489133955976985 0.0040285517159797295 0 0.013883535067575115 0.0022829249891574204 0 0.012489133955976985 0.0040285517159797295 0 0.014584610566487934 0.0041951531313331085 0 0.013883535067575115 0.0022829249891574204 0 0.014584610566487934 0.0041951531313331085 0 0.016429496894831766 0.0022297088169449656 0 0.014584610566487934 0.0041951531313331085 0 0.016738232903895929 0.0046991062184445582 0 0.016429496894831766 0.0022297088169449656 0 0.019881600104239016 0.0031708167241150903 0 0.016738232903895929 0.0046991062184445582 0 0.016429496894831766 0.0022297088169449656 0 0.019881600104239016 0.0031708167241150903 0 0.018690160642019636 0.0010206261486477059 0 0.016429496894831766 0.0022297088169449656 0 0.018690160642019636 0.0010206261486477059 0 0.016429496894831766 0.0022297088169449656 0 0.015725467613638112 -0.00017263069389525308 0 0.013883535067575115 0.0022829249891574204 0 0.016429496894831766 0.0022297088169449656 0 0.015725467613638112 -0.00017263069389525308 0 0.018690160642019636 0.0010206261486477059 0 0.019037201689762435 -0.0011800953699163646 0 0.015725467613638112 -0.00017263069389525308 0 0.019037201689762435 -0.0011800953699163646 0 0.015725467613638112 -0.00017263069389525308 0 0.017331202534776709 -0.0028754317089843646 0 0.015725467613638112 -0.00017263069389525308 0 0.014813299405099964 -0.0032531263942464244 0 0.017331202534776709 -0.0028754317089843646 0 0.015725467613638112 -0.00017263069389525308 0 0.012827032426569091 -0.00092923637333956939 0 0.014813299405099964 -0.0032531263942464244 0 0.012827032426569091 -0.00092923637333956939 0 0.012221874228721678 -0.0028013318726334093 0 0.014813299405099964 -0.0032531263942464244 0 0.012982813333987315 0.00087029998066311229 0 0.015725467613638112 -0.00017263069389525308 0 0.012827032426569091 -0.00092923637333956939 0 0.012982813333987315 0.00087029998066311229 0 0.012827032426569091 -0.00092923637333956939 0 0.010811487102147695 0.00078415318801056089 0 0.0099932381752870173 -0.001372958261339878 0 0.012827032426569091 -0.00092923637333956939 0 0.010811487102147695 0.00078415318801056089 0 0.0099932381752870173 -0.001372958261339878 0 0.012827032426569091 -0.00092923637333956939 0 0.012221874228721678 -0.0028013318726334093 0 0.0099932381752870173 -0.001372958261339878 0 0.012221874228721678 -0.0028013318726334093 0 0.010119984933541722 -0.0039404234562921336 0 0.012221874228721678 -0.0028013318726334093 0 0.012963767544425126 -0.0047503821064094568 0 0.010119984933541722 -0.0039404234562921336 0 0.010870245564497718 -0.0058496612103228285 0 0.012963767544425126 -0.0047503821064094568 0 0.013079293839064528 -0.0076033895383990505 0 0.010870245564497718 -0.0058496612103228285 0 0.012963767544425126 -0.0047503821064094568 0 0.010119984933541722 -0.0039404234562921336 0 0.012963767544425126 -0.0047503821064094568 0 0.014966830187513852 -0.0058303184179265216 0 0.013079293839064528 -0.0076033895383990505 0 0.012963767544425126 -0.0047503821064094568 0 0.014813299405099964 -0.0032531263942464244 0 0.014966830187513852 -0.0058303184179265216 0 0.012221874228721678 -0.0028013318726334093 0 0.012963767544425126 -0.0047503821064094568 0 0.014813299405099964 -0.0032531263942464244 0 0.014813299405099964 -0.0032531263942464244 0 0.017331202534776709 -0.0028754317089843646 0 0.017332502123351367 -0.0048982867085084585 0 0.019553690621102997 -0.0027282108140706473 0 0.018835668616900166 -0.0067700158730831283 0 0.021587790473222807 -0.0053308602948911685 0 0.019553690621102997 -0.0027282108140706473 0 0.014966830187513852 -0.0058303184179265216 0 0.018835668616900166 -0.0067700158730831283 0 0.014813299405099964 -0.0032531263942464244 0 0.017332502123351367 -0.0048982867085084585 0 0.014966830187513852 -0.0058303184179265216 0 0.018469296264518448 -0.0038534294554751001 0 0.015197266994454735 -0.0056446815936341327 0 0.014966830187513852 -0.0058303184179265216 0 0.015902620129604614 -0.0079885955281103482 0 0.018835668616900166 -0.0067700158730831283 0 0.015902620129604614 -0.0079885955281103482 0 0.018835668616900166 -0.0067700158730831283 0 0.018818803470799898 -0.0085460270868523147 0 0.018835668616900166 -0.0067700158730831283 0 0.02083639235581685 -0.0080695953154380183 0 0.021587790473222807 -0.0053308602948911685 0 0.018835668616900166 -0.0067700158730831283 0 0.02083639235581685 -0.0080695953154380183 0 0.018818803470799898 -0.0085460270868523147 0 0.019986531731198003 -0.010174914582759377 0 0.01759122966443627 -0.0097820646575268993 0 0.022398007915866422 -0.0091227592615361567 0 0.018383424860754193 -0.0097491974262253513 0 0.020839458829553046 -0.0097939823815755642 0 0.018818803470799898 -0.0085460270868523147 0 0.01759122966443627 -0.0097820646575268993 0 0.021087040131317542 -0.010172599927953064 0 0.02083639235581685 -0.0080695953154380183 0 0.018818803470799898 -0.0085460270868523147 0 0.021087040131317542 -0.010172599927953064 0 0.019986531731198003 -0.010174914582759377 0 0.021482026856913746 -0.0099362373976160431 0 0.022398007915866422 -0.0091227592615361567 0 0.019986531731198003 -0.010174914582759377 0 0.01759122966443627 -0.0097820646575268993 0 0.016317850279874604 -0.012240542840903484 0 0.015902620129604614 -0.0079885955281103482 0 0.01759122966443627 -0.0097820646575268993 0 0.015232407798075347 -0.0099672327579328791 0 0.015902620129604614 -0.0079885955281103482 0 0.018818803470799898 -0.0085460270868523147 0 0.01759122966443627 -0.0097820646575268993 0 0.01759122966443627 -0.0097820646575268993 0 0.015232407798075347 -0.0099672327579328791 0 0.016317850279874604 -0.012240542840903484 0 0.015232407798075347 -0.0099672327579328791 0 0.013829516197098482 -0.010924302763401554 0 0.013982635005573497 -0.010026122357154161 0 0.014073181367356549 -0.0090508539635113863 0 0.012828714559236327 -0.010179353240853633 0 0.013079293839064528 -0.0076033895383990505 0 0.015902620129604614 -0.0079885955281103482 0 0.015232407798075347 -0.0099672327579328791 0 0.014073181367356549 -0.0090508539635113863 0 0.015232407798075347 -0.0099672327579328791 0 0.013982635005573497 -0.010026122357154161 0 0.014073181367356549 -0.0090508539635113863 0 0.013829516197098482 -0.010924302763401554 0 0.012828714559236327 -0.010179353240853633 0 0.012141177514740097 -0.011127038033960658 0 0.013982635005573497 -0.010026122357154161 0 0.014073181367356549 -0.0090508539635113863 0 0.012828714559236327 -0.010179353240853633 0 0.013829516197098482 -0.010924302763401554 0 0.013982635005573497 -0.010026122357154161 0 0.012828714559236327 -0.010179353240853633 0 0.012828714559236327 -0.010179353240853633 0 0.01103235726736705 -0.0092512222524869063 0 0.012237399829440951 -0.011034044428049006 0 0.012828714559236327 -0.010179353240853633 0 0.01103235726736705 -0.0092512222524869063 0 0.013079293839064528 -0.0076033895383990505 0 0.012089075010712085 -0.0098432510353125106 0 0.012535741349617878 -0.0083249880777521781 0 0.011663227705753171 -0.0099322428973406748 0 0.012535741349617878 -0.0083249880777521781 0 0.010271551264917314 -0.010693725046710354 0 0.01103235726736705 -0.0092512222524869063 0 0.012144234138280486 -0.011082336351270953 0 0.01103235726736705 -0.0092512222524869063 0 0.013079293839064528 -0.0076033895383990505 0 0.01002932155333384 -0.0076622731069077767 0 0.010870245564497718 -0.0058496612103228285 0 0.013079293839064528 -0.0076033895383990505 0 0.01002932155333384 -0.0076622731069077767 0 0.014966830187513852 -0.0058303184179265216 0 0.015902620129604614 -0.0079885955281103482 0 0.013079293839064528 -0.0076033895383990505 0 0.015902620129604614 -0.0079885955281103482 0 0.014073181367356549 -0.0090508539635113863 0 0.013079293839064528 -0.0076033895383990505 0 0.030463249400985399 0.00015508964841702194 0 0.034965034378456585 0.00089474793329535733 0 0.028529890900682957 0.0026372098156560195 0 0.029822300472060748 0.0019104589473464978 0 0.028938184164395826 0.00345901010891023 0 0.031243473997326434 -0.001728135235233943 0 0.030159461269409903 -0.0040475850994884221 0 0.033442233551229571 -0.0053014634147517236 0 0.030811308966901461 0.00022307327604753456 0 0.028687432271117558 0.00045416137354365122 0 0.029822300472060748 0.0019104589473464978 0 0.028529890900682957 0.0026372098156560195 0 0.028687432271117558 0.00045416137354365122 0 0.029822300472060748 0.0019104589473464978 0 0.026700444940851543 -0.00088471348422347411 0 0.030463249400985399 0.00015508964841702194 0 0.028969295811564752 0.0019951840669347339 0 0.031243473997326434 -0.001728135235233943 0 0.028267064211765953 -0.0009965437565483935 0 0.028267064211765953 -0.0009965437565483935 0 0.030159461269409903 -0.0040475850994884221 0 0.027994131729459325 -0.0040336543772354636 0 0.031243473997326434 -0.001728135235233943 0 0.028267064211765953 -0.0009965437565483935 0 0.030159461269409903 -0.0040475850994884221 0 0.030159461269409903 -0.0040475850994884221 0 0.027994131729459325 -0.0040336543772354636 0 0.027994535431007078 -0.0061463186389707223 0 0.027994131729459325 -0.0040336543772354636 0 0.024321440864720947 -0.00024769411569648897 0 0.025118781471299922 -0.0054675866121006202 0 0.028267064211765953 -0.0009965437565483935 0 0.027994131729459325 -0.0040336543772354636 0 0.024321440864720947 -0.00024769411569648897 0 0.026700444940851543 -0.00088471348422347411 0 0.022136566830323556 -0.0019160527937585616 0 0.028969295811564752 0.0019951840669347339 0 0.028267064211765953 -0.0009965437565483935 0 0.024321440864720947 -0.00024769411569648897 0 0.018469296264518448 -0.0038534294554751001 0 0.022136566830323556 -0.0019160527937585616 0 0.017331202534776709 -0.0028754317089843646 0 0.017332502123351367 -0.0048982867085084585 0 0.020169656186487549 -0.0037113472598420717 0 0.024321440864720947 -0.00024769411569648897 0 0.021587790473222807 -0.0053308602948911685 0 0.025118781471299922 -0.0054675866121006202 0 0.019553690621102997 -0.0027282108140706473 0 0.024321440864720947 -0.00024769411569648897 0 0.021587790473222807 -0.0053308602948911685 0 0.021587790473222807 -0.0053308602948911685 0 0.022859456415238209 -0.0071841738914141641 0 0.025118781471299922 -0.0054675866121006202 0 0.022859456415238209 -0.0071841738914141641 0 0.024478021584607275 -0.0080424079855583031 0 0.025118781471299922 -0.0054675866121006202 0 0.022859456415238209 -0.0071841738914141641 0 0.022888913696214645 -0.0087115627578106935 0 0.024478021584607275 -0.0080424079855583031 0 0.02083639235581685 -0.0080695953154380183 0 0.021587790473222807 -0.0053308602948911685 0 0.022859456415238209 -0.0071841738914141641 0 0.02083639235581685 -0.0080695953154380183 0 0.022859456415238209 -0.0071841738914141641 0 0.022888913696214645 -0.0087115627578106935 0 0.02083639235581685 -0.0080695953154380183 0 0.021087040131317542 -0.010172599927953064 0 0.022888913696214645 -0.0087115627578106935 0 0.020839458829553046 -0.0097939823815755642 0 0.026798342494732633 -0.0077320357960750886 0 0.021087040131317542 -0.010172599927953064 0 0.022888913696214645 -0.0087115627578106935 0 0.025300897752314727 -0.010164092523956249 0 0.022398007915866422 -0.0091227592615361567 0 0.021077556515998352 -0.0095954302362391605 0 0.021798842215676566 -0.0089175916148194409 0 0.022398007915866422 -0.0091227592615361567 0 0.022484402255030157 -0.009494294768463897 0 0.021798842215676566 -0.0089175916148194409 0 0.021482026856913746 -0.0099362373976160431 0 0.022398007915866422 -0.0091227592615361567 0 0.022484402255030157 -0.009494294768463897 0 0.022888913696214645 -0.0087115627578106935 0 0.025300897752314727 -0.010164092523956249 0 0.024478021584607275 -0.0080424079855583031 0 0.026798342494732633 -0.0077320357960750886 0 0.026129103705819272 -0.008724423708544992 0 0.035196929884978211 -0.0022228823491478567 0 0.037155467560174842 -0.0020851818352851798 0 0.033414301923137123 -0.0058155977072888703 0 0.025300897752314727 -0.010164092523956249 0 0.026526258995497862 -0.0078114274474799577 0 0.024478021584607275 -0.0080424079855583031 0 0.026798342494732633 -0.0077320357960750886 0 0.034502753170734403 -0.0030076018172358267 0 0.025568039242325636 -0.0098548141427856097 0 0.027321323569429054 -0.0098129895850370651 0 0.026526258995497862 -0.0078114274474799577 0 0.026526258995497862 -0.0078114274474799577 0 0.024478021584607275 -0.0080424079855583031 0 0.025118781471299922 -0.0054675866121006202 0 0.027994131729459325 -0.0040336543772354636 0 0.025118781471299922 -0.0054675866121006202 0 0.027994535431007078 -0.0061463186389707223 0 0.026526258995497862 -0.0078114274474799577 0 0.025118781471299922 -0.0054675866121006202 0 0.027994535431007078 -0.0061463186389707223 0 0.030159461269409903 -0.0040475850994884221 0 0.027994535431007078 -0.0061463186389707223 0 0.031231421870902158 -0.0061767879247543993 0 0.027994535431007078 -0.0061463186389707223 0 0.029427194291859322 -0.0077001299645237421 0 0.031231421870902158 -0.0061767879247543993 0 0.029427194291859322 -0.0077001299645237421 0 0.030825249091067718 -0.0075453260518410338 0 0.031231421870902158 -0.0061767879247543993 0 0.026526258995497862 -0.0078114274474799577 0 0.027994535431007078 -0.0061463186389707223 0 0.029427194291859322 -0.0077001299645237421 0 0.039248432784327408 0.0050872023060756916 0 0.038205044569421247 0.0051509240780434262 0 0.039459570437827253 0.0058457295103254868 0 0.034960051040732756 0.0086274881982343118 0 0.041104967927735749 0.016847610201970419 0 0.03789518534378955 0.024231706814968924 0 0.037310700699289122 0.024201873252136245 0 0.038406378727243534 0.026197947317674403 0 0.034502753170734403 -0.0030076018172358267 0 0.027400858939349421 -0.0097222162262702305 0 0.028040119830815904 -0.0091201893094130515 0 0.029427194291859322 -0.0077001299645237421 0 0.030420074891199109 -0.0091247895863442261 0 0.034502753170734403 -0.0030076018172358267 0 0.034960051040732756 0.0086274881982343118 0 0.027321323569429054 -0.0098129895850370651 0 0.026526258995497862 -0.0078114274474799577 0 0.029427194291859322 -0.0077001299645237421 0 0.029427194291859322 -0.0077001299645237421 0 0.030420074891199109 -0.0091247895863442261 0 0.030825249091067718 -0.0075453260518410338 0 0.030420074891199109 -0.0091247895863442261 0 0.03201007436307382 -0.0082591550715569936 0 0.030825249091067718 -0.0075453260518410338 0 0.034960051040732756 0.0086274881982343118 0 0.033836841650267166 0.0046288127850709427 0 0.040459665988539319 0.016958094962884793 0 0.037225235054412956 0.017734113808334614 0 0.036766578666881884 0.01674364268410081 0 0.031976824981589241 0.0075581853550540784 0 0.033353830916405029 0.0083875374238252948 0 0.032987340745355372 0.0075955797522812805 0 0.042814256256249225 0.02602116620863007 0 0.038260898806722725 0.019266405320037421 0 0.043529144177639076 0.031106135199493498 0 0.04201881675821633 0.03100890138037565 0 0.042814793476528862 0.030052705678263604 0 0.033836841650267166 0.0046288127850709427 0 0.038260898806722725 0.019266405320037421 0 0.034960051040732756 0.0086274881982343118 0 0.038260898806722725 0.019266405320037421 0 0.030159461269409903 -0.0040475850994884221 0 0.031231421870902158 -0.0061767879247543993 0 0.033442233551229571 -0.0053014634147517236 0 0.044575379563011233 0.010334194327241619 0 0.033836841650267166 0.0046288127850709427 0 0.037145440295446114 0.0024398962589804846 0 0.036411886593727689 0.0019864977865441261 0 0.036834865547733887 0.0028815009231326055 0 0.033836841650267166 0.0046288127850709427 0 0.034965034378456585 0.00089474793329535733 0 0.03201007436307382 -0.0082591550715569936 0 0.031231421870902158 -0.0061767879247543993 0 0.033442233551229571 -0.0053014634147517236 0 0.03201007436307382 -0.0082591550715569936 0 0.030825249091067718 -0.0075453260518410338 0 0.031231421870902158 -0.0061767879247543993 0 0.041915192376797063 0.028806924065272192 0 0.042790214195674581 0.029009895972390991 0 0.042542938216753076 0.028069866559694307 0 0.041915192376797063 0.028806924065272192 0 0.042790214195674581 0.029009895972390991 0 0.042142057832734572 0.029676347500522841 0 0.04201881675821633 0.03100890138037565 0 0.042814793476528862 0.030052705678263604 0 0.042142057832734572 0.029676347500522841 0 0.04201881675821633 0.03100890138037565 0 0.042142057832734572 0.029676347500522841 0 0.041185473097241077 0.029460925391190475 0 0.042790214195674581 0.029009895972390991 0 0.042814793476528862 0.030052705678263604 0 0.042142057832734572 0.029676347500522841 0 0.041915192376797063 0.028806924065272192 0 0.042142057832734572 0.029676347500522841 0 0.041185473097241077 0.029460925391190475 0 0.038260898806722725 0.019266405320037421 0 0.04038295885444871 0.029476298335673782 0 0.038406378727243534 0.026197947317674403 0 0.039627801880731242 0.026573521353356267 0 0.039394092473646836 0.025390508907361012 0 0.03789518534378955 0.024231706814968924 0 0.038406378727243534 0.026197947317674403 0 0.039394092473646836 0.025390508907361012 0 0.04038295885444871 0.029476298335673782 0 0.039695217465679479 0.026797139681178514 0 0.038406378727243534 0.026197947317674403 0 0.039627801880731242 0.026573521353356267 0 0.040071943726852383 0.027481423503544697 0 0.041915192376797063 0.028806924065272192 0 0.040071943726852383 0.027481423503544697 0 0.042542938216753076 0.028069866559694307 0 0.041915192376797063 0.028806924065272192 0 0.041185473097241077 0.029460925391190475 0 0.040071943726852383 0.027481423503544697 0 0.039627801880731242 0.026573521353356267 0 0.039808547225808184 0.026870436945761213 0 0.040071943726852383 0.027481423503544697 0 0.039627801880731242 0.026573521353356267 0 0.03994616348579174 0.026326379391653641 0 0.039808547225808184 0.026870436945761213 0 0.039459570437827253 0.0058457295103254868 0 0.040677631233433285 0.0065640003217253178 0 0.04050733470986511 0.0062600071778941384 0 0.041104967927735749 0.016847610201970419 0 0.035191312064236105 0.014612091050971917 0 0.034502753170734403 -0.0030076018172358267 0 0.030914663778259487 0.00096019170396431641 0 0.039627801880731242 0.026573521353356267 0 0.039394092473646836 0.025390508907361012 0 0.03994616348579174 0.026326379391653641 0 0.026798342494732633 -0.0077320357960750886 0 0.030914663778259487 0.00096019170396431641 0 0.039248432784327408 0.0050872023060756916 0 0.039459570437827253 0.0058457295103254868 0 0.04050733470986511 0.0062600071778941384 0 0.021077556515998352 -0.0095954302362391605 0 0.021268869470281681 -0.0074222425412244107 0 0.021798842215676566 -0.0089175916148194409 0 0.026484718475974993 0.0034699008498793693 0 0.025628779897327571 0.0018188629311237511 0 0.028782357479072575 0.0048908927904248219 0 0.035191312064236105 0.014612091050971917 0 0.030914663778259487 0.00096019170396431641 0 0.021268869470281681 -0.0074222425412244107 0 0.021798842215676566 -0.0089175916148194409 0 0.02215354557237206 -0.008653284005168984 0 0.021268869470281681 -0.0074222425412244107 0 0.02215354557237206 -0.008653284005168984 0 0.022564674347180364 -0.0079357606325658782 0 0.022484402255030157 -0.009494294768463897 0 0.021798842215676566 -0.0089175916148194409 0 0.02215354557237206 -0.008653284005168984 0 0.022484402255030157 -0.009494294768463897 0 0.022564674347180364 -0.0079357606325658782 0 0.023701518893686768 -0.0080768000705917081 0 0.023396830652793691 -0.006813888531904011 0 0.021228387298432835 -0.0054484227373093374 0 0.022484402255030157 -0.009494294768463897 0 0.02215354557237206 -0.008653284005168984 0 0.022564674347180364 -0.0079357606325658782 0 0.030914663778259487 0.00096019170396431641 0 0.027286384715213656 0.0098146459775254793 0 0.022564674347180364 -0.0079357606325658782 0 0.023197028544385625 -0.0043342981479433133 0 0.025941095362567213 -0.0080698991909395248 0 0.021268869470281681 -0.0074222425412244107 0 0.022564674347180364 -0.0079357606325658782 0 0.023197028544385625 -0.0043342981479433133 0 0.029062167886388868 0.020896335546351383 0 0.029057686292466581 0.020871280547355379 0 0.029109205826436006 0.020885599688838498 0 0.03994616348579174 0.026326379391653641 0 0.039808547225808184 0.026870436945761213 0 0.039711388396841484 0.026893184326904501 0 0.035191312064236105 0.014612091050971917 0 0.034919721016582028 0.025104402133579336 0 0.035191312064236105 0.014612091050971917 0 0.027286384715213656 0.0098146459775254793 0 0.039690732883573582 0.026978067762941531 0 0.03938095359587912 0.02677060636940445 0 0.03934702267406074 0.026806211336245101 0 0.039711388396841484 0.026893184326904501 0 0.039690732883573582 0.026978067762941531 0 0.03934702267406074 0.026806211336245101 0 0.039808547225808184 0.026870436945761213 0 0.039711388396841484 0.026893184326904501 0 0.039690732883573582 0.026978067762941531 0 0.03938095359587912 0.02677060636940445 0 0.039995918548219184 0.026853515109102943 0 0.039310591523871112 0.026138151044580386 0 0.039690732883573582 0.026978067762941531 0 0.03938095359587912 0.02677060636940445 0 0.039995918548219184 0.026853515109102943 0 0.03938095359587912 0.02677060636940445 0 0.038660409284783495 0.026299832917405119 0 0.039310591523871112 0.026138151044580386 0 0.039995918548219184 0.026853515109102943 0 0.040347555847858325 0.026181852739846582 0 0.039310591523871112 0.026138151044580386 0 0.039995918548219184 0.026853515109102943 0 0.040762572067419713 0.026806737008615824 0 0.040347555847858325 0.026181852739846582 0 0.039690732883573582 0.026978067762941531 0 0.039995918548219184 0.026853515109102943 0 0.040071943726852383 0.027481423503544697 0 0.039995918548219184 0.026853515109102943 0 0.040071943726852383 0.027481423503544697 0 0.040762572067419713 0.026806737008615824 0 0.039808547225808184 0.026870436945761213 0 0.039690732883573582 0.026978067762941531 0 0.040071943726852383 0.027481423503544697 0 0.040071943726852383 0.027481423503544697 0 0.041809009789972533 0.027147163886647084 0 0.042542938216753076 0.028069866559694307 0 0.040071943726852383 0.027481423503544697 0 0.040762572067419713 0.026806737008615824 0 0.041809009789972533 0.027147163886647084 0 0.040762572067419713 0.026806737008615824 0 0.041809009789972533 0.027147163886647084 0 0.041586166719291717 0.026340154596630142 0 0.040762572067419713 0.026806737008615824 0 0.041586166719291717 0.026340154596630142 0 0.040347555847858325 0.026181852739846582 0 0.042707108602482967 0.02657285923006476 0 0.041809009789972533 0.027147163886647084 0 0.041586166719291717 0.026340154596630142 0 0.043094638936194168 0.027306580579311571 0 0.042707108602482967 0.02657285923006476 0 0.041809009789972533 0.027147163886647084 0 0.043094638936194168 0.027306580579311571 0 0.041809009789972533 0.027147163886647084 0 0.042542938216753076 0.028069866559694307 0 0.012091355543321631 0.006183467231425507 0 0.012427634030638157 0.0066103262640923813 0 0.013064333223077762 0.0058493816005209254 0 0.014912191326164517 0.0099211106696891621 0 0.013264702226605998 0.0059056423371530017 0 0.018266029597374948 0.0050857240389689763 0 0.019312572928708558 0.0019720858498288745 0 0.018266029597374948 0.0050857240389689763 0 0.023322023657452076 0.013111879216286355 0 0.018266029597374948 0.0050857240389689763 0 0.014912191326164517 0.0099211106696891621 0 0.019340145578043751 0.0097795217943168356 0 0.019821916167738176 0.010401199595638816 0 0.019327292907045185 0.011002919773957747 0 0.012247568075755852 0.0068410422279110185 0 0.013064333223077762 0.0058493816005209254 0 0.012441372668119489 0.0070868535095155233 0 0.014912191326164517 0.0099211106696891621 0 0.014002698378270491 0.014376757319916125 0 0.008911586911071856 0.017381521641514401 0 0.0091771205442058145 0.017505070024673327 0 0.0092974794276029418 0.017193668093033635 0 0.014002698378270491 0.014376757319916125 0 0.0078949077843967555 0.0099048712740175595 0 0.013064333223077762 0.0058493816005209254 0 0.012441372668119489 0.0070868535095155233 0 0.013964984527174857 0.0063773473690506999 0 0.013064333223077762 0.0058493816005209254 0 0.013118330334328824 0.0051050588510702134 0 0.012653179418202367 0.0051385104183423597 0 0.013064333223077762 0.0058493816005209254 0 0.013118330334328824 0.0051050588510702134 0 0.013964984527174857 0.0063773473690506999 0 0.011393585188755849 -0.0018548898486540214 0 0.0078949077843967555 0.0099048712740175595 0 0.010271551264917314 -0.010693725046710354 0 0.011614460498658483 -0.01183211840094546 0 0.012144234138280486 -0.011082336351270953 0 0.011393585188755849 -0.0018548898486540214 0 0.014704938517436612 -0.0018180799730292505 0 0.012739730625810488 -0.0031113407677282436 0 0.012883794655193726 -0.002915712924553547 0 0.013018584917980924 -0.0031184332101050565 0 0.011393585188755849 -0.0018548898486540214 0 0.012535741349617878 -0.0083249880777521781 0 0.012535741349617878 -0.0083249880777521781 0 0.014704938517436612 -0.0018180799730292505 0 0.014704938517436612 -0.0018180799730292505 0 0.01811130044592273 -0.0058301249362747356 0 0.013829516197098482 -0.010924302763401554 0 0.012686782104235362 -0.012046048619844259 0 0.016317850279874604 -0.012240542840903484 0 0.020417780898171735 0.0019744657558679528 0 0.020981400828708439 0.0010370163873516622 0 0.019986431750019375 0.00140144833253218 0 0.020981400828708439 0.0010370163873516622 0 0.019718646930496801 0.0010043497889105865 0 0.019986431750019375 0.00140144833253218 0 0.012091355543321631 0.006183467231425507 0 0.013064333223077762 0.0058493816005209254 0 0.012653179418202367 0.0051385104183423597 0 0.013829516197098482 -0.010924302763401554 0 0.012141177514740097 -0.011127038033960658 0 0.012686782104235362 -0.012046048619844259 0 0.018266029597374948 0.0050857240389689763 0 0.014704938517436612 -0.0018180799730292505 0 0.015232407798075347 -0.0099672327579328791 0 0.013829516197098482 -0.010924302763401554 0 0.016317850279874604 -0.012240542840903484 0 0.019718646930496801 0.0010043497889105865 0 0.019307718184559199 0.001713138992170954 0 0.01789310744302465 0.00096199750176095475 0 0.019718646930496801 0.0010043497889105865 0 0.019307718184559199 0.001713138992170954 0 0.019986431750019375 0.00140144833253218 0 0.019307718184559199 0.001713138992170954 0 0.01789310744302465 0.00096199750176095475 0 0.018654041758030763 0.0021692643079413358 0 0.023197028544385625 -0.0043342981479433133 0 0.025941095362567213 -0.0080698991909395248 0 0.029408060369292468 -0.0031086983810428874 0 0.01811130044592273 -0.0058301249362747356 0 0.021228387298432835 -0.0054484227373093374 0 0.019986531731198003 -0.010174914582759377 0 0.016317850279874604 -0.012240542840903484 0 0.021134933221787947 -0.012132353486469471 0 0.021140369486589879 -0.0090611335669193716 0 0.021228387298432835 -0.0054484227373093374 0 0.021482026856913746 -0.0099362373976160431 0 0.022484402255030157 -0.009494294768463897 0 0.021134933221787947 -0.012132353486469471 0 0.019986531731198003 -0.010174914582759377 0 0.021482026856913746 -0.0099362373976160431 0 0.021134933221787947 -0.012132353486469471 0 0.021228387298432835 -0.0054484227373093374 0 0.0236044531076306 -0.00088631146535945852 0 0.023197028544385625 -0.0043342981479433133 0 0.029408060369292468 -0.0031086983810428874 0 0.032791827602137072 0.0020967890885497434 0 0.027286384715213656 0.0098146459775254793 0 0.026442901676229105 0.0096477992418404473 0 0.025501115559152489 0.016776229746994678 0 0.029298842045110733 0.020763937049614323 0 0.02987538047993863 0.019995004741141915 0 0.027286384715213656 0.0098146459775254793 0 0.029937800847296227 0.023934003706005111 0 0.029057686292466581 0.020871280547355379 0 0.029109205826436006 0.020885599688838498 0 0.029298842045110733 0.020763937049614323 0 0.019307718184559199 0.001713138992170954 0 0.019986431750019375 0.00140144833253218 0 0.019687974831061592 0.0024722106918834107 0 0.02078676782650379 0.0023460926342005707 0 0.019986431750019375 0.00140144833253218 0 0.019687974831061592 0.0024722106918834107 0 0.019307718184559199 0.001713138992170954 0 0.018654041758030763 0.0021692643079413358 0 0.019687974831061592 0.0024722106918834107 0 0.0236044531076306 -0.00088631146535945852 0 0.026442901676229105 0.0096477992418404473 0 0.018654041758030763 0.0021692643079413358 0 0.019687974831061592 0.0024722106918834107 0 0.019462837446717635 0.0034667531946028247 0 0.02078676782650379 0.0023460926342005707 0 0.019687974831061592 0.0024722106918834107 0 0.019963864545163242 0.0037955531779751725 0 0.025021892071643209 0.017377107860516078 0 0.034019166793062827 0.024033594034210414 0 0.019687974831061592 0.0024722106918834107 0 0.019963864545163242 0.0037955531779751725 0 0.019462837446717635 0.0034667531946028247 0 0.018723765713387443 0.011268113499452545 0 0.018544234224732621 0.011155803219868901 0 0.019327292907045185 0.011002919773957747 0 0.029298842045110733 0.020763937049614323 0 0.029769320763559873 0.020765360940117866 0 0.029033626912159854 0.021082605470489232 0 0.022165470362230825 0.015509689286614876 0 0.023322023657452076 0.013111879216286355 0 0.022165470362230825 0.015509689286614876 0 0.020774910310777939 0.017472724451225146 0 0.026442901676229105 0.0096477992418404473 0 0.025021892071643209 0.017377107860516078 0 0.023322023657452076 0.013111879216286355 0 0.026442901676229105 0.0096477992418404473 0 0.025826412227806534 0.012082137259220686 0 0.025481531036898691 0.011850628817516745 0 0.025731449965327849 0.012240091683165682 0 0.022165470362230825 0.015509689286614876 0 0.025021892071643209 0.017377107860516078 0 0.023422261449091139 0.017053402629916333 0 0.024573516471548013 0.017764189598198196 0 0.025382447672385927 0.01645596000225806 0 0.023322023657452076 0.013111879216286355 0 0.025021892071643209 0.017377107860516078 0 0.029298842045110733 0.020763937049614323 0 0.02987538047993863 0.019995004741141915 0 0.029769320763559873 0.020765360940117866 0 0.022504907360841014 0.017542017909571061 0 0.022508728846631465 0.017488187288954807 0 0.022544944391499316 0.017531188903019638 0 0.022504907360841014 0.017542017909571061 0 0.022508728846631465 0.017488187288954807 0 0.022471956240874384 0.017524571280855883 0 0.022395962564823572 0.020483443314876455 0 0.020774910310777939 0.017472724451225146 0 0.022395962564823572 0.020483443314876455 0 0.025021892071643209 0.017377107860516078 0 0.034919721016582028 0.025104402133579336 0 0.034019166793062827 0.024033594034210414 0 0.029109205826436006 0.020885599688838498 0 0.029298842045110733 0.020763937049614323 0 0.029033626912159854 0.021082605470489232 0 0.039620636982680833 0.025596587982559434 0 0.034019166793062827 0.024033594034210414 0 0.03938095359587912 0.02677060636940445 0 0.038578402169647572 0.027124343065589918 0 0.038660409284783495 0.026299832917405119 0 0.034019166793062827 0.024033594034210414 0 0.030463569614481739 0.023372535378299902 0 0.038578402169647572 0.027124343065589918 0 0.038110911489642491 0.026322223257695176 0 0.038660409284783495 0.026299832917405119 0 0.038110911489642491 0.026322223257695176 0 0.038660409284783495 0.026299832917405119 0 0.038308151568326558 0.026164289799020767 0 0.030463569614481739 0.023372535378299902 0 0.032557084046265436 0.022970808570125827 0 0.022395962564823572 0.020483443314876455 0 0.030463569614481739 0.023372535378299902 0 0.021794263634141168 0.023415192153211372 0 0.021993897306275777 0.021156768481187894 0 0.021022123930358606 0.0210206234482299 0 0.021794263634141168 0.023415192153211372 0 0.023725493919639667 0.021243605092730884 0 0.021993897306275777 0.021156768481187894 0 0.025021892071643209 0.017377107860516078 0 0.030463569614481739 0.023372535378299902 0 0.029344189738748382 0.021556881915351784 0 0.029558844800376204 0.021511131022233298 0 0.029489849138999959 0.021387212596314466 0 0.026911024747953753 0.020832793917566504 0 0.026867957285084464 0.020770428648621452 0 0.026804071816905643 0.02109304703337278 0 0.020774910310777939 0.017472724451225146 0 0.014423287027840664 0.019951484628978226 0 0.021794263634141168 0.023415192153211372 0 0.021022123930358606 0.0210206234482299 0 0.019810700954982149 0.020435385216455885 0 0.022395962564823572 0.020483443314876455 0 0.019777703270681082 0.0213261460489295 0 0.021015612970953664 0.02217829336464152 0 0.020762490672218917 0.022469643974549224 0 0.019810700954982149 0.020435385216455885 0 0.020762490672218917 0.022469643974549224 0 0.018726400601473587 0.021298758115148853 0 0.019810700954982149 0.020435385216455885 0 0.015943033236463403 0.017905335577419034 0 0.016459319338724496 0.017697326563074035 0 0.01512688914202393 0.016491707577642227 0 0.016715274944540476 0.017412843195644991 0 0.016459319338724496 0.017697326563074035 0 0.01512688914202393 0.016491707577642227 0 0.015697877107809823 0.014661581301614168 0 0.015161376173138386 0.013989462360508208 0 0.016922204214971249 0.013268965162370243 0 0.014002698378270491 0.014376757319916125 0 0.018203956344911804 0.014637225612895237 0 0.019340145578043751 0.0097795217943168356 0 0.018544234224732621 0.011155803219868901 0 0.019327292907045185 0.011002919773957747 0 0.014912191326164517 0.0099211106696891621 0 0.018203956344911804 0.014637225612895237 0 0.020683066387470406 0.014980966025732904 0 0.020069796154835416 0.014603128485781767 0 0.019209500895354524 0.015585375285342646 0 0.022165470362230825 0.015509689286614876 0 0.018203956344911804 0.014637225612895237 0 0.020774910310777939 0.017472724451225146 0 0.018203956344911804 0.014637225612895237 0 0.015943033236463403 0.017905335577419034 0 0.01491585552044032 0.016678586234029846 0 0.01512688914202393 0.016491707577642227 0 0.008911586911071856 0.017381521641514401 0 0.0091771205442058145 0.017505070024673327 0 0.0092135927134369515 0.017833674505881299 0 0.014002698378270491 0.014376757319916125 0 0.011465986369383388 0.018673535675347314 0 0.0091771205442058145 0.017505070024673327 0 0.0092135927134369515 0.017833674505881299 0 0.0093482460795148679 0.017710410319929176 0 0.011465986369383388 0.018673535675347314 0 0.014423287027840664 0.019951484628978226 0 0.014423287027840664 0.019951484628978226 0 0.016146502811778516 0.019977081590623606 0 0.011519093530584151 0.020446561087014987 0 0.011657600436018527 0.020532515271534338 0 0.011734387218447277 0.019511816132305446 0 0.011411426717688902 0.020768569605106021 0 0.011519093530584151 0.020446561087014987 0 0.011233861652156832 0.019898966185818302 0 0.011411426717688902 0.020768569605106021 0 0.011519093530584151 0.020446561087014987 0 0.01166796998870457 0.020535683248981237 0 0.014047908037648198 0.019831062661613282 0 0.014423287027840664 0.019951484628978226 0 0.011411426717688902 0.020768569605106021 0 0.010600312990303014 0.01975683690501457 0 0.011233861652156832 0.019898966185818302 0 0.011465986369383388 0.018673535675347314 0 0.010023158991680216 0.018813453886177445 0 0.0092320746769035279 0.01784185300410605 0 0.0094148915027307181 0.017872506691585324 0 0.0093967417129004471 0.0180381183079628 0 0.0094148915027307181 0.017872506691585324 0 0.0095012006569496765 0.017983365947973347 0 0.009531531037534095 0.017739304873951776 0 0.0092320746769035279 0.01784185300410605 0 0.0094148915027307181 0.017872506691585324 0 0.0093482460795148679 0.017710410319929176 0 0.011465986369383388 0.018673535675347314 0 0.0097480569988844246 0.018407848169694516 0 0.0094148915027307181 0.017872506691585324 0 0.009531531037534095 0.017739304873951776 0 0.0093482460795148679 0.017710410319929176 0 0.0094148915027307181 0.017872506691585324 0 0.0095012006569496765 0.017983365947973347 0 0.0093967417129004471 0.0180381183079628 0 0.0095012006569496765 0.017983365947973347 0 0.009531531037534095 0.017739304873951776 0 0.0092639398901709323 0.018045351328946958 0 0.00067734870239446381 0.012009083119300422 0 -6.9173801638683558e-05 0.011851866935278654 0 0.00040115257162680421 0.011687553347033815 0 0.0050143498497275457 0.015891348184693701 0 0.0046397800975268378 0.013542392582569396 0 0.0091771205442058145 0.017505070024673327 0 0.0093482460795148679 0.017710410319929176 0 0.0092974794276029418 0.017193668093033635 0 0.0050143498497275457 0.015891348184693701 0 0.0078949077843967555 0.0099048712740175595 0 0.009531531037534095 0.017739304873951776 0 0.0093482460795148679 0.017710410319929176 0 0.0092974794276029418 0.017193668093033635 0 -6.9173801638683558e-05 0.011851866935278654 0 -0.0010171430673791056 0.011904435402739428 0 -0.00052407144318453473 0.011399484678230962 0 -6.9173801638683558e-05 0.011851866935278654 0 -0.00052407144318453473 0.011399484678230962 0 0.00040115257162680421 0.011687553347033815 0 0.00067734870239446381 0.012009083119300422 0 -6.9173801638683558e-05 0.011851866935278654 0 -0.00014928635797987788 0.01231454815659627 0 -6.9173801638683558e-05 0.011851866935278654 0 -0.00014928635797987788 0.01231454815659627 0 -0.0010171430673791056 0.011904435402739428 0 -0.00014928635797987788 0.01231454815659627 0 -0.0010612967192738527 0.012472313546074774 0 -0.0010171430673791056 0.011904435402739428 0 -0.00014928635797987788 0.01231454815659627 0 -0.00038226371772176942 0.013137278559010836 0 -0.0010612967192738527 0.012472313546074774 0 -0.00014928635797987788 0.01231454815659627 0 -0.00038226371772176942 0.013137278559010836 0 0.00044353438095835534 0.012856822753563346 0 0.0034693151256899937 -0.011831267562286311 0 0.0076110774666807062 -0.011812723962326643 0 0.0047322538383337796 -0.0098029159162596156 0 0.0016630391970128633 0.0011780347557707128 0 0.0016725423441254887 0.0079537709647358075 0 0.0016630391970128633 0.0011780347557707128 0 0.0065663677327683434 -0.0055706057539184357 0 -0.00038226371772176942 0.013137278559010836 0 -0.0017331154566530803 0.012986338456891951 0 -0.0010612967192738527 0.012472313546074774 0 0.0016630391970128633 0.0011780347557707128 0 -0.0014025861087931346 0.0076233898365755106 0 0.00067734870239446381 0.012009083119300422 0 0.0011780041742432794 0.012599369770800338 0 0.00044353438095835534 0.012856822753563346 0 0.0078949077843967555 0.0099048712740175595 0 0.0016725423441254887 0.0079537709647358075 0 0.00067734870239446381 0.012009083119300422 0 -0.00014928635797987788 0.01231454815659627 0 0.00044353438095835534 0.012856822753563346 0 0.0022510830575005391 0.0028995433375576681 0 0.0048256341536513682 0.001893080463513569 0 0.0055086147355015817 0.0028533164289187745 0 0.011393585188755849 -0.0018548898486540214 0 0.0065663677327683434 -0.0055706057539184357 0 0.008739579470189579 0.0027666827240553984 0 0.0073874143376526872 0.00088188527749790259 0 0.0055086147355015817 0.0028533164289187745 0 0.0073874143376526872 0.00088188527749790259 0 0.0048256341536513682 0.001893080463513569 0 0.0055086147355015817 0.0028533164289187745 0 0.010271551264917314 -0.010693725046710354 0 0.011614460498658483 -0.01183211840094546 0 0.0076110774666807062 -0.011812723962326643 0 0.010271551264917314 -0.010693725046710354 0 0.0076110774666807062 -0.011812723962326643 0 0.0089769322066187342 -0.0094737612611210699 0 0.010271551264917314 -0.010693725046710354 0 0.01103235726736705 -0.0092512222524869063 0 0.0089769322066187342 -0.0094737612611210699 0 0.01002932155333384 -0.0076622731069077767 0 0.0077514278258239092 -0.0078184684882735573 0 0.0087229174259124808 -0.0059296829292918591 0 0.01103235726736705 -0.0092512222524869063 0 0.0089769322066187342 -0.0094737612611210699 0 0.01002932155333384 -0.0076622731069077767 0 0.0089769322066187342 -0.0094737612611210699 0 0.01002932155333384 -0.0076622731069077767 0 0.0077514278258239092 -0.0078184684882735573 0 0.0077514278258239092 -0.0078184684882735573 0 0.0056464583910687035 -0.0081177694724311848 0 0.0064689163355986607 -0.0062691606429100119 0 0.0077514278258239092 -0.0078184684882735573 0 0.0069331823719048441 -0.0093873396431244822 0 0.0056464583910687035 -0.0081177694724311848 0 0.0076110774666807062 -0.011812723962326643 0 0.0089769322066187342 -0.0094737612611210699 0 0.0069331823719048441 -0.0093873396431244822 0 0.0076110774666807062 -0.011812723962326643 0 0.0069331823719048441 -0.0093873396431244822 0 0.0047322538383337796 -0.0098029159162596156 0 0.0089769322066187342 -0.0094737612611210699 0 0.0077514278258239092 -0.0078184684882735573 0 0.0069331823719048441 -0.0093873396431244822 0 0.0034693151256899937 -0.011831267562286311 0 0.0047322538383337796 -0.0098029159162596156 0 0.0022960410591650179 -0.0098326890776947694 0 0.0069331823719048441 -0.0093873396431244822 0 0.0047322538383337796 -0.0098029159162596156 0 0.0056464583910687035 -0.0081177694724311848 0 0.0047322538383337796 -0.0098029159162596156 0 0.0022960410591650179 -0.0098326890776947694 0 0.0019265342473456816 -0.007633134286428059 0 0.0016630391970128633 0.0011780347557707128 0 -0.00071888823603982581 -0.0050722382264778076 0 0.0044699013309486965 -0.0096369616675189302 0 0.0021654257040337518 -0.0081505477455996733 0 0.0022960410591650179 -0.0098326890776947694 0 0.0019265342473456816 -0.007633134286428059 0 -0.0010631019240951341 -0.010062501301853044 0 0.0034693151256899937 -0.011831267562286311 0 0.0022960410591650179 -0.0098326890776947694 0 -0.0010631019240951341 -0.010062501301853044 0 0.0023822873880263097 -0.0086125276615038968 0 0.0024744552275982878 -0.0059429999684310194 0 -0.0002505942328409602 -0.0072639384473348048 0 0.0023822873880263097 -0.0086125276615038968 0 0.0056464583910687035 -0.0081177694724311848 0 0.0044344290692469538 -0.0066865780015505265 0 0.0047322538383337796 -0.0098029159162596156 0 0.0023822873880263097 -0.0086125276615038968 0 0.0056464583910687035 -0.0081177694724311848 0 0.0056464583910687035 -0.0081177694724311848 0 0.0044344290692469538 -0.0066865780015505265 0 0.0064689163355986607 -0.0062691606429100119 0 0.0044344290692469538 -0.0066865780015505265 0 0.0024744552275982878 -0.0059429999684310194 0 0.0048569580404527832 -0.0047239178875028319 0 0.0044344290692469538 -0.0066865780015505265 0 0.0048569580404527832 -0.0047239178875028319 0 0.0064689163355986607 -0.0062691606429100119 0 0.0023822873880263097 -0.0086125276615038968 0 0.0044344290692469538 -0.0066865780015505265 0 0.0024744552275982878 -0.0059429999684310194 0 0.0024744552275982878 -0.0059429999684310194 0 0.0027889004272946792 -0.0036664602688378225 0 0.0048569580404527832 -0.0047239178875028319 0 0.0024744552275982878 -0.0059429999684310194 0 0.0027889004272946792 -0.0036664602688378225 0 0.00060556746784074899 -0.0048939074149958453 0 0.0055824157265140688 -0.0027161489604042338 0 0.0027889004272946792 -0.0036664602688378225 0 0.0048569580404527832 -0.0047239178875028319 0 0.0055824157265140688 -0.0027161489604042338 0 0.0048569580404527832 -0.0047239178875028319 0 0.0073853720106696443 -0.0043355448172474184 0 0.0084296923695013817 -0.0026956444041988437 0 0.0055824157265140688 -0.0027161489604042338 0 0.0073853720106696443 -0.0043355448172474184 0 0.0084296923695013817 -0.0026956444041988437 0 0.0073853720106696443 -0.0043355448172474184 0 0.010119984933541722 -0.0039404234562921336 0 0.0073853720106696443 -0.0043355448172474184 0 0.010119984933541722 -0.0039404234562921336 0 0.0087229174259124808 -0.0059296829292918591 0 0.010870245564497718 -0.0058496612103228285 0 0.010119984933541722 -0.0039404234562921336 0 0.0087229174259124808 -0.0059296829292918591 0 0.010870245564497718 -0.0058496612103228285 0 0.01002932155333384 -0.0076622731069077767 0 0.0087229174259124808 -0.0059296829292918591 0 0.0077514278258239092 -0.0078184684882735573 0 0.0087229174259124808 -0.0059296829292918591 0 0.0064689163355986607 -0.0062691606429100119 0 0.0048569580404527832 -0.0047239178875028319 0 0.0073853720106696443 -0.0043355448172474184 0 0.0064689163355986607 -0.0062691606429100119 0 0.0073853720106696443 -0.0043355448172474184 0 0.0087229174259124808 -0.0059296829292918591 0 0.0064689163355986607 -0.0062691606429100119 0 -0.006616062549016046 -0.0051339625033029034 0 -0.0066313710762219103 -0.0033752675162220173 0 -0.0050642922155807214 -0.0044703322441440162 0 -0.006616062549016046 -0.0051339625033029034 0 -0.0050642922155807214 -0.0044703322441440162 0 -0.0058845145816450034 -0.006772772282500083 0 -0.006616062549016046 -0.0051339625033029034 0 -0.0083001228422275395 -0.005886879865873277 0 -0.0085784025302157365 -0.0040194125814693579 0 -0.006616062549016046 -0.0051339625033029034 0 -0.0066313710762219103 -0.0033752675162220173 0 -0.0085784025302157365 -0.0040194125814693579 0 -0.0066313710762219103 -0.0033752675162220173 0 -0.0085784025302157365 -0.0040194125814693579 0 -0.0098507549573233315 -0.0019962539587001786 0 -0.0045438096821916055 -0.002385759627588629 0 -0.0066313710762219103 -0.0033752675162220173 0 -0.003294935392147169 -0.0059096412314488811 0 -0.006640239205732236 -0.0033879580905829981 0 -0.0038015227724718915 -0.0055430384973179968 0 -0.0045438096821916055 -0.002385759627588629 0 -0.0023723622340770462 -0.0036886569946811424 0 -0.003294935392147169 -0.0059096412314488811 0 -0.0023723622340770462 -0.0036886569946811424 0 -0.001170783883095747 -0.0050180458957080204 0 -0.0029380212389057566 -0.0057237551863006074 0 -0.0025471650336424817 -0.0039542379315316845 0 -0.0038015227724718915 -0.0055430384973179968 0 0.0027889004272946792 -0.0036664602688378225 0 6.5150783428173474e-05 -0.0029860201004647288 0 0.00060556746784074899 -0.0048939074149958453 0 -0.0023723622340770462 -0.0036886569946811424 0 6.5150783428173474e-05 -0.0029860201004647288 0 -0.001170783883095747 -0.0050180458957080204 0 6.5150783428173474e-05 -0.0029860201004647288 0 -0.001170783883095747 -0.0050180458957080204 0 0.00060556746784074899 -0.0048939074149958453 0 0.0024744552275982878 -0.0059429999684310194 0 0.00060556746784074899 -0.0048939074149958453 0 -0.0002505942328409602 -0.0072639384473348048 0 -0.001170783883095747 -0.0050180458957080204 0 0.00060556746784074899 -0.0048939074149958453 0 -0.0002505942328409602 -0.0072639384473348048 0 -0.001170783883095747 -0.0050180458957080204 0 -0.0002505942328409602 -0.0072639384473348048 0 -0.0029380212389057566 -0.0057237551863006074 0 -0.00068208318893581219 -0.0063374934150309077 0 -0.0038015227724718915 -0.0055430384973179968 0 -0.001045664699718004 -0.0055857229463196698 0 -0.0040315817372653809 -0.00358238131075699 0 -0.0056906130087910805 -0.0081027637806452193 0 -0.001045664699718004 -0.0055857229463196698 0 -0.0010631019240951341 -0.010062501301853044 0 -0.0056906130087910805 -0.0081027637806452193 0 0.0019265342473456816 -0.007633134286428059 0 -0.001045664699718004 -0.0055857229463196698 0 -0.0010631019240951341 -0.010062501301853044 0 0.0021654257040337518 -0.0081505477455996733 0 -0.00068208318893581219 -0.0063374934150309077 0 -0.00071888823603982581 -0.0050722382264778076 0 -0.0087072898630608676 -0.0016808598724969591 0 -0.0022921065782780092 0.0022136949530155536 0 -0.0063132716097769994 0.0038549582896691991 0 -0.0028492071891470091 0.00069391120814874484 0 -0.0087072898630608676 -0.0016808598724969591 0 -0.010212314180321504 0.0065677985675815552 0 -0.017839663729412952 0.0047781208926323381 0 -0.017512896239239798 0.004971274770671389 0 -0.017702911518739581 0.0053023114728821914 0 -0.0063132716097769994 0.0038549582896691991 0 -0.0074243068367125555 0.00083282309008543293 0 -0.0028492071891470091 0.00069391120814874484 0 -0.0038015227724718915 -0.0055430384973179968 0 -0.0087072898630608676 -0.0016808598724969591 0 -0.017839663729412952 0.0047781208926323381 0 -0.0173684473161363 0.0044546323666365571 0 -0.017512896239239798 0.004971274770671389 0 -0.006616062549016046 -0.0051339625033029034 0 -0.0058845145816450034 -0.006772772282500083 0 -0.0083001228422275395 -0.005886879865873277 0 -0.0087072898630608676 -0.0016808598724969591 0 -0.013517886704462035 -0.00050359680521553784 0 -0.0173684473161363 0.0044546323666365571 0 -0.017512896239239798 0.004971274770671389 0 -0.017068442233563321 0.0054339259432747561 0 -0.017512896239239798 0.004971274770671389 0 -0.017702911518739581 0.0053023114728821914 0 -0.017068442233563321 0.0054339259432747561 0 -0.010212314180321504 0.0065677985675815552 0 -0.00974547458745623 0.009586113911774127 0 -0.016466076870991778 0.0066106352000185166 0 -0.017068442233563321 0.0054339259432747561 0 -0.016917157216538393 0.0058516129845521681 0 -0.010212314180321504 0.0065677985675815552 0 -0.019904626386789918 0.0054047097133879257 0 -0.016466076870991778 0.0066106352000185166 0 -0.016693616174509339 0.0061066953292987633 0 -0.016917157216538393 0.0058516129845521681 0 -0.0030426782597995396 0.012363147782163214 0 -0.0026237609618276546 0.01222878001004429 0 -0.0031309008260318777 0.011904962660910533 0 -0.0026237609618276546 0.01222878001004429 0 -0.0020842553545169576 0.012066901203384703 0 -0.0028706013548430069 0.011926747025189916 0 -0.0026237609618276546 0.01222878001004429 0 -0.0031309008260318777 0.011904962660910533 0 -0.0028706013548430069 0.011926747025189916 0 -0.016693616174509339 0.0061066953292987633 0 -0.016917157216538393 0.0058516129845521681 0 -0.016820817713768001 0.0059716751258373224 0 0.0017137576620991372 0.00057977101588549082 0 -0.0022921065782780092 0.0022136949530155536 0 -0.0028492071891470091 0.00069391120814874484 0 -0.010212314180321504 0.0065677985675815552 0 -0.0014025861087931346 0.0076233898365755106 0 -0.0030426782597995396 0.012363147782163214 0 -0.0026237609618276546 0.01222878001004429 0 -0.0017331154566530803 0.012986338456891951 0 -0.0026237609618276546 0.01222878001004429 0 -0.0017331154566530803 0.012986338456891951 0 -0.0020842553545169576 0.012066901203384703 0 -0.0017331154566530803 0.012986338456891951 0 -0.0010612967192738527 0.012472313546074774 0 -0.0020842553545169576 0.012066901203384703 0 -0.0010171430673791056 0.011904435402739428 0 -0.0020842553545169576 0.012066901203384703 0 -0.0018064043546021297 0.011339716762295282 0 -0.0010612967192738527 0.012472313546074774 0 -0.0010171430673791056 0.011904435402739428 0 -0.0020842553545169576 0.012066901203384703 0 -0.0020842553545169576 0.012066901203384703 0 -0.0018064043546021297 0.011339716762295282 0 -0.0029432535548043486 0.011687456672171432 0 -0.0010171430673791056 0.011904435402739428 0 -0.0018064043546021297 0.011339716762295282 0 -0.00052407144318453473 0.011399484678230962 0 -0.0031309008260318777 0.011904962660910533 0 -0.0032303777918321532 0.01178963622144095 0 -0.0028706013548430069 0.011926747025189916 0 -0.016693616174509339 0.0061066953292987633 0 -0.01683112988118857 0.0061008909223162081 0 -0.016820817713768001 0.0059716751258373224 0 -0.00974547458745623 0.009586113911774127 0 -0.010131918496732185 0.0087870804320204794 0 -0.0032303777918321532 0.01178963622144095 0 -0.0028706013548430069 0.011926747025189916 0 -0.0029432535548043486 0.011687456672171432 0 -0.0020842553545169576 0.012066901203384703 0 -0.0028706013548430069 0.011926747025189916 0 -0.0029432535548043486 0.011687456672171432 0 -0.0018064043546021297 0.011339716762295282 0 -0.0029432535548043486 0.011687456672171432 0 -0.0027176859424581975 0.011030293694008453 0 -0.0029432535548043486 0.011687456672171432 0 -0.0039051071089293374 0.011045640375439803 0 -0.0027176859424581975 0.011030293694008453 0 -0.0029432535548043486 0.011687456672171432 0 -0.0039051071089293374 0.011045640375439803 0 -0.0055787151574281033 0.011515093772756073 0 -0.0032303777918321532 0.01178963622144095 0 -0.0029432535548043486 0.011687456672171432 0 -0.0034375757956815185 0.011401976763802517 0 -0.010131918496732185 0.0087870804320204794 0 -0.0089227381820864184 0.0089801587529706895 0 -0.0012514995428196689 0.012607549972557964 0 -0.0089227381820864184 0.0089801587529706895 0 -0.0039051071089293374 0.011045640375439803 0 -0.0047771203141020475 0.010848976109950415 0 -0.0048344542083562413 0.009889044446206469 0 -0.0039051071089293374 0.011045640375439803 0 -0.0047771203141020475 0.010848976109950415 0 -0.0055787151574281033 0.011515093772756073 0 -0.0039051071089293374 0.011045640375439803 0 -0.0048344542083562413 0.009889044446206469 0 -0.0025407959954245568 0.010226512050417443 0 -0.0047771203141020475 0.010848976109950415 0 -0.0048344542083562413 0.009889044446206469 0 -0.0059863856042595481 0.011017289736069674 0 -0.0039801453374737729 0.020894991607489512 0 -0.0032503663803938958 0.020561157346721259 0 -0.0039051071089293374 0.011045640375439803 0 -0.0027176859424581975 0.011030293694008453 0 -0.0025407959954245568 0.010226512050417443 0 -0.0041751750247497384 0.031027425154072821 0 -0.0041151382938096745 0.031057159761406699 0 -0.0041495617441197567 0.031102224849125823 0 -0.0041151382938096745 0.031057159761406699 0 -0.0041495617441197567 0.031102224849125823 0 -0.0040469441866738919 0.031043088673506164 0 -0.0041751750247497384 0.031027425154072821 0 -0.0041495617441197567 0.031102224849125823 0 -0.0041573616784712367 0.0311500712891917 0 -0.0041472388134008442 0.031187274345342027 0 -0.0041495617441197567 0.031102224849125823 0 -0.0041573616784712367 0.0311500712891917 0 -0.0041495617441197567 0.031102224849125823 0 -0.0041583790343883483 0.03114007604543419 0 -0.0040648636479125831 0.031075357759855919 0 -0.0041472388134008442 0.031187274345342027 0 -0.0041495617441197567 0.031102224849125823 0 -0.0041583790343883483 0.03114007604543419 0 -0.0041583790343883483 0.03114007604543419 0 -0.0041307299231326403 0.03124504428146235 0 -0.0042344043526536864 0.031277428320278855 0 -0.0031263572294197585 0.045686513271070407 0 -0.0049620223505710184 0.038621542994582245 0 -0.0026104906702626609 0.059235749906686314 0 -0.0023211122618078893 0.059491252922411898 0 -0.0025653328207298444 0.059212591769658998 0 -0.0025275892076449796 0.030892216990798957 0 -0.0049620223505710184 0.038621542994582245 0 -0.0041583790343883483 0.03114007604543419 0 -0.0040902768860040231 0.031053064934201204 0 -0.0040648636479125831 0.031075357759855919 0 -0.0031263572294197585 0.045686513271070407 0 -0.0029684454825790367 0.045038944809679557 0 -0.0041472388134008442 0.031187274345342027 0 -0.0041307299231326403 0.03124504428146235 0 -0.004137037160264396 0.03132490591306334 0 -0.0026104906702626609 0.059235749906686314 0 -0.0025531033537236135 0.059310729799188507 0 -0.0024743239576697162 0.05913883480775995 0 -0.0026104906702626609 0.059235749906686314 0 -0.0025531033537236135 0.059310729799188507 0 -0.0025653328207298444 0.059212591769658998 0 -0.0041472388134008442 0.031187274345342027 0 -0.0041583790343883483 0.03114007604543419 0 -0.0041307299231326403 0.03124504428146235 0 0.010479559933632372 0.01792866998199058 0 0.010404527592418342 0.018104947547672463 0 0.010589657520133832 0.018299120637294275 0 -0.0039520869647838436 0.031080098453230915 0 -0.0040648636479125831 0.031075357759855919 0 -0.0039954017165848626 0.031024761308969986 0 -0.0039520869647838436 0.031080098453230915 0 -0.0039843750543418037 0.030977821045539696 0 -0.0039194350402090633 0.031245845131587662 0 0.0034633027480999615 0.022907564312906758 0 -0.000618090036190164 0.037924186581678503 0 -0.0039520869647838436 0.031080098453230915 0 -0.0039954017165848626 0.031024761308969986 0 -0.0039843750543418037 0.030977821045539696 0 -0.0034958549408897486 0.03030410529589361 0 -0.0049620223505710184 0.038621542994582245 0 -0.0049620223505710184 0.038621542994582245 0 -0.000618090036190164 0.037924186581678503 0 -0.0039520869647838436 0.031080098453230915 0 -0.0040902768860040231 0.031053064934201204 0 -0.0040648636479125831 0.031075357759855919 0 -0.0039520869647838436 0.031080098453230915 0 -0.0038053484951309723 0.031174245809145389 0 -0.0039194350402090633 0.031245845131587662 0 -0.0041495617441197567 0.031102224849125823 0 -0.0040648636479125831 0.031075357759855919 0 -0.0040469441866738919 0.031043088673506164 0 -0.0040648636479125831 0.031075357759855919 0 -0.0040469441866738919 0.031043088673506164 0 -0.0039954017165848626 0.031024761308969986 0 -0.0040469441866738919 0.031043088673506164 0 -0.0039954017165848626 0.031024761308969986 0 -0.0039718934963756921 0.030980307213542085 0 -0.0039954017165848626 0.031024761308969986 0 -0.0039718934963756921 0.030980307213542085 0 -0.0039843750543418037 0.030977821045539696 0 -0.0040469441866738919 0.031043088673506164 0 -0.0039718934963756921 0.030980307213542085 0 -0.003990836663474908 0.0310102022541737 0 -0.0041151382938096745 0.031057159761406699 0 -0.0040469441866738919 0.031043088673506164 0 -0.003990836663474908 0.0310102022541737 0 -0.0032503663803938958 0.020561157346721259 0 -0.0037352500265061617 0.02095806887113158 0 -0.0018064043546021297 0.011339716762295282 0 -0.0027176859424581975 0.011030293694008453 0 -0.0025407959954245568 0.010226512050417443 0 -0.0018064043546021297 0.011339716762295282 0 -0.0025407959954245568 0.010226512050417443 0 -0.0012140238281711335 0.010558946714326346 0 -0.0018064043546021297 0.011339716762295282 0 -0.0012140238281711335 0.010558946714326346 0 -0.00052407144318453473 0.011399484678230962 0 0.0092639398901709323 0.018045351328946958 0 0.0083729370255639941 0.017115497848452128 0 0.0098598676434610202 0.018231906247435026 0 0.0046397800975268378 0.013542392582569396 0 0.0032400574649082163 0.020440858750529124 0 -0.00052407144318453473 0.011399484678230962 0 0.00040115257162680421 0.011687553347033815 0 4.8149661322745497e-05 0.011021137510738466 0 0.0032400574649082163 0.020440858750529124 0 0.012589626433556309 0.016673986724243882 0 -0.0012140238281711335 0.010558946714326346 0 -0.00052407144318453473 0.011399484678230962 0 4.8149661322745497e-05 0.011021137510738466 0 -0.0039718934963756921 0.030980307213542085 0 -0.003990836663474908 0.0310102022541737 0 -0.0038604458113470864 0.030896763051550997 0 -0.0037352500265061617 0.02095806887113158 0 0.0032400574649082163 0.020440858750529124 0 0.0095012006569496765 0.017983365947973347 0 0.0093967417129004471 0.0180381183079628 0 0.0098598676434610202 0.018231906247435026 0 0.010884601480183713 0.018891194235249226 0 0.010600312990303014 0.01975683690501457 0 0.011233861652156832 0.019898966185818302 0 0.010023158991680216 0.018813453886177445 0 0.009840287654201604 0.018377155113534691 0 0.010884601480183713 0.018891194235249226 0 0.010600312990303014 0.01975683690501457 0 0.0098598676434610202 0.018231906247435026 0 0.0095012006569496765 0.017983365947973347 0 0.0092639398901709323 0.018045351328946958 0 0.0098598676434610202 0.018231906247435026 0 0.0083729370255639941 0.017115497848452128 0 0.01004054382185768 0.017656783671261538 0 0.0098598676434610202 0.018231906247435026 0 0.01004054382185768 0.017656783671261538 0 0.0098598676434610202 0.018231906247435026 0 0.010553004049116722 0.018145454038665972 0 0.01004054382185768 0.017656783671261538 0 0.010553004049116722 0.018145454038665972 0 0.010807965600864874 0.017788012169730475 0 0.010884601480183713 0.018891194235249226 0 0.0098598676434610202 0.018231906247435026 0 0.010553004049116722 0.018145454038665972 0 0.010553004049116722 0.018145454038665972 0 0.010807965600864874 0.017788012169730475 0 0.011364008710647943 0.018453324339649437 0 0.010884601480183713 0.018891194235249226 0 0.010553004049116722 0.018145454038665972 0 0.011364008710647943 0.018453324339649437 0 0.01004054382185768 0.017656783671261538 0 0.010807965600864874 0.017788012169730475 0 0.010379535351172919 0.017662458212836147 0 0.010807965600864874 0.017788012169730475 0 0.010379535351172919 0.017662458212836147 0 0.010936330543939294 0.017330693600773214 0 0.010379535351172919 0.017662458212836147 0 0.010417912805127015 0.017698516491464502 0 0.01026994289556106 0.017763000745005475 0 0.01004054382185768 0.017656783671261538 0 0.010379535351172919 0.017662458212836147 0 0.01026994289556106 0.017763000745005475 0 0.010417912805127015 0.017698516491464502 0 0.01026994289556106 0.017763000745005475 0 0.01038796182522516 0.01787855730628209 0 0.010487106178795447 0.017794935122191581 0 0.010417912805127015 0.017698516491464502 0 0.010564533071531752 0.017756887020380793 0 0.010487106178795447 0.017794935122191581 0 0.010417912805127015 0.017698516491464502 0 0.01038796182522516 0.01787855730628209 0 0.010417912805127015 0.017698516491464502 0 0.010564533071531752 0.017756887020380793 0 0.010936330543939294 0.017330693600773214 0 0.012752830212285071 0.019208632542598421 0 0.014589560340350612 0.02009917493726383 0 0.010379535351172919 0.017662458212836147 0 0.010417912805127015 0.017698516491464502 0 0.010936330543939294 0.017330693600773214 0 0.010384503252354294 0.017671091770005361 0 0.01038796182522516 0.01787855730628209 0 0.010479559933632372 0.01792866998199058 0 -0.0039718934963756921 0.030980307213542085 0 -0.0038604458113470864 0.030896763051550997 0 -0.0039843750543418037 0.030977821045539696 0 0.0032400574649082163 0.020440858750529124 0 0.0034633027480999615 0.022907564312906758 0 0.010384503252354294 0.017671091770005361 0 0.01004054382185768 0.017656783671261538 0 0.01026994289556106 0.017763000745005475 0 0.010384503252354294 0.017671091770005361 0 0.01026994289556106 0.017763000745005475 0 0.01038796182522516 0.01787855730628209 0 0.01038796182522516 0.01787855730628209 0 0.010404527592418342 0.018104947547672463 0 0.010510188608614574 0.017914476073970665 0 0.010487106178795447 0.017794935122191581 0 0.01038796182522516 0.01787855730628209 0 0.010510188608614574 0.017914476073970665 0 0.01038796182522516 0.01787855730628209 0 0.010479559933632372 0.01792866998199058 0 0.010404527592418342 0.018104947547672463 0 0.010404527592418342 0.018104947547672463 0 0.010247855852118343 0.018155240431243287 0 0.010398329945391034 0.018318825137575854 0 0.010404527592418342 0.018104947547672463 0 0.010510188608614574 0.017914476073970665 0 0.010589466210077675 0.017999221142434723 0 0.010404527592418342 0.018104947547672463 0 0.010589466210077675 0.017999221142434723 0 0.010247855852118343 0.018155240431243287 0 0.010094737334357258 0.018550722823793393 0 0.0095725445258773943 0.018603425939429707 0 0.010243103370222719 0.018918155362186516 0 0.010589466210077675 0.017999221142434723 0 0.010247855852118343 0.018155240431243287 0 0.011004839520028608 0.017731592968072727 0 0.010247855852118343 0.018155240431243287 0 0.011004839520028608 0.017731592968072727 0 0.011387137511081544 0.016893925304341161 0 0.010426125626565325 0.01803979659426411 0 0.011767198876249323 0.02057521979524591 0 0.010247855852118343 0.018155240431243287 0 0.010094737334357258 0.018550722823793393 0 0.0095725445258773943 0.018603425939429707 0 0.010094737334357258 0.018550722823793393 0 0.010292391789516188 0.01851098988252884 0 0.010243103370222719 0.018918155362186516 0 0.010247855852118343 0.018155240431243287 0 0.010094737334357258 0.018550722823793393 0 0.010292391789516188 0.01851098988252884 0 0.010292391789516188 0.01851098988252884 0 0.010398329945391034 0.018318825137575854 0 0.010398728803418895 0.018770145893331994 0 0.0055699963799634789 0.045056500739018575 0 -0.0024550520561963302 0.059420808640457679 0 0.0055699963799634789 0.045056500739018575 0 0.007197966480171878 0.03647271016693044 0 0.010398329945391034 0.018318825137575854 0 0.010398728803418895 0.018770145893331994 0 0.010525293657080721 0.018380419864652775 0 0.010404527592418342 0.018104947547672463 0 0.010398329945391034 0.018318825137575854 0 0.010525293657080721 0.018380419864652775 0 0.010247855852118343 0.018155240431243287 0 0.010292391789516188 0.01851098988252884 0 0.010398329945391034 0.018318825137575854 0 0.01704907484277951 0.019248358080349446 0 0.015024137020219585 0.020913036267965222 0 0.018143587919559206 0.0205869850930872 0 0.015024137020219585 0.020913036267965222 0 0.018039874068510743 0.022697573845826418 0 0.018143587919559206 0.0205869850930872 0 0.011109484044345353 0.017820594325425453 0 0.012752830212285071 0.019208632542598421 0 0.010487106178795447 0.017794935122191581 0 0.010510188608614574 0.017914476073970665 0 0.010564533071531752 0.017756887020380793 0 0.010510188608614574 0.017914476073970665 0 0.010589466210077675 0.017999221142434723 0 0.010564533071531752 0.017756887020380793 0 0.010589466210077675 0.017999221142434723 0 0.011004839520028608 0.017731592968072727 0 0.010564533071531752 0.017756887020380793 0 0.017102282979162681 0.018383847468859585 0 0.011767198876249323 0.02057521979524591 0 0.01704907484277951 0.019248358080349446 0 0.015024137020219585 0.020913036267965222 0 0.011387137511081544 0.016893925304341161 0 0.011004839520028608 0.017731592968072727 0 0.015024137020219585 0.020913036267965222 0 0.011387137511081544 0.016893925304341161 0 0.01704907484277951 0.019248358080349446 0 0.017620622022331164 0.018231478644147793 0 0.01689450896601281 0.017419634062644816 0 0.01704907484277951 0.019248358080349446 0 0.014467843804417398 0.018011893630592225 0 0.01689450896601281 0.017419634062644816 0 0.017591832301638386 0.017598646782939393 0 0.017620622022331164 0.018231478644147793 0 0.01689450896601281 0.017419634062644816 0 0.017211008713392269 0.027249842126491571 0 0.019903653131953952 0.026317709448452548 0 0.019747421799991772 0.037883930763858625 0 0.020082097953541985 0.037353294395299538 0 0.020851999655850426 0.037286964110285689 0 0.017419355727552092 0.017199515273852346 0 0.01659287840730532 0.016628735108022884 0 0.018171199392067253 0.016635755236271105 0 0.017591832301638386 0.017598646782939393 0 0.017419355727552092 0.017199515273852346 0 0.01834984051096775 0.017591530976363984 0 0.017419355727552092 0.017199515273852346 0 0.01689450896601281 0.017419634062644816 0 0.016939269572727234 0.017256282596566232 0 0.017591832301638386 0.017598646782939393 0 0.017419355727552092 0.017199515273852346 0 0.01689450896601281 0.017419634062644816 0 0.017419355727552092 0.017199515273852346 0 0.016939269572727234 0.017256282596566232 0 0.01659287840730532 0.016628735108022884 0 0.016939269572727234 0.017256282596566232 0 0.016409873743264202 0.017168022200797231 0 0.016744466539652867 0.016972049437012394 0 0.015256153946137956 0.021149504977432995 0 0.017211008713392269 0.027249842126491571 0 0.01689450896601281 0.017419634062644816 0 0.016939269572727234 0.017256282596566232 0 0.016409873743264202 0.017168022200797231 0 0.014597195624762872 0.021458338997409083 0 0.015526252778791418 0.026392319230250573 0 0.015526252778791418 0.026392319230250573 0 0.017211008713392269 0.027249842126491571 0 0.019747421799991772 0.037883930763858625 0 0.019431286059470393 0.037338919591605658 0 0.020082097953541985 0.037353294395299538 0 0.017211008713392269 0.027249842126491571 0 0.019093012987377325 0.046146313597738305 0 0.016082825144601434 0.03557298189677429 0 0.015310955380247326 0.036032525432135074 0 0.016242902145437967 0.037786211678369049 0 0.014467843804417398 0.018011893630592225 0 0.01689450896601281 0.017419634062644816 0 0.016120506294889633 0.01702329754137331 0 0.012501873058162884 0.033176791243495887 0 0.01372334868629391 0.032444572514857807 0 0.012643138029830931 0.031914510995540615 0 0.016082825144601434 0.03557298189677429 0 0.018243686401872954 0.036818113910788243 0 0.016242902145437967 0.037786211678369049 0 0.015526252778791418 0.026392319230250573 0 0.014205307341739571 0.042076697204241113 0 0.011767198876249323 0.02057521979524591 0 0.015526252778791418 0.026392319230250573 0 0.021829526039522228 0.057940644592415373 0 0.021874503279291375 0.057910769433079545 0 0.021776340286944244 0.057902592345272633 0 0.01449677514549577 0.050870152511439698 0 0.014410288467770808 0.050883624111901546 0 0.014519094784270813 0.050845621966694982 0 0.01449229076780538 0.050888791283348674 0 0.01449677514549577 0.050870152511439698 0 0.014563947621887596 0.050862798062192342 0 0.019093012987377325 0.046146313597738305 0 0.01519334224890327 0.057693754242455826 0 0.01449677514549577 0.050870152511439698 0 0.014563947621887596 0.050862798062192342 0 0.014519094784270813 0.050845621966694982 0 0.014205307341739571 0.042076697204241113 0 0.019093012987377325 0.046146313597738305 0 0.021829526039522228 0.057940644592415373 0 0.021918111832343656 0.057935914535011138 0 0.021874503279291375 0.057910769433079545 0 0.019093012987377325 0.046146313597738305 0 0.021538789174443306 0.047262137881807109 0 0.021829526039522228 0.057940644592415373 0 0.021918111832343656 0.057935914535011138 0 0.021969972692098765 0.057967284455995409 0 0.021918111832343656 0.057935914535011138 0 0.021969972692098765 0.057967284455995409 0 0.021989376749021176 0.057936927203280829 0 0.019431286059470393 0.037338919591605658 0 0.020314614455782042 0.036906013022989334 0 0.020082097953541985 0.037353294395299538 0 0.0025995585534904137 0.054932759388578264 0 0.010910417955033688 0.053732531988620109 0 0.0062656998869483555 0.048353896786569636 0 0.0093391567787988773 0.048336414347025264 0 0.009601311420254598 0.046057578450693422 0 0.0062656998869483555 0.048353896786569636 0 0.0083388205900491487 0.049343644425755027 0 0.0093391567787988773 0.048336414347025264 0 -0.00046320151827055587 0.056999482501149251 0 0.00025091674995518813 0.058071514967878123 0 -0.0011488911575606791 0.05815231215147202 0 0.0025995585534904137 0.054932759388578264 0 0.007693203714512477 0.046045052414600385 0 -0.00046320151827055587 0.056999482501149251 0 0.00025091674995518813 0.058071514967878123 0 0.00075473233207085533 0.057570145667210665 0 0.010292391789516188 0.01851098988252884 0 0.010398728803418895 0.018770145893331994 0 0.010243103370222719 0.018918155362186516 0 0.007693203714512477 0.046045052414600385 0 0.0085885624845349253 0.040216290248804687 0 0.0049254201105465387 0.043493573287683211 0 0.0071926612158506372 0.041226904146888815 0 0.0083916866798644102 0.041813945058723483 0 0.0055699963799634789 0.045056500739018575 0 0.0085885624845349253 0.040216290248804687 0 0.0055699963799634789 0.045056500739018575 0 0.007693203714512477 0.046045052414600385 0 0.011767198876249323 0.02057521979524591 0 0.0085885624845349253 0.040216290248804687 0 0.012501873058162884 0.033176791243495887 0 0.012643138029830931 0.031914510995540615 0 0.011211975917900175 0.032620564203142292 0 0.012599918348837625 0.047657653469120827 0 0.0087771651312796035 0.049505375273035522 0 0.0093391567787988773 0.048336414347025264 0 0.014205307341739571 0.042076697204241113 0 0.0085885624845349253 0.040216290248804687 0 0.0083596304554260127 0.049298161628389292 0 0.0087771651312796035 0.049505375273035522 0 0.0093391567787988773 0.048336414347025264 0 0.007693203714512477 0.046045052414600385 0 0.0078186280304134888 0.047202813762391306 0 0.012599918348837625 0.047657653469120827 0 0.0093391567787988773 0.048336414347025264 0 0.009601311420254598 0.046057578450693422 0 0.010910417955033688 0.053732531988620109 0 0.01519334224890327 0.057693754242455826 0 0.011181219098536003 0.060212466591141739 0 0.010958217802629676 0.058920567239911181 0 0.012570738037176262 0.059270242927839098 0 0.01449229076780538 0.050888791283348674 0 0.01449677514549577 0.050870152511439698 0 0.014410288467770808 0.050883624111901546 0 0.014205307341739571 0.042076697204241113 0 0.010910417955033688 0.053732531988620109 0 0.010910417955033688 0.053732531988620109 0 0.0077678910818337376 0.058631354321474337 0 0.0055807193180205427 0.058262056176841312 0 0.0066123881177320735 0.057562549221049961 0 0.0053028845230502202 0.056912939156756763 0 0.011181219098536003 0.060212466591141739 0 0.0096929876760647703 0.05946141938697902 0 0.010958217802629676 0.058920567239911181 0 0.0055807193180205427 0.058262056176841312 0 0.0040366942559535539 0.057544900051980638 0 0.0053028845230502202 0.056912939156756763 0 0.0025995585534904137 0.054932759388578264 0 0.00014949974548619254 0.059784259182461094 0 -0.0030012572078518093 0.059516567231380518 0 -0.0028612549066399412 0.059410583897435337 0 -0.0026977336804390865 0.059773492634413679 0 -0.00046320151827055587 0.056999482501149251 0 -0.0020152593519351491 0.058199193674753326 0 -0.0011488911575606791 0.05815231215147202 0 0.0025995585534904137 0.054932759388578264 0 -0.0030580941610869549 0.059252828277014016 0 -0.0028612549066399412 0.059410583897435337 0 -0.0026595409690519235 0.059536028897547333 0 -0.0026977336804390865 0.059773492634413679 0 -0.0025524262701356881 0.059450326829298149 0 -0.0026595409690519235 0.059536028897547333 0 -0.002554465000016614 0.059693196484772879 0 -0.0025524262701356881 0.059450326829298149 0 -0.0026595409690519235 0.059536028897547333 0 -0.0025834389944231753 0.059162296892692472 0 -0.0028612549066399412 0.059410583897435337 0 -0.0026595409690519235 0.059536028897547333 0 -0.0025834389944231753 0.059162296892692472 0 -0.0026595409690519235 0.059536028897547333 0 -0.0026977336804390865 0.059773492634413679 0 -0.002554465000016614 0.059693196484772879 0 -0.0026977336804390865 0.059773492634413679 0 -0.0025291152664064054 0.059959086338116738 0 -0.002554465000016614 0.059693196484772879 0 0.00065046795924488985 0.061552396386074043 0 -0.00079715876849094944 0.060858141847421617 0 0.00063430227882342236 0.05967195220298252 0 0.00014949974548619254 0.059784259182461094 0 -0.0017775795196046421 0.060348708007540941 0 -0.0025291152664064054 0.059959086338116738 0 -0.0024147688477407208 0.059909691941858412 0 -0.002554465000016614 0.059693196484772879 0 -0.0025291152664064054 0.059959086338116738 0 -0.0024147688477407208 0.059909691941858412 0 -0.00232752240008403 0.060111826647199433 0 -0.0024147688477407208 0.059909691941858412 0 -0.00232752240008403 0.060111826647199433 0 -0.0022347528326186797 0.060247649401292465 0 -0.0024147688477407208 0.059909691941858412 0 -0.0023841302921369469 0.059803626013666344 0 -0.0022347528326186797 0.060247649401292465 0 -0.0023841302921369469 0.059803626013666344 0 -0.0024477319320603264 0.059567700184121719 0 -0.0024180956038338188 0.059724286746824527 0 -0.0024147688477407208 0.059909691941858412 0 -0.0023841302921369469 0.059803626013666344 0 -0.002473138109587116 0.059582647399544046 0 -0.0023841302921369469 0.059803626013666344 0 -0.002473138109587116 0.059582647399544046 0 -0.0024477319320603264 0.059567700184121719 0 -0.0024147688477407208 0.059909691941858412 0 -0.002554465000016614 0.059693196484772879 0 -0.002473138109587116 0.059582647399544046 0 -0.0025524262701356881 0.059450326829298149 0 -0.002554465000016614 0.059693196484772879 0 -0.002473138109587116 0.059582647399544046 0 -0.002473138109587116 0.059582647399544046 0 -0.0025168407470399479 0.059271358606473742 0 -0.0025038481943534243 0.059307303758600577 0 -0.0025524262701356881 0.059450326829298149 0 -0.002473138109587116 0.059582647399544046 0 -0.0025168407470399479 0.059271358606473742 0 -0.0025168407470399479 0.059271358606473742 0 -0.0025038481943534243 0.059307303758600577 0 -0.0025185405012926854 0.058942705114868994 0 -0.0025038481943534243 0.059307303758600577 0 -0.0024477319320603264 0.059567700184121719 0 -0.0024827950692347918 0.059479259510140041 0 -0.002473138109587116 0.059582647399544046 0 -0.0025038481943534243 0.059307303758600577 0 -0.0024477319320603264 0.059567700184121719 0 -0.0025038481943534243 0.059307303758600577 0 -0.0025531033537236135 0.059310729799188507 0 -0.0024827950692347918 0.059479259510140041 0 -0.0025038481943534243 0.059307303758600577 0 -0.0025531033537236135 0.059310729799188507 0 -0.0025653328207298444 0.059212591769658998 0 -0.0023211122618078893 0.059491252922411898 0 -0.0025185405012926854 0.058942705114868994 0 -0.0025653328207298444 0.059212591769658998 0 -0.0025038481943534243 0.059307303758600577 0 -0.0025185405012926854 0.058942705114868994 0 -0.0025653328207298444 0.059212591769658998 0 -0.0023211122618078893 0.059491252922411898 0 -0.0012279612831353813 0.058661250794461536 0 -0.0011176570375435314 0.05880724429350459 0 -0.0023211122618078893 0.059491252922411898 0 -0.0025185405012926854 0.058942705114868994 0 -0.0012279612831353813 0.058661250794461536 0 -0.0025185405012926854 0.058942705114868994 0 -0.0012279612831353813 0.058661250794461536 0 -0.00033721268249355921 0.056786619366121067 0 0.0023264019093831479 0.045524911514579873 0 -0.000618090036190164 0.037924186581678503 0 0.010404527592418342 0.018104947547672463 0 0.010589657520133832 0.018299120637294275 0 0.010525293657080721 0.018380419864652775 0 -0.0012279612831353813 0.058661250794461536 0 -0.00088978788963991063 0.059181954716189117 0 -0.00033721268249355921 0.056786619366121067 0 -0.000618090036190164 0.037924186581678503 0 0.007197966480171878 0.03647271016693044 0 0.0039954122962034396 0.054235416660799077 0 -0.00033721268249355921 0.056786619366121067 0 0.0013293046871953971 0.057151885235739171 0 -0.00088978788963991063 0.059181954716189117 0 -0.00033721268249355921 0.056786619366121067 0 0.0013293046871953971 0.057151885235739171 0 0.00025091674995518813 0.058071514967878123 0 -0.0011488911575606791 0.05815231215147202 0 -0.0023347261672342248 0.059187008628239932 0 -0.0020152593519351491 0.058199193674753326 0 -0.0011488911575606791 0.05815231215147202 0 -0.0023347261672342248 0.059187008628239932 0 -0.0030580941610869549 0.059252828277014016 0 -0.0023653998259357883 0.058911994159259844 0 -0.0020152593519351491 0.058199193674753326 0 -0.0023347261672342248 0.059187008628239932 0 -0.0025834389944231753 0.059162296892692472 0 -0.0018474792398702146 0.058375809013700097 0 -0.0024550520561963302 0.059420808640457679 0 -0.0025185405012926854 0.058942705114868994 0 -0.0023347261672342248 0.059187008628239932 0 -0.0025834389944231753 0.059162296892692472 0 -0.0025524262701356881 0.059450326829298149 0 -0.0025168407470399479 0.059271358606473742 0 -0.0025834389944231753 0.059162296892692472 0 -0.0025168407470399479 0.059271358606473742 0 -0.0025185405012926854 0.058942705114868994 0 -0.0025834389944231753 0.059162296892692472 0 0.043628791151898473 0.022230224787652967 0 0.043003309686984265 0.023677140027977141 0 0.041830845286216931 0.02250700374452401 0 0.043003309686984265 0.023677140027977141 0 0.041830845286216931 0.02250700374452401 0 0.041766771752805743 0.023721722792079441 0 0.041002091357698167 0.023038603753483607 0 0.040531515118114689 0.023596417789707957 0 0.041766771752805743 0.023721722792079441 0 0.041830845286216931 0.02250700374452401 0 0.041002091357698167 0.023038603753483607 0 0.040973420880947686 0.022442421613993905 0 0.041830845286216931 0.02250700374452401 0 0.041002091357698167 0.023038603753483607 0 0.041766771752805743 0.023721722792079441 0 0.041002091357698167 0.023038603753483607 0 0.040234993160258956 0.02280758307518994 0 0.040424385029194591 0.022326467805253887 0 0.041002091357698167 0.023038603753483607 0 0.040424385029194591 0.022326467805253887 0 0.040973420880947686 0.022442421613993905 0 0.041002091357698167 0.023038603753483607 0 0.040531515118114689 0.023596417789707957 0 0.040234993160258956 0.02280758307518994 0 0.041114510086189222 0.024445588420243934 0 0.040531515118114689 0.023596417789707957 0 0.041766771752805743 0.023721722792079441 0 0.041114510086189222 0.024445588420243934 0 0.041766771752805743 0.023721722792079441 0 0.042380035819388887 0.024627661049178809 0 0.043003309686984265 0.023677140027977141 0 0.041766771752805743 0.023721722792079441 0 0.042380035819388887 0.024627661049178809 0 0.043224200600822632 0.025401317503549306 0 0.042380035819388887 0.024627661049178809 0 0.042163746298068988 0.025571381769920125 0 0.041114510086189222 0.024445588420243934 0 0.042380035819388887 0.024627661049178809 0 0.042163746298068988 0.025571381769920125 0 0.043589893518501448 0.026107785341537546 0 0.043224200600822632 0.025401317503549306 0 0.042163746298068988 0.025571381769920125 0 0.043589893518501448 0.026107785341537546 0 0.042707108602482967 0.02657285923006476 0 0.042163746298068988 0.025571381769920125 0 0.042707108602482967 0.02657285923006476 0 0.042163746298068988 0.025571381769920125 0 0.041586166719291717 0.026340154596630142 0 0.041586166719291717 0.026340154596630142 0 0.040815526816788121 0.025423391802159218 0 0.040347555847858325 0.026181852739846582 0 0.042163746298068988 0.025571381769920125 0 0.041586166719291717 0.026340154596630142 0 0.040815526816788121 0.025423391802159218 0 0.041114510086189222 0.024445588420243934 0 0.042163746298068988 0.025571381769920125 0 0.040815526816788121 0.025423391802159218 0 0.041114510086189222 0.024445588420243934 0 0.040815526816788121 0.025423391802159218 0 0.04004199717074685 0.024424086660371672 0 0.040815526816788121 0.025423391802159218 0 0.039743118238363732 0.02538529864573268 0 0.04004199717074685 0.024424086660371672 0 0.040815526816788121 0.025423391802159218 0 0.039743118238363732 0.02538529864573268 0 0.040347555847858325 0.026181852739846582 0 0.039743118238363732 0.02538529864573268 0 0.040347555847858325 0.026181852739846582 0 0.039310591523871112 0.026138151044580386 0 0.039743118238363732 0.02538529864573268 0 0.039310591523871112 0.026138151044580386 0 0.038877619773286999 0.025462036888073476 0 0.039743118238363732 0.02538529864573268 0 0.038877619773286999 0.025462036888073476 0 0.039069163352596324 0.024465271844960675 0 0.039743118238363732 0.02538529864573268 0 0.039069163352596324 0.024465271844960675 0 0.04004199717074685 0.024424086660371672 0 0.032590508370498976 0.02270148549076477 0 0.031837562411643559 0.024162659479563597 0 0.039069163352596324 0.024465271844960675 0 0.04004199717074685 0.024424086660371672 0 0.039136571088699057 0.023095627633404739 0 0.039069163352596324 0.024465271844960675 0 0.039136571088699057 0.023095627633404739 0 0.037985067557702215 0.024092884159113322 0 0.040531515118114689 0.023596417789707957 0 0.04004199717074685 0.024424086660371672 0 0.039136571088699057 0.023095627633404739 0 0.041114510086189222 0.024445588420243934 0 0.040531515118114689 0.023596417789707957 0 0.04004199717074685 0.024424086660371672 0 0.040234993160258956 0.02280758307518994 0 0.039136571088699057 0.023095627633404739 0 0.040135889149603171 0.022065420561510028 0 0.040531515118114689 0.023596417789707957 0 0.040234993160258956 0.02280758307518994 0 0.039136571088699057 0.023095627633404739 0 0.032590508370498976 0.02270148549076477 0 0.036331040974874475 0.021779328801564919 0 0.026730781130919107 0.022266651984369536 0 0.023897082974051746 0.022272483970686676 0 0.024431578286951923 0.024070718939244996 0 0.023897082974051746 0.022272483970686676 0 0.022329892789001674 0.021018724420629638 0 0.025046306390634397 0.020557283130658886 0 0.026730781130919107 0.022266651984369536 0 0.023897082974051746 0.022272483970686676 0 0.025046306390634397 0.020557283130658886 0 0.023897082974051746 0.022272483970686676 0 0.022091427149769784 0.022767146337033965 0 0.022329892789001674 0.021018724420629638 0 0.023897082974051746 0.022272483970686676 0 0.022091427149769784 0.022767146337033965 0 0.022847664158809941 0.024113911725240342 0 0.022847664158809941 0.024113911725240342 0 0.024431578286951923 0.024070718939244996 0 0.022086742223115914 0.025720718968116629 0 0.022091427149769784 0.022767146337033965 0 0.022847664158809941 0.024113911725240342 0 0.021442796281422732 0.023737244068622678 0 0.022847664158809941 0.024113911725240342 0 0.021681816378567503 0.024985621650260498 0 0.021442796281422732 0.023737244068622678 0 0.023897082974051746 0.022272483970686676 0 0.022847664158809941 0.024113911725240342 0 0.024431578286951923 0.024070718939244996 0 0.037985067557702215 0.024092884159113322 0 0.03765636947240962 0.024986567998476934 0 0.036578545152392082 0.025184417612450802 0 0.038877619773286999 0.025462036888073476 0 0.039069163352596324 0.024465271844960675 0 0.03765636947240962 0.024986567998476934 0 0.039069163352596324 0.024465271844960675 0 0.037985067557702215 0.024092884159113322 0 0.03765636947240962 0.024986567998476934 0 0.03765636947240962 0.024986567998476934 0 0.03775710095146919 0.025716523730661491 0 0.036818610880584683 0.025657042701915347 0 0.038877619773286999 0.025462036888073476 0 0.03765636947240962 0.024986567998476934 0 0.03775710095146919 0.025716523730661491 0 0.039310591523871112 0.026138151044580386 0 0.038877619773286999 0.025462036888073476 0 0.038444966574719207 0.026128585086588333 0 0.039000671660140915 0.025547384503733367 0 0.036416952473986512 0.025314252157853503 0 0.038660409284783495 0.026299832917405119 0 0.039310591523871112 0.026138151044580386 0 0.038444966574719207 0.026128585086588333 0 0.038877619773286999 0.025462036888073476 0 0.03775710095146919 0.025716523730661491 0 0.037824155338303224 0.026645766253585616 0 0.03775710095146919 0.025716523730661491 0 0.037824155338303224 0.026645766253585616 0 0.036818610880584683 0.025657042701915347 0 0.030463569614481739 0.023372535378299902 0 0.036416952473986512 0.025314252157853503 0 0.038042120482599889 0.026341713280542977 0 0.038381114850170719 0.025999078984361032 0 0.038308151568326558 0.026164289799020767 0 0.037662899281659896 0.026204452056778713 0 0.036416952473986512 0.025314252157853503 0 0.038660409284783495 0.026299832917405119 0 0.038381114850170719 0.025999078984361032 0 0.038308151568326558 0.026164289799020767 0 0.023725493919639667 0.021243605092730884 0 0.022462533553017701 0.020457649683745156 0 0.022578776260085968 0.019074096385300183 0 0.030463569614481739 0.023372535378299902 0 0.027643664405205895 0.02293284160905331 0 0.03104708157457807 0.025361837492928772 0 0.031750923536143276 0.024554739347871082 0 0.029490593595320001 0.02239961473876869 0 0.021993897306275777 0.021156768481187894 0 0.021022123930358606 0.0210206234482299 0 0.021525978233552883 0.019969699929112024 0 0.021993897306275777 0.021156768481187894 0 0.022462533553017701 0.020457649683745156 0 0.021525978233552883 0.019969699929112024 0 0.023725493919639667 0.021243605092730884 0 0.021993897306275777 0.021156768481187894 0 0.022462533553017701 0.020457649683745156 0 0.036416952473986512 0.025314252157853503 0 0.027643664405205895 0.02293284160905331 0 0.022462533553017701 0.020457649683745156 0 0.022578776260085968 0.019074096385300183 0 0.021525978233552883 0.019969699929112024 0 0.022578776260085968 0.019074096385300183 0 0.021525978233552883 0.019969699929112024 0 0.02195086352490009 0.018467960689826937 0 0.031837562411643559 0.024162659479563597 0 0.024775615631439415 0.022941537332004863 0 0.026313484290902522 0.02264100749980227 0 0.025489249000299183 0.021853974078931918 0 0.025767348276610622 0.021602847751395232 0 0.027643664405205895 0.02293284160905331 0 0.021967006489028659 0.021547956898164446 0 0.027643664405205895 0.02293284160905331 0 0.024775615631439415 0.022941537332004863 0 0.021967006489028659 0.021547956898164446 0 0.024775615631439415 0.022941537332004863 0 0.021760950257364787 0.025582072833255507 0 0.021897268713128498 0.025462691633416388 0 0.021681816378567503 0.024985621650260498 0 0.03765636947240962 0.024986567998476934 0 0.036818610880584683 0.025657042701915347 0 0.036578545152392082 0.025184417612450802 0 0.022847664158809941 0.024113911725240342 0 0.022086742223115914 0.025720718968116629 0 0.021681816378567503 0.024985621650260498 0 0.024775615631439415 0.022941537332004863 0 0.023865892717736221 0.023982279110645842 0 0.014070915356686475 0.019002881011832028 0 0.012564360070456431 0.018820021923528555 0 0.012420771222125558 0.017792838440471553 0 0.021760950257364787 0.025582072833255507 0 0.021681816378567503 0.024985621650260498 0 0.020069168013077659 0.024125469176691287 0 0.021967006489028659 0.021547956898164446 0 0.015658391227890471 0.020864479349943187 0 0.021525978233552883 0.019969699929112024 0 0.02195086352490009 0.018467960689826937 0 0.019990874691549716 0.020214469559834459 0 0.021967006489028659 0.021547956898164446 0 0.016146502811778516 0.019977081590623606 0 0.014070915356686475 0.019002881011832028 0 0.012564360070456431 0.018820021923528555 0 0.012720772290048261 0.019712449989614418 0 0.021022123930358606 0.0210206234482299 0 0.019990874691549716 0.020214469559834459 0 0.019810700954982149 0.020435385216455885 0 0.021022123930358606 0.0210206234482299 0 0.021525978233552883 0.019969699929112024 0 0.019990874691549716 0.020214469559834459 0 0.010884601480183713 0.018891194235249226 0 0.011734387218447277 0.019511816132305446 0 0.011233861652156832 0.019898966185818302 0 0.011519093530584151 0.020446561087014987 0 0.011734387218447277 0.019511816132305446 0 0.011233861652156832 0.019898966185818302 0 0.018726400601473587 0.021298758115148853 0 0.019990874691549716 0.020214469559834459 0 0.019810700954982149 0.020435385216455885 0 0.011657600436018527 0.020532515271534338 0 0.012720772290048261 0.019712449989614418 0 0.011734387218447277 0.019511816132305446 0 0.012564360070456431 0.018820021923528555 0 0.012720772290048261 0.019712449989614418 0 0.011734387218447277 0.019511816132305446 0 0.010884601480183713 0.018891194235249226 0 0.011734387218447277 0.019511816132305446 0 0.011364008710647943 0.018453324339649437 0 0.012564360070456431 0.018820021923528555 0 0.011364008710647943 0.018453324339649437 0 0.012420771222125558 0.017792838440471553 0 0.010807965600864874 0.017788012169730475 0 0.011364008710647943 0.018453324339649437 0 0.012420771222125558 0.017792838440471553 0 0.012564360070456431 0.018820021923528555 0 0.011734387218447277 0.019511816132305446 0 0.011364008710647943 0.018453324339649437 0 0.020069168013077659 0.024125469176691287 0 0.020606528053581877 0.022631256050092238 0 0.018039874068510743 0.022697573845826418 0 0.015658391227890471 0.020864479349943187 0 0.014589560340350612 0.02009917493726383 0 0.010807965600864874 0.017788012169730475 0 0.012420771222125558 0.017792838440471553 0 0.010936330543939294 0.017330693600773214 0 0.021681816378567503 0.024985621650260498 0 0.020069168013077659 0.024125469176691287 0 0.021442796281422732 0.023737244068622678 0 0.022091427149769784 0.022767146337033965 0 0.021442796281422732 0.023737244068622678 0 0.020606528053581877 0.022631256050092238 0 0.020069168013077659 0.024125469176691287 0 0.021442796281422732 0.023737244068622678 0 0.020606528053581877 0.022631256050092238 0 0.020606528053581877 0.022631256050092238 0 0.01984703936160168 0.020875116692644639 0 0.022329892789001674 0.021018724420629638 0 0.022091427149769784 0.022767146337033965 0 0.020606528053581877 0.022631256050092238 0 0.022329892789001674 0.021018724420629638 0 0.018039874068510743 0.022697573845826418 0 0.018143587919559206 0.0205869850930872 0 0.01984703936160168 0.020875116692644639 0 0.020606528053581877 0.022631256050092238 0 0.018039874068510743 0.022697573845826418 0 0.01984703936160168 0.020875116692644639 0 0.018143587919559206 0.0205869850930872 0 0.01984703936160168 0.020875116692644639 0 0.018987220045360853 0.019053288503917531 0 0.01704907484277951 0.019248358080349446 0 0.018143587919559206 0.0205869850930872 0 0.018987220045360853 0.019053288503917531 0 0.01984703936160168 0.020875116692644639 0 0.021381920885824014 0.019167294350435876 0 0.018987220045360853 0.019053288503917531 0 0.01984703936160168 0.020875116692644639 0 0.021381920885824014 0.019167294350435876 0 0.022329892789001674 0.021018724420629638 0 0.021381920885824014 0.019167294350435876 0 0.020285638039529159 0.017634959814662642 0 0.018987220045360853 0.019053288503917531 0 0.021381920885824014 0.019167294350435876 0 0.020285638039529159 0.017634959814662642 0 0.02255820093103568 0.01724294598613715 0 0.020285638039529159 0.017634959814662642 0 0.018987220045360853 0.019053288503917531 0 0.01834984051096775 0.017591530976363984 0 0.01704907484277951 0.019248358080349446 0 0.017620622022331164 0.018231478644147793 0 0.018987220045360853 0.019053288503917531 0 0.017620622022331164 0.018231478644147793 0 0.018987220045360853 0.019053288503917531 0 0.01834984051096775 0.017591530976363984 0 0.017591832301638386 0.017598646782939393 0 0.017620622022331164 0.018231478644147793 0 0.01834984051096775 0.017591530976363984 0 0.01659287840730532 0.016628735108022884 0 0.018171199392067253 0.016635755236271105 0 0.018968607577762225 0.015174096668158648 0 0.01834984051096775 0.017591530976363984 0 0.019417899569219042 0.016603082951294951 0 0.018171199392067253 0.016635755236271105 0 0.017419355727552092 0.017199515273852346 0 0.01834984051096775 0.017591530976363984 0 0.018171199392067253 0.016635755236271105 0 0.020285638039529159 0.017634959814662642 0 0.01834984051096775 0.017591530976363984 0 0.019417899569219042 0.016603082951294951 0 0.019417899569219042 0.016603082951294951 0 0.018968607577762225 0.015174096668158648 0 0.021045400625523861 0.015894264644845411 0 0.019417899569219042 0.016603082951294951 0 0.018171199392067253 0.016635755236271105 0 0.018968607577762225 0.015174096668158648 0 0.020314614455782042 0.036906013022989334 0 0.020082097953541985 0.037353294395299538 0 0.020851999655850426 0.037286964110285689 0 0.020314614455782042 0.036906013022989334 0 0.020851999655850426 0.037286964110285689 0 0.021266369786745658 0.036450658248658348 0 0.021538789174443306 0.047262137881807109 0 0.022446320295445004 0.052935177176326419 0 0.021969972692098765 0.057967284455995409 0 0.021989376749021176 0.057936927203280829 0 0.022171867370865281 0.057808110910944892 0 0.019903653131953952 0.026317709448452548 0 0.022482428030684329 0.0239199206556059 0 0.018968607577762225 0.015174096668158648 0 0.021553448595233768 0.013517321060542998 0 0.021045400625523861 0.015894264644845411 0 0.021553448595233768 0.013517321060542998 0 0.021045400625523861 0.015894264644845411 0 0.023439964962732793 0.014850628967364969 0 0.020851999655850426 0.037286964110285689 0 0.022064270920472535 0.036633193840138349 0 0.021266369786745658 0.036450658248658348 0 0.020285638039529159 0.017634959814662642 0 0.021045400625523861 0.015894264644845411 0 0.02255820093103568 0.01724294598613715 0 0.020285638039529159 0.017634959814662642 0 0.019417899569219042 0.016603082951294951 0 0.021045400625523861 0.015894264644845411 0 0.023579159940750251 0.014975820926610154 0 0.026619962220040396 0.017552559285906429 0 0.021045400625523861 0.015894264644845411 0 0.02255820093103568 0.01724294598613715 0 0.023439964962732793 0.014850628967364969 0 0.02255820093103568 0.01724294598613715 0 0.023439964962732793 0.014850628967364969 0 0.024808316056577961 0.016727769568127316 0 0.023439964962732793 0.014850628967364969 0 0.028301329305000476 0.014394063608883061 0 0.025808640044896983 0.010914077509828585 0 0.023439964962732793 0.014850628967364969 0 0.028301329305000476 0.014394063608883061 0 0.028382046955490646 0.01848619866064766 0 0.028301329305000476 0.014394063608883061 0 0.028382046955490646 0.01848619866064766 0 0.032562015309856404 0.017791108724511877 0 0.023848535771010444 0.018866012561199817 0 0.025046306390634397 0.020557283130658886 0 0.026771805924209049 0.018510410431541672 0 0.024808316056577961 0.016727769568127316 0 0.023848535771010444 0.018866012561199817 0 0.026771805924209049 0.018510410431541672 0 0.02255820093103568 0.01724294598613715 0 0.024808316056577961 0.016727769568127316 0 0.023848535771010444 0.018866012561199817 0 0.021381920885824014 0.019167294350435876 0 0.02255820093103568 0.01724294598613715 0 0.023848535771010444 0.018866012561199817 0 0.021381920885824014 0.019167294350435876 0 0.023848535771010444 0.018866012561199817 0 0.022329892789001674 0.021018724420629638 0 0.023848535771010444 0.018866012561199817 0 0.022329892789001674 0.021018724420629638 0 0.025046306390634397 0.020557283130658886 0 0.026730781130919107 0.022266651984369536 0 0.025046306390634397 0.020557283130658886 0 0.026962534014953091 0.020385345732960265 0 0.025046306390634397 0.020557283130658886 0 0.026962534014953091 0.020385345732960265 0 0.026771805924209049 0.018510410431541672 0 0.026962534014953091 0.020385345732960265 0 0.028940509627925621 0.020374679617405186 0 0.026771805924209049 0.018510410431541672 0 0.026730781130919107 0.022266651984369536 0 0.026962534014953091 0.020385345732960265 0 0.028940509627925621 0.020374679617405186 0 0.036331040974874475 0.021779328801564919 0 0.029145134525004703 0.019840519169982501 0 0.040234993160258956 0.02280758307518994 0 0.040135889149603171 0.022065420561510028 0 0.040424385029194591 0.022326467805253887 0 0.036331040974874475 0.021779328801564919 0 0.039174404497600609 0.023036315784893527 0 0.036593893602013088 0.024590529002508809 0 0.03632948312595706 0.020419601506678695 0 0.032614017316304304 0.021357415724393453 0 0.03632948312595706 0.020419601506678695 0 0.032614017316304304 0.021357415724393453 0 0.032562015309856404 0.017791108724511877 0 0.026619962220040396 0.017552559285906429 0 0.029145134525004703 0.019840519169982501 0 0.028382046955490646 0.01848619866064766 0 0.032614017316304304 0.021357415724393453 0 0.032562015309856404 0.017791108724511877 0 0.028301329305000476 0.014394063608883061 0 0.032562015309856404 0.017791108724511877 0 0.033310755256231631 0.014123555861755822 0 0.032562015309856404 0.017791108724511877 0 0.033310755256231631 0.014123555861755822 0 0.035915345517413821 0.016333833285015129 0 0.033310755256231631 0.014123555861755822 0 0.035915345517413821 0.016333833285015129 0 0.038544701785177417 0.013427007445495458 0 0.03632948312595706 0.020419601506678695 0 0.032562015309856404 0.017791108724511877 0 0.035915345517413821 0.016333833285015129 0 0.044132194627855434 0.01385056367141687 0 0.041853676230425671 0.015983392865537863 0 0.038544701785177417 0.013427007445495458 0 0.03632948312595706 0.020419601506678695 0 0.035915345517413821 0.016333833285015129 0 0.039988197688078028 0.017933460789179494 0 0.035915345517413821 0.016333833285015129 0 0.039988197688078028 0.017933460789179494 0 0.038544701785177417 0.013427007445495458 0 0.039988197688078028 0.017933460789179494 0 0.041853676230425671 0.015983392865537863 0 0.038544701785177417 0.013427007445495458 0 0.043317705247957784 0.018399212452647602 0 0.039988197688078028 0.017933460789179494 0 0.041853676230425671 0.015983392865537863 0 0.043317705247957784 0.018399212452647602 0 0.039988197688078028 0.017933460789179494 0 0.041877853306403021 0.019970069070628288 0 0.039988197688078028 0.017933460789179494 0 0.041877853306403021 0.019970069070628288 0 0.040279442451339638 0.020924315129884664 0 0.04351566151548196 0.020518835259154034 0 0.043317705247957784 0.018399212452647602 0 0.041877853306403021 0.019970069070628288 0 0.04351566151548196 0.020518835259154034 0 0.041877853306403021 0.019970069070628288 0 0.041964986234307042 0.021388735806726872 0 0.041877853306403021 0.019970069070628288 0 0.040279442451339638 0.020924315129884664 0 0.041964986234307042 0.021388735806726872 0 0.036593893602013088 0.024590529002508809 0 0.03632948312595706 0.020419601506678695 0 0.040279442451339638 0.020924315129884664 0 0.03632948312595706 0.020419601506678695 0 0.039988197688078028 0.017933460789179494 0 0.040279442451339638 0.020924315129884664 0 0.040279442451339638 0.020924315129884664 0 0.040788303375621754 0.021921663255901055 0 0.041964986234307042 0.021388735806726872 0 0.040057275904939245 0.022005847742763422 0 0.040279442451339638 0.020924315129884664 0 0.040788303375621754 0.021921663255901055 0 0.036331040974874475 0.021779328801564919 0 0.040551001277129274 0.02125538809785418 0 0.040424385029194591 0.022326467805253887 0 0.040788303375621754 0.021921663255901055 0 0.040973420880947686 0.022442421613993905 0 0.040057275904939245 0.022005847742763422 0 0.040424385029194591 0.022326467805253887 0 0.040788303375621754 0.021921663255901055 0 0.041830845286216931 0.02250700374452401 0 0.040788303375621754 0.021921663255901055 0 0.040973420880947686 0.022442421613993905 0 0.041830845286216931 0.02250700374452401 0 0.040788303375621754 0.021921663255901055 0 0.041964986234307042 0.021388735806726872 0 0.043628791151898473 0.022230224787652967 0 0.041830845286216931 0.02250700374452401 0 0.041964986234307042 0.021388735806726872 0 0.028478478970597573 0.055807144564033649 0 0.028165355918460807 0.057157834188762476 0 0.02612663457489979 0.05574257602132443 0 0.028165355918460807 0.057157834188762476 0 0.026671625197395108 0.057442433135541537 0 0.02612663457489979 0.05574257602132443 0 0.026671625197395108 0.057442433135541537 0 0.024863918083214923 0.057262124206482981 0 0.02612663457489979 0.05574257602132443 0 0.024874256682114099 0.057189876148195443 0 0.026330339898925408 0.056706312929102706 0 0.026671625197395108 0.057442433135541537 0 0.024897508221368787 0.058279223950073872 0 0.024863918083214923 0.057262124206482981 0 0.02672893148215701 0.057387571880987462 0 0.025123863515658307 0.058367625239910646 0 0.026671625197395108 0.057442433135541537 0 0.026625753143958576 0.057935631320281226 0 0.026170515498276432 0.057845819767004245 0 0.026625753143958576 0.057935631320281226 0 0.026448703921540081 0.058369629390864472 0 0.026170515498276432 0.057845819767004245 0 0.028165355918460807 0.057157834188762476 0 0.026671625197395108 0.057442433135541537 0 0.027959081363954252 0.058324903229502449 0 0.026671625197395108 0.057442433135541537 0 0.026625753143958576 0.057935631320281226 0 0.027959081363954252 0.058324903229502449 0 0.031587089771388792 0.047190008385629957 0 0.032247022949291007 0.0341747292437612 0 0.039979269081702309 0.020897823979264447 0 0.032247022949291007 0.0341747292437612 0 0.036174238042001441 0.033188314229996949 0 0.036151994826662377 0.0338615990360987 0 0.034408649280386797 0.03358786722211593 0 0.044132194627855434 0.01385056367141687 0 0.042424347719687866 0.010681275399157513 0 0.038544701785177417 0.013427007445495458 0 0.042424347719687866 0.010681275399157513 0 0.038544701785177417 0.013427007445495458 0 0.037858975706541648 0.009256631468371421 0 0.026625753143958576 0.057935631320281226 0 0.027959081363954252 0.058324903229502449 0 0.026448703921540081 0.058369629390864472 0 0.030546806250274842 0.036327402724559144 0 0.028190022763109564 0.036892980198312213 0 0.028439422086350533 0.035994008163542694 0 0.032247022949291007 0.0341747292437612 0 0.031331441586905442 0.02046511601050905 0 0.032247022949291007 0.0341747292437612 0 0.025623769190434183 0.05381126640746365 0 0.026448703921540081 0.058369629390864472 0 0.025628623916679076 0.058095757190571883 0 0.026170515498276432 0.057845819767004245 0 0.033310755256231631 0.014123555861755822 0 0.038544701785177417 0.013427007445495458 0 0.032353095248451001 0.0098908880813567968 0 0.038544701785177417 0.013427007445495458 0 0.037858975706541648 0.009256631468371421 0 0.032353095248451001 0.0098908880813567968 0 0.028301329305000476 0.014394063608883061 0 0.033310755256231631 0.014123555861755822 0 0.032353095248451001 0.0098908880813567968 0 0.028190022763109564 0.036892980198312213 0 0.028439422086350533 0.035994008163542694 0 0.027140136259559255 0.036705457154309951 0 0.025623769190434183 0.05381126640746365 0 0.024589649071975982 0.047648168042728346 0 0.025623769190434183 0.05381126640746365 0 0.023173155849028886 0.056976800543277563 0 0.023179780541632351 0.058089295755221912 0 0.02311679985781372 0.058119297904177816 0 0.023009086768536018 0.058093925338331583 0 0.023804880935808591 0.058526770046048969 0 0.02311679985781372 0.058119297904177816 0 0.023432758524633775 0.057956686437797403 0 0.023432758524633775 0.057956686437797403 0 0.023696908220273226 0.057652945789139459 0 0.023134023509955196 0.057608657253095642 0 0.023432758524633775 0.057956686437797403 0 0.023696908220273226 0.057652945789139459 0 0.024136573781193358 0.057870038429185124 0 0.023804880935808591 0.058526770046048969 0 0.023432758524633775 0.057956686437797403 0 0.024136573781193358 0.057870038429185124 0 0.023804880935808591 0.058526770046048969 0 0.024897508221368787 0.058279223950073872 0 0.024136573781193358 0.057870038429185124 0 0.025623769190434183 0.05381126640746365 0 0.025123863515658307 0.058367625239910646 0 0.024897508221368787 0.058279223950073872 0 0.024136573781193358 0.057870038429185124 0 0.024863918083214923 0.057262124206482981 0 0.024136573781193358 0.057870038429185124 0 0.024166649437614426 0.057344120417488209 0 0.024863918083214923 0.057262124206482981 0 0.024863918083214923 0.057262124206482981 0 0.024392191713480282 0.056950674632266225 0 0.025066868218649282 0.056851255076256484 0 0.024166649437614426 0.057344120417488209 0 0.024863918083214923 0.057262124206482981 0 0.024392191713480282 0.056950674632266225 0 0.024166649437614426 0.057344120417488209 0 0.023736491307877972 0.057195015271830678 0 0.024392191713480282 0.056950674632266225 0 0.023736491307877972 0.057195015271830678 0 0.023134023509955196 0.057608657253095642 0 0.022849815665578744 0.057202491125922635 0 0.023696908220273226 0.057652945789139459 0 0.023736491307877972 0.057195015271830678 0 0.023134023509955196 0.057608657253095642 0 0.023696908220273226 0.057652945789139459 0 0.024166649437614426 0.057344120417488209 0 0.023736491307877972 0.057195015271830678 0 0.023696908220273226 0.057652945789139459 0 0.024136573781193358 0.057870038429185124 0 0.024166649437614426 0.057344120417488209 0 0.022849815665578744 0.057202491125922635 0 0.022351572341586728 0.057256803594018933 0 0.022585963383573264 0.057593729192065443 0 0.023134023509955196 0.057608657253095642 0 0.022849815665578744 0.057202491125922635 0 0.022585963383573264 0.057593729192065443 0 0.022351572341586728 0.057256803594018933 0 0.022585963383573264 0.057593729192065443 0 0.022003552664117455 0.057389502538425688 0 0.023318369817687971 0.057480098915696859 0 0.019997669771390624 0.058558857198529005 0 0.022585963383573264 0.057593729192065443 0 0.022377724812940775 0.057601885581679613 0 0.022284860808750452 0.057481778927444022 0 0.022585963383573264 0.057593729192065443 0 0.022563367515357782 0.057776093486633401 0 0.022686792216102501 0.057787011804171548 0 0.022585963383573264 0.057593729192065443 0 0.022466367180773408 0.057678279699516603 0 0.022563367515357782 0.057776093486633401 0 0.022585963383573264 0.057593729192065443 0 0.022466367180773408 0.057678279699516603 0 0.022377724812940775 0.057601885581679613 0 0.022466367180773408 0.057678279699516603 0 0.022447055472125145 0.057753212842516957 0 0.022358576286312305 0.057672439687037495 0 0.022466367180773408 0.057678279699516603 0 0.022447055472125145 0.057753212842516957 0 0.022563367515357782 0.057776093486633401 0 0.022447055472125145 0.057753212842516957 0 0.022563367515357782 0.057776093486633401 0 0.022529381409094853 0.057840251126503879 0 0.022447055472125145 0.057753212842516957 0 0.022529381409094853 0.057840251126503879 0 0.022428368619620376 0.05781856943543378 0 0.022563367515357782 0.057776093486633401 0 0.022719091028311711 0.0578993631967996 0 0.022686792216102501 0.057787011804171548 0 0.022563367515357782 0.057776093486633401 0 0.022630779363005924 0.057889947499801322 0 0.022529381409094853 0.057840251126503879 0 0.022563367515357782 0.057776093486633401 0 0.022719091028311711 0.0578993631967996 0 0.022630779363005924 0.057889947499801322 0 0.022719091028311711 0.0578993631967996 0 0.02290221257936189 0.057861304685472341 0 0.022901089028735916 0.058017271872706444 0 0.022719091028311711 0.0578993631967996 0 0.022686792216102501 0.057787011804171548 0 0.02290221257936189 0.057861304685472341 0 0.023134023509955196 0.057608657253095642 0 0.022585963383573264 0.057593729192065443 0 0.02290221257936189 0.057861304685472341 0 0.022585963383573264 0.057593729192065443 0 0.022686792216102501 0.057787011804171548 0 0.02290221257936189 0.057861304685472341 0 0.023432758524633775 0.057956686437797403 0 0.023134023509955196 0.057608657253095642 0 0.02290221257936189 0.057861304685472341 0 0.02311679985781372 0.058119297904177816 0 0.02290221257936189 0.057861304685472341 0 0.022901089028735916 0.058017271872706444 0 0.02311679985781372 0.058119297904177816 0 0.023432758524633775 0.057956686437797403 0 0.02290221257936189 0.057861304685472341 0 0.02311679985781372 0.058119297904177816 0 0.022901089028735916 0.058017271872706444 0 0.023009086768536018 0.058093925338331583 0 0.022901089028735916 0.058017271872706444 0 0.023009086768536018 0.058093925338331583 0 0.022739475590100779 0.057985881336788052 0 0.022719091028311711 0.0578993631967996 0 0.022901089028735916 0.058017271872706444 0 0.022739475590100779 0.057985881336788052 0 0.023009086768536018 0.058093925338331583 0 0.022730417369370932 0.05800085742081372 0 0.022739475590100779 0.057985881336788052 0 0.031331441586905442 0.02046511601050905 0 0.024689024283685319 0.034785868390267038 0 0.028190022763109564 0.036892980198312213 0 0.027140136259559255 0.036705457154309951 0 0.025834693462398334 0.037399117133944462 0 0.028301329305000476 0.014394063608883061 0 0.032353095248451001 0.0098908880813567968 0 0.025808640044896983 0.010914077509828585 0 0.024589649071975982 0.047648168042728346 0 0.024689024283685319 0.034785868390267038 0 0.023009086768536018 0.058093925338331583 0 0.022651406871879668 0.057930110639397632 0 0.022730417369370932 0.05800085742081372 0 0.022482428030684329 0.0239199206556059 0 0.024689024283685319 0.034785868390267038 0 0.021553448595233768 0.013517321060542998 0 0.023439964962732793 0.014850628967364969 0 0.025808640044896983 0.010914077509828585 0 0.022064270920472535 0.036633193840138349 0 0.023373862818130472 0.035916798407423005 0 0.022288360643584706 0.036169654357322133 0 0.022651406871879668 0.057930110639397632 0 0.022691006056373315 0.05801075938006206 0 0.022730417369370932 0.05800085742081372 0 0.022651406871879668 0.057930110639397632 0 0.022691006056373315 0.05801075938006206 0 0.023026843326734887 0.057559180407482258 0 0.024689024283685319 0.034785868390267038 0 0.022180598219950554 0.046814279520386165 0 0.022691006056373315 0.05801075938006206 0 0.022561266869847382 0.057940852857534315 0 0.022397413047182319 0.057970081836710118 0 0.022561266869847382 0.057940852857534315 0 0.022668691095967201 0.057976129534203398 0 0.022593964909784853 0.057918388104045405 0 0.022561266869847382 0.057940852857534315 0 0.022491662495959928 0.057881149117130125 0 0.022435002344377696 0.057909310540581752 0 0.022668691095967201 0.057976129534203398 0 0.022739475590100779 0.057985881336788052 0 0.022593964909784853 0.057918388104045405 0 0.022691006056373315 0.05801075938006206 0 0.022730417369370932 0.05800085742081372 0 0.022668691095967201 0.057976129534203398 0 0.022691006056373315 0.05801075938006206 0 0.022561266869847382 0.057940852857534315 0 0.022668691095967201 0.057976129534203398 0 0.022730417369370932 0.05800085742081372 0 0.022668691095967201 0.057976129534203398 0 0.022739475590100779 0.057985881336788052 0 0.022719091028311711 0.0578993631967996 0 0.022739475590100779 0.057985881336788052 0 0.022630779363005924 0.057889947499801322 0 0.022739475590100779 0.057985881336788052 0 0.022630779363005924 0.057889947499801322 0 0.022593964909784853 0.057918388104045405 0 0.022491662495959928 0.057881149117130125 0 0.022593964909784853 0.057918388104045405 0 0.022529381409094853 0.057840251126503879 0 0.022561266869847382 0.057940852857534315 0 0.022491662495959928 0.057881149117130125 0 0.022593964909784853 0.057918388104045405 0 0.022630779363005924 0.057889947499801322 0 0.022593964909784853 0.057918388104045405 0 0.022529381409094853 0.057840251126503879 0 0.022491662495959928 0.057881149117130125 0 0.022529381409094853 0.057840251126503879 0 0.022428368619620376 0.05781856943543378 0 0.022491662495959928 0.057881149117130125 0 0.022428368619620376 0.05781856943543378 0 0.022400533853476026 0.057858191564669509 0 0.022428368619620376 0.05781856943543378 0 0.02233486373511618 0.057812824583964036 0 0.022400533853476026 0.057858191564669509 0 0.022400533853476026 0.057858191564669509 0 0.022315019385490149 0.057870191241816624 0 0.022435002344377696 0.057909310540581752 0 0.02233486373511618 0.057812824583964036 0 0.022400533853476026 0.057858191564669509 0 0.022315019385490149 0.057870191241816624 0 0.022491662495959928 0.057881149117130125 0 0.022400533853476026 0.057858191564669509 0 0.022435002344377696 0.057909310540581752 0 0.022232823308435141 0.057824640675054467 0 0.022315019385490149 0.057870191241816624 0 0.022188012932814034 0.057911125205443358 0 0.02233486373511618 0.057812824583964036 0 0.022232823308435141 0.057824640675054467 0 0.022262669132924413 0.057747025751101411 0 0.02233486373511618 0.057812824583964036 0 0.022232823308435141 0.057824640675054467 0 0.022315019385490149 0.057870191241816624 0 0.022315019385490149 0.057870191241816624 0 0.022188012932814034 0.057911125205443358 0 0.022324831779987314 0.057927094590119146 0 0.022188012932814034 0.057911125205443358 0 0.022324831779987314 0.057927094590119146 0 0.022215322059458014 0.057960512786261013 0 0.022561266869847382 0.057940852857534315 0 0.022435002344377696 0.057909310540581752 0 0.022397413047182319 0.057970081836710118 0 0.022315019385490149 0.057870191241816624 0 0.022435002344377696 0.057909310540581752 0 0.022324831779987314 0.057927094590119146 0 0.022435002344377696 0.057909310540581752 0 0.022324831779987314 0.057927094590119146 0 0.022397413047182319 0.057970081836710118 0 0.022691006056373315 0.05801075938006206 0 0.022397413047182319 0.057970081836710118 0 0.02214394742416638 0.058061897242958301 0 0.022691006056373315 0.05801075938006206 0 0.023026843326734887 0.057559180407482258 0 0.023525677529620138 0.057264185835142749 0 0.022531720498313004 0.05937837201253611 0 0.022446320295445004 0.052935177176326419 0 0.022397413047182319 0.057970081836710118 0 0.022215322059458014 0.057960512786261013 0 0.02214394742416638 0.058061897242958301 0 0.022324831779987314 0.057927094590119146 0 0.022397413047182319 0.057970081836710118 0 0.022215322059458014 0.057960512786261013 0 0.022180598219950554 0.046814279520386165 0 0.022446320295445004 0.052935177176326419 0 0.022064270920472535 0.036633193840138349 0 0.022288360643584706 0.036169654357322133 0 0.021266369786745658 0.036450658248658348 0 0.021989376749021176 0.057936927203280829 0 0.022036933996552575 0.05796563417564074 0 0.02214394742416638 0.058061897242958301 0 0.022036933996552575 0.05796563417564074 0 0.022068128076954734 0.057936348837241226 0 0.02196406846028684 0.057926842872405578 0 0.021499092338427575 0.057453147662081594 0 0.022446320295445004 0.052935177176326419 0 0.021989376749021176 0.057936927203280829 0 0.022036933996552575 0.05796563417564074 0 0.02196406846028684 0.057926842872405578 0 0.022036933996552575 0.05796563417564074 0 0.02214394742416638 0.058061897242958301 0 0.022068128076954734 0.057936348837241226 0 0.022215322059458014 0.057960512786261013 0 0.02214394742416638 0.058061897242958301 0 0.022068128076954734 0.057936348837241226 0 0.022188012932814034 0.057911125205443358 0 0.022215322059458014 0.057960512786261013 0 0.022068128076954734 0.057936348837241226 0 0.022068128076954734 0.057936348837241226 0 0.022140179162141452 0.057842779497177553 0 0.021940127072847652 0.057885893908652439 0 0.02275588549364899 0.057523958979038003 0 0.019995927771846198 0.058501255175569367 0 0.022140179162141452 0.057842779497177553 0 0.021998255467349619 0.057707896829084733 0 0.021750055413155982 0.058101061809831496 0 0.022188012932814034 0.057911125205443358 0 0.022068128076954734 0.057936348837241226 0 0.022140179162141452 0.057842779497177553 0 0.022232823308435141 0.057824640675054467 0 0.022188012932814034 0.057911125205443358 0 0.022140179162141452 0.057842779497177553 0 0.022232823308435141 0.057824640675054467 0 0.022140179162141452 0.057842779497177553 0 0.022162228376498158 0.057760719118784214 0 0.018843832540225335 0.056903491665733427 0 0.01728659991381272 0.058521285939228861 0 0.021998255467349619 0.057707896829084733 0 0.022145653329968023 0.057618277497088873 0 0.02214544006688773 0.057442137984980012 0 0.022145653329968023 0.057618277497088873 0 0.022128842849208748 0.057686689576988276 0 0.022209734745709676 0.057664085150258719 0 0.021998255467349619 0.057707896829084733 0 0.022128842849208748 0.057686689576988276 0 0.022162228376498158 0.057760719118784214 0 0.021998255467349619 0.057707896829084733 0 0.022145653329968023 0.057618277497088873 0 0.022128842849208748 0.057686689576988276 0 0.022128842849208748 0.057686689576988276 0 0.022162228376498158 0.057760719118784214 0 0.022209734745709676 0.057664085150258719 0 0.022140179162141452 0.057842779497177553 0 0.021998255467349619 0.057707896829084733 0 0.022162228376498158 0.057760719118784214 0 0.022232823308435141 0.057824640675054467 0 0.022162228376498158 0.057760719118784214 0 0.022262669132924413 0.057747025751101411 0 0.022262669132924413 0.057747025751101411 0 0.022351637591537837 0.057746956788740991 0 0.022283678506045151 0.05767744461739939 0 0.022262669132924413 0.057747025751101411 0 0.022209734745709676 0.057664085150258719 0 0.022283678506045151 0.05767744461739939 0 0.022162228376498158 0.057760719118784214 0 0.022262669132924413 0.057747025751101411 0 0.022209734745709676 0.057664085150258719 0 0.022447055472125145 0.057753212842516957 0 0.022428368619620376 0.05781856943543378 0 0.022351637591537837 0.057746956788740991 0 0.02233486373511618 0.057812824583964036 0 0.022262669132924413 0.057747025751101411 0 0.022351637591537837 0.057746956788740991 0 0.022428368619620376 0.05781856943543378 0 0.02233486373511618 0.057812824583964036 0 0.022351637591537837 0.057746956788740991 0 0.022351637591537837 0.057746956788740991 0 0.022358576286312305 0.057672439687037495 0 0.022283678506045151 0.05767744461739939 0 0.022447055472125145 0.057753212842516957 0 0.022351637591537837 0.057746956788740991 0 0.022358576286312305 0.057672439687037495 0 0.022466367180773408 0.057678279699516603 0 0.022358576286312305 0.057672439687037495 0 0.022377724812940775 0.057601885581679613 0 0.022358576286312305 0.057672439687037495 0 0.022294637683320715 0.05762822055540931 0 0.022283678506045151 0.05767744461739939 0 0.022294637683320715 0.05762822055540931 0 0.022377724812940775 0.057601885581679613 0 0.022278623530262713 0.057577481337590081 0 0.022358576286312305 0.057672439687037495 0 0.022294637683320715 0.05762822055540931 0 0.022377724812940775 0.057601885581679613 0 0.022209734745709676 0.057664085150258719 0 0.022252104086756427 0.057643286979201104 0 0.022220517141606444 0.057603402016303699 0 0.022145653329968023 0.057618277497088873 0 0.022209734745709676 0.057664085150258719 0 0.022220517141606444 0.057603402016303699 0 0.022209734745709676 0.057664085150258719 0 0.022283678506045151 0.05767744461739939 0 0.022252104086756427 0.057643286979201104 0 0.022294637683320715 0.05762822055540931 0 0.022283678506045151 0.05767744461739939 0 0.022252104086756427 0.057643286979201104 0 0.022294637683320715 0.05762822055540931 0 0.022252104086756427 0.057643286979201104 0 0.022220517141606444 0.057603402016303699 0 0.022220517141606444 0.057603402016303699 0 0.022212020473824711 0.057571967867699851 0 0.022278623530262713 0.057577481337590081 0 0.022294637683320715 0.05762822055540931 0 0.022220517141606444 0.057603402016303699 0 0.022278623530262713 0.057577481337590081 0 0.020202151180142104 0.057975818781598541 0 0.020006879560066134 0.057939059031829616 0 0.022145653329968023 0.057618277497088873 0 0.022220517141606444 0.057603402016303699 0 0.022192561416417272 0.057561869744447464 0 0.01904443478777651 0.058451503671327426 0 0.019053538527718638 0.058514818124873316 0 0.019012623465203597 0.058499458913142212 0 0.022145653329968023 0.057618277497088873 0 0.022192561416417272 0.057561869744447464 0 0.02214544006688773 0.057442137984980012 0 0.020006879560066134 0.057939059031829616 0 0.01728659991381272 0.058521285939228861 0 0.022212020473824711 0.057571967867699851 0 0.022278623530262713 0.057577481337590081 0 0.022284860808750452 0.057481778927444022 0 0.020006879560066134 0.057939059031829616 0 0.019997669771390624 0.058558857198529005 0 0.022377724812940775 0.057601885581679613 0 0.022278623530262713 0.057577481337590081 0 0.022284860808750452 0.057481778927444022 0 0.01728659991381272 0.058521285939228861 0 0.019997669771390624 0.058558857198529005 0 0.01728659991381272 0.058521285939228861 0 0.013434488763288352 0.056104610283431507 0 0.01542451843042935 0.056965051379310468 0 0.016387020924333202 0.055107126999065024 0 0.015122665578409003 0.055585762387845426 0 0.016387020924333202 0.055107126999065024 0 0.015122665578409003 0.055585762387845426 0 0.014180329651904494 0.054348366691809258 0 0.014899818922844364 0.059065885248439295 0 0.014358245802874635 0.057584259677058505 0 0.013414364713264286 0.058568744910501423 0 0.01728659991381272 0.058521285939228861 0 0.014308589394103528 0.058834610333704705 0 0.016939386790122638 0.061011087570280079 0 0.017071637549613567 0.059707545785910004 0 0.017952643892936979 0.05960292574718172 0 0.019997669771390624 0.058558857198529005 0 0.020008221951670312 0.058457561098033593 0 0.01728659991381272 0.058521285939228861 0 0.016554678404074853 0.060451343110176178 0 0.01561351931764954 0.061961666287724135 0 0.016565837674760737 0.060128213299473245 0 0.014667206110333175 0.059399985796906793 0 0.016502273309104944 0.060856409066582628 0 0.016939386790122638 0.061011087570280079 0 0.017071637549613567 0.059707545785910004 0 0.016565837674760737 0.060128213299473245 0 0.016349965740946579 0.058712595563498553 0 0.01766136655500794 0.058188804037760319 0 0.016554678404074853 0.060451343110176178 0 0.017713668253015846 0.058105874379612878 0 0.016565837674760737 0.060128213299473245 0 0.016349965740946579 0.058712595563498553 0 0.014667206110333175 0.059399985796906793 0 0.016349965740946579 0.058712595563498553 0 0.014667206110333175 0.059399985796906793 0 0.015639681947183633 0.057777172407693603 0 0.014308589394103528 0.058834610333704705 0 0.013713645919028976 0.056481407278506778 0 0.014667206110333175 0.059399985796906793 0 0.01479919522349004 0.057321232786763779 0 0.013727564883659215 0.05674556932814543 0 0.014667206110333175 0.059399985796906793 0 0.01479919522349004 0.057321232786763779 0 0.015639681947183633 0.057777172407693603 0 0.01479919522349004 0.057321232786763779 0 0.015741195824521579 0.056397770585484792 0 0.015639681947183633 0.057777172407693603 0 0.01479919522349004 0.057321232786763779 0 0.014233918556228253 0.056274256983635376 0 0.015741195824521579 0.056397770585484792 0 0.01479919522349004 0.057321232786763779 0 0.014233918556228253 0.056274256983635376 0 0.013727564883659215 0.05674556932814543 0 0.014233918556228253 0.056274256983635376 0 0.016199886498796938 0.054999966171831637 0 0.013048365237775946 0.054999958138068197 0 0.013938844571858918 0.056373488787702056 0 0.013713645919028976 0.056481407278506778 0 0.014233918556228253 0.056274256983635376 0 0.016199886498796938 0.054999966171831637 0 0.015741195824521579 0.056397770585484792 0 0.016199886498796938 0.054999966171831637 0 0.015741195824521579 0.056397770585484792 0 0.017782173351738505 0.056280036284295072 0 0.015741195824521579 0.056397770585484792 0 0.016677148154405623 0.057353862616325406 0 0.017782173351738505 0.056280036284295072 0 0.015741195824521579 0.056397770585484792 0 0.016677148154405623 0.057353862616325406 0 0.015639681947183633 0.057777172407693603 0 0.016349965740946579 0.058712595563498553 0 0.016677148154405623 0.057353862616325406 0 0.015639681947183633 0.057777172407693603 0 0.016349965740946579 0.058712595563498553 0 0.016677148154405623 0.057353862616325406 0 0.01766136655500794 0.058188804037760319 0 0.01766136655500794 0.058188804037760319 0 0.017782173351738505 0.056280036284295072 0 0.019510949036593134 0.057623621532730339 0 0.016677148154405623 0.057353862616325406 0 0.01766136655500794 0.058188804037760319 0 0.017782173351738505 0.056280036284295072 0 0.016199886498796938 0.054999966171831637 0 0.017782173351738505 0.056280036284295072 0 0.019351661195117838 0.054999981406346238 0 0.020739607796686203 0.05705114377768386 0 0.021383842554454673 0.055288037438863166 0 0.019351661195117838 0.054999981406346238 0 0.019510949036593134 0.057623621532730339 0 0.021322996427208519 0.055178608330377701 0 0.017782173351738505 0.056280036284295072 0 0.019351661195117838 0.054999981406346238 0 0.019510949036593134 0.057623621532730339 0 0.021895065684592808 0.056769039718411365 0 0.022189268458975002 0.056908843241266292 0 0.022169714396373132 0.056484526424101636 0 0.021895065684592808 0.056769039718411365 0 0.022351975658384628 0.057062180692551256 0 0.022189268458975002 0.056908843241266292 0 0.021895065684592808 0.056769039718411365 0 0.022351975658384628 0.057062180692551256 0 0.022296999342774803 0.057034297495507189 0 0.020739607796686203 0.05705114377768386 0 0.020008221951670312 0.058457561098033593 0 0.01766136655500794 0.058188804037760319 0 0.019510949036593134 0.057623621532730339 0 0.017952643892936979 0.05960292574718172 0 0.017071637549613567 0.059707545785910004 0 0.01766136655500794 0.058188804037760319 0 0.017952643892936979 0.05960292574718172 0 0.022351572341586728 0.057256803594018933 0 0.022003552664117455 0.057389502538425688 0 0.022296999342774803 0.057034297495507189 0 0.022351975658384628 0.057062180692551256 0 0.022296999342774803 0.057034297495507189 0 0.022453172126564436 0.057112121426628054 0 0.022351572341586728 0.057256803594018933 0 0.022296999342774803 0.057034297495507189 0 0.022453172126564436 0.057112121426628054 0 0.022849815665578744 0.057202491125922635 0 0.022351975658384628 0.057062180692551256 0 0.022450780623252464 0.05721134120273038 0 0.022849815665578744 0.057202491125922635 0 0.022351572341586728 0.057256803594018933 0 0.022453172126564436 0.057112121426628054 0 0.022849815665578744 0.057202491125922635 0 0.022351975658384628 0.057062180692551256 0 0.022453172126564436 0.057112121426628054 0 0.023736491307877972 0.057195015271830678 0 0.022849815665578744 0.057202491125922635 0 0.024153355021749812 0.056533627529018395 0 0.022857118170239405 0.057235694769025042 0 0.023295532496778747 0.056913474370188698 0 0.023736491307877972 0.057195015271830678 0 0.024392191713480282 0.056950674632266225 0 0.024153355021749812 0.056533627529018395 0 0.024392191713480282 0.056950674632266225 0 0.024828037479313336 0.05673055852615809 0 0.024153355021749812 0.056533627529018395 0 0.02404087674953519 0.05701462717358935 0 0.026330339898925408 0.056706312929102706 0 0.024392191713480282 0.056950674632266225 0 0.024828037479313336 0.05673055852615809 0 0.025158985398200363 0.057161126695528711 0 0.023295532496778747 0.056913474370188698 0 0.024087016133873453 0.056457565082533696 0 0.024828037479313336 0.05673055852615809 0 0.024153355021749812 0.056533627529018395 0 0.02481001329973552 0.056230095690761248 0 0.022189268458975002 0.056908843241266292 0 0.022450780623252464 0.05721134120273038 0 0.022169714396373132 0.056484526424101636 0 0.022351975658384628 0.057062180692551256 0 0.022189268458975002 0.056908843241266292 0 0.022450780623252464 0.05721134120273038 0 0.022450780623252464 0.05721134120273038 0 0.022169714396373132 0.056484526424101636 0 0.023289085661067344 0.056829560772753453 0 0.022169714396373132 0.056484526424101636 0 0.021322996427208519 0.055178608330377701 0 0.022503846288966112 0.055000115050494194 0 0.019351661195117838 0.054999981406346238 0 0.021322996427208519 0.055178608330377701 0 0.022503846288966112 0.055000115050494194 0 0.021895065684592808 0.056769039718411365 0 0.022169714396373132 0.056484526424101636 0 0.021322996427208519 0.055178608330377701 0 0.022503846288966112 0.055000115050494194 0 0.023289085661067344 0.056829560772753453 0 0.025263805259077163 0.055272824521254572 0 0.022169714396373132 0.056484526424101636 0 0.022503846288966112 0.055000115050494194 0 0.023289085661067344 0.056829560772753453 0 0.02481001329973552 0.056230095690761248 0 0.025641095504395403 0.056200125860824061 0 0.025759633467693853 0.056805078674609384 0 0.02481001329973552 0.056230095690761248 0 0.025641095504395403 0.056200125860824061 0 0.025263805259077163 0.055272824521254572 0 0.024087016133873453 0.056457565082533696 0 0.025194640098917254 0.055302167167970845 0 0.022503846288966112 0.055000115050494194 0 0.025263805259077163 0.055272824521254572 0 0.025654780000174043 0.054999525408538683 0 0.025641095504395403 0.056200125860824061 0 0.025263805259077163 0.055272824521254572 0 0.026206167311060263 0.055744254055398297 0 0.025263805259077163 0.055272824521254572 0 0.025654780000174043 0.054999525408538683 0 0.026206167311060263 0.055744254055398297 0 0.028805381930595481 0.054999827256612913 0 0.025654780000174043 0.054999525408538683 0 0.026206167311060263 0.055744254055398297 0 0.025641095504395403 0.056200125860824061 0 0.026952712056451673 0.056352615820707504 0 0.025759633467693853 0.056805078674609384 0 0.025641095504395403 0.056200125860824061 0 0.026206167311060263 0.055744254055398297 0 0.026952712056451673 0.056352615820707504 0 0.028074418164969694 0.055875747600320748 0 0.027415525542492328 0.056410662500198362 0 0.029434088521147261 0.056526802764001176 0 0.029431289690418357 0.055979058377699543 0 0.028903116285832132 0.056028594137885621 0 0.029431289690418357 0.055979058377699543 0 0.029155562735578663 0.055591331844534235 0 0.028903116285832132 0.056028594137885621 0 0.024828037479313336 0.05673055852615809 0 0.02481001329973552 0.056230095690761248 0 0.025759633467693853 0.056805078674609384 0 0.024828037479313336 0.05673055852615809 0 0.025759633467693853 0.056805078674609384 0 0.025158985398200363 0.057161126695528711 0 0.027415525542492328 0.056410662500198362 0 0.026330339898925408 0.056706312929102706 0 0.029185315833801215 0.056091375748713465 0 0.026330339898925408 0.056706312929102706 0 0.029434088521147261 0.056526802764001176 0 0.028903116285832132 0.056028594137885621 0 0.028509637539059031 0.056608776875532306 0 0.0034264920813871641 0.060353031095559499 0 0.0028375551471416269 0.06139261907016675 0 0.0016639088417318008 0.060558513634794094 0 0.00090881473005845388 0.060478125679498659 0 0.00044898286186126986 0.061035928148861676 0 0.0016639088417318008 0.060558513634794094 0 0.0012961901222554831 0.060085944522086307 0 0.00090881473005845388 0.060478125679498659 0 0.00057099410109175879 0.057351182694961506 0 0.0010479719492678138 0.056778468189833481 0 0.0010517745890581734 0.056966643887040549 0 0.0028281657154992272 0.058587914850821252 0 0.0041088846997781149 0.05837257863273268 0 0.0034264920813871641 0.060353031095559499 0 0.0041088846997781149 0.05837257863273268 0 0.005310530276082844 0.06051352222819073 0 0.0053100844058669361 0.060675679822187745 0 0.0071200372451746818 0.059323510963041559 0 0.0041088846997781149 0.05837257863273268 0 0.0085662665525591698 0.057466926322427697 0 0.005310530276082844 0.06051352222819073 0 0.0071200372451746818 0.059323510963041559 0 0.0075955445435370436 0.058636499378274795 0 0.0081321315074405123 0.05685307365197919 0 0.0093689561169240255 0.055856321968704457 0 0.009898001716125468 0.057739812449942793 0 0.0034264920813871641 0.060353031095559499 0 0.0069705177000537952 0.060803571991622167 0 0.0035629165748593981 0.064631922011913104 0 0.003517558671672528 0.062187079389096872 0 0.006274884277469913 0.062328440343182009 0 0.003517558671672528 0.062187079389096872 0 0.006274884277469913 0.062328440343182009 0 0.0062821474808328493 0.059792206660648835 0 0.0020804085062556981 0.05994135945039214 0 0.0012961901222554831 0.060085944522086307 0 0.0018012744411449054 0.059613741403212642 0 0.0016639088417318008 0.060558513634794094 0 0.0020804085062556981 0.05994135945039214 0 0.0012961901222554831 0.060085944522086307 0 0.00067473917736543825 0.059781243718784453 0 0.0012961901222554831 0.060085944522086307 0 0.0018012744411449054 0.059613741403212642 0 0.00067473917736543825 0.059781243718784453 0 0.00012101581872421453 0.060012328096929884 0 0.00055716017482583524 0.060219200803428553 0 0.00067473917736543825 0.059781243718784453 0 0.0012961901222554831 0.060085944522086307 0 0.00055716017482583524 0.060219200803428553 0 -5.8723760629301196e-05 0.059529711013160368 0 -0.00049554143387748868 0.059925830801451155 0 -0.00093831251077201318 0.059333119616573449 0 0.00067473917736543825 0.059781243718784453 0 -5.8723760629301196e-05 0.059529711013160368 0 0.00012101581872421453 0.060012328096929884 0 -5.8723760629301196e-05 0.059529711013160368 0 0.00012101581872421453 0.060012328096929884 0 -0.00049554143387748868 0.059925830801451155 0 -0.00049554143387748868 0.059925830801451155 0 -0.00097043650830395403 0.060179255167513067 0 -0.00121624420344173 0.059807514077563656 0 -0.00097043650830395403 0.060179255167513067 0 -0.00024507136435363626 0.060240534344282969 0 -0.00065926238472329497 0.060347867165469415 0 -0.00049554143387748868 0.059925830801451155 0 -0.00097043650830395403 0.060179255167513067 0 -0.00024507136435363626 0.060240534344282969 0 0.00012101581872421453 0.060012328096929884 0 -0.00049554143387748868 0.059925830801451155 0 -0.00024507136435363626 0.060240534344282969 0 -0.00024507136435363626 0.060240534344282969 0 -0.00047529638843001699 0.060493528033344443 0 0.00019746664213753375 0.060452888217010926 0 -0.00024507136435363626 0.060240534344282969 0 -0.00047529638843001699 0.060493528033344443 0 -0.00065926238472329497 0.060347867165469415 0 -0.00097043650830395403 0.060179255167513067 0 -0.00065926238472329497 0.060347867165469415 0 -0.00097459814944211539 0.060476029831920138 0 -0.00047529638843001699 0.060493528033344443 0 -0.00065926238472329497 0.060347867165469415 0 -0.00097459814944211539 0.060476029831920138 0 0.0012961901222554831 0.060085944522086307 0 0.00055716017482583524 0.060219200803428553 0 0.00090881473005845388 0.060478125679498659 0 0.00012101581872421453 0.060012328096929884 0 -0.00024507136435363626 0.060240534344282969 0 0.00055716017482583524 0.060219200803428553 0 -0.00024507136435363626 0.060240534344282969 0 0.00055716017482583524 0.060219200803428553 0 0.00019746664213753375 0.060452888217010926 0 -0.00047529638843001699 0.060493528033344443 0 0.00019746664213753375 0.060452888217010926 0 -7.9767616885066924e-05 0.06064559229263989 0 0.00019746664213753375 0.060452888217010926 0 0.00036643270794583843 0.060702742053569105 0 -7.9767616885066924e-05 0.06064559229263989 0 0.00055716017482583524 0.060219200803428553 0 0.00019746664213753375 0.060452888217010926 0 0.00090881473005845388 0.060478125679498659 0 0.00019746664213753375 0.060452888217010926 0 0.00090881473005845388 0.060478125679498659 0 0.00036643270794583843 0.060702742053569105 0 0.00090881473005845388 0.060478125679498659 0 0.00036643270794583843 0.060702742053569105 0 0.00044898286186126986 0.061035928148861676 0 0.00036643270794583843 0.060702742053569105 0 6.420456845450116e-05 0.060826242344739191 0 0.00044898286186126986 0.061035928148861676 0 0.00036643270794583843 0.060702742053569105 0 -7.9767616885066924e-05 0.06064559229263989 0 6.420456845450116e-05 0.060826242344739191 0 -7.9767616885066924e-05 0.06064559229263989 0 -0.00024804913082562916 0.060781666835012613 0 6.420456845450116e-05 0.060826242344739191 0 -0.00024804913082562916 0.060781666835012613 0 6.420456845450116e-05 0.060826242344739191 0 -8.0324232221481043e-05 0.060889326603286616 0 -7.9767616885066924e-05 0.06064559229263989 0 -0.00024804913082562916 0.060781666835012613 0 -0.00049589052708719271 0.06066689279973133 0 6.420456845450116e-05 0.060826242344739191 0 4.9439724452947751e-05 0.060959309892936762 0 0.00044898286186126986 0.061035928148861676 0 4.9439724452947751e-05 0.060959309892936762 0 -0.00040473546769230018 0.060979327329258412 0 0.00044898286186126986 0.061035928148861676 0 6.420456845450116e-05 0.060826242344739191 0 -8.0324232221481043e-05 0.060889326603286616 0 4.9439724452947751e-05 0.060959309892936762 0 -8.0324232221481043e-05 0.060889326603286616 0 4.9439724452947751e-05 0.060959309892936762 0 -0.00017625672325063835 0.060934333500695444 0 -0.00024804913082562916 0.060781666835012613 0 -0.00035855368049914857 0.060875627691483247 0 -0.00051734925598132485 0.060782130792512178 0 -0.00024804913082562916 0.060781666835012613 0 -8.0324232221481043e-05 0.060889326603286616 0 -0.00035855368049914857 0.060875627691483247 0 -8.0324232221481043e-05 0.060889326603286616 0 -0.00017625672325063835 0.060934333500695444 0 -0.00035855368049914857 0.060875627691483247 0 4.9439724452947751e-05 0.060959309892936762 0 -0.00017625672325063835 0.060934333500695444 0 -0.00040473546769230018 0.060979327329258412 0 -0.00017625672325063835 0.060934333500695444 0 -0.00035855368049914857 0.060875627691483247 0 -0.00040473546769230018 0.060979327329258412 0 -0.00035855368049914857 0.060875627691483247 0 -0.00040473546769230018 0.060979327329258412 0 -0.00065210110273377687 0.060872268973523283 0 -0.0010697416876768726 0.059152447571231691 0 -0.00096544522585005111 0.058565565463196301 0 -0.0015796904980289108 0.059468749028414737 0 -0.00061266542145754093 0.058995927904667962 0 -0.00096544522585005111 0.058565565463196301 0 -1.5815266990768873e-06 0.058451406814251053 0 -0.0010697416876768726 0.059152447571231691 0 -0.00061266542145754093 0.058995927904667962 0 -0.00096544522585005111 0.058565565463196301 0 -0.00097459814944211539 0.060476029831920138 0 -0.0010852164760594733 0.060643067550148387 0 -0.0014106567219234251 0.060567799205611367 0 -0.00047529638843001699 0.060493528033344443 0 -0.00097459814944211539 0.060476029831920138 0 -0.0008005343820583332 0.060612401061096763 0 -0.00097459814944211539 0.060476029831920138 0 -0.0008005343820583332 0.060612401061096763 0 -0.0010852164760594733 0.060643067550148387 0 -0.0008005343820583332 0.060612401061096763 0 -0.00079005359808189497 0.060737710926765588 0 -0.0010852164760594733 0.060643067550148387 0 -0.0008005343820583332 0.060612401061096763 0 -0.00049589052708719271 0.06066689279973133 0 -0.00079005359808189497 0.060737710926765588 0 -0.00047529638843001699 0.060493528033344443 0 -0.0008005343820583332 0.060612401061096763 0 -0.00049589052708719271 0.06066689279973133 0 -0.00047529638843001699 0.060493528033344443 0 -7.9767616885066924e-05 0.06064559229263989 0 -0.00049589052708719271 0.06066689279973133 0 -0.00049589052708719271 0.06066689279973133 0 -0.00051734925598132485 0.060782130792512178 0 -0.00079005359808189497 0.060737710926765588 0 -0.00024804913082562916 0.060781666835012613 0 -0.00049589052708719271 0.06066689279973133 0 -0.00051734925598132485 0.060782130792512178 0 -0.00035855368049914857 0.060875627691483247 0 -0.00051734925598132485 0.060782130792512178 0 -0.00065210110273377687 0.060872268973523283 0 -0.00051734925598132485 0.060782130792512178 0 -0.00065210110273377687 0.060872268973523283 0 -0.00079005359808189497 0.060737710926765588 0 -0.00040473546769230018 0.060979327329258412 0 -0.00065210110273377687 0.060872268973523283 0 -0.0006988330774845761 0.060938705483627356 0 -0.00065210110273377687 0.060872268973523283 0 -0.0009124422708469117 0.060912053112443652 0 -0.0006988330774845761 0.060938705483627356 0 -0.0009020163956592925 0.060825533765689201 0 -0.0011265273824088004 0.060821641592894715 0 -0.0009124422708469117 0.060912053112443652 0 -0.00065210110273377687 0.060872268973523283 0 -0.0009020163956592925 0.060825533765689201 0 -0.00079005359808189497 0.060737710926765588 0 -0.00065210110273377687 0.060872268973523283 0 -0.0009020163956592925 0.060825533765689201 0 -0.0009124422708469117 0.060912053112443652 0 -0.0009020163956592925 0.060825533765689201 0 -0.00079005359808189497 0.060737710926765588 0 -0.0010400620404289395 0.060750704447302899 0 -0.00079005359808189497 0.060737710926765588 0 -0.0010852164760594733 0.060643067550148387 0 -0.0010400620404289395 0.060750704447302899 0 -0.0010852164760594733 0.060643067550148387 0 -0.0010400620404289395 0.060750704447302899 0 -0.0013091056513376003 0.060706473608137107 0 -0.0010400620404289395 0.060750704447302899 0 -0.0013091056513376003 0.060706473608137107 0 -0.0011265273824088004 0.060821641592894715 0 -0.0009020163956592925 0.060825533765689201 0 -0.0010400620404289395 0.060750704447302899 0 -0.0011265273824088004 0.060821641592894715 0 -0.0010852164760594733 0.060643067550148387 0 -0.0013091056513376003 0.060706473608137107 0 -0.0014106567219234251 0.060567799205611367 0 -0.0016451420307428866 0.060442488201712684 0 -0.0020893990052474371 0.060295505706679568 0 -0.0014332528841491524 0.060791483088039361 0 -0.0011254275669841181 0.061051709771455499 0 -0.0019772256626997757 0.06055809505161449 0 -0.00232752240008403 0.060111826647199433 0 -0.0023884746802472108 0.060054051670513815 0 -0.0022347528326186797 0.060247649401292465 0 -0.0014332528841491524 0.060791483088039361 0 -0.0011251322190847372 0.060914071890728359 0 -0.0011254275669841181 0.061051709771455499 0 -0.0013091056513376003 0.060706473608137107 0 -0.0014332528841491524 0.060791483088039361 0 -0.0011265273824088004 0.060821641592894715 0 -0.0014332528841491524 0.060791483088039361 0 -0.0011265273824088004 0.060821641592894715 0 -0.0011251322190847372 0.060914071890728359 0 -0.00232752240008403 0.060111826647199433 0 -0.0023884746802472108 0.060054051670513815 0 -0.0015796904980289108 0.059468749028414737 0 -0.00040473546769230018 0.060979327329258412 0 -0.00083316723585128176 0.06097180534998399 0 -0.0011254275669841181 0.061051709771455499 0 -0.0010176277253584895 0.060978562127783589 0 -0.00083316723585128176 0.06097180534998399 0 -0.0011254275669841181 0.061051709771455499 0 -0.0010176277253584895 0.060978562127783589 0 -0.0011251322190847372 0.060914071890728359 0 -0.0011254275669841181 0.061051709771455499 0 -0.0011265273824088004 0.060821641592894715 0 -0.0011251322190847372 0.060914071890728359 0 -0.0009124422708469117 0.060912053112443652 0 -0.0010176277253584895 0.060978562127783589 0 -0.0009124422708469117 0.060912053112443652 0 -0.00083316723585128176 0.06097180534998399 0 -0.0010176277253584895 0.060978562127783589 0 -0.0011251322190847372 0.060914071890728359 0 -0.0009124422708469117 0.060912053112443652 0 -0.00040473546769230018 0.060979327329258412 0 -0.00083316723585128176 0.06097180534998399 0 -0.0006988330774845761 0.060938705483627356 0 -0.0009124422708469117 0.060912053112443652 0 -0.00083316723585128176 0.06097180534998399 0 -0.0006988330774845761 0.060938705483627356 0 -0.00040473546769230018 0.060979327329258412 0 0.00044898286186126986 0.061035928148861676 0 -0.0011254275669841181 0.061051709771455499 0 -0.00096544522585005111 0.058565565463196301 0 -0.0023884746802472108 0.060054051670513815 0 -0.0015796904980289108 0.059468749028414737 0 -0.00042265505003622492 0.059669228302263934 0 -0.0016451420307428866 0.060442488201712684 0 -0.00061266542145754093 0.058995927904667962 0 -0.00080573531010975908 0.059938802774087918 0 -0.0011092746082754104 0.059566526830601305 0 -0.0010697416876768726 0.059152447571231691 0 -0.00061266542145754093 0.058995927904667962 0 -0.0011092746082754104 0.059566526830601305 0 -0.0010697416876768726 0.059152447571231691 0 -0.0011092746082754104 0.059566526830601305 0 -0.0015796904980289108 0.059468749028414737 0 -0.00232752240008403 0.060111826647199433 0 -0.00080573531010975908 0.059938802774087918 0 -0.0011092746082754104 0.059566526830601305 0 -0.00232752240008403 0.060111826647199433 0 -0.0011092746082754104 0.059566526830601305 0 -0.0015796904980289108 0.059468749028414737 0 -0.00079715876849094944 0.060858141847421617 0 -0.00232752240008403 0.060111826647199433 0 -0.00080573531010975908 0.059938802774087918 0 -0.0017775795196046421 0.060348708007540941 0 -0.0022092009398912643 0.060160032347635541 0 -0.00079715876849094944 0.060858141847421617 0 -0.00080573531010975908 0.059938802774087918 0 0.00063430227882342236 0.05967195220298252 0 0.00014949974548619254 0.059784259182461094 0 0.0037087122032489856 0.058578230431689332 0 -0.00082073749411374058 0.058664434271220069 0 0.0037087122032489856 0.058578230431689332 0 -0.00061266542145754093 0.058995927904667962 0 -0.00080573531010975908 0.059938802774087918 0 0.00063430227882342236 0.05967195220298252 0 0.00057099410109175879 0.057351182694961506 0 0.0010472056171170086 0.056970681456988803 0 0.0010832283031317633 0.059920997819764635 0 -0.00061266542145754093 0.058995927904667962 0 0.0010832283031317633 0.059920997819764635 0 -1.5815266990768873e-06 0.058451406814251053 0 0.00057099410109175879 0.057351182694961506 0 0.0010832283031317633 0.059920997819764635 0 -1.5815266990768873e-06 0.058451406814251053 0 0.0041088846997781149 0.05837257863273268 0 0.0037087122032489856 0.058578230431689332 0 0.00057099410109175879 0.057351182694961506 0 0.0010479719492678138 0.056778468189833481 0 -0.00096544522585005111 0.058565565463196301 0 0.0034264920813871641 0.060353031095559499 0 -0.00042265505003622492 0.059669228302263934 0 0.00057099410109175879 0.057351182694961506 0 -0.00096544522585005111 0.058565565463196301 0 -1.5815266990768873e-06 0.058451406814251053 0 0.0081321315074405123 0.05685307365197919 0 0.0081710040024341023 0.058683975191963188 0 0.009898001716125468 0.057739812449942793 0 0.0081710040024341023 0.058683975191963188 0 0.0096929876760647703 0.05946141938697902 0 0.009898001716125468 0.057739812449942793 0 0.0040366942559535539 0.057544900051980638 0 0.0040303000077557263 0.056264676149849292 0 0.0053028845230502202 0.056912939156756763 0 0.0037087122032489856 0.058578230431689332 0 0.0077678910818337376 0.058631354321474337 0 0.0096929876760647703 0.05946141938697902 0 0.010958217802629676 0.058920567239911181 0 0.009898001716125468 0.057739812449942793 0 0.010958217802629676 0.058920567239911181 0 0.011794034138044975 0.057863739520577384 0 0.012570738037176262 0.059270242927839098 0 0.010958217802629676 0.058920567239911181 0 0.011794034138044975 0.057863739520577384 0 0.009898001716125468 0.057739812449942793 0 0.011758878018261729 0.058168845874012498 0 0.011138784987975863 0.05650668486503025 0 0.011794034138044975 0.057863739520577384 0 0.009898001716125468 0.057739812449942793 0 0.011065368824932595 0.056438783149131221 0 0.019995927771846198 0.058501255175569367 0 0.01519334224890327 0.057693754242455826 0 0.021897519996591945 0.057871237526275515 0 0.021874503279291375 0.057910769433079545 0 0.021776340286944244 0.057902592345272633 0 0.021940127072847652 0.057885893908652439 0 0.02196406846028684 0.057926842872405578 0 0.021874503279291375 0.057910769433079545 0 0.022068128076954734 0.057936348837241226 0 0.021940127072847652 0.057885893908652439 0 0.02196406846028684 0.057926842872405578 0 0.021918111832343656 0.057935914535011138 0 0.02196406846028684 0.057926842872405578 0 0.021874503279291375 0.057910769433079545 0 0.021918111832343656 0.057935914535011138 0 0.021989376749021176 0.057936927203280829 0 0.02196406846028684 0.057926842872405578 0 0.019995927771846198 0.058501255175569367 0 0.021514368216836433 0.057520602078267841 0 0.014506423849653378 0.058765249597311824 0 0.012997602854626073 0.059802096982069987 0 0.013446573162701453 0.057795268888082875 0 0.011758878018261729 0.058168845874012498 0 0.01519334224890327 0.057693754242455826 0 0.012044051748949335 0.058147017537234967 0 0.012997602854626073 0.059802096982069987 0 0.013446573162701453 0.057795268888082875 0 0.012044051748949335 0.058147017537234967 0 0.013446573162701453 0.057795268888082875 0 0.013328352288100339 0.056357399612894224 0 0.01542451843042935 0.056965051379310468 0 0.014506423849653378 0.058765249597311824 0 0.013446573162701453 0.057795268888082875 0 0.018843832540225335 0.056903491665733427 0 0.019995927771846198 0.058501255175569367 0 0.01542451843042935 0.056965051379310468 0 0.013446573162701453 0.057795268888082875 0 0.013328352288100339 0.056357399612894224 0 0.01542451843042935 0.056965051379310468 0 0.015122665578409003 0.055585762387845426 0 0.013328352288100339 0.056357399612894224 0 0.013328352288100339 0.056357399612894224 0 0.012179443942056558 0.055212229797878015 0 0.014180329651904494 0.054348366691809258 0 0.015122665578409003 0.055585762387845426 0 0.013328352288100339 0.056357399612894224 0 0.014180329651904494 0.054348366691809258 0 0.0093689561169240255 0.055856321968704457 0 0.009898001716125468 0.057739812449942793 0 0.011065368824932595 0.056438783149131221 0 0.012044051748949335 0.058147017537234967 0 0.013328352288100339 0.056357399612894224 0 0.011065368824932595 0.056438783149131221 0 0.013328352288100339 0.056357399612894224 0 0.011065368824932595 0.056438783149131221 0 0.012179443942056558 0.055212229797878015 0 0.011065368824932595 0.056438783149131221 0 0.012179443942056558 0.055212229797878015 0 0.010655557188135656 0.054772356733862181 0 0.0085662665525591698 0.057466926322427697 0 0.0098008376214462241 0.056229589838382464 0 0.0071200372451746818 0.059323510963041559 0 0.0089105182593639341 0.057962174445447566 0 0.0075955445435370436 0.058636499378274795 0 0.0093689561169240255 0.055856321968704457 0 0.011065368824932595 0.056438783149131221 0 0.010655557188135656 0.054772356733862181 0 0.006274884277469913 0.062328440343182009 0 0.0062821474808328493 0.059792206660648835 0 0.0088316344066842103 0.060178320824937119 0 0.0089105182593639341 0.057962174445447566 0 0.0075955445435370436 0.058636499378274795 0 0.0098465765281728727 0.056741473433540343 0 0.0069705177000537952 0.060803571991622167 0 0.0095559105162782969 0.058495342692916764 0 0.0098008376214462241 0.056229589838382464 0 0.011774563628835477 0.056920287023338317 0 0.0089105182593639341 0.057962174445447566 0 0.010684673904825368 0.056590955154479164 0 0.0098465765281728727 0.056741473433540343 0 0.012179443942056558 0.055212229797878015 0 0.010655557188135656 0.054772356733862181 0 0.012032140596988983 0.053645532059012131 0 0.011984437493843874 0.058092154342101771 0 0.01174080803379024 0.057999010326844437 0 0.012421982966504829 0.057745463610916287 0 0.010684673904825368 0.056590955154479164 0 0.010225922441621613 0.056413656508902739 0 0.0098465765281728727 0.056741473433540343 0 0.011774563628835477 0.056920287023338317 0 0.010491959018500807 0.058072198575215922 0 0.010491959018500807 0.058072198575215922 0 0.0095559105162782969 0.058495342692916764 0 0.0092363391771271772 0.059880222249360314 0 0.0088316344066842103 0.060178320824937119 0 0.009195065497631303 0.057025407440711703 0 0.0092363391771271772 0.059880222249360314 0 0.011200543593143703 0.05842161922709721 0 0.009195065497631303 0.057025407440711703 0 0.0088316344066842103 0.060178320824937119 0 0.0065944844365768236 0.05768758819508718 0 0.009195065497631303 0.057025407440711703 0 0.0062821474808328493 0.059792206660648835 0 0.0088316344066842103 0.060178320824937119 0 0.0065944844365768236 0.05768758819508718 0 0.014358245802874635 0.057584259677058505 0 0.013414364713264286 0.058568744910501423 0 0.013246146760416062 0.057773026955208466 0 0.013414364713264286 0.058568744910501423 0 0.012421982966504829 0.057745463610916287 0 0.013246146760416062 0.057773026955208466 0 0.012179443942056558 0.055212229797878015 0 0.012032140596988983 0.053645532059012131 0 0.014180329651904494 0.054348366691809258 0 0.011990443758767127 0.058088881472053683 0 0.013414364713264286 0.058568744910501423 0 0.012421982966504829 0.057745463610916287 0 0.011774563628835477 0.056920287023338317 0 0.013434488763288352 0.056104610283431507 0 0.011774563628835477 0.056920287023338317 0 0.011984289518997538 0.057521478917348309 0 0.01174080803379024 0.057999010326844437 0 0.012421982966504829 0.057745463610916287 0 0.012721120721748693 0.057149694352344509 0 0.010491959018500807 0.058072198575215922 0 0.011916997044312276 0.057864738623256778 0 0.012421982966504829 0.057745463610916287 0 0.012721120721748693 0.057149694352344509 0 0.013246146760416062 0.057773026955208466 0 0.014358245802874635 0.057584259677058505 0 0.013246146760416062 0.057773026955208466 0 0.013880744356488237 0.056128827469029516 0 0.012721120721748693 0.057149694352344509 0 0.013246146760416062 0.057773026955208466 0 0.013880744356488237 0.056128827469029516 0 0.011200543593143703 0.05842161922709721 0 0.013464380645651473 0.056637279819313394 0 0.011404635232981925 0.056397145783935246 0 0.011916997044312276 0.057864738623256778 0 0.013713645919028976 0.056481407278506778 0 0.011200543593143703 0.05842161922709721 0 0.011404635232981925 0.056397145783935246 0 0.009195065497631303 0.057025407440711703 0 0.011404635232981925 0.056397145783935246 0 0.009195065497631303 0.057025407440711703 0 0.010184878185046627 0.054999852973486772 0 0.011404635232981925 0.056397145783935246 0 0.013047723028089448 0.054999822618146711 0 0.010184878185046627 0.054999852973486772 0 0.013713645919028976 0.056481407278506778 0 0.013048386675674612 0.055000597893174574 0 0.014233918556228253 0.056274256983635376 0 0.013669984266964729 0.056776419506616806 0 0.013048365237775946 0.054999958138068197 0 0.013464380645651473 0.056637279819313394 0 0.011404635232981925 0.056397145783935246 0 0.013047723028089448 0.054999822618146711 0 0.0065944844365768236 0.05768758819508718 0 0.009195065497631303 0.057025407440711703 0 0.0073213457496579927 0.054999620376506041 0 0.009195065497631303 0.057025407440711703 0 0.010184878185046627 0.054999852973486772 0 0.0073213457496579927 0.054999620376506041 0 0.0073213457496579927 0.054999620376506041 0 0.005516204727636414 0.056212518639179483 0 0.0044579153341328713 0.05499971003192549 0 0.0065944844365768236 0.05768758819508718 0 0.0073213457496579927 0.054999620376506041 0 0.005516204727636414 0.056212518639179483 0 0.005516204727636414 0.056212518639179483 0 0.0044579153341328713 0.05499971003192549 0 0.0037314731572189036 0.057258983637265448 0 0.0044579153341328713 0.05499971003192549 0 0.0037314731572189036 0.057258983637265448 0 0.0013118660556834564 0.056882617122814928 0 0.0065944844365768236 0.05768758819508718 0 0.005516204727636414 0.056212518639179483 0 0.0037314731572189036 0.057258983637265448 0 0.0062821474808328493 0.059792206660648835 0 0.0065944844365768236 0.05768758819508718 0 0.0033354633654485138 0.059473054018606183 0 0.0065944844365768236 0.05768758819508718 0 0.0037314731572189036 0.057258983637265448 0 0.0033354633654485138 0.059473054018606183 0 0.0037314731572189036 0.057258983637265448 0 0.0033354633654485138 0.059473054018606183 0 0.0018508259676773711 0.058473457657365766 0 0.0028375551471416269 0.06139261907016675 0 0.0031659878110460908 0.059383062003072855 0 0.0033354633654485138 0.059473054018606183 0 0.0018012744411449054 0.059613741403212642 0 0.0018508259676773711 0.058473457657365766 0 0.0020804085062556981 0.05994135945039214 0 0.0033354633654485138 0.059473054018606183 0 0.0018012744411449054 0.059613741403212642 0 0.003517558671672528 0.062187079389096872 0 0.0062821474808328493 0.059792206660648835 0 0.0033354633654485138 0.059473054018606183 0 -0.00020571588561770469 0.058840399283695353 0 0.00076944195756321844 0.059069454785902663 0 0.00042882338383346252 0.058103997514866002 0 -5.8723760629301196e-05 0.059529711013160368 0 -0.00020571588561770469 0.058840399283695353 0 -0.00093831251077201318 0.059333119616573449 0 0.00067473917736543825 0.059781243718784453 0 -5.8723760629301196e-05 0.059529711013160368 0 0.00076944195756321844 0.059069454785902663 0 -5.8723760629301196e-05 0.059529711013160368 0 -0.00020571588561770469 0.058840399283695353 0 0.00076944195756321844 0.059069454785902663 0 0.0018012744411449054 0.059613741403212642 0 0.00076944195756321844 0.059069454785902663 0 0.0018508259676773711 0.058473457657365766 0 0.00067473917736543825 0.059781243718784453 0 0.0018012744411449054 0.059613741403212642 0 0.00076944195756321844 0.059069454785902663 0 0.00076944195756321844 0.059069454785902663 0 0.0018508259676773711 0.058473457657365766 0 0.00042882338383346252 0.058103997514866002 0 0.0018508259676773711 0.058473457657365766 0 0.00042882338383346252 0.058103997514866002 0 0.0013118660556834564 0.056882617122814928 0 -0.00020571588561770469 0.058840399283695353 0 0.00042882338383346252 0.058103997514866002 0 -0.0010300962686742242 0.058222412808921598 0 0.00042882338383346252 0.058103997514866002 0 -0.00078253635652819685 0.057142918129545306 0 -0.0010300962686742242 0.058222412808921598 0 0.0011580652428201269 0.056832022961888898 0 -0.0013171013476911545 0.055891736189832626 0 0.00042882338383346252 0.058103997514866002 0 0.0013118660556834564 0.056882617122814928 0 -0.00078253635652819685 0.057142918129545306 0 0.0013118660556834564 0.056882617122814928 0 -0.0015336994745359536 0.055562432821714622 0 -0.00078253635652819685 0.057142918129545306 0 0.0037314731572189036 0.057258983637265448 0 0.0018508259676773711 0.058473457657365766 0 0.0013118660556834564 0.056882617122814928 0 0.0044579153341328713 0.05499971003192549 0 0.0013118660556834564 0.056882617122814928 0 0.0015949062671454857 0.054999737238549333 0 0.0013118660556834564 0.056882617122814928 0 0.0015949062671454857 0.054999737238549333 0 -0.0011525791908723491 0.056171938740045731 0 0.0015949062671454857 0.054999737238549333 0 -0.0011525791908723491 0.056171938740045731 0 -0.001267532712158444 0.054999903319939016 0 -0.0015336994745359536 0.055562432821714622 0 -0.0029876854118400819 0.056220358885881165 0 -0.0041308418165276898 0.054999093780165903 0 -0.0013171013476911545 0.055891736189832626 0 -0.0041305034040292309 0.055000109770651902 0 -0.0011525791908723491 0.056171938740045731 0 -0.001267532712158444 0.054999903319939016 0 -0.0041311342417501918 0.055000046596219487 0 -0.0015336994745359536 0.055562432821714622 0 -0.0020268605624784576 0.056591906062879685 0 -0.0029876854118400819 0.056220358885881165 0 -0.0020268605624784576 0.056591906062879685 0 -0.0029876854118400819 0.056220358885881165 0 -0.0028274825235436252 0.057118762343488921 0 -0.0020268605624784576 0.056591906062879685 0 -0.0028274825235436252 0.057118762343488921 0 -0.0017609390412177928 0.057384519228672853 0 -0.0020268605624784576 0.056591906062879685 0 -0.00078253635652819685 0.057142918129545306 0 -0.0017609390412177928 0.057384519228672853 0 -0.0015336994745359536 0.055562432821714622 0 -0.0020268605624784576 0.056591906062879685 0 -0.00078253635652819685 0.057142918129545306 0 -0.005416396476577481 0.056039131771617422 0 -0.0071924855411987405 0.057328454221849991 0 -0.0072390122124797911 0.054999801617620678 0 -0.005416396476577481 0.056039131771617422 0 -0.0041308418165276898 0.054999093780165903 0 -0.0072390122124797911 0.054999801617620678 0 -0.0029876854118400819 0.056220358885881165 0 -0.005416396476577481 0.056039131771617422 0 -0.0041308418165276898 0.054999093780165903 0 -0.0029876854118400819 0.056220358885881165 0 -0.005416396476577481 0.056039131771617422 0 -0.0041536732785184549 0.05681751640064054 0 -0.0029876854118400819 0.056220358885881165 0 -0.0028274825235436252 0.057118762343488921 0 -0.0041536732785184549 0.05681751640064054 0 -0.005416396476577481 0.056039131771617422 0 -0.0041536732785184549 0.05681751640064054 0 -0.0071924855411987405 0.057328454221849991 0 -0.0041536732785184549 0.05681751640064054 0 -0.005814171525121749 0.057297501972939771 0 -0.0070601025951774988 0.055313467704355343 0 -0.004438478043677206 0.056752739239978388 0 -0.0071494962346529845 0.056338772088289323 0 -0.0041536732785184549 0.05681751640064054 0 -0.005814171525121749 0.057297501972939771 0 -0.0044865296165515298 0.057751875444765399 0 -0.0053856811814457384 0.058072210065311339 0 -0.005814171525121749 0.057297501972939771 0 -0.0044865296165515298 0.057751875444765399 0 -0.0053856811814457384 0.058072210065311339 0 -0.0044865296165515298 0.057751875444765399 0 -0.0043672121778258154 0.058369630929576692 0 -0.0044865296165515298 0.057751875444765399 0 -0.0039225479610841768 0.058217191562462169 0 -0.0043672121778258154 0.058369630929576692 0 -0.0044865296165515298 0.057751875444765399 0 -0.0039225479610841768 0.058217191562462169 0 -0.0034968507926527812 0.057733339628769163 0 -0.0041536732785184549 0.05681751640064054 0 -0.0044865296165515298 0.057751875444765399 0 -0.0034968507926527812 0.057733339628769163 0 -0.0028274825235436252 0.057118762343488921 0 -0.0041536732785184549 0.05681751640064054 0 -0.0034968507926527812 0.057733339628769163 0 -0.0039225479610841768 0.058217191562462169 0 -0.0034968507926527812 0.057733339628769163 0 -0.0032193991191793218 0.058419570061333644 0 -0.0032193991191793218 0.058419570061333644 0 -0.0031630343062438093 0.05898761277976259 0 -0.0037678831198976171 0.05871738199626745 0 -0.0037678831198976171 0.05871738199626745 0 -0.0042601888498273732 0.05895720328841874 0 -0.0036609363391585273 0.059223927435666977 0 -0.0031630343062438093 0.05898761277976259 0 -0.0037678831198976171 0.05871738199626745 0 -0.0036609363391585273 0.059223927435666977 0 -0.0039225479610841768 0.058217191562462169 0 -0.0032193991191793218 0.058419570061333644 0 -0.0037678831198976171 0.05871738199626745 0 -0.0039225479610841768 0.058217191562462169 0 -0.0037678831198976171 0.05871738199626745 0 -0.0043672121778258154 0.058369630929576692 0 -0.0058475610518401964 0.05735281634799709 0 -0.006350026550790212 0.059367803475234321 0 -0.0053856811814457384 0.058072210065311339 0 -0.005814171525121749 0.057297501972939771 0 -0.0056308862996798338 0.059348449252364835 0 -0.0052132591207501473 0.058157430916090762 0 -0.0049074633559938498 0.059655319363986992 0 -0.0053856811814457384 0.058072210065311339 0 -0.0042601888498273732 0.05895720328841874 0 -0.0042706923095490448 0.059583052532268033 0 -0.0053856811814457384 0.058072210065311339 0 -0.0054502127168062492 0.059928447277959818 0 -0.0056308862996798338 0.059348449252364835 0 -0.0053856811814457384 0.058072210065311339 0 -0.0043672121778258154 0.058369630929576692 0 -0.0042601888498273732 0.05895720328841874 0 -0.0037678831198976171 0.05871738199626745 0 -0.0043672121778258154 0.058369630929576692 0 -0.0042601888498273732 0.05895720328841874 0 -0.0010300962686742242 0.058222412808921598 0 -0.0017609390412177928 0.057384519228672853 0 -0.0024202167699856284 0.058044274760159505 0 -0.0010300962686742242 0.058222412808921598 0 -0.0024202167699856284 0.058044274760159505 0 -0.0017753292648650108 0.058853983495496281 0 -0.00078253635652819685 0.057142918129545306 0 -0.0010300962686742242 0.058222412808921598 0 -0.0017609390412177928 0.057384519228672853 0 -0.0028274825235436252 0.057118762343488921 0 -0.0017609390412177928 0.057384519228672853 0 -0.0024202167699856284 0.058044274760159505 0 -0.0028274825235436252 0.057118762343488921 0 -0.0034968507926527812 0.057733339628769163 0 -0.0024202167699856284 0.058044274760159505 0 -0.0034968507926527812 0.057733339628769163 0 -0.0032193991191793218 0.058419570061333644 0 -0.0024202167699856284 0.058044274760159505 0 -0.0024202167699856284 0.058044274760159505 0 -0.0025509870749934019 0.058710994798787337 0 -0.0017753292648650108 0.058853983495496281 0 -0.0032193991191793218 0.058419570061333644 0 -0.0024202167699856284 0.058044274760159505 0 -0.0025509870749934019 0.058710994798787337 0 -0.0032193991191793218 0.058419570061333644 0 -0.0031630343062438093 0.05898761277976259 0 -0.0025509870749934019 0.058710994798787337 0 -0.0031630343062438093 0.05898761277976259 0 -0.0025509870749934019 0.058710994798787337 0 -0.0026656600950466392 0.059317988483310539 0 -0.0025509870749934019 0.058710994798787337 0 -0.0021449564558028013 0.05916452770584469 0 -0.0026656600950466392 0.059317988483310539 0 -0.0021449564558028013 0.05916452770584469 0 -0.0017753292648650108 0.058853983495496281 0 -0.001620237500576894 0.059461264170093689 0 -0.0025509870749934019 0.058710994798787337 0 -0.0021449564558028013 0.05916452770584469 0 -0.0017753292648650108 0.058853983495496281 0 -0.00020571588561770469 0.058840399283695353 0 -0.0010300962686742242 0.058222412808921598 0 -0.00093831251077201318 0.059333119616573449 0 -0.0010300962686742242 0.058222412808921598 0 -0.0017753292648650108 0.058853983495496281 0 -0.00093831251077201318 0.059333119616573449 0 -0.0017753292648650108 0.058853983495496281 0 -0.00093831251077201318 0.059333119616573449 0 -0.001620237500576894 0.059461264170093689 0 -0.00093831251077201318 0.059333119616573449 0 -0.001620237500576894 0.059461264170093689 0 -0.00121624420344173 0.059807514077563656 0 -0.0017562088626089259 0.059813776707921179 0 -0.00121624420344173 0.059807514077563656 0 -0.0015188331613062449 0.060016991897429262 0 -0.001620237500576894 0.059461264170093689 0 -0.0017562088626089259 0.059813776707921179 0 -0.0021753582424420669 0.059566667999409934 0 -0.001620237500576894 0.059461264170093689 0 -0.0017562088626089259 0.059813776707921179 0 -0.00121624420344173 0.059807514077563656 0 -0.00049554143387748868 0.059925830801451155 0 -0.00093831251077201318 0.059333119616573449 0 -0.00121624420344173 0.059807514077563656 0 -0.00097043650830395403 0.060179255167513067 0 -0.00121624420344173 0.059807514077563656 0 -0.0015188331613062449 0.060016991897429262 0 -0.00097043650830395403 0.060179255167513067 0 -0.0015188331613062449 0.060016991897429262 0 -0.0015776452037508228 0.060224341037858821 0 -0.0017562088626089259 0.059813776707921179 0 -0.0015188331613062449 0.060016991897429262 0 -0.0019620577291188158 0.060051420124364416 0 -0.0015188331613062449 0.060016991897429262 0 -0.0015776452037508228 0.060224341037858821 0 -0.0019620577291188158 0.060051420124364416 0 -0.0015776452037508228 0.060224341037858821 0 -0.002068421116737195 0.060237779294676046 0 -0.0019620577291188158 0.060051420124364416 0 -0.0015776452037508228 0.060224341037858821 0 -0.002068421116737195 0.060237779294676046 0 -0.0017796795854568338 0.060352729224639468 0 -0.0015776452037508228 0.060224341037858821 0 -0.0014026572771290956 0.060401346095813262 0 -0.0017796795854568338 0.060352729224639468 0 -0.00097043650830395403 0.060179255167513067 0 -0.00097459814944211539 0.060476029831920138 0 -0.0014026572771290956 0.060401346095813262 0 -0.00097043650830395403 0.060179255167513067 0 -0.0015776452037508228 0.060224341037858821 0 -0.0014026572771290956 0.060401346095813262 0 -0.0023884958097943835 0.060099425925642505 0 -0.0027573670257292127 0.060144829614543573 0 -0.0024765082972739117 0.060267944933790431 0 -0.0023884958097943835 0.060099425925642505 0 -0.002068421116737195 0.060237779294676046 0 -0.0024765082972739117 0.060267944933790431 0 -0.0023884958097943835 0.060099425925642505 0 -0.002068421116737195 0.060237779294676046 0 -0.0019620577291188158 0.060051420124364416 0 -0.0017562088626089259 0.059813776707921179 0 -0.0019620577291188158 0.060051420124364416 0 -0.0022977925780815296 0.059874587091459715 0 -0.0023884958097943835 0.060099425925642505 0 -0.0019620577291188158 0.060051420124364416 0 -0.0022977925780815296 0.059874587091459715 0 -0.0023884958097943835 0.060099425925642505 0 -0.002734538069716672 0.059949503472645778 0 -0.0022977925780815296 0.059874587091459715 0 -0.0023884958097943835 0.060099425925642505 0 -0.002734538069716672 0.059949503472645778 0 -0.0027573670257292127 0.060144829614543573 0 -0.0026762885114850993 0.059670595107720222 0 -0.0022977925780815296 0.059874587091459715 0 -0.0021753582424420669 0.059566667999409934 0 -0.002734538069716672 0.059949503472645778 0 -0.0026762885114850993 0.059670595107720222 0 -0.0022977925780815296 0.059874587091459715 0 -0.0017562088626089259 0.059813776707921179 0 -0.0022977925780815296 0.059874587091459715 0 -0.0021753582424420669 0.059566667999409934 0 -0.0021449564558028013 0.05916452770584469 0 -0.0021753582424420669 0.059566667999409934 0 -0.0026656600950466392 0.059317988483310539 0 -0.0021449564558028013 0.05916452770584469 0 -0.001620237500576894 0.059461264170093689 0 -0.0021753582424420669 0.059566667999409934 0 -0.0026762885114850993 0.059670595107720222 0 -0.0021753582424420669 0.059566667999409934 0 -0.0026656600950466392 0.059317988483310539 0 -0.0026762885114850993 0.059670595107720222 0 -0.0026656600950466392 0.059317988483310539 0 -0.0031231778621638546 0.059444449103643701 0 -0.0031630343062438093 0.05898761277976259 0 -0.0026656600950466392 0.059317988483310539 0 -0.0031231778621638546 0.059444449103643701 0 -0.0031630343062438093 0.05898761277976259 0 -0.0031231778621638546 0.059444449103643701 0 -0.0036609363391585273 0.059223927435666977 0 -0.0031231778621638546 0.059444449103643701 0 -0.0036609363391585273 0.059223927435666977 0 -0.0035371967811905292 0.059596333954513088 0 -0.0036609363391585273 0.059223927435666977 0 -0.0035371967811905292 0.059596333954513088 0 -0.003973585523765288 0.059453757496847504 0 -0.0035371967811905292 0.059596333954513088 0 -0.003104294612925506 0.059780288457717025 0 -0.0034376858911931317 0.059878510127524806 0 -0.0031231778621638546 0.059444449103643701 0 -0.0035371967811905292 0.059596333954513088 0 -0.003104294612925506 0.059780288457717025 0 -0.002734538069716672 0.059949503472645778 0 -0.0026762885114850993 0.059670595107720222 0 -0.003104294612925506 0.059780288457717025 0 -0.0026762885114850993 0.059670595107720222 0 -0.0031231778621638546 0.059444449103643701 0 -0.003104294612925506 0.059780288457717025 0 -0.0042601888498273732 0.05895720328841874 0 -0.0036609363391585273 0.059223927435666977 0 -0.003973585523765288 0.059453757496847504 0 -0.0042601888498273732 0.05895720328841874 0 -0.0042706923095490448 0.059583052532268033 0 -0.003973585523765288 0.059453757496847504 0 -0.0035371967811905292 0.059596333954513088 0 -0.0038588212529735958 0.059768716098137942 0 -0.0034376858911931317 0.059878510127524806 0 -0.0035371967811905292 0.059596333954513088 0 -0.003973585523765288 0.059453757496847504 0 -0.0038588212529735958 0.059768716098137942 0 -0.0042706923095490448 0.059583052532268033 0 -0.003973585523765288 0.059453757496847504 0 -0.0038588212529735958 0.059768716098137942 0 -0.0042706923095490448 0.059583052532268033 0 -0.0038588212529735958 0.059768716098137942 0 -0.0035868898883999753 0.060149261163488295 0 -0.0038588212529735958 0.059768716098137942 0 -0.0035993255774348148 0.059977415749898649 0 -0.0035868898883999753 0.060149261163488295 0 -0.0035993255774348148 0.059977415749898649 0 -0.0033250610928021117 0.060070567684507158 0 -0.0034376858911931317 0.059878510127524806 0 -0.0038588212529735958 0.059768716098137942 0 -0.0035993255774348148 0.059977415749898649 0 -0.0034376858911931317 0.059878510127524806 0 -0.0035993255774348148 0.059977415749898649 0 -0.0033250610928021117 0.060070567684507158 0 -0.003466690039404374 0.060116251645541408 0 -0.0033250610928021117 0.060070567684507158 0 -0.003466690039404374 0.060116251645541408 0 -0.0032637411246207071 0.060190348849913686 0 -0.0035993255774348148 0.059977415749898649 0 -0.003466690039404374 0.060116251645541408 0 -0.0035868898883999753 0.060149261163488295 0 -0.002734538069716672 0.059949503472645778 0 -0.003104294612925506 0.059780288457717025 0 -0.0030539427667064063 0.060010664509994642 0 -0.002734538069716672 0.059949503472645778 0 -0.0030539427667064063 0.060010664509994642 0 -0.0027573670257292127 0.060144829614543573 0 -0.0033250610928021117 0.060070567684507158 0 -0.0030539427667064063 0.060010664509994642 0 -0.0034376858911931317 0.059878510127524806 0 -0.003104294612925506 0.059780288457717025 0 -0.0030539427667064063 0.060010664509994642 0 -0.0034376858911931317 0.059878510127524806 0 -0.0033250610928021117 0.060070567684507158 0 -0.0030539427667064063 0.060010664509994642 0 -0.0030413544065732074 0.060175665299395796 0 -0.0033250610928021117 0.060070567684507158 0 -0.0030413544065732074 0.060175665299395796 0 -0.0032637411246207071 0.060190348849913686 0 -0.0030539427667064063 0.060010664509994642 0 -0.0030413544065732074 0.060175665299395796 0 -0.0027573670257292127 0.060144829614543573 0 -0.0030413544065732074 0.060175665299395796 0 -0.0027573670257292127 0.060144829614543573 0 -0.0027451357281855289 0.060282186113880858 0 -0.0030413544065732074 0.060175665299395796 0 -0.0027451357281855289 0.060282186113880858 0 -0.0030062512556443266 0.060262217205293435 0 -0.0030413544065732074 0.060175665299395796 0 -0.0030062512556443266 0.060262217205293435 0 -0.0032637411246207071 0.060190348849913686 0 -0.0030062512556443266 0.060262217205293435 0 -0.0032267804097690445 0.06023534900395075 0 -0.0029869947798807409 0.060263321579211056 0 -0.0027451357281855289 0.060282186113880858 0 -0.0030062512556443266 0.060262217205293435 0 -0.002707860673951562 0.060328791887850584 0 -0.0033847993651796903 0.060184679161342271 0 -0.0033409099179275959 0.06021320643599528 0 -0.0035868898883999753 0.060149261163488295 0 -0.003466690039404374 0.060116251645541408 0 -0.0033847993651796903 0.060184679161342271 0 -0.0035868898883999753 0.060149261163488295 0 -0.0033847993651796903 0.060184679161342271 0 -0.0032637411246207071 0.060190348849913686 0 -0.0032267804097690445 0.06023534900395075 0 -0.003466690039404374 0.060116251645541408 0 -0.0033847993651796903 0.060184679161342271 0 -0.0032637411246207071 0.060190348849913686 0 -0.0030062512556443266 0.060262217205293435 0 -0.0032637411246207071 0.060190348849913686 0 -0.0032267804097690445 0.06023534900395075 0 -0.0033847993651796903 0.060184679161342271 0 -0.0032267804097690445 0.06023534900395075 0 -0.0033409099179275959 0.06021320643599528 0 -0.0032267804097690445 0.06023534900395075 0 -0.0033409099179275959 0.06021320643599528 0 -0.0032356339706296664 0.060229501261381234 0 -0.0032267804097690445 0.06023534900395075 0 -0.0032356339706296664 0.060229501261381234 0 -0.0031638225588082039 0.060217912252215081 0 -0.0032356339706296664 0.060229501261381234 0 -0.0031638225588082039 0.060217912252215081 0 -0.0031912839900379566 0.060192749836148134 0 -0.0032267804097690445 0.06023534900395075 0 -0.0031638225588082039 0.060217912252215081 0 -0.0029869947798807409 0.060263321579211056 0 -0.0031638225588082039 0.060217912252215081 0 -0.003157194431598414 0.060149202343497313 0 -0.0030547199524755906 0.06015722787829815 0 -0.0031638225588082039 0.060217912252215081 0 -0.0029869947798807409 0.060263321579211056 0 -0.0030547199524755906 0.06015722787829815 0 -0.003157194431598414 0.060149202343497313 0 -0.0031912839900379566 0.060192749836148134 0 -0.0031627601355594119 0.060108178974156982 0 -0.0031638225588082039 0.060217912252215081 0 -0.003157194431598414 0.060149202343497313 0 -0.0031912839900379566 0.060192749836148134 0 -0.002707860673951562 0.060328791887850584 0 -0.0029869947798807409 0.060263321579211056 0 -0.0027690434104378249 0.06021519476714389 0 -0.0030062512556443266 0.060262217205293435 0 -0.002707860673951562 0.060328791887850584 0 -0.0029869947798807409 0.060263321579211056 0 -0.0029869947798807409 0.060263321579211056 0 -0.0030547199524755906 0.06015722787829815 0 -0.0027690434104378249 0.06021519476714389 0 -0.002707860673951562 0.060328791887850584 0 -0.0027690434104378249 0.06021519476714389 0 -0.0024051217226880163 0.060392925237046445 0 -0.0027690434104378249 0.06021519476714389 0 -0.0024051217226880163 0.060392925237046445 0 -0.0023841427496044789 0.060242906247059816 0 -0.0024051217226880163 0.060392925237046445 0 -0.0019772256626997757 0.06055809505161449 0 -0.0023841427496044789 0.060242906247059816 0 -0.002707860673951562 0.060328791887850584 0 -0.0024051217226880163 0.060392925237046445 0 -0.0024656496760974401 0.060376186211420532 0 -0.0024051217226880163 0.060392925237046445 0 -0.0020880236590951448 0.060502302049717814 0 -0.0024656496760974401 0.060376186211420532 0 -0.0024051217226880163 0.060392925237046445 0 -0.0019772256626997757 0.06055809505161449 0 -0.0020880236590951448 0.060502302049717814 0 -0.0011254275669841181 0.061051709771455499 0 -0.0019772256626997757 0.06055809505161449 0 -0.0022347528326186797 0.060247649401292465 0 -0.0014332528841491524 0.060791483088039361 0 -0.0019772256626997757 0.06055809505161449 0 -0.001711037704597855 0.060622700790289884 0 -0.0013091056513376003 0.060706473608137107 0 -0.0014332528841491524 0.060791483088039361 0 -0.001711037704597855 0.060622700790289884 0 -0.0019772256626997757 0.06055809505161449 0 -0.0020880236590951448 0.060502302049717814 0 -0.001711037704597855 0.060622700790289884 0 -0.0020880236590951448 0.060502302049717814 0 -0.0017943913647972198 0.06048349729208774 0 -0.0021507005782740391 0.060362282335918629 0 -0.0020880236590951448 0.060502302049717814 0 -0.001711037704597855 0.060622700790289884 0 -0.0017943913647972198 0.06048349729208774 0 -0.001711037704597855 0.060622700790289884 0 -0.0014106567219234251 0.060567799205611367 0 -0.0017943913647972198 0.06048349729208774 0 -0.0013091056513376003 0.060706473608137107 0 -0.001711037704597855 0.060622700790289884 0 -0.0014106567219234251 0.060567799205611367 0 -0.0014106567219234251 0.060567799205611367 0 -0.0014026572771290956 0.060401346095813262 0 -0.0017943913647972198 0.06048349729208774 0 -0.00097459814944211539 0.060476029831920138 0 -0.0014106567219234251 0.060567799205611367 0 -0.0014026572771290956 0.060401346095813262 0 -0.0017943913647972198 0.06048349729208774 0 -0.0017796795854568338 0.060352729224639468 0 -0.0021507005782740391 0.060362282335918629 0 -0.0014026572771290956 0.060401346095813262 0 -0.0017943913647972198 0.06048349729208774 0 -0.0017796795854568338 0.060352729224639468 0 -0.002068421116737195 0.060237779294676046 0 -0.0021507005782740391 0.060362282335918629 0 -0.0024765082972739117 0.060267944933790431 0 -0.0021507005782740391 0.060362282335918629 0 -0.0024765082972739117 0.060267944933790431 0 -0.0024656496760974401 0.060376186211420532 0 -0.002068421116737195 0.060237779294676046 0 -0.0017796795854568338 0.060352729224639468 0 -0.0021507005782740391 0.060362282335918629 0 -0.0027451357281855289 0.060282186113880858 0 -0.0024765082972739117 0.060267944933790431 0 -0.0024656496760974401 0.060376186211420532 0 -0.0027573670257292127 0.060144829614543573 0 -0.0027451357281855289 0.060282186113880858 0 -0.0024765082972739117 0.060267944933790431 0 -0.0027451357281855289 0.060282186113880858 0 -0.002707860673951562 0.060328791887850584 0 -0.0024656496760974401 0.060376186211420532 0 -0.0020880236590951448 0.060502302049717814 0 -0.0021507005782740391 0.060362282335918629 0 -0.0024656496760974401 0.060376186211420532 0 -0.014987165704648343 0.058236450880091196 0 -0.01505047677545129 0.058153805543522216 0 -0.014951557017937546 0.058167838520837414 0 -0.012755799270798011 0.06140269728063983 0 -0.013405707958286902 0.06011083294058911 0 -0.014987165704648343 0.058236450880091196 0 -0.014951557017937546 0.058167838520837414 0 -0.014866343700817039 0.058380362511772026 0 -0.014987165704648343 0.058236450880091196 0 -0.0151633159138829 0.058116432108763272 0 -0.01488525635808925 0.058427553277283578 0 -0.014987165704648343 0.058236450880091196 0 -0.0151633159138829 0.058116432108763272 0 -0.01505047677545129 0.058153805543522216 0 -0.0151633159138829 0.058116432108763272 0 -0.01505047677545129 0.058153805543522216 0 -0.015166487699720038 0.058133071223016738 0 -0.01505047677545129 0.058153805543522216 0 -0.014981479433971762 0.058234210867723818 0 -0.015166487699720038 0.058133071223016738 0 -0.01505047677545129 0.058153805543522216 0 -0.014951557017937546 0.058167838520837414 0 -0.014981479433971762 0.058234210867723818 0 -0.012755799270798011 0.06140269728063983 0 -0.010925757468597306 0.061467052028477701 0 -0.014951557017937546 0.058167838520837414 0 -0.014718013794462772 0.058264740230346765 0 -0.014834435388605518 0.058261134210056492 0 -0.014951557017937546 0.058167838520837414 0 -0.014834435388605518 0.058261134210056492 0 -0.014981479433971762 0.058234210867723818 0 -0.0085540494090163999 0.064313088439843416 0 -0.010366305709364962 0.064362295904964339 0 -0.0090840801412300411 0.066457952669874726 0 -0.0031881970403562633 0.060243673535122839 0 -0.0031627601355594119 0.060108178974156982 0 -0.0031274148347292877 0.060069000912216508 0 -0.0060062826121153393 0.062089216665005338 0 -0.0061271003180146666 0.061807583353136047 0 -0.0063010461093425136 0.062493372730437806 0 -0.0071061745097701686 0.063581517132391505 0 -0.010925757468597306 0.061467052028477701 0 -0.0031912839900379566 0.060192749836148134 0 -0.0031881970403562633 0.060243673535122839 0 -0.0031627601355594119 0.060108178974156982 0 -0.0032356339706296664 0.060229501261381234 0 -0.0031912839900379566 0.060192749836148134 0 -0.0031881970403562633 0.060243673535122839 0 -0.0033409099179275959 0.06021320643599528 0 -0.0032356339706296664 0.060229501261381234 0 -0.0031881970403562633 0.060243673535122839 0 -0.0060062826121153393 0.062089216665005338 0 -0.0061271003180146666 0.061807583353136047 0 -0.005757013806189269 0.061225625980384994 0 -0.0033409099179275959 0.06021320643599528 0 -0.0031881970403562633 0.060243673535122839 0 -0.0035868898883999753 0.060149261163488295 0 -0.0044639885257456375 0.061349045583337682 0 -0.0046873887884076038 0.060605143918629797 0 -0.0085540494090163999 0.064313088439843416 0 -0.0095556561355772587 0.062860772343628316 0 -0.0078697609049588908 0.061926498340224505 0 -0.0061271003180146666 0.061807583353136047 0 -0.005757013806189269 0.061225625980384994 0 -0.0058916602017862882 0.060814863299547856 0 -0.0071061745097701686 0.063581517132391505 0 -0.0068879444999158119 0.061261390659199381 0 -0.010366305709364962 0.064362295904964339 0 -0.0095556561355772587 0.062860772343628316 0 -0.011977156285143191 0.062008850338923532 0 -0.0085540494090163999 0.064313088439843416 0 -0.010366305709364962 0.064362295904964339 0 -0.0095556561355772587 0.062860772343628316 0 -0.0095556561355772587 0.062860772343628316 0 -0.0092899117541865237 0.061542359701333683 0 -0.011977156285143191 0.062008850338923532 0 -0.0049074633559938498 0.059655319363986992 0 -0.0046873887884076038 0.060605143918629797 0 -0.0054502127168062492 0.059928447277959818 0 -0.005757013806189269 0.061225625980384994 0 -0.0058916602017862882 0.060814863299547856 0 -0.0095556561355772587 0.062860772343628316 0 -0.0092899117541865237 0.061542359701333683 0 -0.0078697609049588908 0.061926498340224505 0 -0.0054502127168062492 0.059928447277959818 0 -0.0058916602017862882 0.060814863299547856 0 -0.0056308862996798338 0.059348449252364835 0 -0.0078697609049588908 0.061926498340224505 0 -0.0084858408113490814 0.060475670043786532 0 -0.0071035898271547826 0.059505202975219343 0 -0.0084858408113490814 0.060475670043786532 0 -0.0071035898271547826 0.059505202975219343 0 -0.0089589729838038569 0.059072461110921015 0 -0.0068879444999158119 0.061261390659199381 0 -0.006350026550790212 0.059367803475234321 0 -0.0092899117541865237 0.061542359701333683 0 -0.0078697609049588908 0.061926498340224505 0 -0.0084858408113490814 0.060475670043786532 0 -0.0092899117541865237 0.061542359701333683 0 -0.0097826695989101358 0.060153047391478962 0 -0.011977156285143191 0.062008850338923532 0 -0.0092899117541865237 0.061542359701333683 0 -0.0084858408113490814 0.060475670043786532 0 -0.0097826695989101358 0.060153047391478962 0 -0.0084858408113490814 0.060475670043786532 0 -0.0097826695989101358 0.060153047391478962 0 -0.0089589729838038569 0.059072461110921015 0 -0.0097826695989101358 0.060153047391478962 0 -0.011977156285143191 0.062008850338923532 0 -0.011381021245907027 0.058447096178963619 0 -0.011977156285143191 0.062008850338923532 0 -0.013985333824946723 0.058761637510053151 0 -0.011381021245907027 0.058447096178963619 0 -0.014987165704648343 0.058236450880091196 0 -0.014866343700817039 0.058380362511772026 0 -0.01488525635808925 0.058427553277283578 0 -0.013405707958286902 0.06011083294058911 0 -0.014001828402239645 0.058839428512617351 0 -0.014866343700817039 0.058380362511772026 0 -0.013985333824946723 0.058761637510053151 0 -0.01488525635808925 0.058427553277283578 0 -0.013985333824946723 0.058761637510053151 0 -0.012341585987806351 0.056729809328006905 0 -0.014155843353389005 0.057417752198693738 0 -0.013985333824946723 0.058761637510053151 0 -0.014155843353389005 0.057417752198693738 0 -0.01481415809893853 0.05829786946922156 0 -0.013985333824946723 0.058761637510053151 0 -0.011381021245907027 0.058447096178963619 0 -0.012341585987806351 0.056729809328006905 0 -0.011381021245907027 0.058447096178963619 0 -0.012341585987806351 0.056729809328006905 0 -0.0095507303318316771 0.057589427261412161 0 -0.012341585987806351 0.056729809328006905 0 -0.014155843353389005 0.057417752198693738 0 -0.014761604676955439 0.056049225868320458 0 -0.0071035898271547826 0.059505202975219343 0 -0.0077281551453436551 0.058115345450384888 0 -0.0089589729838038569 0.059072461110921015 0 -0.005814171525121749 0.057297501972939771 0 -0.0071035898271547826 0.059505202975219343 0 -0.0077281551453436551 0.058115345450384888 0 -0.0077281551453436551 0.058115345450384888 0 -0.0089589729838038569 0.059072461110921015 0 -0.0095507303318316771 0.057589427261412161 0 -0.0097826695989101358 0.060153047391478962 0 -0.011381021245907027 0.058447096178963619 0 -0.0089589729838038569 0.059072461110921015 0 -0.011381021245907027 0.058447096178963619 0 -0.0089589729838038569 0.059072461110921015 0 -0.0095507303318316771 0.057589427261412161 0 -0.012341585987806351 0.056729809328006905 0 -0.0094967009753765212 0.056178185045633093 0 -0.0095507303318316771 0.057589427261412161 0 -0.0094967009753765212 0.056178185045633093 0 -0.0095507303318316771 0.057589427261412161 0 -0.0077538487765279121 0.056805318970769195 0 -0.0077281551453436551 0.058115345450384888 0 -0.0095507303318316771 0.057589427261412161 0 -0.0077538487765279121 0.056805318970769195 0 -0.005814171525121749 0.057297501972939771 0 -0.0077538487765279121 0.056805318970769195 0 -0.0070601025951774988 0.055313467704355343 0 -0.005814171525121749 0.057297501972939771 0 -0.0077281551453436551 0.058115345450384888 0 -0.0077538487765279121 0.056805318970769195 0 -0.0094967009753765212 0.056178185045633093 0 -0.0077538487765279121 0.056805318970769195 0 -0.0070601025951774988 0.055313467704355343 0 -0.0094967009753765212 0.056178185045633093 0 -0.0070601025951774988 0.055313467704355343 0 -0.010689810619859096 0.054781164144015362 0 -0.0071924855411987405 0.057328454221849991 0 -0.010142790658579919 0.05719471283383757 0 -0.0087176726785181003 0.056123877468369089 0 -0.0071494962346529845 0.056338772088289323 0 -0.010446929807639279 0.055996775417249574 0 -0.0087176726785181003 0.056123877468369089 0 -0.0072390122124797911 0.054999801617620678 0 -0.010347918166123628 0.054999912194156855 0 -0.010142790658579919 0.05719471283383757 0 -0.0087176726785181003 0.056123877468369089 0 -0.010347918166123628 0.054999912194156855 0 -0.0071924855411987405 0.057328454221849991 0 -0.0087176726785181003 0.056123877468369089 0 -0.0072390122124797911 0.054999801617620678 0 -0.012341585987806351 0.056729809328006905 0 -0.013456082422040093 0.054791673016443124 0 -0.014761604676955439 0.056049225868320458 0 -0.010142790658579919 0.05719471283383757 0 -0.012985191265795138 0.056896121673101346 0 -0.011465359159981248 0.056199772822188562 0 -0.012341585987806351 0.056729809328006905 0 -0.010689810619859096 0.054781164144015362 0 -0.013456082422040093 0.054791673016443124 0 -0.012341585987806351 0.056729809328006905 0 -0.0094967009753765212 0.056178185045633093 0 -0.010689810619859096 0.054781164144015362 0 -0.010446929807639279 0.055996775417249574 0 -0.01299736524926748 0.055846167487542155 0 -0.011465359159981248 0.056199772822188562 0 -0.010347918166123628 0.054999912194156855 0 -0.013456244312947591 0.055000099449712542 0 -0.010142790658579919 0.05719471283383757 0 -0.011465359159981248 0.056199772822188562 0 -0.010347918166123628 0.054999912194156855 0 -0.012985191265795138 0.056896121673101346 0 -0.011465359159981248 0.056199772822188562 0 -0.013456244312947591 0.055000099449712542 0 -0.012985191265795138 0.056896121673101346 0 -0.013456244312947591 0.055000099449712542 0 -0.015696220385928401 0.055937656340035599 0 -0.012985191265795138 0.056896121673101346 0 -0.015781888611964494 0.056596045818630036 0 -0.015696220385928401 0.055937656340035599 0 -0.013456244312947591 0.055000099449712542 0 -0.015696220385928401 0.055937656340035599 0 -0.016564870628435431 0.054999763717607911 0 -0.01299736524926748 0.055846167487542155 0 -0.016680870933305073 0.05570591524716751 0 -0.013456082422040093 0.054791673016443124 0 -0.014761604676955439 0.056049225868320458 0 -0.015726270898093666 0.054736121779946301 0 -0.016680870933305073 0.05570591524716751 0 -0.017794110773988746 0.056813854111422868 0 -0.014761604676955439 0.056049225868320458 0 -0.015726270898093666 0.054736121779946301 0 -0.015726382226673854 0.057138933885381285 0 -0.019574534429203389 0.056138913168066858 0 -0.019926493725362374 0.056359036711084123 0 -0.019651991877522621 0.056654926103286776 0 -0.015768148962407781 0.056678486701918787 0 -0.016564870628435431 0.054999763717607911 0 -0.019531403445509469 0.055982703516783486 0 -0.016680870933305073 0.05570591524716751 0 -0.016410234696952047 0.056002562199579518 0 -0.015768148962407781 0.056678486701918787 0 -0.015696220385928401 0.055937656340035599 0 -0.016564870628435431 0.054999763717607911 0 -0.016564870628435431 0.054999763717607911 0 -0.019674907360681119 0.054999748446506833 0 -0.019531403445509469 0.055982703516783486 0 -0.016680870933305073 0.05570591524716751 0 -0.019864999210488378 0.056197610948100357 0 -0.019674907360681119 0.054999748446506833 0 -0.019531403445509469 0.055982703516783486 0 -0.020920550492711628 0.055846760934831603 0 -0.019531403445509469 0.055982703516783486 0 -0.020920550492711628 0.055846760934831603 0 -0.020434414585123569 0.056299208509244407 0 -0.020434414585123569 0.056299208509244407 0 -0.020989258204014847 0.056754638528531132 0 -0.022413838636049128 0.056153910537191501 0 -0.020434414585123569 0.056299208509244407 0 -0.019926493725362374 0.056359036711084123 0 -0.020989258204014847 0.056754638528531132 0 -0.019574534429203389 0.056138913168066858 0 -0.019531403445509469 0.055982703516783486 0 -0.019926493725362374 0.056359036711084123 0 -0.019531403445509469 0.055982703516783486 0 -0.020434414585123569 0.056299208509244407 0 -0.019926493725362374 0.056359036711084123 0 -0.019926493725362374 0.056359036711084123 0 -0.020397549867559803 0.057029279684042762 0 -0.019651991877522621 0.056654926103286776 0 -0.019926493725362374 0.056359036711084123 0 -0.020989258204014847 0.056754638528531132 0 -0.020397549867559803 0.057029279684042762 0 -0.020989258204014847 0.056754638528531132 0 -0.021500251498207817 0.057261061474463165 0 -0.020397549867559803 0.057029279684042762 0 -0.01481415809893853 0.05829786946922156 0 -0.015726382226673854 0.057138933885381285 0 -0.015237315090085649 0.05842130956832179 0 -0.017794110773988746 0.056813854111422868 0 -0.017531224442833039 0.057963773281734993 0 -0.020397549867559803 0.057029279684042762 0 -0.019651991877522621 0.056654926103286776 0 -0.019830932588473887 0.057544495669611589 0 -0.014155843353389005 0.057417752198693738 0 -0.01481415809893853 0.05829786946922156 0 -0.015726382226673854 0.057138933885381285 0 -0.014155843353389005 0.057417752198693738 0 -0.014761604676955439 0.056049225868320458 0 -0.015726382226673854 0.057138933885381285 0 -0.02509029937396683 0.056024554280156916 0 -0.02641902017919651 0.056681829485289034 0 -0.027634568482781861 0.05623354768074619 0 -0.025891256955029147 0.054999427988932724 0 -0.02509029937396683 0.056024554280156916 0 -0.027634568482781861 0.05623354768074619 0 -0.025891256955029147 0.054999427988932724 0 -0.02509029937396683 0.056024554280156916 0 -0.022781827593974954 0.054999226767404132 0 -0.02509029937396683 0.056024554280156916 0 -0.024979013908389257 0.056774654605944108 0 -0.02641902017919651 0.056681829485289034 0 -0.02509029937396683 0.056024554280156916 0 -0.022413838636049128 0.056153910537191501 0 -0.024979013908389257 0.056774654605944108 0 -0.02509029937396683 0.056024554280156916 0 -0.022781827593974954 0.054999226767404132 0 -0.022413838636049128 0.056153910537191501 0 -0.020920550492711628 0.055846760934831603 0 -0.022781827593974954 0.054999226767404132 0 -0.022413838636049128 0.056153910537191501 0 -0.019674907360681119 0.054999748446506833 0 -0.020920550492711628 0.055846760934831603 0 -0.022781827593974954 0.054999226767404132 0 -0.020920550492711628 0.055846760934831603 0 -0.020434414585123569 0.056299208509244407 0 -0.022413838636049128 0.056153910537191501 0 -0.020989258204014847 0.056754638528531132 0 -0.022413838636049128 0.056153910537191501 0 -0.022220019112540502 0.056897254081474002 0 -0.021500251498207817 0.057261061474463165 0 -0.022220019112540502 0.056897254081474002 0 -0.023045914457121688 0.0575671530103 0 -0.020989258204014847 0.056754638528531132 0 -0.021500251498207817 0.057261061474463165 0 -0.022220019112540502 0.056897254081474002 0 -0.02346272827849499 0.056964429200054088 0 -0.024368897507118282 0.057628818953811549 0 -0.024796227742621083 0.057222337075713704 0 -0.025841544157662141 0.057137478638660762 0 -0.025696584871604505 0.057465854710590444 0 -0.024979013908389257 0.056774654605944108 0 -0.024796227742621083 0.057222337075713704 0 -0.025841544157662141 0.057137478638660762 0 -0.022548795807352858 0.056066763626158679 0 -0.02346272827849499 0.056964429200054088 0 -0.022413838636049128 0.056153910537191501 0 -0.024979013908389257 0.056774654605944108 0 -0.024796227742621083 0.057222337075713704 0 -0.024979013908389257 0.056774654605944108 0 -0.025841544157662141 0.057137478638660762 0 -0.02641902017919651 0.056681829485289034 0 -0.025841544157662141 0.057137478638660762 0 -0.027304222378779715 0.057035864642648891 0 -0.02658833694201335 0.057344643100600716 0 -0.027304222378779715 0.057035864642648891 0 -0.02641902017919651 0.056681829485289034 0 -0.027634568482781861 0.05623354768074619 0 -0.025841544157662141 0.057137478638660762 0 -0.027304222378779715 0.057035864642648891 0 -0.02641902017919651 0.056681829485289034 0 -0.027642090623125812 0.057852687081319194 0 -0.02672878785889329 0.057674551765811849 0 -0.026903874327888832 0.058063239022039408 0 -0.027642090623125812 0.057852687081319194 0 -0.027384044708504411 0.057366042673152838 0 -0.02672878785889329 0.057674551765811849 0 -0.027304222378779715 0.057035864642648891 0 -0.027384044708504411 0.057366042673152838 0 -0.02658833694201335 0.057344643100600716 0 -0.027384044708504411 0.057366042673152838 0 -0.02658833694201335 0.057344643100600716 0 -0.02672878785889329 0.057674551765811849 0 -0.025841544157662141 0.057137478638660762 0 -0.02658833694201335 0.057344643100600716 0 -0.025696584871604505 0.057465854710590444 0 -0.02658833694201335 0.057344643100600716 0 -0.02672878785889329 0.057674551765811849 0 -0.025696584871604505 0.057465854710590444 0 -0.02672878785889329 0.057674551765811849 0 -0.026233583959180996 0.057972299826932805 0 -0.025696584871604505 0.057465854710590444 0 -0.02672878785889329 0.057674551765811849 0 -0.026903874327888832 0.058063239022039408 0 -0.026233583959180996 0.057972299826932805 0 -0.026903874327888832 0.058063239022039408 0 -0.026233583959180996 0.057972299826932805 0 -0.026498171711713262 0.058567923618965526 0 -0.026233583959180996 0.057972299826932805 0 -0.025696584871604505 0.057465854710590444 0 -0.024990043889860595 0.059043377381584994 0 -0.023045914457121688 0.0575671530103 0 -0.023050989558764945 0.058385736030383377 0 -0.024990043889860595 0.059043377381584994 0 -0.024368897507118282 0.057628818953811549 0 -0.024950581331218091 0.059096626862964678 0 -0.021500251498207817 0.057261061474463165 0 -0.023045914457121688 0.0575671530103 0 -0.021799114881902594 0.057922997206447356 0 -0.021799114881902594 0.057922997206447356 0 -0.023050989558764945 0.058385736030383377 0 -0.022408043823085696 0.059242623644989792 0 -0.023045914457121688 0.0575671530103 0 -0.021799114881902594 0.057922997206447356 0 -0.023050989558764945 0.058385736030383377 0 -0.023050989558764945 0.058385736030383377 0 -0.023441308767957064 0.059160831510679426 0 -0.022408043823085696 0.059242623644989792 0 -0.023441308767957064 0.059160831510679426 0 -0.022408043823085696 0.059242623644989792 0 -0.023457333237220407 0.059968764354203473 0 -0.022408043823085696 0.059242623644989792 0 -0.022635998914373921 0.060203088356074137 0 -0.023457333237220407 0.059968764354203473 0 -0.022635998914373921 0.060203088356074137 0 -0.023457333237220407 0.059968764354203473 0 -0.023056304133099705 0.060606107803285778 0 -0.023457333237220407 0.059968764354203473 0 -0.024344075002130358 0.06058523200834523 0 -0.023056304133099705 0.060606107803285778 0 -0.023457333237220407 0.059968764354203473 0 -0.024344075002130358 0.06058523200834523 0 -0.024990043889860595 0.059043377381584994 0 -0.024344075002130358 0.06058523200834523 0 -0.024990043889860595 0.059043377381584994 0 -0.026498171711713262 0.058567923618965526 0 -0.023441308767957064 0.059160831510679426 0 -0.023457333237220407 0.059968764354203473 0 -0.024990043889860595 0.059043377381584994 0 -0.023050989558764945 0.058385736030383377 0 -0.023441308767957064 0.059160831510679426 0 -0.024990043889860595 0.059043377381584994 0 -0.026233583959180996 0.057972299826932805 0 -0.024990043889860595 0.059043377381584994 0 -0.026498171711713262 0.058567923618965526 0 -0.026903874327888832 0.058063239022039408 0 -0.026498171711713262 0.058567923618965526 0 -0.027432342055317617 0.058224397632678351 0 -0.026498171711713262 0.058567923618965526 0 -0.027756985844232272 0.058142297592933746 0 -0.027432342055317617 0.058224397632678351 0 -0.026881970326581513 0.058782304376991092 0 -0.026609293862843792 0.058446512508684469 0 -0.029369577450435242 0.05759373998537004 0 -0.026498171711713262 0.058567923618965526 0 -0.027756985844232272 0.058142297592933746 0 -0.029369577450435242 0.05759373998537004 0 -0.027756985844232272 0.058142297592933746 0 -0.028203740171830839 0.057069459388520032 0 -0.027756985844232272 0.058142297592933746 0 -0.027681525971051196 0.05805797468374424 0 -0.027432342055317617 0.058224397632678351 0 -0.027756985844232272 0.058142297592933746 0 -0.027681525971051196 0.05805797468374424 0 -0.028203740171830839 0.057069459388520032 0 -0.027681525971051196 0.05805797468374424 0 -0.027432342055317617 0.058224397632678351 0 -0.028150078652164338 0.05803199322738057 0 -0.027642090623125812 0.057852687081319194 0 -0.027432342055317617 0.058224397632678351 0 -0.028150078652164338 0.05803199322738057 0 -0.027642090623125812 0.057852687081319194 0 -0.026903874327888832 0.058063239022039408 0 -0.027432342055317617 0.058224397632678351 0 -0.01488525635808925 0.058427553277283578 0 -0.015237315090085649 0.05842130956832179 0 -0.015208459692198681 0.058257951172894264 0 -0.017531224442833039 0.057963773281734993 0 -0.017501047598447655 0.058444856765495802 0 -0.01481415809893853 0.05829786946922156 0 -0.01488525635808925 0.058427553277283578 0 -0.015237315090085649 0.05842130956832179 0 -0.013985333824946723 0.058761637510053151 0 -0.01481415809893853 0.05829786946922156 0 -0.01488525635808925 0.058427553277283578 0 -0.020397549867559803 0.057029279684042762 0 -0.019830932588473887 0.057544495669611589 0 -0.020646126638175936 0.057765164613173464 0 -0.021500251498207817 0.057261061474463165 0 -0.020397549867559803 0.057029279684042762 0 -0.020646126638175936 0.057765164613173464 0 -0.021500251498207817 0.057261061474463165 0 -0.021799114881902594 0.057922997206447356 0 -0.020646126638175936 0.057765164613173464 0 -0.021799114881902594 0.057922997206447356 0 -0.020646126638175936 0.057765164613173464 0 -0.020796859353977563 0.058555196725876474 0 -0.021799114881902594 0.057922997206447356 0 -0.022408043823085696 0.059242623644989792 0 -0.020796859353977563 0.058555196725876474 0 -0.019830932588473887 0.057544495669611589 0 -0.020646126638175936 0.057765164613173464 0 -0.019768240262066378 0.058608126790902056 0 -0.020646126638175936 0.057765164613173464 0 -0.020796859353977563 0.058555196725876474 0 -0.019768240262066378 0.058608126790902056 0 -0.020796859353977563 0.058555196725876474 0 -0.019679847005275017 0.058734015006833853 0 -0.019768240262066378 0.058608126790902056 0 -0.020796859353977563 0.058555196725876474 0 -0.019679847005275017 0.058734015006833853 0 -0.019187328907893066 0.058789785288071349 0 -0.020738836248210418 0.058551664319680272 0 -0.020578018391800828 0.059231566518403736 0 -0.022408043823085696 0.059242623644989792 0 -0.020796859353977563 0.058555196725876474 0 -0.021844668178532936 0.060256090828035694 0 -0.022408043823085696 0.059242623644989792 0 -0.022635998914373921 0.060203088356074137 0 -0.021844668178532936 0.060256090828035694 0 -0.022635998914373921 0.060203088356074137 0 -0.021844668178532936 0.060256090828035694 0 -0.022546820761134706 0.060639259420583118 0 -0.019679847005275017 0.058734015006833853 0 -0.019112688764297545 0.058735843118369477 0 -0.019768240262066378 0.058608126790902056 0 -0.019679847005275017 0.058734015006833853 0 -0.019187328907893066 0.058789785288071349 0 -0.019112688764297545 0.058735843118369477 0 -0.017470519176800797 0.058401418954148784 0 -0.017501047598447655 0.058444856765495802 0 -0.015832581933816033 0.057819246558236108 0 -0.015385251601297049 0.058048612473225937 0 -0.015208459692198681 0.058257951172894264 0 -0.015832581933816033 0.057819246558236108 0 -0.015385251601297049 0.058048612473225937 0 -0.015440276512951526 0.058000444088349264 0 -0.01488525635808925 0.058427553277283578 0 -0.015385251601297049 0.058048612473225937 0 -0.015208459692198681 0.058257951172894264 0 -0.0151633159138829 0.058116432108763272 0 -0.01488525635808925 0.058427553277283578 0 -0.015385251601297049 0.058048612473225937 0 -0.0151633159138829 0.058116432108763272 0 -0.015385251601297049 0.058048612473225937 0 -0.015440276512951526 0.058000444088349264 0 -0.0151633159138829 0.058116432108763272 0 -0.015440276512951526 0.058000444088349264 0 -0.015166487699720038 0.058133071223016738 0 -0.015440276512951526 0.058000444088349264 0 -0.015659566937031244 0.057950192190316378 0 -0.015222808927723524 0.058301778315400364 0 -0.015659566937031244 0.057950192190316378 0 -0.015073536212295914 0.059232273949994016 0 -0.013776793917803922 0.057373111878048909 0 -0.015550146673230533 0.057894340215398271 0 -0.014314113088548994 0.057875483996239152 0 -0.015659566937031244 0.057950192190316378 0 -0.015073536212295914 0.059232273949994016 0 -0.016331919157338337 0.05895512604665118 0 -0.015659566937031244 0.057950192190316378 0 -0.017358328275415429 0.058573680427592735 0 -0.016331919157338337 0.05895512604665118 0 -0.015832581933816033 0.057819246558236108 0 -0.015659566937031244 0.057950192190316378 0 -0.017358328275415429 0.058573680427592735 0 -0.015832581933816033 0.057819246558236108 0 -0.015440276512951526 0.058000444088349264 0 -0.015659566937031244 0.057950192190316378 0 -0.017470519176800797 0.058401418954148784 0 -0.017404840206176331 0.058705843209164457 0 -0.019187328907893066 0.058789785288071349 0 -0.019112688764297545 0.058735843118369477 0 -0.017960467382444549 0.058513656695707163 0 -0.021844668178532936 0.060256090828035694 0 -0.022546820761134706 0.060639259420583118 0 -0.02260292306426688 0.060994496829189337 0 -0.020578018391800828 0.059231566518403736 0 -0.019900168177189745 0.060324115123294247 0 -0.022546820761134706 0.060639259420583118 0 -0.022858408499753749 0.060935072719281808 0 -0.02260292306426688 0.060994496829189337 0 -0.022858408499753749 0.060935072719281808 0 -0.02260292306426688 0.060994496829189337 0 -0.022973046809432896 0.061117258226804055 0 -0.017960467382444549 0.058513656695707163 0 -0.017358328275415429 0.058573680427592735 0 -0.017266964486568028 0.059259474562031803 0 -0.019112688764297545 0.058735843118369477 0 -0.017960467382444549 0.058513656695707163 0 -0.017358328275415429 0.058573680427592735 0 -0.017960467382444549 0.058513656695707163 0 -0.017266964486568028 0.059259474562031803 0 -0.017936969406316637 0.059861067718521156 0 -0.017358328275415429 0.058573680427592735 0 -0.017266964486568028 0.059259474562031803 0 -0.016331919157338337 0.05895512604665118 0 -0.02260292306426688 0.060994496829189337 0 -0.022973046809432896 0.061117258226804055 0 -0.022858066050141537 0.061279394620781767 0 -0.019900168177189745 0.060324115123294247 0 -0.023564420294012716 0.057952789339727348 0 -0.022973046809432896 0.061117258226804055 0 -0.022858066050141537 0.061279394620781767 0 -0.023127000996402393 0.06126168391578548 0 -0.033848261518629845 0.051405863370578744 0 -0.032487101356581907 0.050845039197358659 0 -0.03303811687441105 0.049832907952921481 0 -0.023564420294012716 0.057952789339727348 0 -0.02846743011265641 0.056069987204174498 0 -0.017266964486568028 0.059259474562031803 0 -0.017936969406316637 0.059861067718521156 0 -0.016544109645903089 0.059815627146554431 0 -0.018579611543574848 0.058921189728175588 0 -0.016544109645903089 0.059815627146554431 0 -0.017528914417093332 0.060397493701791594 0 -0.023564420294012716 0.057952789339727348 0 -0.014531922987640999 0.059998765495107922 0 -0.016544109645903089 0.059815627146554431 0 -0.016500900803542017 0.060748444349945849 0 -0.017528914417093332 0.060397493701791594 0 -0.016544109645903089 0.059815627146554431 0 -0.015564812402099667 0.060546683921882789 0 -0.016500900803542017 0.060748444349945849 0 -0.016544109645903089 0.059815627146554431 0 -0.015564812402099667 0.060546683921882789 0 -0.015073536212295914 0.059232273949994016 0 -0.015564812402099667 0.060546683921882789 0 -0.014442740531326423 0.06055758567866474 0 -0.015073536212295914 0.059232273949994016 0 -0.015564812402099667 0.060546683921882789 0 -0.014442740531326423 0.06055758567866474 0 -0.014770957931644119 0.061539035435107567 0 -0.017266964486568028 0.059259474562031803 0 -0.016544109645903089 0.059815627146554431 0 -0.016331919157338337 0.05895512604665118 0 -0.016544109645903089 0.059815627146554431 0 -0.015073536212295914 0.059232273949994016 0 -0.016331919157338337 0.05895512604665118 0 -0.02774324183469597 0.054891735760041714 0 -0.028203740171830839 0.057069459388520032 0 -0.027626265284617868 0.057536080809746586 0 -0.027681525971051196 0.05805797468374424 0 -0.028203740171830839 0.057069459388520032 0 -0.027626265284617868 0.057536080809746586 0 -0.029369577450435242 0.05759373998537004 0 -0.028203740171830839 0.057069459388520032 0 -0.030987987687274354 0.054263270021740959 0 -0.02774324183469597 0.054891735760041714 0 -0.028203740171830839 0.057069459388520032 0 -0.030987987687274354 0.054263270021740959 0 -0.02774324183469597 0.054891735760041714 0 -0.030987987687274354 0.054263270021740959 0 -0.028707940813633311 0.052544811390089027 0 -0.02357062529918625 0.060956800338432177 0 -0.02334786553360068 0.060869944594288017 0 -0.023175537797536207 0.061031975130511631 0 -0.026881970326581513 0.058782304376991092 0 -0.027165829192412394 0.057995471020291255 0 -0.024344075002130358 0.06058523200834523 0 -0.02357062529918625 0.060956800338432177 0 -0.02334786553360068 0.060869944594288017 0 -0.024344075002130358 0.06058523200834523 0 -0.023056304133099705 0.060606107803285778 0 -0.02334786553360068 0.060869944594288017 0 -0.022635998914373921 0.060203088356074137 0 -0.022546820761134706 0.060639259420583118 0 -0.023056304133099705 0.060606107803285778 0 -0.022546820761134706 0.060639259420583118 0 -0.022858408499753749 0.060935072719281808 0 -0.023056304133099705 0.060606107803285778 0 -0.022858408499753749 0.060935072719281808 0 -0.023056304133099705 0.060606107803285778 0 -0.02334786553360068 0.060869944594288017 0 -0.022858408499753749 0.060935072719281808 0 -0.02334786553360068 0.060869944594288017 0 -0.023175537797536207 0.061031975130511631 0 -0.022858408499753749 0.060935072719281808 0 -0.022973046809432896 0.061117258226804055 0 -0.023175537797536207 0.061031975130511631 0 -0.02357062529918625 0.060956800338432177 0 -0.023175537797536207 0.061031975130511631 0 -0.023254302429746399 0.06111395005980165 0 -0.022973046809432896 0.061117258226804055 0 -0.023175537797536207 0.061031975130511631 0 -0.023254302429746399 0.06111395005980165 0 -0.022973046809432896 0.061117258226804055 0 -0.023254302429746399 0.06111395005980165 0 -0.023127000996402393 0.06126168391578548 0 -0.032487101356581907 0.050845039197358659 0 -0.031136481531184715 0.049710005852282475 0 -0.032090894904663367 0.049401060137369807 0 -0.032487101356581907 0.050845039197358659 0 -0.03096589730686013 0.050483804023050985 0 -0.031136481531184715 0.049710005852282475 0 -0.02846743011265641 0.056069987204174498 0 -0.028193892427986381 0.053947090404360146 0 -0.023254302429746399 0.06111395005980165 0 -0.023127000996402393 0.06126168391578548 0 -0.023399536038770628 0.061103744464406841 0 -0.032487101356581907 0.050845039197358659 0 -0.032090894904663367 0.049401060137369807 0 -0.03303811687441105 0.049832907952921481 0 -0.028193892427986381 0.053947090404360146 0 -0.030609395014905165 0.050107773381061746 0 -0.031025141100276699 0.050237360290402572 0 -0.030232289487194666 0.049651923645346298 0 -0.029317560835006837 0.050154360424285317 0 -0.031025141100276699 0.050237360290402572 0 -0.031136481531184715 0.049710005852282475 0 -0.030232289487194666 0.049651923645346298 0 -0.028193892427986381 0.053947090404360146 0 -0.029791436980169065 0.050138309787114636 0 -0.031136481531184715 0.049710005852282475 0 -0.030232289487194666 0.049651923645346298 0 -0.029843096319525704 0.048451892182637166 0 -0.030987987687274354 0.054263270021740959 0 -0.031799594903723895 0.05045489173951228 0 -0.029317560835006837 0.050154360424285317 0 -0.02357062529918625 0.060956800338432177 0 -0.023254302429746399 0.06111395005980165 0 -0.023399536038770628 0.061103744464406841 0 -0.027165829192412394 0.057995471020291255 0 -0.028193892427986381 0.053947090404360146 0 -0.030987987687274354 0.054263270021740959 0 -0.028707940813633311 0.052544811390089027 0 -0.029317560835006837 0.050154360424285317 0 -0.029317560835006837 0.050154360424285317 0 -0.027424192935421771 0.048440058203430114 0 -0.029843096319525704 0.048451892182637166 0 -0.030232289487194666 0.049651923645346298 0 -0.029317560835006837 0.050154360424285317 0 -0.029843096319525704 0.048451892182637166 0 -0.029317560835006837 0.050154360424285317 0 -0.027424192935421771 0.048440058203430114 0 -0.026649047077591394 0.05092564535238444 0 -0.02774324183469597 0.054891735760041714 0 -0.028707940813633311 0.052544811390089027 0 -0.026649047077591394 0.05092564535238444 0 -0.028707940813633311 0.052544811390089027 0 -0.029317560835006837 0.050154360424285317 0 -0.026649047077591394 0.05092564535238444 0 -0.02689349034503704 0.04457707569479126 0 -0.027989555639756858 0.045649952121017578 0 -0.026107317849071311 0.046569729057512541 0 -0.027424192935421771 0.048440058203430114 0 -0.027989555639756858 0.045649952121017578 0 -0.026107317849071311 0.046569729057512541 0 -0.027424192935421771 0.048440058203430114 0 -0.029843096319525704 0.048451892182637166 0 -0.027989555639756858 0.045649952121017578 0 -0.029843096319525704 0.048451892182637166 0 -0.027989555639756858 0.045649952121017578 0 -0.030584654462234927 0.047047946794678712 0 -0.027989555639756858 0.045649952121017578 0 -0.028372401072703814 0.044216620951679719 0 -0.028098182223346625 0.043846833001423467 0 -0.028025535257305716 0.045626221461826384 0 -0.029096415960225844 0.045654593040546976 0 -0.02689349034503704 0.04457707569479126 0 -0.027989555639756858 0.045649952121017578 0 -0.028098182223346625 0.043846833001423467 0 -0.028372401072703814 0.044216620951679719 0 -0.028227625186585288 0.04336807048804503 0 -0.028300028840305587 0.043572261078449456 0 -0.028372401072703814 0.044216620951679719 0 -0.028300028840305587 0.043572261078449456 0 -0.028098182223346625 0.043846833001423467 0 -0.029843096319525704 0.048451892182637166 0 -0.030584654462234927 0.047047946794678712 0 -0.031243214177723449 0.048537470470896453 0 -0.030584654462234927 0.047047946794678712 0 -0.031243214177723449 0.048537470470896453 0 -0.032331415687914346 0.04817413907808691 0 -0.031136481531184715 0.049710005852282475 0 -0.029843096319525704 0.048451892182637166 0 -0.031243214177723449 0.048537470470896453 0 -0.031243214177723449 0.048537470470896453 0 -0.032090894904663367 0.049401060137369807 0 -0.032331415687914346 0.04817413907808691 0 -0.031136481531184715 0.049710005852282475 0 -0.031243214177723449 0.048537470470896453 0 -0.032090894904663367 0.049401060137369807 0 -0.032090894904663367 0.049401060137369807 0 -0.032331415687914346 0.04817413907808691 0 -0.03303811687441105 0.049832907952921481 0 -0.028227625186585288 0.04336807048804503 0 -0.028163565971359293 0.043328219957356265 0 -0.028300028840305587 0.043572261078449456 0 -0.028227625186585288 0.04336807048804503 0 -0.028163565971359293 0.043328219957356265 0 -0.028017909817318207 0.043187890908522472 0 -0.029096415960225844 0.045654593040546976 0 -0.031086680685927112 0.045553829051926356 0 -0.028163565971359293 0.043328219957356265 0 -0.028186838252792147 0.043220134280827868 0 -0.028300028840305587 0.043572261078449456 0 -0.028186838252792147 0.043220134280827868 0 -0.02799064408130646 0.043192871631407538 0 -0.028080376531240736 0.043090156021568425 0 -0.028186838252792147 0.043220134280827868 0 -0.028211759552889338 0.043036763002241907 0 -0.028080376531240736 0.043090156021568425 0 -0.028163565971359293 0.043328219957356265 0 -0.028186838252792147 0.043220134280827868 0 -0.02799064408130646 0.043192871631407538 0 -0.028186838252792147 0.043220134280827868 0 -0.028211759552889338 0.043036763002241907 0 -0.028300028840305587 0.043572261078449456 0 -0.028211759552889338 0.043036763002241907 0 -0.028300028840305587 0.043572261078449456 0 -0.028098182223346625 0.043846833001423467 0 -0.028098182223346625 0.043846833001423467 0 -0.027727407894209993 0.042905225122395037 0 -0.027133919432450863 0.04338885326073811 0 -0.028211759552889338 0.043036763002241907 0 -0.028098182223346625 0.043846833001423467 0 -0.027727407894209993 0.042905225122395037 0 -0.028211759552889338 0.043036763002241907 0 -0.027727407894209993 0.042905225122395037 0 -0.02777452682411425 0.041811071555483192 0 -0.027727407894209993 0.042905225122395037 0 -0.026633408668528685 0.042224046763968071 0 -0.027133919432450863 0.04338885326073811 0 -0.026633408668528685 0.042224046763968071 0 -0.027133919432450863 0.04338885326073811 0 -0.026004255815789756 0.043408554801381213 0 -0.027727407894209993 0.042905225122395037 0 -0.026633408668528685 0.042224046763968071 0 -0.02777452682411425 0.041811071555483192 0 -0.02689349034503704 0.04457707569479126 0 -0.027133919432450863 0.04338885326073811 0 -0.026004255815789756 0.043408554801381213 0 -0.02689349034503704 0.04457707569479126 0 -0.028098182223346625 0.043846833001423467 0 -0.027133919432450863 0.04338885326073811 0 -0.026392019694545549 0.042583651523687531 0 -0.026760704941583009 0.042362681402240372 0 -0.026808723028500635 0.042845615722321838 0 -0.026760704941583009 0.042362681402240372 0 -0.027215107017065383 0.042797163343301206 0 -0.026808723028500635 0.042845615722321838 0 -0.026392019694545549 0.042583651523687531 0 -0.026760704941583009 0.042362681402240372 0 -0.025955813836007528 0.042291675766698254 0 -0.026392019694545549 0.042583651523687531 0 -0.026326215002518243 0.042826290772788461 0 -0.026020285303389054 0.042613735374765815 0 -0.026392019694545549 0.042583651523687531 0 -0.026020285303389054 0.042613735374765815 0 -0.025955813836007528 0.042291675766698254 0 -0.021167879256973818 0.052036252799376743 0 -0.01942696930143405 0.053968505187842554 0 -0.01483928509800073 0.062374415616216372 0 -0.016602947374842424 0.06181746224441919 0 -0.014422597243037164 0.062727537660116739 0 -0.01483928509800073 0.062374415616216372 0 -0.015693067127684958 0.061404518497941839 0 -0.016602947374842424 0.06181746224441919 0 -0.01483928509800073 0.062374415616216372 0 -0.014770957931644119 0.061539035435107567 0 -0.014172862428191348 0.062900423541271858 0 -0.01483928509800073 0.062374415616216372 0 -0.014770957931644119 0.061539035435107567 0 -0.015693067127684958 0.061404518497941839 0 -0.015564812402099667 0.060546683921882789 0 -0.015693067127684958 0.061404518497941839 0 -0.016500900803542017 0.060748444349945849 0 -0.015564812402099667 0.060546683921882789 0 -0.014770957931644119 0.061539035435107567 0 -0.015693067127684958 0.061404518497941839 0 -0.015693067127684958 0.061404518497941839 0 -0.016500900803542017 0.060748444349945849 0 -0.016602947374842424 0.06181746224441919 0 -0.016500900803542017 0.060748444349945849 0 -0.016602947374842424 0.06181746224441919 0 -0.017528914417093332 0.060397493701791594 0 -0.018579611543574848 0.058921189728175588 0 -0.017528914417093332 0.060397493701791594 0 -0.01855906479739055 0.060978920794426919 0 -0.016602947374842424 0.06181746224441919 0 -0.017528914417093332 0.060397493701791594 0 -0.01855906479739055 0.060978920794426919 0 -0.033848261518629845 0.051405863370578744 0 -0.03303811687441105 0.049832907952921481 0 -0.033927394905502825 0.049004719504060018 0 -0.023564420294012716 0.057952789339727348 0 -0.025993498895808348 0.050866069889708099 0 -0.032331415687914346 0.04817413907808691 0 -0.03303811687441105 0.049832907952921481 0 -0.033927394905502825 0.049004719504060018 0 -0.031086680685927112 0.045553829051926356 0 -0.025993498895808348 0.050866069889708099 0 -0.028227625186585288 0.04336807048804503 0 -0.027792300777654311 0.042825738824802694 0 -0.02794066815034886 0.043060722044198328 0 -0.025993498895808348 0.050866069889708099 0 -0.026473084158214685 0.045662285390845797 0 -0.027792300777654311 0.042825738824802694 0 -0.027773293985170918 0.042858937906207518 0 -0.02794066815034886 0.043060722044198328 0 -0.027773293985170918 0.042858937906207518 0 -0.027810951806577822 0.043050650429467187 0 -0.02794066815034886 0.043060722044198328 0 -0.027810951806577822 0.043050650429467187 0 -0.02794066815034886 0.043060722044198328 0 -0.028017909817318207 0.043187890908522472 0 -0.028227625186585288 0.04336807048804503 0 -0.02794066815034886 0.043060722044198328 0 -0.028017909817318207 0.043187890908522472 0 -0.021167879256973818 0.052036252799376743 0 -0.025993498895808348 0.050866069889708099 0 -0.026760704941583009 0.042362681402240372 0 -0.027749586571532529 0.042657134305716382 0 -0.027215107017065383 0.042797163343301206 0 -0.027749586571532529 0.042657134305716382 0 -0.027773293985170918 0.042858937906207518 0 -0.027535456417597085 0.042899624650541444 0 -0.027773293985170918 0.042858937906207518 0 -0.027810951806577822 0.043050650429467187 0 -0.027535456417597085 0.042899624650541444 0 -0.027749586571532529 0.042657134305716382 0 -0.027535456417597085 0.042899624650541444 0 -0.027215107017065383 0.042797163343301206 0 -0.027535456417597085 0.042899624650541444 0 -0.027215107017065383 0.042797163343301206 0 -0.02732460292742285 0.042988058330136213 0 -0.027535456417597085 0.042899624650541444 0 -0.02732460292742285 0.042988058330136213 0 -0.027646493195268709 0.043061243209754872 0 -0.027810951806577822 0.043050650429467187 0 -0.027535456417597085 0.042899624650541444 0 -0.027646493195268709 0.043061243209754872 0 -0.02732460292742285 0.042988058330136213 0 -0.027646493195268709 0.043061243209754872 0 -0.027619846804402739 0.043141492759855848 0 -0.02732460292742285 0.042988058330136213 0 -0.027619846804402739 0.043141492759855848 0 -0.0271387736119077 0.043091414968256872 0 -0.028163565971359293 0.043328219957356265 0 -0.028017909817318207 0.043187890908522472 0 -0.027898216658793159 0.043166191517214202 0 -0.027810951806577822 0.043050650429467187 0 -0.028017909817318207 0.043187890908522472 0 -0.027898216658793159 0.043166191517214202 0 -0.027810951806577822 0.043050650429467187 0 -0.027646493195268709 0.043061243209754872 0 -0.027898216658793159 0.043166191517214202 0 -0.027646493195268709 0.043061243209754872 0 -0.027898216658793159 0.043166191517214202 0 -0.027619846804402739 0.043141492759855848 0 -0.028163565971359293 0.043328219957356265 0 -0.027898216658793159 0.043166191517214202 0 -0.02799064408130646 0.043192871631407538 0 -0.02799064408130646 0.043192871631407538 0 -0.027619846804402739 0.043141492759855848 0 -0.027771260899409358 0.043209528843278673 0 -0.02799064408130646 0.043192871631407538 0 -0.027771260899409358 0.043209528843278673 0 -0.028080376531240736 0.043090156021568425 0 -0.027898216658793159 0.043166191517214202 0 -0.02799064408130646 0.043192871631407538 0 -0.027619846804402739 0.043141492759855848 0 -0.027619846804402739 0.043141492759855848 0 -0.027373970405444717 0.04326943283525423 0 -0.027771260899409358 0.043209528843278673 0 -0.027619846804402739 0.043141492759855848 0 -0.0271387736119077 0.043091414968256872 0 -0.027373970405444717 0.04326943283525423 0 -0.02687198402238071 0.043187493304808221 0 -0.0271387736119077 0.043091414968256872 0 -0.026513826542653267 0.042998859134809803 0 -0.02687198402238071 0.043187493304808221 0 -0.0271387736119077 0.043091414968256872 0 -0.027373970405444717 0.04326943283525423 0 -0.02732460292742285 0.042988058330136213 0 -0.0271387736119077 0.043091414968256872 0 -0.026808723028500635 0.042845615722321838 0 -0.0271387736119077 0.043091414968256872 0 -0.026808723028500635 0.042845615722321838 0 -0.026513826542653267 0.042998859134809803 0 -0.027215107017065383 0.042797163343301206 0 -0.02732460292742285 0.042988058330136213 0 -0.026808723028500635 0.042845615722321838 0 -0.026392019694545549 0.042583651523687531 0 -0.026808723028500635 0.042845615722321838 0 -0.026326215002518243 0.042826290772788461 0 -0.026808723028500635 0.042845615722321838 0 -0.026326215002518243 0.042826290772788461 0 -0.026513826542653267 0.042998859134809803 0 -0.02687198402238071 0.043187493304808221 0 -0.026513826542653267 0.042998859134809803 0 -0.026278059877444068 0.043058315961570427 0 -0.026513826542653267 0.042998859134809803 0 -0.025817030921775855 0.042992627151624337 0 -0.026278059877444068 0.043058315961570427 0 -0.025461233264094017 0.04120916089320785 0 -0.026103780493487765 0.043066235284051506 0 -0.024643230138881731 0.042399229943734247 0 -0.024286399609729756 0.040449432208878054 0 -0.026278059877444068 0.043058315961570427 0 -0.024643230138881731 0.042399229943734247 0 -0.024286399609729756 0.040449432208878054 0 -0.022191813851678743 0.040141707573625875 0 -0.024643230138881731 0.042399229943734247 0 -0.022191813851678743 0.040141707573625875 0 -0.022387424430346161 0.043454250472565535 0 -0.024286399609729756 0.040449432208878054 0 -0.021892207883937555 0.038083168351692238 0 -0.022191813851678743 0.040141707573625875 0 -0.025461233264094017 0.04120916089320785 0 -0.019532624945978804 0.044751322857408612 0 -0.025817030921775855 0.042992627151624337 0 -0.026020285303389054 0.042613735374765815 0 -0.025627747186776337 0.042437171679484242 0 -0.026326215002518243 0.042826290772788461 0 -0.026513826542653267 0.042998859134809803 0 -0.025817030921775855 0.042992627151624337 0 -0.026326215002518243 0.042826290772788461 0 -0.025817030921775855 0.042992627151624337 0 -0.026020285303389054 0.042613735374765815 0 -0.023488006290504938 0.046584297077441432 0 -0.01942696930143405 0.053968505187842554 0 -0.026020285303389054 0.042613735374765815 0 -0.025627747186776337 0.042437171679484242 0 -0.025955813836007528 0.042291675766698254 0 -0.025817030921775855 0.042992627151624337 0 -0.025627747186776337 0.042437171679484242 0 -0.025170683111574041 0.042610271905759917 0 -0.01922393243676105 0.051545463786628942 0 -0.018492895546895871 0.050837617306905468 0 -0.020676045325441841 0.050987885682150388 0 -0.023488006290504938 0.046584297077441432 0 -0.019532624945978804 0.044751322857408612 0 -0.01922393243676105 0.051545463786628942 0 -0.018492895546895871 0.050837617306905468 0 -0.017712651228313562 0.052176348230359319 0 -0.01112611890287566 0.063555053628891023 0 -0.011627145459517169 0.061408560229167804 0 -0.0092750589893666659 0.061995676390793307 0 -0.01112611890287566 0.063555053628891023 0 -0.013442373376991548 0.061538050370513506 0 -0.011627145459517169 0.061408560229167804 0 -0.01112611890287566 0.063555053628891023 0 -0.013442373376991548 0.061538050370513506 0 -0.014172862428191348 0.062900423541271858 0 -0.014598691964872868 0.057522508402046681 0 -0.01942696930143405 0.053968505187842554 0 -0.014770957931644119 0.061539035435107567 0 -0.013442373376991548 0.061538050370513506 0 -0.014172862428191348 0.062900423541271858 0 -0.015050697966283111 0.057582308272944624 0 -0.01942696930143405 0.053968505187842554 0 -0.0073694773880482838 0.063565594230326164 0 -0.0063745753406136973 0.062613954671694755 0 -0.0039096077594810439 0.06325212580603512 0 -0.0077390143995342449 0.063791991066981912 0 -0.0063745753406136973 0.062613954671694755 0 -0.0092750589893666659 0.061995676390793307 0 -0.010847250896550014 0.055848166474301353 0 -0.0085232291752996708 0.061778136926518026 0 -0.014598691964872868 0.057522508402046681 0 -0.010847250896550014 0.055848166474301353 0 -0.01112611890287566 0.063555053628891023 0 -0.0077390143995342449 0.063791991066981912 0 -0.0092750589893666659 0.061995676390793307 0 -0.018492895546895871 0.050837617306905468 0 -0.016161977840292021 0.050755719651902342 0 -0.017712651228313562 0.052176348230359319 0 -0.012884837242976371 0.046254373260860793 0 -0.013677385063798874 0.046949585193529826 0 -0.012449220898662412 0.047417216451229802 0 -0.010847250896550014 0.055848166474301353 0 -0.019532624945978804 0.044751322857408612 0 -0.012884837242976371 0.046254373260860793 0 -0.012449220898662412 0.047417216451229802 0 -0.011897091639832472 0.046819017617581976 0 -0.013236320688233582 0.0374835936129643 0 -0.018913591217143692 0.035391567807566242 0 -0.015029535656086352 0.025762819174733321 0 -0.015709041621086842 0.026437696614381889 0 -0.014836912645414962 0.026305289241426204 0 -0.018811492299386882 0.039316955467249969 0 -0.022191813851678743 0.040141707573625875 0 -0.020596992244097476 0.04141126801470188 0 -0.019532624945978804 0.044751322857408612 0 -0.013236320688233582 0.0374835936129643 0 -0.021892207883937555 0.038083168351692238 0 -0.018811492299386882 0.039316955467249969 0 -0.022191813851678743 0.040141707573625875 0 -0.018913591217143692 0.035391567807566242 0 -0.021955180921698601 0.020429462492006573 0 -0.022191813851678743 0.040141707573625875 0 -0.020596992244097476 0.04141126801470188 0 -0.022387424430346161 0.043454250472565535 0 -0.015709041621086842 0.026437696614381889 0 -0.014836912645414962 0.026305289241426204 0 -0.014944672207883558 0.026912470079215493 0 -0.014836912645414962 0.026305289241426204 0 -0.014238616231990894 0.026422581486013067 0 -0.014944672207883558 0.026912470079215493 0 -0.015153916589623541 0.013693216477163718 0 -0.014705681136950571 0.016380272668916448 0 -0.014238616231990894 0.026422581486013067 0 -0.013573054942975251 0.026621616261636786 0 -0.014944672207883558 0.026912470079215493 0 -0.014836912645414962 0.026305289241426204 0 -0.014238616231990894 0.026422581486013067 0 -0.014284523646574178 0.026009561148669043 0 -0.010252254358947357 0.029205916167195596 0 -0.012276740218762988 0.030699099660846281 0 -0.014238616231990894 0.026422581486013067 0 -0.01352932764720813 0.02626733734154969 0 -0.014284523646574178 0.026009561148669043 0 -0.015153916589623541 0.013693216477163718 0 -0.010252254358947357 0.029205916167195596 0 -0.014238616231990894 0.026422581486013067 0 -0.013573054942975251 0.026621616261636786 0 -0.01352932764720813 0.02626733734154969 0 -0.012397677398601778 0.034486196028891171 0 -0.0095738012043530551 0.035724720753186542 0 -0.012751989959619903 0.038048814686733268 0 -0.0095738012043530551 0.035724720753186542 0 -0.012751989959619903 0.038048814686733268 0 -0.01079255762597661 0.039239558870939835 0 -0.010252254358947357 0.029205916167195596 0 -0.008367648619474961 0.033231111251188709 0 -0.015029535656086352 0.025762819174733321 0 -0.014836912645414962 0.026305289241426204 0 -0.014284523646574178 0.026009561148669043 0 -0.013236320688233582 0.0374835936129643 0 -0.012276740218762988 0.030699099660846281 0 -0.0068070459096460133 0.036939168644930603 0 -0.0095738012043530551 0.035724720753186542 0 -0.0085524395058567907 0.039206515596888182 0 -0.0041751750247497384 0.031027425154072821 0 -0.0041667506019705102 0.030958025811371533 0 -0.0041510678063406544 0.031108402948047748 0 -0.0039801453374737729 0.020894991607489512 0 -0.010028796195182045 0.016482847355757696 0 -0.010028796195182045 0.016482847355757696 0 -0.0089227381820864184 0.0089801587529706895 0 -0.0048344542083562413 0.009889044446206469 0 -0.0059863856042595481 0.011017289736069674 0 -0.0092577802992137095 0.010209278246738115 0 -0.0059863856042595481 0.011017289736069674 0 -0.0092577802992137095 0.010209278246738115 0 -0.0057551344372869292 0.011781315028305619 0 -0.0047771203141020475 0.010848976109950415 0 -0.0059863856042595481 0.011017289736069674 0 -0.0055787151574281033 0.011515093772756073 0 -0.0079863482914351979 0.010422354532972879 0 -0.0089227381820864184 0.0089801587529706895 0 -0.015153916589623541 0.013693216477163718 0 -0.010028796195182045 0.016482847355757696 0 -0.016183424826634617 0.0066746773079849313 0 -0.016363562442952589 0.0067267843680892756 0 -0.016392086802464883 0.0064722018492587513 0 -0.011079377101579538 0.020403158609732432 0 -0.010980005040092103 0.019622866514203148 0 -0.0096676111228584487 0.020137140076931053 0 -0.010252254358947357 0.029205916167195596 0 -0.010028796195182045 0.016482847355757696 0 -0.0040927184240737756 0.030994910650852366 0 -0.0041667506019705102 0.030958025811371533 0 -0.0041208647264089678 0.031059113527045858 0 -0.0040927184240737756 0.030994910650852366 0 -0.0041208647264089678 0.031059113527045858 0 -0.0040458112783689588 0.031190833735013135 0 -0.0041667506019705102 0.030958025811371533 0 -0.0041208647264089678 0.031059113527045858 0 -0.0041510678063406544 0.031108402948047748 0 -0.0041208647264089678 0.031059113527045858 0 -0.0041510678063406544 0.031108402948047748 0 -0.0040458112783689588 0.031190833735013135 0 -0.0041751750247497384 0.031027425154072821 0 -0.0041510678063406544 0.031108402948047748 0 -0.0041573616784712367 0.0311500712891917 0 -0.0041510678063406544 0.031108402948047748 0 -0.0041573616784712367 0.0311500712891917 0 -0.0041166459886088115 0.031243224286253111 0 -0.0041472388134008442 0.031187274345342027 0 -0.0041573616784712367 0.0311500712891917 0 -0.004137037160264396 0.03132490591306334 0 -0.0041573616784712367 0.0311500712891917 0 -0.0041166459886088115 0.031243224286253111 0 -0.004137037160264396 0.03132490591306334 0 -0.0041510678063406544 0.031108402948047748 0 -0.0041166459886088115 0.031243224286253111 0 -0.0040458112783689588 0.031190833735013135 0 -0.0041166459886088115 0.031243224286253111 0 -0.0040390972362079882 0.03142582143328649 0 -0.0040458112783689588 0.031190833735013135 0 -0.0041166459886088115 0.031243224286253111 0 -0.0040390972362079882 0.03142582143328649 0 -0.004137037160264396 0.03132490591306334 0 -0.0049062617973386607 0.047730586061075726 0 -0.0029684454825790367 0.045038944809679557 0 -0.0049062617973386607 0.047730586061075726 0 -0.0025320829842465902 0.062689928940760961 0 -0.0021549290271921815 0.059032522722882355 0 -0.0023423177481164182 0.059287796267378567 0 -0.00218573500841942 0.059449695664396347 0 -0.0021549290271921815 0.059032522722882355 0 -0.0024743239576697162 0.05913883480775995 0 -0.0023423177481164182 0.059287796267378567 0 -0.0024743239576697162 0.05913883480775995 0 -0.0024675068903739915 0.059358491685143809 0 -0.0023423177481164182 0.059287796267378567 0 -0.0025531033537236135 0.059310729799188507 0 -0.0024743239576697162 0.05913883480775995 0 -0.0024675068903739915 0.059358491685143809 0 -0.0095738012043530551 0.035724720753186542 0 -0.0085524395058567907 0.039206515596888182 0 -0.01079255762597661 0.039239558870939835 0 -0.012884837242976371 0.046254373260860793 0 -0.011897091639832472 0.046819017617581976 0 -0.011340721254404277 0.046230011382282145 0 -0.0098317998299461921 0.042596927099924402 0 -0.0073173211279915331 0.05311188428429902 0 -0.0085524395058567907 0.039206515596888182 0 -0.01079255762597661 0.039239558870939835 0 -0.010321800721221866 0.041521763097813622 0 -0.013236320688233582 0.0374835936129643 0 -0.0098317998299461921 0.042596927099924402 0 -0.013081350956632921 0.041649034088127097 0 -0.012751989959619903 0.038048814686733268 0 -0.01079255762597661 0.039239558870939835 0 -0.0049062617973386607 0.047730586061075726 0 -0.008367648619474961 0.033231111251188709 0 -0.013081350956632921 0.041649034088127097 0 -0.01079255762597661 0.039239558870939835 0 -0.010321800721221866 0.041521763097813622 0 -0.0026743634926505314 0.062439555450644724 0 -0.003545806129441133 0.062406881159516855 0 -0.0030686801211009395 0.061913006165994273 0 -0.0049062617973386607 0.047730586061075726 0 -0.0073173211279915331 0.05311188428429902 0 -0.0026743634926505314 0.062439555450644724 0 -0.0030686801211009395 0.061913006165994273 0 -0.0024500062319047422 0.061289578240121156 0 -0.0039096077594810439 0.06325212580603512 0 -0.0030686801211009395 0.061913006165994273 0 -0.0039242277854610015 0.061607956274943018 0 -0.0073173211279915331 0.05311188428429902 0 -0.0050889125845662722 0.062310927803789336 0 -0.0039096077594810439 0.06325212580603512 0 -0.0049690808740807148 0.061915800548975192 0 -0.0039242277854610015 0.061607956274943018 0 -0.010847250896550014 0.055848166474301353 0 -0.0073173211279915331 0.05311188428429902 0 -0.0063745753406136973 0.062613954671694755 0 -0.0039096077594810439 0.06325212580603512 0 -0.0049690808740807148 0.061915800548975192 0 -0.0049690808740807148 0.061915800548975192 0 -0.0045899264042880963 0.060989419095543007 0 -0.0059856394717503723 0.061189129791648457 0 -0.0045899264042880963 0.060989419095543007 0 -0.0059856394717503723 0.061189129791648457 0 -0.0058215530065191387 0.05981054798987976 0 -0.0045899264042880963 0.060989419095543007 0 -0.0039242277854610015 0.061607956274943018 0 -0.0034572062938999604 0.060552273543469717 0 -0.0049690808740807148 0.061915800548975192 0 -0.0045899264042880963 0.060989419095543007 0 -0.0039242277854610015 0.061607956274943018 0 -0.0030686801211009395 0.061913006165994273 0 -0.0039242277854610015 0.061607956274943018 0 -0.0034572062938999604 0.060552273543469717 0 -0.0030686801211009395 0.061913006165994273 0 -0.0034572062938999604 0.060552273543469717 0 -0.0024500062319047422 0.061289578240121156 0 -0.0034572062938999604 0.060552273543469717 0 -0.0024500062319047422 0.061289578240121156 0 -0.0024250290021003156 0.0599163093033949 0 -0.0034572062938999604 0.060552273543469717 0 -0.0031160501650285576 0.05978645103578506 0 -0.0024250290021003156 0.0599163093033949 0 -0.0031160501650285576 0.05978645103578506 0 -0.0024250290021003156 0.0599163093033949 0 -0.002713741483575954 0.059855896726561816 0 -0.0034572062938999604 0.060552273543469717 0 -0.0031160501650285576 0.05978645103578506 0 -0.003823822021263057 0.059404932841960953 0 -0.003823822021263057 0.059404932841960953 0 -0.0044209798246115555 0.060140948918398905 0 -0.0058215530065191387 0.05981054798987976 0 -0.0045899264042880963 0.060989419095543007 0 -0.0044209798246115555 0.060140948918398905 0 -0.0058215530065191387 0.05981054798987976 0 -0.0034572062938999604 0.060552273543469717 0 -0.003823822021263057 0.059404932841960953 0 -0.0044209798246115555 0.060140948918398905 0 -0.0045899264042880963 0.060989419095543007 0 -0.0034572062938999604 0.060552273543469717 0 -0.0044209798246115555 0.060140948918398905 0 -0.0025531033537236135 0.059310729799188507 0 -0.0024675068903739915 0.059358491685143809 0 -0.0024827950692347918 0.059479259510140041 0 -0.0024675068903739915 0.059358491685143809 0 -0.0024140097784177759 0.059582877990808268 0 -0.0023423177481164182 0.059287796267378567 0 -0.0024675068903739915 0.059358491685143809 0 -0.0024140097784177759 0.059582877990808268 0 -0.0024827950692347918 0.059479259510140041 0 -0.0024140097784177759 0.059582877990808268 0 -0.0023423177481164182 0.059287796267378567 0 -0.00218573500841942 0.059449695664396347 0 -0.0025320829842465902 0.062689928940760961 0 -0.0022966973804754483 0.059152430679564834 0 -0.0024140097784177759 0.059582877990808268 0 -0.0024250290021003156 0.0599163093033949 0 -0.0024180956038338188 0.059724286746824527 0 -0.0024250290021003156 0.0599163093033949 0 -0.0024180956038338188 0.059724286746824527 0 -0.0024016664554702975 0.05993132933763002 0 -0.0024140097784177759 0.059582877990808268 0 -0.00218573500841942 0.059449695664396347 0 -0.0024250290021003156 0.0599163093033949 0 -0.0024477319320603264 0.059567700184121719 0 -0.0024180956038338188 0.059724286746824527 0 -0.0024827950692347918 0.059479259510140041 0 -0.0024140097784177759 0.059582877990808268 0 -0.0024180956038338188 0.059724286746824527 0 -0.0024827950692347918 0.059479259510140041 0 -0.0023841302921369469 0.059803626013666344 0 -0.0024016664554702975 0.05993132933763002 0 -0.0022347528326186797 0.060247649401292465 0 -0.0023841302921369469 0.059803626013666344 0 -0.0024180956038338188 0.059724286746824527 0 -0.0024016664554702975 0.05993132933763002 0 -0.0024250290021003156 0.0599163093033949 0 -0.0024016664554702975 0.05993132933763002 0 -0.002713741483575954 0.059855896726561816 0 -0.0024016664554702975 0.05993132933763002 0 -0.002713741483575954 0.059855896726561816 0 -0.0026570000060011888 0.060025280021609402 0 -0.0024016664554702975 0.05993132933763002 0 -0.0026570000060011888 0.060025280021609402 0 -0.0023841427496044789 0.060242906247059816 0 -0.0027690434104378249 0.06021519476714389 0 -0.0026570000060011888 0.060025280021609402 0 -0.0023841427496044789 0.060242906247059816 0 -0.0024016664554702975 0.05993132933763002 0 -0.0023841427496044789 0.060242906247059816 0 -0.0022347528326186797 0.060247649401292465 0 -0.0019772256626997757 0.06055809505161449 0 -0.0023841427496044789 0.060242906247059816 0 -0.0022347528326186797 0.060247649401292465 0 -0.0034006137489129185 0.059795646628303271 0 -0.0031816084104560002 0.059792778373240284 0 -0.0031905279397344225 0.060008672624961498 0 -0.0034006137489129185 0.059795646628303271 0 -0.0032091080581969022 0.059956869644496064 0 -0.0031322260431633372 0.059710755857063084 0 -0.003823822021263057 0.059404932841960953 0 -0.0034006137489129185 0.059795646628303271 0 -0.0031322260431633372 0.059710755857063084 0 -0.003823822021263057 0.059404932841960953 0 -0.0034006137489129185 0.059795646628303271 0 -0.0031816084104560002 0.059792778373240284 0 -0.0031160501650285576 0.05978645103578506 0 -0.003823822021263057 0.059404932841960953 0 -0.0031816084104560002 0.059792778373240284 0 -0.0031160501650285576 0.05978645103578506 0 -0.002713741483575954 0.059855896726561816 0 -0.0031816084104560002 0.059792778373240284 0 -0.002713741483575954 0.059855896726561816 0 -0.0026570000060011888 0.060025280021609402 0 -0.0031816084104560002 0.059792778373240284 0 -0.0031816084104560002 0.059792778373240284 0 -0.0029940252974215457 0.060033889354372587 0 -0.0031905279397344225 0.060008672624961498 0 -0.0026570000060011888 0.060025280021609402 0 -0.0031816084104560002 0.059792778373240284 0 -0.0029940252974215457 0.060033889354372587 0 -0.0027690434104378249 0.06021519476714389 0 -0.0026570000060011888 0.060025280021609402 0 -0.0029940252974215457 0.060033889354372587 0 -0.0030547199524755906 0.06015722787829815 0 -0.0029940252974215457 0.060033889354372587 0 -0.0031905279397344225 0.060008672624961498 0 -0.0030547199524755906 0.06015722787829815 0 -0.0027690434104378249 0.06021519476714389 0 -0.0029940252974215457 0.060033889354372587 0 -0.003157194431598414 0.060149202343497313 0 -0.0030547199524755906 0.06015722787829815 0 -0.0031905279397344225 0.060008672624961498 0 -0.0034006137489129185 0.059795646628303271 0 -0.0031905279397344225 0.060008672624961498 0 -0.0032091080581969022 0.059956869644496064 0 -0.0031905279397344225 0.060008672624961498 0 -0.0032091080581969022 0.059956869644496064 0 -0.0031627601355594119 0.060108178974156982 0 -0.003157194431598414 0.060149202343497313 0 -0.0031905279397344225 0.060008672624961498 0 -0.0031627601355594119 0.060108178974156982 0 -0.0032091080581969022 0.059956869644496064 0 -0.0031627601355594119 0.060108178974156982 0 -0.0031274148347292877 0.060069000912216508 0 -0.0031881970403562633 0.060243673535122839 0 -0.0031274148347292877 0.060069000912216508 0 -0.0030236315065669305 0.059982727798253303 0 -0.0060062826121153393 0.062089216665005338 0 -0.0063010461093425136 0.062493372730437806 0 -0.0061691914145953755 0.062728839177447093 0 -0.0044639885257456375 0.061349045583337682 0 -0.0063911537791280443 0.060163122607347602 0 -0.010925757468597306 0.061467052028477701 0 -0.0063911537791280443 0.060163122607347602 0 -0.014588007545580086 0.058256170286228558 0 -0.014531171220068339 0.058356095682245139 0 -0.014669225050536826 0.058385499280056305 0 -0.0032091080581969022 0.059956869644496064 0 -0.0031274148347292877 0.060069000912216508 0 -0.0030236315065669305 0.059982727798253303 0 -0.003823822021263057 0.059404932841960953 0 -0.0027157803160244602 0.059552115957652446 0 -0.0031322260431633372 0.059710755857063084 0 -0.0026063616507328827 0.05940492962309344 0 -0.0082430799473104006 0.059085589935879555 0 -0.0032091080581969022 0.059956869644496064 0 -0.0030236315065669305 0.059982727798253303 0 -0.0031322260431633372 0.059710755857063084 0 -0.0063911537791280443 0.060163122607347602 0 -0.0034343946616736108 0.060414156156102808 0 -0.014531171220068339 0.058356095682245139 0 -0.014560101026819873 0.058580068872018068 0 -0.014669225050536826 0.058385499280056305 0 -0.0063911537791280443 0.060163122607347602 0 -0.0082430799473104006 0.059085589935879555 0 -0.0028638508388388008 0.060230792071736684 0 -0.0027157803160244602 0.059552115957652446 0 -0.0031322260431633372 0.059710755857063084 0 -0.0082430799473104006 0.059085589935879555 0 -0.013519001482170646 0.05767094763414074 0 -0.014560101026819873 0.058580068872018068 0 -0.014811434549796153 0.058383482424615919 0 -0.014921803695471384 0.058466006329650051 0 -0.007808026045679462 0.057382576605745819 0 -0.010965052296424062 0.057111308726184321 0 -0.0092587388206639264 0.05876392075901872 0 -0.014560101026819873 0.058580068872018068 0 -0.014811434549796153 0.058383482424615919 0 -0.014669225050536826 0.058385499280056305 0 -0.014811434549796153 0.058383482424615919 0 -0.014834435388605518 0.058261134210056492 0 -0.014981479433971762 0.058234210867723818 0 -0.010925757468597306 0.061467052028477701 0 -0.013350755648464489 0.058244306932585088 0 -0.014811434549796153 0.058383482424615919 0 -0.014669225050536826 0.058385499280056305 0 -0.014834435388605518 0.058261134210056492 0 -0.014718013794462772 0.058264740230346765 0 -0.014669225050536826 0.058385499280056305 0 -0.014834435388605518 0.058261134210056492 0 -0.014811434549796153 0.058383482424615919 0 -0.014981479433971762 0.058234210867723818 0 -0.014921803695471384 0.058466006329650051 0 -0.014981479433971762 0.058234210867723818 0 -0.015166487699720038 0.058133071223016738 0 -0.015222808927723524 0.058301778315400364 0 -0.015440276512951526 0.058000444088349264 0 -0.015166487699720038 0.058133071223016738 0 -0.015222808927723524 0.058301778315400364 0 -0.013776793917803922 0.057373111878048909 0 -0.010965052296424062 0.057111308726184321 0 -0.012632951560395447 0.058553716865694147 0 -0.014981479433971762 0.058234210867723818 0 -0.015222808927723524 0.058301778315400364 0 -0.014921803695471384 0.058466006329650051 0 -0.014314113088548994 0.057875483996239152 0 -0.013519001482170646 0.05767094763414074 0 -0.010965052296424062 0.057111308726184321 0 -0.010763738515677489 0.059846451510503308 0 -0.012632951560395447 0.058553716865694147 0 -0.010763738515677489 0.059846451510503308 0 -0.012632951560395447 0.058553716865694147 0 -0.013155953174724537 0.060076752996699415 0 -0.015073536212295914 0.059232273949994016 0 -0.013776793917803922 0.057373111878048909 0 -0.012632951560395447 0.058553716865694147 0 -0.015073536212295914 0.059232273949994016 0 -0.012632951560395447 0.058553716865694147 0 -0.013155953174724537 0.060076752996699415 0 -0.014442740531326423 0.06055758567866474 0 -0.015073536212295914 0.059232273949994016 0 -0.013155953174724537 0.060076752996699415 0 -0.013442373376991548 0.061538050370513506 0 -0.013155953174724537 0.060076752996699415 0 -0.011627145459517169 0.061408560229167804 0 -0.014442740531326423 0.06055758567866474 0 -0.014770957931644119 0.061539035435107567 0 -0.013442373376991548 0.061538050370513506 0 -0.014442740531326423 0.06055758567866474 0 -0.013442373376991548 0.061538050370513506 0 -0.013155953174724537 0.060076752996699415 0 -0.010763738515677489 0.059846451510503308 0 -0.011627145459517169 0.061408560229167804 0 -0.0092750589893666659 0.061995676390793307 0 -0.010763738515677489 0.059846451510503308 0 -0.013155953174724537 0.060076752996699415 0 -0.011627145459517169 0.061408560229167804 0 -0.010763738515677489 0.059846451510503308 0 -0.0092750589893666659 0.061995676390793307 0 -0.0080292318705777535 0.060708523621487126 0 -0.0063745753406136973 0.062613954671694755 0 -0.0080292318705777535 0.060708523621487126 0 -0.0059856394717503723 0.061189129791648457 0 -0.0063745753406136973 0.062613954671694755 0 -0.0092750589893666659 0.061995676390793307 0 -0.0080292318705777535 0.060708523621487126 0 -0.0063745753406136973 0.062613954671694755 0 -0.0049690808740807148 0.061915800548975192 0 -0.0059856394717503723 0.061189129791648457 0 -0.0080292318705777535 0.060708523621487126 0 -0.0059856394717503723 0.061189129791648457 0 -0.0058215530065191387 0.05981054798987976 0 -0.0082430799473104006 0.059085589935879555 0 -0.0077808888355024525 0.060050586479669911 0 -0.003823822021263057 0.059404932841960953 0 -0.0070296873215100267 0.058213358600420088 0 -0.0058215530065191387 0.05981054798987976 0 -0.0070296873215100267 0.058213358600420088 0 -0.0080292318705777535 0.060708523621487126 0 -0.0058215530065191387 0.05981054798987976 0 -0.010965052296424062 0.057111308726184321 0 -0.010763738515677489 0.059846451510503308 0 -0.0092587388206639264 0.05876392075901872 0 -0.010763738515677489 0.059846451510503308 0 -0.0080292318705777535 0.060708523621487126 0 -0.0092587388206639264 0.05876392075901872 0 -0.007808026045679462 0.057382576605745819 0 -0.0080292318705777535 0.060708523621487126 0 -0.0092587388206639264 0.05876392075901872 0 -0.056541108911631187 0.045809965293387142 0 -0.054866459285620423 0.046039100940091851 0 -0.057632999290046491 0.044042875898372212 0 -0.056537083847254893 0.042737600171678443 0 -0.058053769104892038 0.042422918622993203 0 -0.057632999290046491 0.044042875898372212 0 -0.056340264275517901 0.04379868561805722 0 -0.055771687959568252 0.044587315333894928 0 -0.057632999290046491 0.044042875898372212 0 -0.056340264275517901 0.04379868561805722 0 -0.056537083847254893 0.042737600171678443 0 -0.055507637682878121 0.044308755291174041 0 -0.056537083847254893 0.042737600171678443 0 -0.054999899756786187 0.041948053116982319 0 -0.056340264275517901 0.04379868561805722 0 -0.055507637682878121 0.044308755291174041 0 -0.055771687959568252 0.044587315333894928 0 -0.055507637682878121 0.044308755291174041 0 -0.054999899756786187 0.041948053116982319 0 -0.054999887941144854 0.044903892945458192 0 -0.055507637682878121 0.044308755291174041 0 -0.054999887941144854 0.044903892945458192 0 -0.055823122868775228 0.044685453323485662 0 -0.054823631888503026 0.045567669971666121 0 -0.054866459285620423 0.046039100940091851 0 -0.056340264275517901 0.04379868561805722 0 -0.055507637682878121 0.044308755291174041 0 -0.056537083847254893 0.042737600171678443 0 -0.056537083847254893 0.042737600171678443 0 -0.054999899756786187 0.041948053116982319 0 -0.057218357379938703 0.040938437002047467 0 -0.056537083847254893 0.042737600171678443 0 -0.058053769104892038 0.042422918622993203 0 -0.057218357379938703 0.040938437002047467 0 -0.058053769104892038 0.042422918622993203 0 -0.059526843059085226 0.043587846139272489 0 -0.059349818392682094 0.040864427487910034 0 -0.057585175117252328 0.045699494932733419 0 -0.059770036108182864 0.040015051952040991 0 -0.058053769104892038 0.042422918622993203 0 -0.059349818392682094 0.040864427487910034 0 -0.057218357379938703 0.040938437002047467 0 -0.060237657797623079 0.041832104320988259 0 -0.061316145826799472 0.040750943097444724 0 -0.059349818392682094 0.040864427487910034 0 -0.059665301905908422 0.042677195430432038 0 -0.059280241452943541 0.043081725285398616 0 -0.059349818392682094 0.040864427487910034 0 -0.060237657797623079 0.041832104320988259 0 -0.059665301905908422 0.042677195430432038 0 -0.059349818392682094 0.040864427487910034 0 -0.060237657797623079 0.041832104320988259 0 -0.060124593497027611 0.042593665486528806 0 -0.059665301905908422 0.042677195430432038 0 -0.052890015811245188 0.043623341800765582 0 -0.056403646455391414 0.045675242205651445 0 -0.060570363183255316 0.042814647792473993 0 -0.060124593497027611 0.042593665486528806 0 -0.059819691607367109 0.04297324957466065 0 -0.060237657797623079 0.041832104320988259 0 -0.060570363183255316 0.042814647792473993 0 -0.060124593497027611 0.042593665486528806 0 -0.060124593497027611 0.042593665486528806 0 -0.059819691607367109 0.04297324957466065 0 -0.059665301905908422 0.042677195430432038 0 -0.056403646455391414 0.045675242205651445 0 -0.056730571473401895 0.045034195504365097 0 -0.05982210329554926 0.042976119596935626 0 -0.059665301905908422 0.042677195430432038 0 -0.059280241452943541 0.043081725285398616 0 -0.056403646455391414 0.045675242205651445 0 -0.057585175117252328 0.045699494932733419 0 -0.055255043103787344 0.048658257426674303 0 -0.054956513696018214 0.049871531688746897 0 -0.056030499623728192 0.050091024830306891 0 -0.055255043103787344 0.048658257426674303 0 -0.054956513696018214 0.049871531688746897 0 -0.054259139095686373 0.048862258606653462 0 -0.052768443314801704 0.056668411532122841 0 -0.05347882917488421 0.055665403515067088 0 -0.051886984475673456 0.055254641441850709 0 -0.052890015811245188 0.043623341800765582 0 -0.053030613617415422 0.053266805548066266 0 -0.054970808326863192 0.046066305246837282 0 -0.052495547773490643 0.046585002878805737 0 -0.053882014449163684 0.04911071299539993 0 -0.056403646455391414 0.045675242205651445 0 -0.053030613617415422 0.053266805548066266 0 -0.052870580957653686 0.057373532289208724 0 -0.052768443314801704 0.056668411532122841 0 -0.05347882917488421 0.055665403515067088 0 -0.056541108911631187 0.045809965293387142 0 -0.057585175117252328 0.045699494932733419 0 -0.055285900723332185 0.047595599668570437 0 -0.057169690338994793 0.047205225501543296 0 -0.057178987885596756 0.049060795696893235 0 -0.057632999290046491 0.044042875898372212 0 -0.058053769104892038 0.042422918622993203 0 -0.059526843059085226 0.043587846139272489 0 -0.057585175117252328 0.045699494932733419 0 -0.055729080304858181 0.050682086960662981 0 -0.055285900723332185 0.047595599668570437 0 -0.057178987885596756 0.049060795696893235 0 -0.055089312197791909 0.050005748821527439 0 -0.050337495225340832 0.057664128810029379 0 -0.050495401244581704 0.057262903523417473 0 -0.050111634149573044 0.057116041573154037 0 -0.054956513696018214 0.049871531688746897 0 -0.054259139095686373 0.048862258606653462 0 -0.054282967683548893 0.051871601030565956 0 -0.053030613617415422 0.053266805548066266 0 -0.052709644893723109 0.055259364596370597 0 -0.054956513696018214 0.049871531688746897 0 -0.056030499623728192 0.050091024830306891 0 -0.054282967683548893 0.051871601030565956 0 -0.056030499623728192 0.050091024830306891 0 -0.054282967683548893 0.051871601030565956 0 -0.0551646762387272 0.052476237756971487 0 -0.054282967683548893 0.051871601030565956 0 -0.0551646762387272 0.052476237756971487 0 -0.054318135610424395 0.054830710161151083 0 -0.050495401244581704 0.057262903523417473 0 -0.050427500028493555 0.056967880912254215 0 -0.050111634149573044 0.057116041573154037 0 -0.050495401244581704 0.057262903523417473 0 -0.050770733197640708 0.056721379024054684 0 -0.050427500028493555 0.056967880912254215 0 -0.052709644893723109 0.055259364596370597 0 -0.054055852131732592 0.053989563415419904 0 -0.050770733197640708 0.056721379024054684 0 -0.050345440993329847 0.056762476394171014 0 -0.050427500028493555 0.056967880912254215 0 -0.050345440993329847 0.056762476394171014 0 -0.050061327032191731 0.05659634674754066 0 -0.050111634149573044 0.057116041573154037 0 -0.050345440993329847 0.056762476394171014 0 -0.050427500028493555 0.056967880912254215 0 -0.050111634149573044 0.057116041573154037 0 -0.055729080304858181 0.050682086960662981 0 -0.054055852131732592 0.053989563415419904 0 -0.057178987885596756 0.049060795696893235 0 -0.057189324243720474 0.050922345580307442 0 -0.055089312197791909 0.050005748821527439 0 -0.057189324243720474 0.050922345580307442 0 -0.055089312197791909 0.050005748821527439 0 -0.056774915233880036 0.052061003442937522 0 -0.055783833083445686 0.048882269267984634 0 -0.054866459285620423 0.046039100940091851 0 -0.055285900723332185 0.047595599668570437 0 -0.055089312197791909 0.050005748821527439 0 -0.053417036468665607 0.047972521879706784 0 -0.055000020896319342 0.04490541776295412 0 -0.055600248333137862 0.045038220063224783 0 -0.054998425207026497 0.048161312391918655 0 -0.055000478252541021 0.044905283215877639 0 -0.054866459285620423 0.046039100940091851 0 -0.05635908842931827 0.048017393796564126 0 -0.055600248333137862 0.045038220063224783 0 -0.054998425207026497 0.048161312391918655 0 -0.05635908842931827 0.048017393796564126 0 -0.054998425207026497 0.048161312391918655 0 -0.055427248196565249 0.050887850502244675 0 -0.054998425207026497 0.048161312391918655 0 -0.055427248196565249 0.050887850502244675 0 -0.054999093579818192 0.051417004904168589 0 -0.05635908842931827 0.048017393796564126 0 -0.055427248196565249 0.050887850502244675 0 -0.055788956674906187 0.051182087184939391 0 -0.055427248196565249 0.050887850502244675 0 -0.055371037371271303 0.052626727754121201 0 -0.055362020777993182 0.05276814524583294 0 -0.055427248196565249 0.050887850502244675 0 -0.055788956674906187 0.051182087184939391 0 -0.055371037371271303 0.052626727754121201 0 -0.055371037371271303 0.052626727754121201 0 -0.055362020777993182 0.05276814524583294 0 -0.054883340020553832 0.053315956475473214 0 -0.055427248196565249 0.050887850502244675 0 -0.054999093579818192 0.051417004904168589 0 -0.055362020777993182 0.05276814524583294 0 -0.054999093579818192 0.051417004904168589 0 -0.055474514256926927 0.05306408213849443 0 -0.05499953051561076 0.054666566906166163 0 -0.054999093579818192 0.051417004904168589 0 -0.055474514256926927 0.05306408213849443 0 -0.055362020777993182 0.05276814524583294 0 -0.052731719597341076 0.055450041429568775 0 -0.055000041785857184 0.054997270069229845 0 -0.049849099866854006 0.05499864117643985 0 -0.055362020777993182 0.05276814524583294 0 -0.054553231409897054 0.053424372569349607 0 -0.054883340020553832 0.053315956475473214 0 -0.055362020777993182 0.05276814524583294 0 -0.054923430782309067 0.053181698990806811 0 -0.054553231409897054 0.053424372569349607 0 -0.055474514256926927 0.05306408213849443 0 -0.055362020777993182 0.05276814524583294 0 -0.054923430782309067 0.053181698990806811 0 -0.055474514256926927 0.05306408213849443 0 -0.054923430782309067 0.053181698990806811 0 -0.05544252395317515 0.053016738611149916 0 -0.054923430782309067 0.053181698990806811 0 -0.05544252395317515 0.053016738611149916 0 -0.053396503733205203 0.05223249747157039 0 -0.053910216431487044 0.054239631407283585 0 -0.054999415428895117 0.054669908205011039 0 -0.055474514256926927 0.05306408213849443 0 -0.05544252395317515 0.053016738611149916 0 -0.05499953051561076 0.054666566906166163 0 -0.052731719597341076 0.055450041429568775 0 -0.054999276181543752 0.054675139501390961 0 -0.055000041785857184 0.054997270069229845 0 -0.051874632207320026 0.054069661386191022 0 -0.049128853514775979 0.054584155414076817 0 -0.051430134565327218 0.054029325105582261 0 -0.053396503733205203 0.05223249747157039 0 -0.048612722748619157 0.054811246843342952 0 -0.049849099866854006 0.05499864117643985 0 -0.050371392819330583 0.055588093353196422 0 -0.048612722748619157 0.054811246843342952 0 -0.051430134565327218 0.054029325105582261 0 -0.050431926367964806 0.054727343069045253 0 -0.048612722748619157 0.054811246843342952 0 -0.052731719597341076 0.055450041429568775 0 -0.049849099866854006 0.05499864117643985 0 -0.050371392819330583 0.055588093353196422 0 -0.053910216431487044 0.054239631407283585 0 -0.051874632207320026 0.054069661386191022 0 -0.054923430782309067 0.053181698990806811 0 -0.053396503733205203 0.05223249747157039 0 -0.053448848663590516 0.053506254075395943 0 -0.051430134565327218 0.054029325105582261 0 -0.053396503733205203 0.05223249747157039 0 -0.053448848663590516 0.053506254075395943 0 -0.051430134565327218 0.054029325105582261 0 -0.053448848663590516 0.053506254075395943 0 -0.052233268758510899 0.054086504956995955 0 -0.053448848663590516 0.053506254075395943 0 -0.054553231409897054 0.053424372569349607 0 -0.053367185498714394 0.053865608430548134 0 -0.053448848663590516 0.053506254075395943 0 -0.053367185498714394 0.053865608430548134 0 -0.052233268758510899 0.054086504956995955 0 -0.054923430782309067 0.053181698990806811 0 -0.053448848663590516 0.053506254075395943 0 -0.054553231409897054 0.053424372569349607 0 -0.054553231409897054 0.053424372569349607 0 -0.053953508541785454 0.053819572223551763 0 -0.054883340020553832 0.053315956475473214 0 -0.053367185498714394 0.053865608430548134 0 -0.053953508541785454 0.053819572223551763 0 -0.052122015168415747 0.054406651701661091 0 -0.053953508541785454 0.053819572223551763 0 -0.052122015168415747 0.054406651701661091 0 -0.053149629859753161 0.054268374685605331 0 -0.054553231409897054 0.053424372569349607 0 -0.053367185498714394 0.053865608430548134 0 -0.053953508541785454 0.053819572223551763 0 -0.053367185498714394 0.053865608430548134 0 -0.052122015168415747 0.054406651701661091 0 -0.052233268758510899 0.054086504956995955 0 -0.052122015168415747 0.054406651701661091 0 -0.052233268758510899 0.054086504956995955 0 -0.050431926367964806 0.054727343069045253 0 -0.051430134565327218 0.054029325105582261 0 -0.052233268758510899 0.054086504956995955 0 -0.050431926367964806 0.054727343069045253 0 -0.050431926367964806 0.054727343069045253 0 -0.050423196902817588 0.055236974233500206 0 -0.048898373716043823 0.055415468650080867 0 -0.052122015168415747 0.054406651701661091 0 -0.050431926367964806 0.054727343069045253 0 -0.050423196902817588 0.055236974233500206 0 -0.050423196902817588 0.055236974233500206 0 -0.053149629859753161 0.054268374685605331 0 -0.053509064267405863 0.054672530320071605 0 -0.052122015168415747 0.054406651701661091 0 -0.050423196902817588 0.055236974233500206 0 -0.053149629859753161 0.054268374685605331 0 -0.050423196902817588 0.055236974233500206 0 -0.053509064267405863 0.054672530320071605 0 -0.053666529304583814 0.054724670337486722 0 -0.050473113146467921 0.0548796408609648 0 -0.053285984227598983 0.054825303124437681 0 -0.053296498728772568 0.054833533390097243 0 -0.053285984227598983 0.054825303124437681 0 -0.050423196902817588 0.055236974233500206 0 -0.050181331257185997 0.055976519821319251 0 -0.05082881729182024 0.056023542582123949 0 -0.055371037371271303 0.052626727754121201 0 -0.054883340020553832 0.053315956475473214 0 -0.054683100196487075 0.053655821521078985 0 -0.053953508541785454 0.053819572223551763 0 -0.054883340020553832 0.053315956475473214 0 -0.054683100196487075 0.053655821521078985 0 -0.053953508541785454 0.053819572223551763 0 -0.053149629859753161 0.054268374685605331 0 -0.054683100196487075 0.053655821521078985 0 -0.053149629859753161 0.054268374685605331 0 -0.054683100196487075 0.053655821521078985 0 -0.054231418159776168 0.053965319172313772 0 -0.053149629859753161 0.054268374685605331 0 -0.053509064267405863 0.054672530320071605 0 -0.054231418159776168 0.053965319172313772 0 -0.053509064267405863 0.054672530320071605 0 -0.054231418159776168 0.053965319172313772 0 -0.055380904135948143 0.053512944254690213 0 -0.053509064267405863 0.054672530320071605 0 -0.055380904135948143 0.053512944254690213 0 -0.053453672930265463 0.055067051570509173 0 -0.054683100196487075 0.053655821521078985 0 -0.054231418159776168 0.053965319172313772 0 -0.055380904135948143 0.053512944254690213 0 -0.055371037371271303 0.052626727754121201 0 -0.054683100196487075 0.053655821521078985 0 -0.055380904135948143 0.053512944254690213 0 -0.055788956674906187 0.051182087184939391 0 -0.055371037371271303 0.052626727754121201 0 -0.055380904135948143 0.053512944254690213 0 -0.05635908842931827 0.048017393796564126 0 -0.055788956674906187 0.051182087184939391 0 -0.056746556108828637 0.051504715666416574 0 -0.053958319610757401 0.053783891286358347 0 -0.053891140585056931 0.053973997719128232 0 -0.053961690889251471 0.054060235196466098 0 -0.055783833083445686 0.048882269267984634 0 -0.055301456780640523 0.052911286822283292 0 -0.055788956674906187 0.051182087184939391 0 -0.055380904135948143 0.053512944254690213 0 -0.056746556108828637 0.051504715666416574 0 -0.055311071761782793 0.053596371686593286 0 -0.055301456780640523 0.052911286822283292 0 -0.055380904135948143 0.053512944254690213 0 -0.054650530869987148 0.056428895397824023 0 -0.053453672930265463 0.055067051570509173 0 -0.055301456780640523 0.052911286822283292 0 -0.053285984227598983 0.054825303124437681 0 -0.054055852131732592 0.053989563415419904 0 -0.055301456780640523 0.052911286822283292 0 -0.054055852131732592 0.053989563415419904 0 -0.053285984227598983 0.054825303124437681 0 -0.050770733197640708 0.056721379024054684 0 -0.05082881729182024 0.056023542582123949 0 -0.050470715867289233 0.056409366067795494 0 -0.050181331257185997 0.055976519821319251 0 -0.050470715867289233 0.056409366067795494 0 -0.050061327032191731 0.05659634674754066 0 -0.050181331257185997 0.055976519821319251 0 -0.05082881729182024 0.056023542582123949 0 -0.050470715867289233 0.056409366067795494 0 -0.050770733197640708 0.056721379024054684 0 -0.050345440993329847 0.056762476394171014 0 -0.050470715867289233 0.056409366067795494 0 -0.050345440993329847 0.056762476394171014 0 -0.050470715867289233 0.056409366067795494 0 -0.050061327032191731 0.05659634674754066 0 -0.050181331257185997 0.055976519821319251 0 -0.050061327032191731 0.05659634674754066 0 -0.049151270375147646 0.056208486445360695 0 -0.049849099866854006 0.05499864117643985 0 -0.048612722748619157 0.054811246843342952 0 -0.042919811317145604 0.054997448239111776 0 -0.047241815888363348 0.056058441180015198 0 -0.047002571139210532 0.056134486524047865 0 -0.047364496063506803 0.056813348880681347 0 -0.049151270375147646 0.056208486445360695 0 -0.049229615306934753 0.055571628377387501 0 -0.048921944311671309 0.055489504424315564 0 -0.045557207136976981 0.055824583334446475 0 -0.044230908720761096 0.056344269347440905 0 -0.047241815888363348 0.056058441180015198 0 -0.047002571139210532 0.056134486524047865 0 -0.046832019543766895 0.055402343487056409 0 -0.047002571139210532 0.056134486524047865 0 -0.046832019543766895 0.055402343487056409 0 -0.046647776191560117 0.055479385038557143 0 -0.048258484805676446 0.056062550900878992 0 -0.046378050845740953 0.056354128913613653 0 -0.050181331257185997 0.055976519821319251 0 -0.049151270375147646 0.056208486445360695 0 -0.049229615306934753 0.055571628377387501 0 -0.050423196902817588 0.055236974233500206 0 -0.050181331257185997 0.055976519821319251 0 -0.049229615306934753 0.055571628377387501 0 -0.045997191919998119 0.055641527582020976 0 -0.048612722748619157 0.054811246843342952 0 -0.042919811317145604 0.054997448239111776 0 -0.050423196902817588 0.055236974233500206 0 -0.049229615306934753 0.055571628377387501 0 -0.048898373716043823 0.055415468650080867 0 -0.050431926367964806 0.054727343069045253 0 -0.048898373716043823 0.055415468650080867 0 -0.048612722748619157 0.054811246843342952 0 -0.049229615306934753 0.055571628377387501 0 -0.048898373716043823 0.055415468650080867 0 -0.048921944311671309 0.055489504424315564 0 -0.049036428754686959 0.055582323141663462 0 -0.046378050845740953 0.056354128913613653 0 -0.048898373716043823 0.055415468650080867 0 -0.04521843434004745 0.057835545480348208 0 -0.045997191919998119 0.055641527582020976 0 -0.048898373716043823 0.055415468650080867 0 -0.045997191919998119 0.055641527582020976 0 -0.048612722748619157 0.054811246843342952 0 -0.042379133391851918 0.054999954004893929 0 -0.041589225317428806 0.056370894559956315 0 -0.039959956088252001 0.054999972456898305 0 -0.042379635813845101 0.055000195428198388 0 -0.043260795296977392 0.056862724014324746 0 -0.042379133391851918 0.054999954004893929 0 -0.041589225317428806 0.056370894559956315 0 -0.043093942893805227 0.056677400368915568 0 -0.042379873730645473 0.055000082526610893 0 -0.042916168902299913 0.054999894778333419 0 -0.043247571504492793 0.056592248466851763 0 -0.042916767939206332 0.05500010760703429 0 -0.043955464242361811 0.056322202206495142 0 -0.045997191919998119 0.055641527582020976 0 -0.042919811317145604 0.054997448239111776 0 -0.044195392926755173 0.05598350172030201 0 -0.042916168902299913 0.054999894778333419 0 -0.043744567425820009 0.056474244169211575 0 -0.043247571504492793 0.056592248466851763 0 -0.043093942893805227 0.056677400368915568 0 -0.042230005604568549 0.057533057702535563 0 -0.043858411379340927 0.058284856922519217 0 -0.044499052843246317 0.057798621459947165 0 -0.043744567425820009 0.056474244169211575 0 -0.043982003408290782 0.058019461091502779 0 -0.043744567425820009 0.056474244169211575 0 -0.043247571504492793 0.056592248466851763 0 -0.043982003408290782 0.058019461091502779 0 -0.04521843434004745 0.057835545480348208 0 -0.045997191919998119 0.055641527582020976 0 -0.044195392926755173 0.05598350172030201 0 -0.043260795296977392 0.056862724014324746 0 -0.044230908720761096 0.056344269347440905 0 -0.046378050845740953 0.056354128913613653 0 -0.043955464242361811 0.056322202206495142 0 -0.041589225317428806 0.056370894559956315 0 -0.042230005604568549 0.057533057702535563 0 -0.040341103623548147 0.057358488426898169 0 -0.042230005604568549 0.057533057702535563 0 -0.042246699767805429 0.058964275038511767 0 -0.040341103623548147 0.057358488426898169 0 -0.041589225317428806 0.056370894559956315 0 -0.043093942893805227 0.056677400368915568 0 -0.042230005604568549 0.057533057702535563 0 -0.042230005604568549 0.057533057702535563 0 -0.042246699767805429 0.058964275038511767 0 -0.043858411379340927 0.058284856922519217 0 -0.042384281714901752 0.056685745970456829 0 -0.03907166131402616 0.056355942296929182 0 -0.044368965110001532 0.05565829820196487 0 -0.043536309430299278 0.053984832561105603 0 -0.043008248975413624 0.055364334794269901 0 -0.042261209456449775 0.054511220364742548 0 -0.043536309430299278 0.053984832561105603 0 -0.043008248975413624 0.055364334794269901 0 -0.042384281714901752 0.056685745970456829 0 -0.044230908720761096 0.056344269347440905 0 -0.046378050845740953 0.056354128913613653 0 -0.044230908720761096 0.056344269347440905 0 -0.043008248975413624 0.055364334794269901 0 -0.041912311479007633 0.055855352737068674 0 -0.043207432019705887 0.056514742807269099 0 -0.044368965110001532 0.05565829820196487 0 -0.043008248975413624 0.055364334794269901 0 -0.043207432019705887 0.056514742807269099 0 -0.042261209456449775 0.054511220364742548 0 -0.041912311479007633 0.055855352737068674 0 -0.040949740464321115 0.05502329269498165 0 -0.042261209456449775 0.054511220364742548 0 -0.043008248975413624 0.055364334794269901 0 -0.041912311479007633 0.055855352737068674 0 -0.041912311479007633 0.055855352737068674 0 -0.043207432019705887 0.056514742807269099 0 -0.041186777721697904 0.057311802878121952 0 -0.042962415314570471 0.057931130688603429 0 -0.043207432019705887 0.056514742807269099 0 -0.041186777721697904 0.057311802878121952 0 -0.040014337153302326 0.05607358676847591 0 -0.037785277297571015 0.056125719271073113 0 -0.037696207764964525 0.055241209212984504 0 -0.043584404306390018 0.055518328597100132 0 -0.039324490244431271 0.055780727969511751 0 -0.043584404306390018 0.055518328597100132 0 -0.038292760220304263 0.056205919136266026 0 -0.043593940328263359 0.055670129315375343 0 -0.045589058364448376 0.054001987593748406 0 -0.041294898912002317 0.054936583319541502 0 -0.043593940328263359 0.055670129315375343 0 -0.045589058364448376 0.054001987593748406 0 -0.045479372601144735 0.056902603807417178 0 -0.040014337153302326 0.05607358676847591 0 -0.037681087835843466 0.056575607027970425 0 -0.037785277297571015 0.056125719271073113 0 -0.043593940328263359 0.055670129315375343 0 -0.042348364563934641 0.056146689826851857 0 -0.041294898912002317 0.054936583319541502 0 -0.045589058364448376 0.054001987593748406 0 -0.049322528847992105 0.055463386459699782 0 -0.047316381335309916 0.056205831721548333 0 -0.043584404306390018 0.055518328597100132 0 -0.049505727578328461 0.055384555026478016 0 -0.042962415314570471 0.057931130688603429 0 -0.043207432019705887 0.056514742807269099 0 -0.045221787312054257 0.057345987266956465 0 -0.045557207136976981 0.055824583334446475 0 -0.048187640835016407 0.055622587340740832 0 -0.044368965110001532 0.05565829820196487 0 -0.043207432019705887 0.056514742807269099 0 -0.045221787312054257 0.057345987266956465 0 -0.047241815888363348 0.056058441180015198 0 -0.047364496063506803 0.056813348880681347 0 -0.047660226422836266 0.056738944792981853 0 -0.048258484805676446 0.056062550900878992 0 -0.049744177271955133 0.056577640180730013 0 -0.050061327032191731 0.05659634674754066 0 -0.049151270375147646 0.056208486445360695 0 -0.049866418920237236 0.057198658802077161 0 -0.050061327032191731 0.05659634674754066 0 -0.049866418920237236 0.057198658802077161 0 -0.050111634149573044 0.057116041573154037 0 -0.048187640835016407 0.055622587340740832 0 -0.049744177271955133 0.056577640180730013 0 -0.049744177271955133 0.056577640180730013 0 -0.049872132681978265 0.056693642670063958 0 -0.050940279555519073 0.054501411159086681 0 -0.051886984475673456 0.055254641441850709 0 -0.048996668668349896 0.05546418321955341 0 -0.053030613617415422 0.053266805548066266 0 -0.049744177271955133 0.056577640180730013 0 -0.051667501409994612 0.052530071837520197 0 -0.050940279555519073 0.054501411159086681 0 -0.051886984475673456 0.055254641441850709 0 -0.05347882917488421 0.055665403515067088 0 -0.051667501409994612 0.052530071837520197 0 -0.051886984475673456 0.055254641441850709 0 -0.050337495225340832 0.057664128810029379 0 -0.049971132441711738 0.057149247878918917 0 -0.050111634149573044 0.057116041573154037 0 -0.050164700495802107 0.052924249950404019 0 -0.051667501409994612 0.052530071837520197 0 -0.050940279555519073 0.054501411159086681 0 -0.048187640835016407 0.055622587340740832 0 -0.04973372359179299 0.054352604019491942 0 -0.043584404306390018 0.055518328597100132 0 -0.048187640835016407 0.055622587340740832 0 -0.045158232559605938 0.054128262359342073 0 -0.050129176904317702 0.052835924886307152 0 -0.048996668668349896 0.05546418321955341 0 -0.050129176904317702 0.052835924886307152 0 -0.050940279555519073 0.054501411159086681 0 -0.048996668668349896 0.05546418321955341 0 -0.049322528847992105 0.055463386459699782 0 -0.048813087099772182 0.058347189152110561 0 -0.047316381335309916 0.056205831721548333 0 -0.052768443314801704 0.056668411532122841 0 -0.049322528847992105 0.055463386459699782 0 -0.048813087099772182 0.058347189152110561 0 -0.052890015811245188 0.043623341800765582 0 -0.048210210518730576 0.046335906093590687 0 -0.052768443314801704 0.056668411532122841 0 -0.051886984475673456 0.055254641441850709 0 -0.048996668668349896 0.05546418321955341 0 -0.052870580957653686 0.057373532289208724 0 -0.052768443314801704 0.056668411532122841 0 -0.048813087099772182 0.058347189152110561 0 -0.052398949878103097 0.056590244095445601 0 -0.049505727578328461 0.055384555026478016 0 -0.049375992140058882 0.033728122042683155 0 -0.048403938538891869 0.033789609061898512 0 -0.049074776633386462 0.034452645003532976 0 -0.060237657797623079 0.041832104320988259 0 -0.060570363183255316 0.042814647792473993 0 -0.061316145826799472 0.040750943097444724 0 -0.052890015811245188 0.043623341800765582 0 -0.055949305534682817 0.036415603259311577 0 -0.048403938538891869 0.033789609061898512 0 -0.048167346845943738 0.03429319120859798 0 -0.049074776633386462 0.034452645003532976 0 -0.047280364310763892 0.0338507087951294 0 -0.047554466999255543 0.034273489348690463 0 -0.048167346845943738 0.03429319120859798 0 -0.048210210518730576 0.046335906093590687 0 -0.045673701828511076 0.046809601083654874 0 -0.048403938538891869 0.033789609061898512 0 -0.047280364310763892 0.0338507087951294 0 -0.048167346845943738 0.03429319120859798 0 -0.047280364310763892 0.0338507087951294 0 -0.046989115927133118 0.034221107372838531 0 -0.047554466999255543 0.034273489348690463 0 -0.047280364310763892 0.0338507087951294 0 -0.046052899721122503 0.034137399470434933 0 -0.046989115927133118 0.034221107372838531 0 -0.044398331806208502 0.05960636255562711 0 -0.043013727250472193 0.057167044549386398 0 -0.045479372601144735 0.056902603807417178 0 -0.044398331806208502 0.05960636255562711 0 -0.043013727250472193 0.057167044549386398 0 -0.041576257450468515 0.058426039006334092 0 -0.043593940328263359 0.055670129315375343 0 -0.043013727250472193 0.057167044549386398 0 -0.042348364563934641 0.056146689826851857 0 -0.043013727250472193 0.057167044549386398 0 -0.042348364563934641 0.056146689826851857 0 -0.041457858225106982 0.056795608853699928 0 -0.043593940328263359 0.055670129315375343 0 -0.043013727250472193 0.057167044549386398 0 -0.045479372601144735 0.056902603807417178 0 -0.045589058364448376 0.054001987593748406 0 -0.047316381335309916 0.056205831721548333 0 -0.045479372601144735 0.056902603807417178 0 -0.048813087099772182 0.058347189152110561 0 -0.044398331806208502 0.05960636255562711 0 -0.045479372601144735 0.056902603807417178 0 -0.048813087099772182 0.058347189152110561 0 -0.047316381335309916 0.056205831721548333 0 -0.045479372601144735 0.056902603807417178 0 -0.036443468594940964 0.056748709149966145 0 -0.03797853728562859 0.05738168811223545 0 -0.041294898912002317 0.054936583319541502 0 -0.036328440466139207 0.057554560433713209 0 -0.03797853728562859 0.05738168811223545 0 -0.039360433636085164 0.060889849453553378 0 -0.036328440466139207 0.057554560433713209 0 -0.036443468594940964 0.056748709149966145 0 -0.03797853728562859 0.05738168811223545 0 -0.03797853728562859 0.05738168811223545 0 -0.039610021525826211 0.057574031546169829 0 -0.039360433636085164 0.060889849453553378 0 -0.03797853728562859 0.05738168811223545 0 -0.039610021525826211 0.057574031546169829 0 -0.041294898912002317 0.054936583319541502 0 -0.042348364563934641 0.056146689826851857 0 -0.041457858225106982 0.056795608853699928 0 -0.041294898912002317 0.054936583319541502 0 -0.041457858225106982 0.056795608853699928 0 -0.039610021525826211 0.057574031546169829 0 -0.041294898912002317 0.054936583319541502 0 -0.043013727250472193 0.057167044549386398 0 -0.041457858225106982 0.056795608853699928 0 -0.041576257450468515 0.058426039006334092 0 -0.041457858225106982 0.056795608853699928 0 -0.041576257450468515 0.058426039006334092 0 -0.039610021525826211 0.057574031546169829 0 -0.041576257450468515 0.058426039006334092 0 -0.039610021525826211 0.057574031546169829 0 -0.039360433636085164 0.060889849453553378 0 -0.045673701828511076 0.046809601083654874 0 -0.043703294175734375 0.046759734872086074 0 -0.044398331806208502 0.05960636255562711 0 -0.041576257450468515 0.058426039006334092 0 -0.039360433636085164 0.060889849453553378 0 -0.043703294175734375 0.046759734872086074 0 -0.033998621173518193 0.049923877214063377 0 -0.037951915135125802 0.059923107452312184 0 -0.043703294175734375 0.046759734872086074 0 -0.042346535775269069 0.061052120295239744 0 -0.037837448082124511 0.059797219533269164 0 -0.036412393968007425 0.062325658121585789 0 -0.038369340004760111 0.057751461709617986 0 -0.042346535775269069 0.061052120295239744 0 -0.037837448082124511 0.059797219533269164 0 -0.035495755259561626 0.062540103246140608 0 -0.033998621173518193 0.049923877214063377 0 -0.037837448082124511 0.059797219533269164 0 -0.034399016317510342 0.058169379723478486 0 -0.036412393968007425 0.062325658121585789 0 -0.032720794294546746 0.058764903295594785 0 -0.034399016317510342 0.058169379723478486 0 -0.034603866272580053 0.059814831670294347 0 -0.032720794294546746 0.058764903295594785 0 -0.032227388250262515 0.060050770571493196 0 -0.034603866272580053 0.059814831670294347 0 -0.034399016317510342 0.058169379723478486 0 -0.034919065042070672 0.056108608393561216 0 -0.033122707081611372 0.057079349415830358 0 -0.032720794294546746 0.058764903295594785 0 -0.034399016317510342 0.058169379723478486 0 -0.033122707081611372 0.057079349415830358 0 -0.038369340004760111 0.057751461709617986 0 -0.037837448082124511 0.059797219533269164 0 -0.034399016317510342 0.058169379723478486 0 -0.036328440466139207 0.057554560433713209 0 -0.036443468594940964 0.056748709149966145 0 -0.034919065042070672 0.056108608393561216 0 -0.038369340004760111 0.057751461709617986 0 -0.034399016317510342 0.058169379723478486 0 -0.034919065042070672 0.056108608393561216 0 -0.036443468594940964 0.056748709149966145 0 -0.034919065042070672 0.056108608393561216 0 -0.035877867696678944 0.056130299236451173 0 -0.037951915135125802 0.059923107452312184 0 -0.034881498415265534 0.055443731865671794 0 -0.034919065042070672 0.056108608393561216 0 -0.035220441842090042 0.055664505593664551 0 -0.035877867696678944 0.056130299236451173 0 -0.033122707081611372 0.057079349415830358 0 -0.033378680391323412 0.055914511414083837 0 -0.031906629249078583 0.056423393853692966 0 -0.034919065042070672 0.056108608393561216 0 -0.033122707081611372 0.057079349415830358 0 -0.033378680391323412 0.055914511414083837 0 -0.034919065042070672 0.056108608393561216 0 -0.033378680391323412 0.055914511414083837 0 -0.034162663794243271 0.055563074284514964 0 -0.034162663794243271 0.055563074284514964 0 -0.033820884795644206 0.055229849626842423 0 -0.033489411017126908 0.055365123560052493 0 -0.033378680391323412 0.055914511414083837 0 -0.034162663794243271 0.055563074284514964 0 -0.033489411017126908 0.055365123560052493 0 -0.033378680391323412 0.055914511414083837 0 -0.033489411017126908 0.055365123560052493 0 -0.032658312341035382 0.055481385789193441 0 -0.03563040944683038 0.055416197978796947 0 -0.034383513500535492 0.055197726759779575 0 -0.034886877100414042 0.055391123273586987 0 -0.036214378924221718 0.055082493547634247 0 -0.034077683109248684 0.05519347744020317 0 -0.035466475541587369 0.055787561656890514 0 -0.034077683109248684 0.05519347744020317 0 -0.034162185723024721 0.055192348792499096 0 -0.035220441842090042 0.055664505593664551 0 -0.034162663794243271 0.055563074284514964 0 -0.034886877100414042 0.055391123273586987 0 -0.035220441842090042 0.055664505593664551 0 -0.034886877100414042 0.055391123273586987 0 -0.036214378924221718 0.055082493547634247 0 -0.034919065042070672 0.056108608393561216 0 -0.035220441842090042 0.055664505593664551 0 -0.034162663794243271 0.055563074284514964 0 -0.034162663794243271 0.055563074284514964 0 -0.034886877100414042 0.055391123273586987 0 -0.034077683109248684 0.05519347744020317 0 -0.034162663794243271 0.055563074284514964 0 -0.034077683109248684 0.05519347744020317 0 -0.033820884795644206 0.055229849626842423 0 -0.036214378924221718 0.055082493547634247 0 -0.036348197820612264 0.055738421018424543 0 -0.037747112726290451 0.055564051123641066 0 -0.035220441842090042 0.055664505593664551 0 -0.036214378924221718 0.055082493547634247 0 -0.036348197820612264 0.055738421018424543 0 -0.035220441842090042 0.055664505593664551 0 -0.036348197820612264 0.055738421018424543 0 -0.035877867696678944 0.056130299236451173 0 -0.036348197820612264 0.055738421018424543 0 -0.035877867696678944 0.056130299236451173 0 -0.036551027475757239 0.056213078399918411 0 -0.036551027475757239 0.056213078399918411 0 -0.037122323629148371 0.056299270500229127 0 -0.036903047231705025 0.056071933155014977 0 -0.036348197820612264 0.055738421018424543 0 -0.036551027475757239 0.056213078399918411 0 -0.036903047231705025 0.056071933155014977 0 -0.036443468594940964 0.056748709149966145 0 -0.036551027475757239 0.056213078399918411 0 -0.037122323629148371 0.056299270500229127 0 -0.036443468594940964 0.056748709149966145 0 -0.035877867696678944 0.056130299236451173 0 -0.036551027475757239 0.056213078399918411 0 -0.036749259292802254 0.056628064780539611 0 -0.039324490244431271 0.055780727969511751 0 -0.036443468594940964 0.056748709149966145 0 -0.037681087835843466 0.056575607027970425 0 -0.037122323629148371 0.056299270500229127 0 -0.036348197820612264 0.055738421018424543 0 -0.036903047231705025 0.056071933155014977 0 -0.037747112726290451 0.055564051123641066 0 -0.037681087835843466 0.056575607027970425 0 -0.037122323629148371 0.056299270500229127 0 -0.037785277297571015 0.056125719271073113 0 -0.037122323629148371 0.056299270500229127 0 -0.036903047231705025 0.056071933155014977 0 -0.037747112726290451 0.055564051123641066 0 -0.037122323629148371 0.056299270500229127 0 -0.037785277297571015 0.056125719271073113 0 -0.037747112726290451 0.055564051123641066 0 -0.038007801339822733 0.055856022721271811 0 -0.038292760220304263 0.056205919136266026 0 -0.03563040944683038 0.055416197978796947 0 -0.038292760220304263 0.056205919136266026 0 -0.035466475541587369 0.055787561656890514 0 -0.036980985061989997 0.056334530097785197 0 -0.036742553185167053 0.054109507930605191 0 -0.041912311479007633 0.055855352737068674 0 -0.041186777721697904 0.057311802878121952 0 -0.040933150284315843 0.055010470039064445 0 -0.034217224098213393 0.055078204002396922 0 -0.03907166131402616 0.056355942296929182 0 -0.038292760220304263 0.056205919136266026 0 -0.03907166131402616 0.056355942296929182 0 -0.041863031472791121 0.055921670919743018 0 -0.03907166131402616 0.056355942296929182 0 -0.033994416024707458 0.055214296830275462 0 -0.033991453691974698 0.055147020742337037 0 -0.034209255215946054 0.055178703435368438 0 -0.035466475541587369 0.055787561656890514 0 -0.035420873246227697 0.054690801490411188 0 -0.034162185723024721 0.055192348792499096 0 -0.035466475541587369 0.055787561656890514 0 -0.035420873246227697 0.054690801490411188 0 -0.036742553185167053 0.054109507930605191 0 -0.033994416024707458 0.055214296830275462 0 -0.033991453691974698 0.055147020742337037 0 -0.033969439986804274 0.055191218159371377 0 -0.033991453691974698 0.055147020742337037 0 -0.034209255215946054 0.055178703435368438 0 -0.034008402479286472 0.055040366999302537 0 -0.033991453691974698 0.055147020742337037 0 -0.034008402479286472 0.055040366999302537 0 -0.033889312219364053 0.055125801202695064 0 -0.03907166131402616 0.056355942296929182 0 -0.036053019239701389 0.056662517780183448 0 -0.040267352558672635 0.059642225412853279 0 -0.040074688318222022 0.057421651177735532 0 -0.038560269979152642 0.058189788503623087 0 -0.03907166131402616 0.056355942296929182 0 -0.040366791908113098 0.05804287510418206 0 -0.042246699767805429 0.058964275038511767 0 -0.040600464277636007 0.059590806580533569 0 -0.040341103623548147 0.057358488426898169 0 -0.038560269979152642 0.058189788503623087 0 -0.038599370213428262 0.056407962366934634 0 -0.036674353876277925 0.056650127236983865 0 -0.040074688318222022 0.057421651177735532 0 -0.038560269979152642 0.058189788503623087 0 -0.038599370213428262 0.056407962366934634 0 -0.038599370213428262 0.056407962366934634 0 -0.039959301218265207 0.055000008273697637 0 -0.037340688050590883 0.0549999427070548 0 -0.040074688318222022 0.057421651177735532 0 -0.038599370213428262 0.056407962366934634 0 -0.039959301218265207 0.055000008273697637 0 -0.041589225317428806 0.056370894559956315 0 -0.040341103623548147 0.057358488426898169 0 -0.039959956088252001 0.054999972456898305 0 -0.040366791908113098 0.05804287510418206 0 -0.039959475351231698 0.054999556483245775 0 -0.034717514662364758 0.05499960900302598 0 -0.03382443084986872 0.054997515935152029 0 -0.033784442862284679 0.05521104950291586 0 -0.034721583172854183 0.05500010916796795 0 -0.035297329039459105 0.055792400658522763 0 -0.034721677467797939 0.055000005936691888 0 -0.036674353876277925 0.056650127236983865 0 -0.037340688050590883 0.0549999427070548 0 -0.038599370213428262 0.056407962366934634 0 -0.036674353876277925 0.056650127236983865 0 -0.037340688050590883 0.0549999427070548 0 -0.034008402479286472 0.055040366999302537 0 -0.03382443084986872 0.054997515935152029 0 -0.033632672002261534 0.055049586948971364 0 -0.036053019239701389 0.056662517780183448 0 -0.035297329039459105 0.055792400658522763 0 -0.03382443084986872 0.054997515935152029 0 -0.033372042210896964 0.05513248707716497 0 -0.033784442862284679 0.05521104950291586 0 -0.03382443084986872 0.054997515935152029 0 -0.033632672002261534 0.055049586948971364 0 -0.033372042210896964 0.05513248707716497 0 -0.033632672002261534 0.055049586948971364 0 -0.033310031734325132 0.055033103582849137 0 -0.033372042210896964 0.05513248707716497 0 -0.033632672002261534 0.055049586948971364 0 -0.033310031734325132 0.055033103582849137 0 -0.033679649147891184 0.055072493829644673 0 -0.033679649147891184 0.055072493829644673 0 -0.033786894311193784 0.055144897733372993 0 -0.033323994609762611 0.055136185464680437 0 -0.033310031734325132 0.055033103582849137 0 -0.033679649147891184 0.055072493829644673 0 -0.033323994609762611 0.055136185464680437 0 -0.034008402479286472 0.055040366999302537 0 -0.033679649147891184 0.055072493829644673 0 -0.033889312219364053 0.055125801202695064 0 -0.034008402479286472 0.055040366999302537 0 -0.033632672002261534 0.055049586948971364 0 -0.033679649147891184 0.055072493829644673 0 -0.033679649147891184 0.055072493829644673 0 -0.033889312219364053 0.055125801202695064 0 -0.033786894311193784 0.055144897733372993 0 -0.033991453691974698 0.055147020742337037 0 -0.033889312219364053 0.055125801202695064 0 -0.033969439986804274 0.055191218159371377 0 -0.034217224098213393 0.055078204002396922 0 -0.03437371805149933 0.055104892732904115 0 -0.033994416024707458 0.055214296830275462 0 -0.033969439986804274 0.055191218159371377 0 -0.034162185723024721 0.055192348792499096 0 -0.033969439986804274 0.055191218159371377 0 -0.033786894311193784 0.055144897733372993 0 -0.033934905607225084 0.055180903679817407 0 -0.033889312219364053 0.055125801202695064 0 -0.033969439986804274 0.055191218159371377 0 -0.033786894311193784 0.055144897733372993 0 -0.033786894311193784 0.055144897733372993 0 -0.033934905607225084 0.055180903679817407 0 -0.033679705069164803 0.055192380235296851 0 -0.033969439986804274 0.055191218159371377 0 -0.033934905607225084 0.055180903679817407 0 -0.034162185723024721 0.055192348792499096 0 -0.033934905607225084 0.055180903679817407 0 -0.033978410427659922 0.055200419055416429 0 -0.033820884795644206 0.055229849626842423 0 -0.034077683109248684 0.05519347744020317 0 -0.033978410427659922 0.055200419055416429 0 -0.033820884795644206 0.055229849626842423 0 -0.033934905607225084 0.055180903679817407 0 -0.033978410427659922 0.055200419055416429 0 -0.034162185723024721 0.055192348792499096 0 -0.034077683109248684 0.05519347744020317 0 -0.033978410427659922 0.055200419055416429 0 -0.034162185723024721 0.055192348792499096 0 -0.033323994609762611 0.055136185464680437 0 -0.033679705069164803 0.055192380235296851 0 -0.033489411017126908 0.055365123560052493 0 -0.033786894311193784 0.055144897733372993 0 -0.033323994609762611 0.055136185464680437 0 -0.033679705069164803 0.055192380235296851 0 -0.033679705069164803 0.055192380235296851 0 -0.033820884795644206 0.055229849626842423 0 -0.033489411017126908 0.055365123560052493 0 -0.033934905607225084 0.055180903679817407 0 -0.033679705069164803 0.055192380235296851 0 -0.033820884795644206 0.055229849626842423 0 -0.033323994609762611 0.055136185464680437 0 -0.033489411017126908 0.055365123560052493 0 -0.032658312341035382 0.055481385789193441 0 -0.033323994609762611 0.055136185464680437 0 -0.032658312341035382 0.055481385789193441 0 -0.032220325367258759 0.054914082563135271 0 -0.032658312341035382 0.055481385789193441 0 -0.031521070113269059 0.055652889610712242 0 -0.032220325367258759 0.054914082563135271 0 -0.031521070113269059 0.055652889610712242 0 -0.030098955867268847 0.055015554279043206 0 -0.03047840270031342 0.056576010773627956 0 -0.031521070113269059 0.055652889610712242 0 -0.032220325367258759 0.054914082563135271 0 -0.030098955867268847 0.055015554279043206 0 -0.032220325367258759 0.054914082563135271 0 -0.030642073067360949 0.052796217429048282 0 -0.030098955867268847 0.055015554279043206 0 -0.033310031734325132 0.055033103582849137 0 -0.032220325367258759 0.054914082563135271 0 -0.033372042210896964 0.05513248707716497 0 -0.033310031734325132 0.055033103582849137 0 -0.033323994609762611 0.055136185464680437 0 -0.032220325367258759 0.054914082563135271 0 -0.032220325367258759 0.054914082563135271 0 -0.033372042210896964 0.05513248707716497 0 -0.032510681177820078 0.055350786493846095 0 -0.033372042210896964 0.05513248707716497 0 -0.032510681177820078 0.055350786493846095 0 -0.033784442862284679 0.05521104950291586 0 -0.032220325367258759 0.054914082563135271 0 -0.032510681177820078 0.055350786493846095 0 -0.031836421580020167 0.055416101145275273 0 -0.032283230351925311 0.054529047083349901 0 -0.030503696913659634 0.055170615564984371 0 -0.032510681177820078 0.055350786493846095 0 -0.032810563947941365 0.054999148423929028 0 -0.030901518333937263 0.054999886850945728 0 -0.032510681177820078 0.055350786493846095 0 -0.030901518333937263 0.054999886850945728 0 -0.031836421580020167 0.055416101145275273 0 -0.034717514662364758 0.05499960900302598 0 -0.032810563947941365 0.054999148423929028 0 -0.033784442862284679 0.05521104950291586 0 -0.032510681177820078 0.055350786493846095 0 -0.032810563947941365 0.054999148423929028 0 -0.033784442862284679 0.05521104950291586 0 -0.028995254511541606 0.054999655762404773 0 -0.028956203062385232 0.055935958975941134 0 -0.027634568482781861 0.05623354768074619 0 -0.025891256955029147 0.054999427988932724 0 -0.028995254511541606 0.054999655762404773 0 -0.027634568482781861 0.05623354768074619 0 -0.028998525512969102 0.055000001401384196 0 -0.030898911176149225 0.054999971397085234 0 -0.030519809847270419 0.056940842129818307 0 -0.02899856058129693 0.05500104360656969 0 -0.030503696913659634 0.055170615564984371 0 -0.030899126227939045 0.055000910242740529 0 -0.030503696913659634 0.055170615564984371 0 -0.028956203062385232 0.055935958975941134 0 -0.027634568482781861 0.05623354768074619 0 -0.028318043337297566 0.056878207398643243 0 -0.027304222378779715 0.057035864642648891 0 -0.027634568482781861 0.05623354768074619 0 -0.028318043337297566 0.056878207398643243 0 -0.030503696913659634 0.055170615564984371 0 -0.029108249915965296 0.055781524240454697 0 -0.029108249915965296 0.055781524240454697 0 -0.028741249351306723 0.057116548584381262 0 -0.027304222378779715 0.057035864642648891 0 -0.028318043337297566 0.056878207398643243 0 -0.028677240294641866 0.057001749340428835 0 -0.027304222378779715 0.057035864642648891 0 -0.027384044708504411 0.057366042673152838 0 -0.028677240294641866 0.057001749340428835 0 -0.027642090623125812 0.057852687081319194 0 -0.027384044708504411 0.057366042673152838 0 -0.028677240294641866 0.057001749340428835 0 -0.027642090623125812 0.057852687081319194 0 -0.028677240294641866 0.057001749340428835 0 -0.028150078652164338 0.05803199322738057 0 -0.028677240294641866 0.057001749340428835 0 -0.03047840270031342 0.056576010773627956 0 -0.030434704152834422 0.057252017016391162 0 -0.028677240294641866 0.057001749340428835 0 -0.030434704152834422 0.057252017016391162 0 -0.029342005201719285 0.05798037258034535 0 -0.030098955867268847 0.055015554279043206 0 -0.028677240294641866 0.057001749340428835 0 -0.03047840270031342 0.056576010773627956 0 -0.031521070113269059 0.055652889610712242 0 -0.03047840270031342 0.056576010773627956 0 -0.031906629249078583 0.056423393853692966 0 -0.032658312341035382 0.055481385789193441 0 -0.031521070113269059 0.055652889610712242 0 -0.031906629249078583 0.056423393853692966 0 -0.033378680391323412 0.055914511414083837 0 -0.032658312341035382 0.055481385789193441 0 -0.031906629249078583 0.056423393853692966 0 -0.033122707081611372 0.057079349415830358 0 -0.031906629249078583 0.056423393853692966 0 -0.031496597480231245 0.05780609854090063 0 -0.03047840270031342 0.056576010773627956 0 -0.031906629249078583 0.056423393853692966 0 -0.030434704152834422 0.057252017016391162 0 -0.031906629249078583 0.056423393853692966 0 -0.030434704152834422 0.057252017016391162 0 -0.031496597480231245 0.05780609854090063 0 -0.031496597480231245 0.05780609854090063 0 -0.030526516160558338 0.058733042254692204 0 -0.029342005201719285 0.05798037258034535 0 -0.030434704152834422 0.057252017016391162 0 -0.031496597480231245 0.05780609854090063 0 -0.029342005201719285 0.05798037258034535 0 -0.032720794294546746 0.058764903295594785 0 -0.033122707081611372 0.057079349415830358 0 -0.031496597480231245 0.05780609854090063 0 -0.032720794294546746 0.058764903295594785 0 -0.030526516160558338 0.058733042254692204 0 -0.032227388250262515 0.060050770571493196 0 -0.032720794294546746 0.058764903295594785 0 -0.031496597480231245 0.05780609854090063 0 -0.030526516160558338 0.058733042254692204 0 -0.030526516160558338 0.058733042254692204 0 -0.028408306859568366 0.05830205353067739 0 -0.029342005201719285 0.05798037258034535 0 -0.028408306859568366 0.05830205353067739 0 -0.028150078652164338 0.05803199322738057 0 -0.029342005201719285 0.05798037258034535 0 -0.027681525971051196 0.05805797468374424 0 -0.028408306859568366 0.05830205353067739 0 -0.027626265284617868 0.057536080809746586 0 -0.027681525971051196 0.05805797468374424 0 -0.028408306859568366 0.05830205353067739 0 -0.028150078652164338 0.05803199322738057 0 -0.028677240294641866 0.057001749340428835 0 -0.028150078652164338 0.05803199322738057 0 -0.029342005201719285 0.05798037258034535 0 -0.025180603790269068 0.053562439237595877 0 -0.023389088477535465 0.051584887570687507 0 -0.02435288364841523 0.050531276787996654 0 -0.025180603790269068 0.053562439237595877 0 -0.023304405795290802 0.052851808600599889 0 -0.023389088477535465 0.051584887570687507 0 -0.02774324183469597 0.054891735760041714 0 -0.026649047077591394 0.05092564535238444 0 -0.025180603790269068 0.053562439237595877 0 -0.027979378863625729 0.055004786295604749 0 -0.02668915882890039 0.055800197570746606 0 -0.028408306859568366 0.05830205353067739 0 -0.027844335725195627 0.058215007488921847 0 -0.027626265284617868 0.057536080809746586 0 -0.02774324183469597 0.054891735760041714 0 -0.027844335725195627 0.058215007488921847 0 -0.027626265284617868 0.057536080809746586 0 -0.028408306859568366 0.05830205353067739 0 -0.027844335725195627 0.058215007488921847 0 -0.029775787614285964 0.059596603395269926 0 -0.02668915882890039 0.055800197570746606 0 -0.026990209935529804 0.056083065530820139 0 -0.030526516160558338 0.058733042254692204 0 -0.028408306859568366 0.05830205353067739 0 -0.029775787614285964 0.059596603395269926 0 -0.023304405795290802 0.052851808600599889 0 -0.021433111852719237 0.052808858705580289 0 -0.021721520907422399 0.051223816073229948 0 -0.026990209935529804 0.056083065530820139 0 -0.025261202278170379 0.057223821807054175 0 -0.030526516160558338 0.058733042254692204 0 -0.029775787614285964 0.059596603395269926 0 -0.032227388250262515 0.060050770571493196 0 -0.023304405795290802 0.052851808600599889 0 -0.021721520907422399 0.051223816073229948 0 -0.023389088477535465 0.051584887570687507 0 -0.021721520907422399 0.051223816073229948 0 -0.023389088477535465 0.051584887570687507 0 -0.022535527690268006 0.049831612254869949 0 -0.023389088477535465 0.051584887570687507 0 -0.022535527690268006 0.049831612254869949 0 -0.02435288364841523 0.050531276787996654 0 -0.022535527690268006 0.049831612254869949 0 -0.023592494402753204 0.048607570371888127 0 -0.02435288364841523 0.050531276787996654 0 -0.021721520907422399 0.051223816073229948 0 -0.022535527690268006 0.049831612254869949 0 -0.020348720693864241 0.049016605036086409 0 -0.022258043838835687 0.048021045675404633 0 -0.02136732174351675 0.046618318551164072 0 -0.020348720693864241 0.049016605036086409 0 -0.022535527690268006 0.049831612254869949 0 -0.022258043838835687 0.048021045675404633 0 -0.020348720693864241 0.049016605036086409 0 -0.022535527690268006 0.049831612254869949 0 -0.022258043838835687 0.048021045675404633 0 -0.023592494402753204 0.048607570371888127 0 -0.022258043838835687 0.048021045675404633 0 -0.023592494402753204 0.048607570371888127 0 -0.023013356930543023 0.04652849352832647 0 -0.023592494402753204 0.048607570371888127 0 -0.02435288364841523 0.050531276787996654 0 -0.025314091576206427 0.048681299646319599 0 -0.026649047077591394 0.05092564535238444 0 -0.02435288364841523 0.050531276787996654 0 -0.025314091576206427 0.048681299646319599 0 -0.026649047077591394 0.05092564535238444 0 -0.025180603790269068 0.053562439237595877 0 -0.02435288364841523 0.050531276787996654 0 -0.027424192935421771 0.048440058203430114 0 -0.026649047077591394 0.05092564535238444 0 -0.025314091576206427 0.048681299646319599 0 -0.025314091576206427 0.048681299646319599 0 -0.026107317849071311 0.046569729057512541 0 -0.024511644515980174 0.046228954323524495 0 -0.027424192935421771 0.048440058203430114 0 -0.025314091576206427 0.048681299646319599 0 -0.026107317849071311 0.046569729057512541 0 -0.023592494402753204 0.048607570371888127 0 -0.025314091576206427 0.048681299646319599 0 -0.024511644515980174 0.046228954323524495 0 -0.024511644515980174 0.046228954323524495 0 -0.024774021098255206 0.043956387677176668 0 -0.023499566050278829 0.044423198514800082 0 -0.024511644515980174 0.046228954323524495 0 -0.02564237051445032 0.045038062054935074 0 -0.024774021098255206 0.043956387677176668 0 -0.02689349034503704 0.04457707569479126 0 -0.026107317849071311 0.046569729057512541 0 -0.02564237051445032 0.045038062054935074 0 -0.026107317849071311 0.046569729057512541 0 -0.024511644515980174 0.046228954323524495 0 -0.02564237051445032 0.045038062054935074 0 -0.026004255815789756 0.043408554801381213 0 -0.024774021098255206 0.043956387677176668 0 -0.025138787816525822 0.042258436824677142 0 -0.02689349034503704 0.04457707569479126 0 -0.02564237051445032 0.045038062054935074 0 -0.026004255815789756 0.043408554801381213 0 -0.02564237051445032 0.045038062054935074 0 -0.026004255815789756 0.043408554801381213 0 -0.024774021098255206 0.043956387677176668 0 -0.024774021098255206 0.043956387677176668 0 -0.023888490846627215 0.042568279123552571 0 -0.023499566050278829 0.044423198514800082 0 -0.025138787816525822 0.042258436824677142 0 -0.023888490846627215 0.042568279123552571 0 -0.024271426982967227 0.040954070114957955 0 -0.024774021098255206 0.043956387677176668 0 -0.025138787816525822 0.042258436824677142 0 -0.023888490846627215 0.042568279123552571 0 -0.026633408668528685 0.042224046763968071 0 -0.026004255815789756 0.043408554801381213 0 -0.025138787816525822 0.042258436824677142 0 -0.022480519925289079 0.042741132309606855 0 -0.021182435764601572 0.041330445099661779 0 -0.023187494566429729 0.041324054553648397 0 -0.023888490846627215 0.042568279123552571 0 -0.022480519925289079 0.042741132309606855 0 -0.023187494566429729 0.041324054553648397 0 -0.023888490846627215 0.042568279123552571 0 -0.022480519925289079 0.042741132309606855 0 -0.023499566050278829 0.044423198514800082 0 -0.022480519925289079 0.042741132309606855 0 -0.022145656311695544 0.044931900827988126 0 -0.023499566050278829 0.044423198514800082 0 -0.022480519925289079 0.042741132309606855 0 -0.021253550714833983 0.043292799214567218 0 -0.021182435764601572 0.041330445099661779 0 -0.022480519925289079 0.042741132309606855 0 -0.022145656311695544 0.044931900827988126 0 -0.021253550714833983 0.043292799214567218 0 -0.022145656311695544 0.044931900827988126 0 -0.023499566050278829 0.044423198514800082 0 -0.023013356930543023 0.04652849352832647 0 -0.024511644515980174 0.046228954323524495 0 -0.023499566050278829 0.044423198514800082 0 -0.023013356930543023 0.04652849352832647 0 -0.023592494402753204 0.048607570371888127 0 -0.024511644515980174 0.046228954323524495 0 -0.023013356930543023 0.04652849352832647 0 -0.022145656311695544 0.044931900827988126 0 -0.02136732174351675 0.046618318551164072 0 -0.020816064023483939 0.045046552737970667 0 -0.022258043838835687 0.048021045675404633 0 -0.023013356930543023 0.04652849352832647 0 -0.02136732174351675 0.046618318551164072 0 -0.022145656311695544 0.044931900827988126 0 -0.023013356930543023 0.04652849352832647 0 -0.02136732174351675 0.046618318551164072 0 -0.020199864142763771 0.046890878313285679 0 -0.01959131841844005 0.045153223021787751 0 -0.020816064023483939 0.045046552737970667 0 -0.02136732174351675 0.046618318551164072 0 -0.020199864142763771 0.046890878313285679 0 -0.020816064023483939 0.045046552737970667 0 -0.01959131841844005 0.045153223021787751 0 -0.01869629093421862 0.045277252198726622 0 -0.01897714867477682 0.046906707570985424 0 -0.020199864142763771 0.046890878313285679 0 -0.01959131841844005 0.045153223021787751 0 -0.01897714867477682 0.046906707570985424 0 -0.01959131841844005 0.045153223021787751 0 -0.01869629093421862 0.045277252198726622 0 -0.018697290197534432 0.042917523448179978 0 -0.01959131841844005 0.045153223021787751 0 -0.020179285099937092 0.043673905071056812 0 -0.018697290197534432 0.042917523448179978 0 -0.020179285099937092 0.043673905071056812 0 -0.020816064023483939 0.045046552737970667 0 -0.021253550714833983 0.043292799214567218 0 -0.022145656311695544 0.044931900827988126 0 -0.020816064023483939 0.045046552737970667 0 -0.021253550714833983 0.043292799214567218 0 -0.01959131841844005 0.045153223021787751 0 -0.020179285099937092 0.043673905071056812 0 -0.020816064023483939 0.045046552737970667 0 -0.021253550714833983 0.043292799214567218 0 -0.020302481191156192 0.042368057354054391 0 -0.021182435764601572 0.041330445099661779 0 -0.020179285099937092 0.043673905071056812 0 -0.021253550714833983 0.043292799214567218 0 -0.020302481191156192 0.042368057354054391 0 -0.034338784558703553 0.04009204986123549 0 -0.032975066969604387 0.042398410627238273 0 -0.020302481191156192 0.042368057354054391 0 -0.019768887451515536 0.041147289797093853 0 -0.018697290197534432 0.042917523448179978 0 -0.020179285099937092 0.043673905071056812 0 -0.020302481191156192 0.042368057354054391 0 -0.018697290197534432 0.042917523448179978 0 -0.020302481191156192 0.042368057354054391 0 -0.019768887451515536 0.041147289797093853 0 -0.021182435764601572 0.041330445099661779 0 -0.019768887451515536 0.041147289797093853 0 -0.021182435764601572 0.041330445099661779 0 -0.020325070583530631 0.040112330556472897 0 -0.048062561674244907 0.037928322312545275 0 -0.048253402454794855 0.037395746685976096 0 -0.048340259951825393 0.037388904182542149 0 -0.048062561674244907 0.037928322312545275 0 -0.047375918139311107 0.038332958294907661 0 -0.048253402454794855 0.037395746685976096 0 -0.048902617428564922 0.038512423434850784 0 -0.048062561674244907 0.037928322312545275 0 -0.048530053151264858 0.037327633409058196 0 -0.048902617428564922 0.038512423434850784 0 -0.048062561674244907 0.037928322312545275 0 -0.048839681925807378 0.040477168101881553 0 -0.048062561674244907 0.037928322312545275 0 -0.047375918139311107 0.038332958294907661 0 -0.048839681925807378 0.040477168101881553 0 -0.047375918139311107 0.038332958294907661 0 -0.047602778883814138 0.036874837295137797 0 -0.048477673361775366 0.036928934338865779 0 -0.047375918139311107 0.038332958294907661 0 -0.047602778883814138 0.036874837295137797 0 -0.046354880518688496 0.036354453016539598 0 -0.047665565801466026 0.038398562493237892 0 -0.04472149504572713 0.040598161648696826 0 -0.032975066969604387 0.042398410627238273 0 -0.037594018158613692 0.042995795432389579 0 -0.047375918139311107 0.038332958294907661 0 -0.048839681925807378 0.040477168101881553 0 -0.0470693580293731 0.043542780763572472 0 -0.048839681925807378 0.040477168101881553 0 -0.0470693580293731 0.043542780763572472 0 -0.047503619597986289 0.045330338458453849 0 -0.01869629093421862 0.045277252198726622 0 -0.018697290197534432 0.042917523448179978 0 -0.017408325890871754 0.046094636946353247 0 -0.04472149504572713 0.040598161648696826 0 -0.037594018158613692 0.042995795432389579 0 -0.046354880518688496 0.036354453016539598 0 -0.046136386480896595 0.036093763428382518 0 -0.046497923499435712 0.035811636733362018 0 -0.01869629093421862 0.045277252198726622 0 -0.017408325890871754 0.046094636946353247 0 -0.01897714867477682 0.046906707570985424 0 -0.047602778883814138 0.036874837295137797 0 -0.046354880518688496 0.036354453016539598 0 -0.047185372304738037 0.036103446850751918 0 -0.046354880518688496 0.036354453016539598 0 -0.047185372304738037 0.036103446850751918 0 -0.046497923499435712 0.035811636733362018 0 -0.047185372304738037 0.036103446850751918 0 -0.047182718823338375 0.03561149629162981 0 -0.046497923499435712 0.035811636733362018 0 -0.047182718823338375 0.03561149629162981 0 -0.046497923499435712 0.035811636733362018 0 -0.046456259031595837 0.035411965388454585 0 -0.047182718823338375 0.03561149629162981 0 -0.046456259031595837 0.035411965388454585 0 -0.047151319050818763 0.035203764763912571 0 -0.046456259031595837 0.035411965388454585 0 -0.045992690337411421 0.034854129328226853 0 -0.045484695415748747 0.035598654905628253 0 -0.046456259031595837 0.035411965388454585 0 -0.045992690337411421 0.034854129328226853 0 -0.047151319050818763 0.035203764763912571 0 -0.031697544754368409 0.041743376985175079 0 -0.03090720877440652 0.04132874793083216 0 -0.045992690337411421 0.034854129328226853 0 -0.045484695415748747 0.035598654905628253 0 -0.044230821875015883 0.034767083234157947 0 -0.046497923499435712 0.035811636733362018 0 -0.046456259031595837 0.035411965388454585 0 -0.045484695415748747 0.035598654905628253 0 -0.017408325890871754 0.046094636946353247 0 -0.017921709862359508 0.048210953468839343 0 -0.01897714867477682 0.046906707570985424 0 -0.046136386480896595 0.036093763428382518 0 -0.046497923499435712 0.035811636733362018 0 -0.045484695415748747 0.035598654905628253 0 -0.037594018158613692 0.042995795432389579 0 -0.031697544754368409 0.041743376985175079 0 -0.017921709862359508 0.048210953468839343 0 -0.01897714867477682 0.046906707570985424 0 -0.020348720693864241 0.049016605036086409 0 -0.020199864142763771 0.046890878313285679 0 -0.01897714867477682 0.046906707570985424 0 -0.020348720693864241 0.049016605036086409 0 -0.02136732174351675 0.046618318551164072 0 -0.020199864142763771 0.046890878313285679 0 -0.020348720693864241 0.049016605036086409 0 -0.017921709862359508 0.048210953468839343 0 -0.020348720693864241 0.049016605036086409 0 -0.018665724552011188 0.050803060984273077 0 -0.020348720693864241 0.049016605036086409 0 -0.018665724552011188 0.050803060984273077 0 -0.020266799268788261 0.051614270869463685 0 -0.021433111852719237 0.052808858705580289 0 -0.021721520907422399 0.051223816073229948 0 -0.020266799268788261 0.051614270869463685 0 -0.021721520907422399 0.051223816073229948 0 -0.020348720693864241 0.049016605036086409 0 -0.020266799268788261 0.051614270869463685 0 -0.021433111852719237 0.052808858705580289 0 -0.020266799268788261 0.051614270869463685 0 -0.019464608474777167 0.053022794989319152 0 -0.025261202278170379 0.057223821807054175 0 -0.033998621173518193 0.049923877214063377 0 -0.03090720877440652 0.04132874793083216 0 -0.033998621173518193 0.049923877214063377 0 -0.018665724552011188 0.050803060984273077 0 -0.020266799268788261 0.051614270869463685 0 -0.019464608474777167 0.053022794989319152 0 -0.044230821875015883 0.034767083234157947 0 -0.042736075355471359 0.03362820920077312 0 -0.044854069259510916 0.034066230747252006 0 -0.04472405540695857 0.033014296903487741 0 -0.042736075355471359 0.03362820920077312 0 -0.044854069259510916 0.034066230747252006 0 -0.046052899721122503 0.034137399470434933 0 -0.047024410844421861 0.03456716754613532 0 -0.046989115927133118 0.034221107372838531 0 -0.043703294175734375 0.046759734872086074 0 -0.046123811549694194 0.03208815693172367 0 -0.04472405540695857 0.033014296903487741 0 -0.044854069259510916 0.034066230747252006 0 -0.046395356379515564 0.033910591242429726 0 -0.045992690337411421 0.034854129328226853 0 -0.044854069259510916 0.034066230747252006 0 -0.046395356379515564 0.033910591242429726 0 -0.045992690337411421 0.034854129328226853 0 -0.044230821875015883 0.034767083234157947 0 -0.044854069259510916 0.034066230747252006 0 -0.047754785127979475 0.034477540421099545 0 -0.048602560449186795 0.034622386803648285 0 -0.047764997987899571 0.034756998271553263 0 -0.047754785127979475 0.034477540421099545 0 -0.048413788767839069 0.034232452902522151 0 -0.048602560449186795 0.034622386803648285 0 -0.047024410844421861 0.03456716754613532 0 -0.047754785127979475 0.034477540421099545 0 -0.047764997987899571 0.034756998271553263 0 -0.046123811549694194 0.03208815693172367 0 -0.048023600437847931 0.035533204966098901 0 -0.045992690337411421 0.034854129328226853 0 -0.046395356379515564 0.033910591242429726 0 -0.047764997987899571 0.034756998271553263 0 -0.047024410844421861 0.03456716754613532 0 -0.047754785127979475 0.034477540421099545 0 -0.047554466999255543 0.034273489348690463 0 -0.047024410844421861 0.03456716754613532 0 -0.046989115927133118 0.034221107372838531 0 -0.047554466999255543 0.034273489348690463 0 -0.047554466999255543 0.034273489348690463 0 -0.048154588174298164 0.03487939725434696 0 -0.048167346845943738 0.03429319120859798 0 -0.047754785127979475 0.034477540421099545 0 -0.047554466999255543 0.034273489348690463 0 -0.048413788767839069 0.034232452902522151 0 -0.047906699082532353 0.034458121067956392 0 -0.047687302424404499 0.034137158817130774 0 -0.048167346845943738 0.03429319120859798 0 -0.048586152855237985 0.034753235815668276 0 -0.049074776633386462 0.034452645003532976 0 -0.048154588174298164 0.03487939725434696 0 -0.048167346845943738 0.03429319120859798 0 -0.048586152855237985 0.034753235815668276 0 -0.048586152855237985 0.034753235815668276 0 -0.049074776633386462 0.034452645003532976 0 -0.048780617312255067 0.03534368991916647 0 -0.055949305534682817 0.036415603259311577 0 -0.05247765808871873 0.036891452954750832 0 -0.062008192203136123 0.038659587082308808 0 -0.060298052846354887 0.037316116964956444 0 -0.060004711699754042 0.039092980950606385 0 -0.061316145826799472 0.040750943097444724 0 -0.062008192203136123 0.038659587082308808 0 -0.060004711699754042 0.039092980950606385 0 -0.047687302424404499 0.034137158817130774 0 -0.05247765808871873 0.036891452954750832 0 -0.048154588174298164 0.03487939725434696 0 -0.048586152855237985 0.034753235815668276 0 -0.048780617312255067 0.03534368991916647 0 -0.049285936883309379 0.034492367028443098 0 -0.049268132055160764 0.034570519790205777 0 -0.048602560449186795 0.034622386803648285 0 -0.05247765808871873 0.036891452954750832 0 -0.05238590711516234 0.036676034242773506 0 -0.048413788767839069 0.034232452902522151 0 -0.049285936883309379 0.034492367028443098 0 -0.048602560449186795 0.034622386803648285 0 -0.049268132055160764 0.034570519790205777 0 -0.048602560449186795 0.034622386803648285 0 -0.049017940035294444 0.034819401824443111 0 -0.048602560449186795 0.034622386803648285 0 -0.049017940035294444 0.034819401824443111 0 -0.048794456835065114 0.035014891439416503 0 -0.049268132055160764 0.034570519790205777 0 -0.049017940035294444 0.034819401824443111 0 -0.049404062713525168 0.035027152939160928 0 -0.049017940035294444 0.034819401824443111 0 -0.049404062713525168 0.035027152939160928 0 -0.048794456835065114 0.035014891439416503 0 -0.049268132055160764 0.034570519790205777 0 -0.049404062713525168 0.035027152939160928 0 -0.049982043637108814 0.034932650772808944 0 -0.05247765808871873 0.036891452954750832 0 -0.055435496136247521 0.036340055342579961 0 -0.049293078465196601 0.034511069433203326 0 -0.049268132055160764 0.034570519790205777 0 -0.049982043637108814 0.034932650772808944 0 -0.049404062713525168 0.035027152939160928 0 -0.049867516313472929 0.035226795330253018 0 -0.049982043637108814 0.034932650772808944 0 -0.049404062713525168 0.035027152939160928 0 -0.049867516313472929 0.035226795330253018 0 -0.049358410570581955 0.035306210452473674 0 -0.049404062713525168 0.035027152939160928 0 -0.048794456835065114 0.035014891439416503 0 -0.049358410570581955 0.035306210452473674 0 -0.048794456835065114 0.035014891439416503 0 -0.049358410570581955 0.035306210452473674 0 -0.048211126042491094 0.03538316827905285 0 -0.048602560449186795 0.034622386803648285 0 -0.048794456835065114 0.035014891439416503 0 -0.047764997987899571 0.034756998271553263 0 -0.048794456835065114 0.035014891439416503 0 -0.048211126042491094 0.03538316827905285 0 -0.047764997987899571 0.034756998271553263 0 -0.045992690337411421 0.034854129328226853 0 -0.047764997987899571 0.034756998271553263 0 -0.047151319050818763 0.035203764763912571 0 -0.048211126042491094 0.03538316827905285 0 -0.047764997987899571 0.034756998271553263 0 -0.047151319050818763 0.035203764763912571 0 -0.047182718823338375 0.03561149629162981 0 -0.048211126042491094 0.03538316827905285 0 -0.047964984986192366 0.035828336744999571 0 -0.047182718823338375 0.03561149629162981 0 -0.048211126042491094 0.03538316827905285 0 -0.047151319050818763 0.035203764763912571 0 -0.047185372304738037 0.036103446850751918 0 -0.047182718823338375 0.03561149629162981 0 -0.047964984986192366 0.035828336744999571 0 -0.047964984986192366 0.035828336744999571 0 -0.048911900959097108 0.035741330952003797 0 -0.048211754716855598 0.036307941635692086 0 -0.047185372304738037 0.036103446850751918 0 -0.047964984986192366 0.035828336744999571 0 -0.048211754716855598 0.036307941635692086 0 -0.047602778883814138 0.036874837295137797 0 -0.047185372304738037 0.036103446850751918 0 -0.048211754716855598 0.036307941635692086 0 -0.048211126042491094 0.03538316827905285 0 -0.047964984986192366 0.035828336744999571 0 -0.048911900959097108 0.035741330952003797 0 -0.049358410570581955 0.035306210452473674 0 -0.048211126042491094 0.03538316827905285 0 -0.048911900959097108 0.035741330952003797 0 -0.048911900959097108 0.035741330952003797 0 -0.048843138669915548 0.036226889017039014 0 -0.049475174591154109 0.035746429479028799 0 -0.048911900959097108 0.035741330952003797 0 -0.048843138669915548 0.036226889017039014 0 -0.048211754716855598 0.036307941635692086 0 -0.048843138669915548 0.036226889017039014 0 -0.049327615360321618 0.036179699945192142 0 -0.049475174591154109 0.035746429479028799 0 -0.047602778883814138 0.036874837295137797 0 -0.048211754716855598 0.036307941635692086 0 -0.048477673361775366 0.036928934338865779 0 -0.048843138669915548 0.036226889017039014 0 -0.048211754716855598 0.036307941635692086 0 -0.048477673361775366 0.036928934338865779 0 -0.048477673361775366 0.036928934338865779 0 -0.049041232156829075 0.036740835447086416 0 -0.048253402454794855 0.037395746685976096 0 -0.047375918139311107 0.038332958294907661 0 -0.048477673361775366 0.036928934338865779 0 -0.048253402454794855 0.037395746685976096 0 -0.048843138669915548 0.036226889017039014 0 -0.048477673361775366 0.036928934338865779 0 -0.049327615360321618 0.036179699945192142 0 -0.048477673361775366 0.036928934338865779 0 -0.049327615360321618 0.036179699945192142 0 -0.049041232156829075 0.036740835447086416 0 -0.049327615360321618 0.036179699945192142 0 -0.049041232156829075 0.036740835447086416 0 -0.049635824864978875 0.036447750500273594 0 -0.049041232156829075 0.036740835447086416 0 -0.049370805244795715 0.036777987205797585 0 -0.049635824864978875 0.036447750500273594 0 -0.049041232156829075 0.036740835447086416 0 -0.049370805244795715 0.036777987205797585 0 -0.048875441403056288 0.037030770860348471 0 -0.049041232156829075 0.036740835447086416 0 -0.048253402454794855 0.037395746685976096 0 -0.048875441403056288 0.037030770860348471 0 -0.051170220094290821 0.036400115215988349 0 -0.050357481336757826 0.03627482851659293 0 -0.051444144369371225 0.035645939773618615 0 -0.050357481336757826 0.03627482851659293 0 -0.050069808559437858 0.035801699985909513 0 -0.051444144369371225 0.035645939773618615 0 -0.051170220094290821 0.036400115215988349 0 -0.051444144369371225 0.035645939773618615 0 -0.052528867232415045 0.036164747370511563 0 -0.051170220094290821 0.036400115215988349 0 -0.050357481336757826 0.03627482851659293 0 -0.049984838777599974 0.036692349665702992 0 -0.049635824864978875 0.036447750500273594 0 -0.050357481336757826 0.03627482851659293 0 -0.049984838777599974 0.036692349665702992 0 -0.049370805244795715 0.036777987205797585 0 -0.049635824864978875 0.036447750500273594 0 -0.049984838777599974 0.036692349665702992 0 -0.049635824864978875 0.036447750500273594 0 -0.050357481336757826 0.03627482851659293 0 -0.050069808559437858 0.035801699985909513 0 -0.049327615360321618 0.036179699945192142 0 -0.049635824864978875 0.036447750500273594 0 -0.050069808559437858 0.035801699985909513 0 -0.049327615360321618 0.036179699945192142 0 -0.05003922128787025 0.035275210460847424 0 -0.049475174591154109 0.035746429479028799 0 -0.049327615360321618 0.036179699945192142 0 -0.050069808559437858 0.035801699985909513 0 -0.05003922128787025 0.035275210460847424 0 -0.050069808559437858 0.035801699985909513 0 -0.05003922128787025 0.035275210460847424 0 -0.05086311837364188 0.034358700351264919 0 -0.050069808559437858 0.035801699985909513 0 -0.051444144369371225 0.035645939773618615 0 -0.05086311837364188 0.034358700351264919 0 -0.051444144369371225 0.035645939773618615 0 -0.05086311837364188 0.034358700351264919 0 -0.053452887211982346 0.033866488341803828 0 -0.05003922128787025 0.035275210460847424 0 -0.05086311837364188 0.034358700351264919 0 -0.050056634261505653 0.035244123357825605 0 -0.05086311837364188 0.034358700351264919 0 -0.050056634261505653 0.035244123357825605 0 -0.049997277828661132 0.035211357350156576 0 -0.048911900959097108 0.035741330952003797 0 -0.049475174591154109 0.035746429479028799 0 -0.050056634261505653 0.035244123357825605 0 -0.05003922128787025 0.035275210460847424 0 -0.049475174591154109 0.035746429479028799 0 -0.050056634261505653 0.035244123357825605 0 -0.049358410570581955 0.035306210452473674 0 -0.048911900959097108 0.035741330952003797 0 -0.050056634261505653 0.035244123357825605 0 -0.049867516313472929 0.035226795330253018 0 -0.049358410570581955 0.035306210452473674 0 -0.050056634261505653 0.035244123357825605 0 -0.049867516313472929 0.035226795330253018 0 -0.050056634261505653 0.035244123357825605 0 -0.049997277828661132 0.035211357350156576 0 -0.049867516313472929 0.035226795330253018 0 -0.049997277828661132 0.035211357350156576 0 -0.050227176563212239 0.035129540762908466 0 -0.051834030827773665 0.033196386984626444 0 -0.056066204425233454 0.034236841680650582 0 -0.054541255196931829 0.031095682664676851 0 -0.056077318071509646 0.031665491529846879 0 -0.055876875979044421 0.030716111736761764 0 -0.056077318071509646 0.031665491529846879 0 -0.055375917481894597 0.032177335527633438 0 -0.056249156444309133 0.031963440656914463 0 -0.054541255196931829 0.031095682664676851 0 -0.056077318071509646 0.031665491529846879 0 -0.055375917481894597 0.032177335527633438 0 -0.055375917481894597 0.032177335527633438 0 -0.056249156444309133 0.031963440656914463 0 -0.056027429419742841 0.032211154281923025 0 -0.05086311837364188 0.034358700351264919 0 -0.054541255196931829 0.031095682664676851 0 -0.053452887211982346 0.033866488341803828 0 -0.051068225117297639 0.034309036938923752 0 -0.051834030827773665 0.033196386984626444 0 -0.054541255196931829 0.031095682664676851 0 -0.055375917481894597 0.032177335527633438 0 -0.053452887211982346 0.033866488341803828 0 -0.053452887211982346 0.033866488341803828 0 -0.056180628210571952 0.032002016763109813 0 -0.056538320846513661 0.031719520989395365 0 -0.053452887211982346 0.033866488341803828 0 -0.053781828154983273 0.035853796835904395 0 -0.052865224603121062 0.035426677514490849 0 -0.055375917481894597 0.032177335527633438 0 -0.053452887211982346 0.033866488341803828 0 -0.056027429419742841 0.032211154281923025 0 -0.053574228921592908 0.033792787401965223 0 -0.055788252975664011 0.032145525908192668 0 -0.051444144369371225 0.035645939773618615 0 -0.053452887211982346 0.033866488341803828 0 -0.052865224603121062 0.035426677514490849 0 -0.053452887211982346 0.033866488341803828 0 -0.056027429419742841 0.032211154281923025 0 -0.056180628210571952 0.032002016763109813 0 -0.056249156444309133 0.031963440656914463 0 -0.056027429419742841 0.032211154281923025 0 -0.056433654059408603 0.031415897074916113 0 -0.056027429419742841 0.032211154281923025 0 -0.056529234312668375 0.031513260058113342 0 -0.056433654059408603 0.031415897074916113 0 -0.056529234312668375 0.031513260058113342 0 -0.056180628210571952 0.032002016763109813 0 -0.056626034896973369 0.031405396069848407 0 -0.056027429419742841 0.032211154281923025 0 -0.056529234312668375 0.031513260058113342 0 -0.056180628210571952 0.032002016763109813 0 -0.056180628210571952 0.032002016763109813 0 -0.056626034896973369 0.031405396069848407 0 -0.056689849751374588 0.031384672848728722 0 -0.058169115172238307 0.027198649613691585 0 -0.058351427158005106 0.027051627209351784 0 -0.056733637700584198 0.02537137320959482 0 -0.056180628210571952 0.032002016763109813 0 -0.056538320846513661 0.031719520989395365 0 -0.056689849751374588 0.031384672848728722 0 -0.055625717792654225 0.031353024592621598 0 -0.054876168936110109 0.030455050148916363 0 -0.055385891847250131 0.030046654583779041 0 -0.055788252975664011 0.032145525908192668 0 -0.055172685879324133 0.029959728994925022 0 -0.055788252975664011 0.032145525908192668 0 -0.056322524060412195 0.030051780941094439 0 -0.056529234312668375 0.031513260058113342 0 -0.056978569085935828 0.03091066574061271 0 -0.056512053030164919 0.030680750696975484 0 -0.056978569085935828 0.03091066574061271 0 -0.057741662988566894 0.030136010335028846 0 -0.05671897606338322 0.029937095731591534 0 -0.056529234312668375 0.031513260058113342 0 -0.056626034896973369 0.031405396069848407 0 -0.056978569085935828 0.03091066574061271 0 -0.056626034896973369 0.031405396069848407 0 -0.056978569085935828 0.03091066574061271 0 -0.056689849751374588 0.031384672848728722 0 -0.056506484208917927 0.03028202808465498 0 -0.056322524060412195 0.030051780941094439 0 -0.057741662988566894 0.030136010335028846 0 -0.056741975916670871 0.02874462426063374 0 -0.05671897606338322 0.029937095731591534 0 -0.056322524060412195 0.030051780941094439 0 -0.055172685879324133 0.029959728994925022 0 -0.053791416266318323 0.036284350836855668 0 -0.052528867232415045 0.036164747370511563 0 -0.051799341108957224 0.03701603634370447 0 -0.053781828154983273 0.035853796835904395 0 -0.053791416266318323 0.036284350836855668 0 -0.052528867232415045 0.036164747370511563 0 -0.051170220094290821 0.036400115215988349 0 -0.052528867232415045 0.036164747370511563 0 -0.051799341108957224 0.03701603634370447 0 -0.051444144369371225 0.035645939773618615 0 -0.052528867232415045 0.036164747370511563 0 -0.052865224603121062 0.035426677514490849 0 -0.053781828154983273 0.035853796835904395 0 -0.052528867232415045 0.036164747370511563 0 -0.052865224603121062 0.035426677514490849 0 -0.05604218691804766 0.029288995237745592 0 -0.056053093392845053 0.027541247710179871 0 -0.054999260764831699 0.027169117008130017 0 -0.05604218691804766 0.029288995237745592 0 -0.054999646289524598 0.030125185699651533 0 -0.054999260764831699 0.027169117008130017 0 -0.056741975916670871 0.02874462426063374 0 -0.05604218691804766 0.029288995237745592 0 -0.056053093392845053 0.027541247710179871 0 -0.056741975916670871 0.02874462426063374 0 -0.05671897606338322 0.029937095731591534 0 -0.05604218691804766 0.029288995237745592 0 -0.056512053030164919 0.030680750696975484 0 -0.05671897606338322 0.029937095731591534 0 -0.05604218691804766 0.029288995237745592 0 -0.056978569085935828 0.03091066574061271 0 -0.056512053030164919 0.030680750696975484 0 -0.05671897606338322 0.029937095731591534 0 -0.056512053030164919 0.030680750696975484 0 -0.05604218691804766 0.029288995237745592 0 -0.056141087179238887 0.030745823698005589 0 -0.056529234312668375 0.031513260058113342 0 -0.056512053030164919 0.030680750696975484 0 -0.056433654059408603 0.031415897074916113 0 -0.056512053030164919 0.030680750696975484 0 -0.056141087179238887 0.030745823698005589 0 -0.056433654059408603 0.031415897074916113 0 -0.056141087179238887 0.030745823698005589 0 -0.056433654059408603 0.031415897074916113 0 -0.056305859449789719 0.031607817759122601 0 -0.056141087179238887 0.030745823698005589 0 -0.054999646289524598 0.030125185699651533 0 -0.056305859449789719 0.031607817759122601 0 -0.05604218691804766 0.029288995237745592 0 -0.056141087179238887 0.030745823698005589 0 -0.054999646289524598 0.030125185699651533 0 -0.054999646289524598 0.030125185699651533 0 -0.056305859449789719 0.031607817759122601 0 -0.054999812563086094 0.033078507395286616 0 -0.056305859449789719 0.031607817759122601 0 -0.056546071169743528 0.032610260862948708 0 -0.054999812563086094 0.033078507395286616 0 -0.05639989872827763 0.031972184853792364 0 -0.056305859449789719 0.031607817759122601 0 -0.056546071169743528 0.032610260862948708 0 -0.056249156444309133 0.031963440656914463 0 -0.05639989872827763 0.031972184853792364 0 -0.056305859449789719 0.031607817759122601 0 -0.056077318071509646 0.031665491529846879 0 -0.056249156444309133 0.031963440656914463 0 -0.05639989872827763 0.031972184853792364 0 -0.056249156444309133 0.031963440656914463 0 -0.056433654059408603 0.031415897074916113 0 -0.056305859449789719 0.031607817759122601 0 -0.057001046775569414 0.032205528094445462 0 -0.056066204425233454 0.034236841680650582 0 -0.056077318071509646 0.031665491529846879 0 -0.05639989872827763 0.031972184853792364 0 -0.056546071169743528 0.032610260862948708 0 -0.056077318071509646 0.031665491529846879 0 -0.056546071169743528 0.032610260862948708 0 -0.055876875979044421 0.030716111736761764 0 -0.056546071169743528 0.032610260862948708 0 -0.054999812563086094 0.033078507395286616 0 -0.056678961098518353 0.034928596766952945 0 -0.054999812563086094 0.033078507395286616 0 -0.054999811129180717 0.036036022657588783 0 -0.056678961098518353 0.034928596766952945 0 -0.054999811129180717 0.036036022657588783 0 -0.056094550431092453 0.037118344273526373 0 -0.054999915405647172 0.038992311277347487 0 -0.054999811129180717 0.036036022657588783 0 -0.056094550431092453 0.037118344273526373 0 -0.056678961098518353 0.034928596766952945 0 -0.056094550431092453 0.037118344273526373 0 -0.057706246228922127 0.036781341568093665 0 -0.056208623349709851 0.038693128060809212 0 -0.057797849708742646 0.037059472350931467 0 -0.056251061251410044 0.038615843388175176 0 -0.056094550431092453 0.037118344273526373 0 -0.057706246228922127 0.036781341568093665 0 -0.056678961098518353 0.034928596766952945 0 -0.056546071169743528 0.032610260862948708 0 -0.056678961098518353 0.034928596766952945 0 -0.059395567817647106 0.034733113476201505 0 -0.057706246228922127 0.036781341568093665 0 -0.056678961098518353 0.034928596766952945 0 -0.059395567817647106 0.034733113476201505 0 -0.057797849708742646 0.037059472350931467 0 -0.056066204425233454 0.034236841680650582 0 -0.049867516313472929 0.035226795330253018 0 -0.050227176563212239 0.035129540762908466 0 -0.049982043637108814 0.034932650772808944 0 -0.056066204425233454 0.034236841680650582 0 -0.055435496136247521 0.036340055342579961 0 -0.060298052846354887 0.037316116964956444 0 -0.058861938062707182 0.037770509428989643 0 -0.060004711699754042 0.039092980950606385 0 -0.058539718494796361 0.035959684830615818 0 -0.060298052846354887 0.037316116964956444 0 -0.058861938062707182 0.037770509428989643 0 -0.057398073891888321 0.03737693313320372 0 -0.058861938062707182 0.037770509428989643 0 -0.058069235852230221 0.039124226867268019 0 -0.057398073891888321 0.03737693313320372 0 -0.058539718494796361 0.035959684830615818 0 -0.058861938062707182 0.037770509428989643 0 -0.058861938062707182 0.037770509428989643 0 -0.058069235852230221 0.039124226867268019 0 -0.060004711699754042 0.039092980950606385 0 -0.061316145826799472 0.040750943097444724 0 -0.060004711699754042 0.039092980950606385 0 -0.059349818392682094 0.040864427487910034 0 -0.058069235852230221 0.039124226867268019 0 -0.060004711699754042 0.039092980950606385 0 -0.059349818392682094 0.040864427487910034 0 -0.058069235852230221 0.039124226867268019 0 -0.059349818392682094 0.040864427487910034 0 -0.057218357379938703 0.040938437002047467 0 -0.058069235852230221 0.039124226867268019 0 -0.056907976095568698 0.03969606524240081 0 -0.057218357379938703 0.040938437002047467 0 -0.056907976095568698 0.03969606524240081 0 -0.057218357379938703 0.040938437002047467 0 -0.056111942851479635 0.040030167860294813 0 -0.054999899756786187 0.041948053116982319 0 -0.057218357379938703 0.040938437002047467 0 -0.056111942851479635 0.040030167860294813 0 -0.054999899756786187 0.041948053116982319 0 -0.056111942851479635 0.040030167860294813 0 -0.054999915405647172 0.038992311277347487 0 -0.056907976095568698 0.03969606524240081 0 -0.056111942851479635 0.040030167860294813 0 -0.056208623349709851 0.038693128060809212 0 -0.056094550431092453 0.037118344273526373 0 -0.054999915405647172 0.038992311277347487 0 -0.056208623349709851 0.038693128060809212 0 -0.056111942851479635 0.040030167860294813 0 -0.054999915405647172 0.038992311277347487 0 -0.056208623349709851 0.038693128060809212 0 -0.057398073891888321 0.03737693313320372 0 -0.058069235852230221 0.039124226867268019 0 -0.056208623349709851 0.038693128060809212 0 -0.058069235852230221 0.039124226867268019 0 -0.056907976095568698 0.03969606524240081 0 -0.056208623349709851 0.038693128060809212 0 -0.056536751929722212 0.016443266465920484 0 -0.057798235189211497 0.015873197702248574 0 -0.057405876523602517 0.017871805419369505 0 -0.056536751929722212 0.016443266465920484 0 -0.057426392748096862 0.014821164713532373 0 -0.057798235189211497 0.015873197702248574 0 -0.056536751929722212 0.016443266465920484 0 -0.054999873820548696 0.015080770589547734 0 -0.054999953776512581 0.018297999555681739 0 -0.056536751929722212 0.016443266465920484 0 -0.054999873820548696 0.015080770589547734 0 -0.057426392748096862 0.014821164713532373 0 -0.054999873820548696 0.015080770589547734 0 -0.057426392748096862 0.014821164713532373 0 -0.057127317028384479 0.013088582774131425 0 -0.057426392748096862 0.014821164713532373 0 -0.05855230674669442 0.015062536112027385 0 -0.058750844601167918 0.014153404705572374 0 -0.057426392748096862 0.014821164713532373 0 -0.05855230674669442 0.015062536112027385 0 -0.057798235189211497 0.015873197702248574 0 -0.059153957008832983 0.014879087243995828 0 -0.059278543774550628 0.01467855757218926 0 -0.059385309931186112 0.015280476533741164 0 -0.059153957008832983 0.014879087243995828 0 -0.059278543774550628 0.01467855757218926 0 -0.058738765052986454 0.014495732348533092 0 -0.05855230674669442 0.015062536112027385 0 -0.059153957008832983 0.014879087243995828 0 -0.058750844601167918 0.014153404705572374 0 -0.059291793076975415 0.014632795016410145 0 -0.058659265367107312 0.013339641814189356 0 -0.05855230674669442 0.015062536112027385 0 -0.059053334206796419 0.015468946248951799 0 -0.058570897731220886 0.015867234272435866 0 -0.05855230674669442 0.015062536112027385 0 -0.059153957008832983 0.014879087243995828 0 -0.059053334206796419 0.015468946248951799 0 -0.059053334206796419 0.015468946248951799 0 -0.059385309931186112 0.015280476533741164 0 -0.059449231423110531 0.015752380110749108 0 -0.059153957008832983 0.014879087243995828 0 -0.059053334206796419 0.015468946248951799 0 -0.059385309931186112 0.015280476533741164 0 -0.059053334206796419 0.015468946248951799 0 -0.059044125933681878 0.016255213168164889 0 -0.059449231423110531 0.015752380110749108 0 -0.059053334206796419 0.015468946248951799 0 -0.059044125933681878 0.016255213168164889 0 -0.058570897731220886 0.015867234272435866 0 -0.059044125933681878 0.016255213168164889 0 -0.058570897731220886 0.015867234272435866 0 -0.05830159187054635 0.016843443142152015 0 -0.059044125933681878 0.016255213168164889 0 -0.059631379225530072 0.016367772647105105 0 -0.059449231423110531 0.015752380110749108 0 -0.05855230674669442 0.015062536112027385 0 -0.057798235189211497 0.015873197702248574 0 -0.058570897731220886 0.015867234272435866 0 -0.057798235189211497 0.015873197702248574 0 -0.058570897731220886 0.015867234272435866 0 -0.05830159187054635 0.016843443142152015 0 -0.057798235189211497 0.015873197702248574 0 -0.05830159187054635 0.016843443142152015 0 -0.057405876523602517 0.017871805419369505 0 -0.05830159187054635 0.016843443142152015 0 -0.059065914097346621 0.017631151511612663 0 -0.057405876523602517 0.017871805419369505 0 -0.059044125933681878 0.016255213168164889 0 -0.059065914097346621 0.017631151511612663 0 -0.059631379225530072 0.016367772647105105 0 -0.059044125933681878 0.016255213168164889 0 -0.05830159187054635 0.016843443142152015 0 -0.059065914097346621 0.017631151511612663 0 -0.055475846420887251 0.024656922611951362 0 -0.055480563500213284 0.024601731164520118 0 -0.0552165600921058 0.025363372918063641 0 -0.056972807973985289 0.019575716497062415 0 -0.054950215920098106 0.023571833956344112 0 -0.055475846420887251 0.024656922611951362 0 -0.055757366677697685 0.023403851454933643 0 -0.055480563500213284 0.024601731164520118 0 -0.056972807973985289 0.019575716497062415 0 -0.056410369730797202 0.019761304599201227 0 -0.056530558752072101 0.023342279396890615 0 -0.055757366677697685 0.023403851454933643 0 -0.05539780290795121 0.021545841802667411 0 -0.055757366677697685 0.023403851454933643 0 -0.055326746547144139 0.022964070703998852 0 -0.05539780290795121 0.021545841802667411 0 -0.055326746547144139 0.022964070703998852 0 -0.05536365751825293 0.021056565214358464 0 -0.05539780290795121 0.021545841802667411 0 -0.05536365751825293 0.021056565214358464 0 -0.05539780290795121 0.021545841802667411 0 -0.054999758400609174 0.018303865801971984 0 -0.056410369730797202 0.019761304599201227 0 -0.054999208361240941 0.018299745527723149 0 -0.056536751929722212 0.016443266465920484 0 -0.057405876523602517 0.017871805419369505 0 -0.054999953776512581 0.018297999555681739 0 -0.054999758400609174 0.018303865801971984 0 -0.054999408754022691 0.02125530977194643 0 -0.055857040126643241 0.02144079314628099 0 -0.05536365751825293 0.021056565214358464 0 -0.054999758400609174 0.018303865801971984 0 -0.055857040126643241 0.02144079314628099 0 -0.054999408754022691 0.02125530977194643 0 -0.055857040126643241 0.02144079314628099 0 -0.056033602196378436 0.022497824792950521 0 -0.055383503645302423 0.021297215713821954 0 -0.055769465332017258 0.023698607521754948 0 -0.05536365751825293 0.021056565214358464 0 -0.055857040126643241 0.02144079314628099 0 -0.056996049324619463 0.022231453086137304 0 -0.055326746547144139 0.022964070703998852 0 -0.05536365751825293 0.021056565214358464 0 -0.054468033794217344 0.024806084144599994 0 -0.055857040126643241 0.02144079314628099 0 -0.056996049324619463 0.022231453086137304 0 -0.056033602196378436 0.022497824792950521 0 -0.056996049324619463 0.022231453086137304 0 -0.0566362463213698 0.023828411787110277 0 -0.057769841424020772 0.024682651108419548 0 -0.056996049324619463 0.022231453086137304 0 -0.056033602196378436 0.022497824792950521 0 -0.0566362463213698 0.023828411787110277 0 -0.054999408754022691 0.02125530977194643 0 -0.056033602196378436 0.022497824792950521 0 -0.055518659348012818 0.023822350774415153 0 -0.054999408754022691 0.02125530977194643 0 -0.055518659348012818 0.023822350774415153 0 -0.05499962619364409 0.024211484622952324 0 -0.056033602196378436 0.022497824792950521 0 -0.055518659348012818 0.023822350774415153 0 -0.0566362463213698 0.023828411787110277 0 -0.055518659348012818 0.023822350774415153 0 -0.05499962619364409 0.024211484622952324 0 -0.05569086541042996 0.025726051084154006 0 -0.05550179459146775 0.023999339789006171 0 -0.056933101376141639 0.02580916380745963 0 -0.055518659348012818 0.023822350774415153 0 -0.05569086541042996 0.025726051084154006 0 -0.056914475441601081 0.026686697984884433 0 -0.05499962619364409 0.024211484622952324 0 -0.05569086541042996 0.025726051084154006 0 -0.054999260764831699 0.027169117008130017 0 -0.055518659348012818 0.023822350774415153 0 -0.0566362463213698 0.023828411787110277 0 -0.056733637700584198 0.02537137320959482 0 -0.0566362463213698 0.023828411787110277 0 -0.056733637700584198 0.02537137320959482 0 -0.057769841424020772 0.024682651108419548 0 -0.057741662988566894 0.030136010335028846 0 -0.056741975916670871 0.02874462426063374 0 -0.056914475441601081 0.026686697984884433 0 -0.05569086541042996 0.025726051084154006 0 -0.056914475441601081 0.026686697984884433 0 -0.056053093392845053 0.027541247710179871 0 -0.056741975916670871 0.02874462426063374 0 -0.056914475441601081 0.026686697984884433 0 -0.056053093392845053 0.027541247710179871 0 -0.05569086541042996 0.025726051084154006 0 -0.056053093392845053 0.027541247710179871 0 -0.054999260764831699 0.027169117008130017 0 -0.055172685879324133 0.029959728994925022 0 -0.053047079999285721 0.031800641038276518 0 -0.054681183215866069 0.026326287442070419 0 -0.054740451563804131 0.026207696316211563 0 -0.05471448313093083 0.026108127489619742 0 -0.054740451563804131 0.026207696316211563 0 -0.05471448313093083 0.026108127489619742 0 -0.054797136841259926 0.025910256040816128 0 -0.055172685879324133 0.029959728994925022 0 -0.05626863869145371 0.024612740366976523 0 -0.058351427158005106 0.027051627209351784 0 -0.056733637700584198 0.02537137320959482 0 -0.057769841424020772 0.024682651108419548 0 -0.054681183215866069 0.026326287442070419 0 -0.05471448313093083 0.026108127489619742 0 -0.054569273175576909 0.025932488573210618 0 -0.056322524060412195 0.030051780941094439 0 -0.056933101376141639 0.02580916380745963 0 -0.05471448313093083 0.026108127489619742 0 -0.054797136841259926 0.025910256040816128 0 -0.054569273175576909 0.025932488573210618 0 -0.054797136841259926 0.025910256040816128 0 -0.054569273175576909 0.025932488573210618 0 -0.054962572134156285 0.025389137777713986 0 -0.054740451563804131 0.026207696316211563 0 -0.054797136841259926 0.025910256040816128 0 -0.054960181793931195 0.025701489429972361 0 -0.054797136841259926 0.025910256040816128 0 -0.054960181793931195 0.025701489429972361 0 -0.054962572134156285 0.025389137777713986 0 -0.054740451563804131 0.026207696316211563 0 -0.054960181793931195 0.025701489429972361 0 -0.055041781146454756 0.025655439013514282 0 -0.055271593570545181 0.025207439034033056 0 -0.054962572134156285 0.025389137777713986 0 -0.05534782695917688 0.024368686051588949 0 -0.054960181793931195 0.025701489429972361 0 -0.055271593570545181 0.025207439034033056 0 -0.055041781146454756 0.025655439013514282 0 -0.054960181793931195 0.025701489429972361 0 -0.055271593570545181 0.025207439034033056 0 -0.054962572134156285 0.025389137777713986 0 -0.054468033794217344 0.024806084144599994 0 -0.054569273175576909 0.025932488573210618 0 -0.054962572134156285 0.025389137777713986 0 -0.055769465332017258 0.023698607521754948 0 -0.05626863869145371 0.024612740366976523 0 -0.054468033794217344 0.024806084144599994 0 -0.054962572134156285 0.025389137777713986 0 -0.05534782695917688 0.024368686051588949 0 -0.055326746547144139 0.022964070703998852 0 -0.054468033794217344 0.024806084144599994 0 -0.05534782695917688 0.024368686051588949 0 -0.055757366677697685 0.023403851454933643 0 -0.05534782695917688 0.024368686051588949 0 -0.055480563500213284 0.024601731164520118 0 -0.055757366677697685 0.023403851454933643 0 -0.055326746547144139 0.022964070703998852 0 -0.05534782695917688 0.024368686051588949 0 -0.055271593570545181 0.025207439034033056 0 -0.055480563500213284 0.024601731164520118 0 -0.0552165600921058 0.025363372918063641 0 -0.055271593570545181 0.025207439034033056 0 -0.05534782695917688 0.024368686051588949 0 -0.055480563500213284 0.024601731164520118 0 -0.055271593570545181 0.025207439034033056 0 -0.0552165600921058 0.025363372918063641 0 -0.055020096248716822 0.025690229109198777 0 -0.054845891318000363 0.026017065961621007 0 -0.05430178598347301 0.026740805854909847 0 -0.054954251312206673 0.026007095721447108 0 -0.0552165600921058 0.025363372918063641 0 -0.054845891318000363 0.026017065961621007 0 -0.054954251312206673 0.026007095721447108 0 -0.0552165600921058 0.025363372918063641 0 -0.054845891318000363 0.026017065961621007 0 -0.055020096248716822 0.025690229109198777 0 -0.052407053233073382 0.031173804316314894 0 -0.052783394003713756 0.029326795428238687 0 -0.054845891318000363 0.026017065961621007 0 -0.055020096248716822 0.025690229109198777 0 -0.054519478406858717 0.025830611868187178 0 -0.055020096248716822 0.025690229109198777 0 -0.054866673961730547 0.02583441753554019 0 -0.054519478406858717 0.025830611868187178 0 -0.055020096248716822 0.025690229109198777 0 -0.055041781146454756 0.025655439013514282 0 -0.054866673961730547 0.02583441753554019 0 -0.055271593570545181 0.025207439034033056 0 -0.055020096248716822 0.025690229109198777 0 -0.055041781146454756 0.025655439013514282 0 -0.053047079999285721 0.031800641038276518 0 -0.052407053233073382 0.031173804316314894 0 -0.051799341108957224 0.03701603634370447 0 -0.04970411413175075 0.036923452323634892 0 -0.049809819469611077 0.036925283239119318 0 -0.054740451563804131 0.026207696316211563 0 -0.055041781146454756 0.025655439013514282 0 -0.054866673961730547 0.02583441753554019 0 -0.04970411413175075 0.036923452323634892 0 -0.049996147426108348 0.036626323057181255 0 -0.050580814972146733 0.032775910885219812 0 -0.049996147426108348 0.036626323057181255 0 -0.049809819469611077 0.036925283239119318 0 -0.049386562605867247 0.036911725596223008 0 -0.04970411413175075 0.036923452323634892 0 -0.049996147426108348 0.036626323057181255 0 -0.049809819469611077 0.036925283239119318 0 -0.049809819469611077 0.036925283239119318 0 -0.049984838777599974 0.036692349665702992 0 -0.049386562605867247 0.036911725596223008 0 -0.051799341108957224 0.03701603634370447 0 -0.049809819469611077 0.036925283239119318 0 -0.049984838777599974 0.036692349665702992 0 -0.051170220094290821 0.036400115215988349 0 -0.051799341108957224 0.03701603634370447 0 -0.049984838777599974 0.036692349665702992 0 -0.048875441403056288 0.037030770860348471 0 -0.048688098990891451 0.037101686117346461 0 -0.049386562605867247 0.036911725596223008 0 -0.048688098990891451 0.037101686117346461 0 -0.049386562605867247 0.036911725596223008 0 -0.049148720971496578 0.036919887358372115 0 -0.048253402454794855 0.037395746685976096 0 -0.048875441403056288 0.037030770860348471 0 -0.048688098990891451 0.037101686117346461 0 -0.049370805244795715 0.036777987205797585 0 -0.048875441403056288 0.037030770860348471 0 -0.049386562605867247 0.036911725596223008 0 -0.049370805244795715 0.036777987205797585 0 -0.049984838777599974 0.036692349665702992 0 -0.049386562605867247 0.036911725596223008 0 -0.049996147426108348 0.036626323057181255 0 -0.049148720971496578 0.036919887358372115 0 -0.048921888056575033 0.037162443570405171 0 -0.049996147426108348 0.036626323057181255 0 -0.049386562605867247 0.036911725596223008 0 -0.049148720971496578 0.036919887358372115 0 -0.049148720971496578 0.036919887358372115 0 -0.048839912013787554 0.037051001061658019 0 -0.048921888056575033 0.037162443570405171 0 -0.048688098990891451 0.037101686117346461 0 -0.049148720971496578 0.036919887358372115 0 -0.048839912013787554 0.037051001061658019 0 -0.054248358110761591 0.031611945816509154 0 -0.050580814972146733 0.032775910885219812 0 -0.054214310937456434 0.028007791500797262 0 -0.048839912013787554 0.037051001061658019 0 -0.048921888056575033 0.037162443570405171 0 -0.048801160263889393 0.0370339191737818 0 -0.049996147426108348 0.036626323057181255 0 -0.054248358110761591 0.031611945816509154 0 -0.050580814972146733 0.032775910885219812 0 -0.049936529914299109 0.036147787800723745 0 -0.051772617228221053 0.035509550914162656 0 -0.05430178598347301 0.026740805854909847 0 -0.05388786850315861 0.027085337831579362 0 -0.054954251312206673 0.026007095721447108 0 -0.052783394003713756 0.029326795428238687 0 -0.054207196212492488 0.027966175094274258 0 -0.054519478406858717 0.025830611868187178 0 -0.05430178598347301 0.026740805854909847 0 -0.054214310937456434 0.028007791500797262 0 -0.054845891318000363 0.026017065961621007 0 -0.054519478406858717 0.025830611868187178 0 -0.05430178598347301 0.026740805854909847 0 -0.054214310937456434 0.028007791500797262 0 -0.05388786850315861 0.027085337831579362 0 -0.057868636351118732 0.027653445965885835 0 -0.05430178598347301 0.026740805854909847 0 -0.054214310937456434 0.028007791500797262 0 -0.05388786850315861 0.027085337831579362 0 -0.051318505690488903 0.013743382371058778 0 -0.051027535133840812 0.0154059044859005 0 -0.052027338151042719 0.015322451900639212 0 -0.051318505690488903 0.013743382371058778 0 -0.051027535133840812 0.0154059044859005 0 -0.050093483725411406 0.015032583294218251 0 -0.051318505690488903 0.013743382371058778 0 -0.050093483725411406 0.015032583294218251 0 -0.049828702813968909 0.014222617782758908 0 -0.051027535133840812 0.0154059044859005 0 -0.05028491385211295 0.016112573920067871 0 -0.050093483725411406 0.015032583294218251 0 -0.051027535133840812 0.0154059044859005 0 -0.05028491385211295 0.016112573920067871 0 -0.051644427359009024 0.016450085822092245 0 -0.051027535133840812 0.0154059044859005 0 -0.052027338151042719 0.015322451900639212 0 -0.051644427359009024 0.016450085822092245 0 -0.053156999329441797 0.01504314599950295 0 -0.054144349645087311 0.015703704962704967 0 -0.051696910642366672 0.0166298710170114 0 -0.057827272892707747 0.015903619399182691 0 -0.054046576335794606 0.014719903750025291 0 -0.060074257574093758 0.016766247156879525 0 -0.060413723099473286 0.016171507588884686 0 -0.061242788804564227 0.016117534067548879 0 -0.052027338151042719 0.015322451900639212 0 -0.053156999329441797 0.01504314599950295 0 -0.051696910642366672 0.0166298710170114 0 -0.051983366213347947 0.016184673377683177 0 -0.054046576335794606 0.014719903750025291 0 -0.053180805095853018 0.019690137173334357 0 -0.05405088623063678 0.020195688227392736 0 -0.051318505690488903 0.013743382371058778 0 -0.052027338151042719 0.015322451900639212 0 -0.053156999329441797 0.01504314599950295 0 -0.051318505690488903 0.013743382371058778 0 -0.053949223761789337 0.014222351153185523 0 -0.053156999329441797 0.01504314599950295 0 -0.053949223761789337 0.014222351153185523 0 -0.053156999329441797 0.01504314599950295 0 -0.054144349645087311 0.015703704962704967 0 -0.056972807973985289 0.019575716497062415 0 -0.05405088623063678 0.020195688227392736 0 -0.055475846420887251 0.024656922611951362 0 -0.0552165600921058 0.025363372918063641 0 -0.054954251312206673 0.026007095721447108 0 -0.056603173863498391 0.014799994213269291 0 -0.053949223761789337 0.014222351153185523 0 -0.054144349645087311 0.015703704962704967 0 -0.056972807973985289 0.019575716497062415 0 -0.057827272892707747 0.015903619399182691 0 -0.059065914097346621 0.017631151511612663 0 -0.060074257574093758 0.016766247156879525 0 -0.059631379225530072 0.016367772647105105 0 -0.060074257574093758 0.016766247156879525 0 -0.060023174782659755 0.016230881108519581 0 -0.059631379225530072 0.016367772647105105 0 -0.060074257574093758 0.016766247156879525 0 -0.060413723099473286 0.016171507588884686 0 -0.060023174782659755 0.016230881108519581 0 -0.060413723099473286 0.016171507588884686 0 -0.059690440402861158 0.014617497496424806 0 -0.060719685221239557 0.015036199427705911 0 -0.060413723099473286 0.016171507588884686 0 -0.060023174782659755 0.016230881108519581 0 -0.059957773328549749 0.015639999047338458 0 -0.060413723099473286 0.016171507588884686 0 -0.058725330086173082 0.01504634700639081 0 -0.059690440402861158 0.014617497496424806 0 -0.060269244102684229 0.01606635925234574 0 -0.059451402402805525 0.015441606609530945 0 -0.060023174782659755 0.016230881108519581 0 -0.059631379225530072 0.016367772647105105 0 -0.059957773328549749 0.015639999047338458 0 -0.059631379225530072 0.016367772647105105 0 -0.059449231423110531 0.015752380110749108 0 -0.059957773328549749 0.015639999047338458 0 -0.057927146346662253 0.0134772193824414 0 -0.059451402402805525 0.015441606609530945 0 -0.059278543774550628 0.01467855757218926 0 -0.059385309931186112 0.015280476533741164 0 -0.059957773328549749 0.015639999047338458 0 -0.057927146346662253 0.0134772193824414 0 -0.058256867755785688 0.014096232007248272 0 -0.057212817614884788 0.013770544151561478 0 -0.058725330086173082 0.01504634700639081 0 -0.05867162583447294 0.014218753857229597 0 -0.056932915123508725 0.01368601581338915 0 -0.05867162583447294 0.014218753857229597 0 -0.058537621255058556 0.013512160282474756 0 -0.059385309931186112 0.015280476533741164 0 -0.059449231423110531 0.015752380110749108 0 -0.059957773328549749 0.015639999047338458 0 -0.059690440402861158 0.014617497496424806 0 -0.060332317131987376 0.013911916600141017 0 -0.058537621255058556 0.013512160282474756 0 -0.059690440402861158 0.014617497496424806 0 -0.060332317131987376 0.013911916600141017 0 -0.060719685221239557 0.015036199427705911 0 -0.058725330086173082 0.01504634700639081 0 -0.05867162583447294 0.014218753857229597 0 -0.059690440402861158 0.014617497496424806 0 -0.05867162583447294 0.014218753857229597 0 -0.059690440402861158 0.014617497496424806 0 -0.058537621255058556 0.013512160282474756 0 -0.054764826167881586 0.0079330037174062864 0 -0.052586962229093016 0.0097478013493777528 0 -0.060332317131987376 0.013911916600141017 0 -0.060719685221239557 0.015036199427705911 0 -0.061802982484239821 0.014189468524301824 0 -0.052586962229093016 0.0097478013493777528 0 -0.046558914193349406 0.0074010748363856306 0 -0.050126339956924421 0.011214906705323999 0 -0.050507892258483608 0.0099012509456597141 0 -0.0490409624366486 0.010438013182895762 0 -0.054046576335794606 0.014719903750025291 0 -0.045045173670496076 0.0087788205463757898 0 -0.052586962229093016 0.0097478013493777528 0 -0.054046576335794606 0.014719903750025291 0 -0.05028491385211295 0.016112573920067871 0 -0.051644427359009024 0.016450085822092245 0 -0.049243095559841285 0.017315545798570045 0 -0.060413723099473286 0.016171507588884686 0 -0.060719685221239557 0.015036199427705911 0 -0.061242788804564227 0.016117534067548879 0 -0.060719685221239557 0.015036199427705911 0 -0.061802982484239821 0.014189468524301824 0 -0.061242788804564227 0.016117534067548879 0 -0.033248180187463186 0.0018299242279242332 0 -0.034687560419753689 0.0023523433836844117 0 -0.033593046882194326 0.0027234269587168448 0 -0.033248180187463186 0.0018299242279242332 0 -0.034687560419753689 0.0023523433836844117 0 -0.034112786595478492 0.0012106951293711029 0 -0.045045173670496076 0.0087788205463757898 0 -0.037422538408405696 0.0041372908675294242 0 -0.049196635769687386 0.016068379184060875 0 -0.042089608466991849 0.0098474544587413004 0 -0.045045173670496076 0.0087788205463757898 0 -0.042089608466991849 0.0098474544587413004 0 -0.049231638096438192 0.016475265628975527 0 -0.049243095559841285 0.017315545798570045 0 -0.048600407748277272 0.015976770797466948 0 -0.05028491385211295 0.016112573920067871 0 -0.049231638096438192 0.016475265628975527 0 -0.049243095559841285 0.017315545798570045 0 -0.050126339956924421 0.011214906705323999 0 -0.0490409624366486 0.010438013182895762 0 -0.049343187303022146 0.011110267726450693 0 -0.043979820550020407 0.0037930738426230409 0 -0.044780120855564133 0.0056107303552538797 0 -0.042049074652746717 0.0045376790254133409 0 -0.045045173670496076 0.0087788205463757898 0 -0.046558914193349406 0.0074010748363856306 0 -0.046558914193349406 0.0074010748363856306 0 -0.041077418651517456 0.0048096216917784852 0 -0.044720886054817437 0.005506218962601353 0 -0.041636562005127588 0.0051484675554328502 0 -0.043017166253920762 0.0063936280235679004 0 -0.041636562005127588 0.0051484675554328502 0 -0.0401598465791062 0.0052874234883816982 0 -0.043017166253920762 0.0063936280235679004 0 -0.044780120855564133 0.0056107303552538797 0 -0.042049074652746717 0.0045376790254133409 0 -0.041636562005127588 0.0051484675554328502 0 -0.033593046882194326 0.0027234269587168448 0 -0.03250002744830259 0.0031325094560193706 0 -0.032343663357755355 0.0019814229559173826 0 -0.037422538408405696 0.0041372908675294242 0 -0.036802254144309793 0.0032985079925291344 0 -0.042049074652746717 0.0045376790254133409 0 -0.041636562005127588 0.0051484675554328502 0 -0.0401598465791062 0.0052874234883816982 0 -0.031803269215481794 0.0017144368745337021 0 -0.031363733164254365 0.0016220616702502827 0 -0.031428074743357494 0.0013930006414239393 0 -0.036802254144309793 0.0032985079925291344 0 -0.035583604235980476 0.0021052716678944361 0 -0.031803269215481794 0.0017144368745337021 0 -0.031363733164254365 0.0016220616702502827 0 -0.031256227168724449 0.001991278577088773 0 -0.031363733164254365 0.0016220616702502827 0 -0.030829158337761356 0.0014360165540850283 0 -0.031256227168724449 0.001991278577088773 0 -0.036802254144309793 0.0032985079925291344 0 -0.03006998256305175 0.00071175568841384622 0 -0.031428074743357494 0.0013930006414239393 0 -0.031687245688402352 0.0013089243942699409 0 -0.030289414653979756 0.00051728064404129226 0 -0.031363733164254365 0.0016220616702502827 0 -0.031428074743357494 0.0013930006414239393 0 -0.030829158337761356 0.0014360165540850283 0 -0.031925109500282579 0.0015173467865957331 0 -0.031428074743357494 0.0013930006414239393 0 -0.031687245688402352 0.0013089243942699409 0 -0.031925109500282579 0.0015173467865957331 0 -0.031428074743357494 0.0013930006414239393 0 -0.032343663357755355 0.0019814229559173826 0 -0.033248180187463186 0.0018299242279242332 0 -0.033593046882194326 0.0027234269587168448 0 -0.032343663357755355 0.0019814229559173826 0 -0.03250002744830259 0.0031325094560193706 0 -0.031428074743357494 0.0013930006414239393 0 -0.032343663357755355 0.0019814229559173826 0 -0.031925109500282579 0.0015173467865957331 0 -0.032343663357755355 0.0019814229559173826 0 -0.032318532234983266 0.0014105821915229961 0 -0.031925109500282579 0.0015173467865957331 0 -0.032318532234983266 0.0014105821915229961 0 -0.031687245688402352 0.0013089243942699409 0 -0.033248180187463186 0.0018299242279242332 0 -0.032343663357755355 0.0019814229559173826 0 -0.032318532234983266 0.0014105821915229961 0 -0.033248180187463186 0.0018299242279242332 0 -0.032318532234983266 0.0014105821915229961 0 -0.032829439333500771 0.0010770811451800849 0 -0.032829439333500771 0.0010770811451800849 0 -0.032029957654874354 0.00097503529413428167 0 -0.032391578482101509 4.8275131348775323e-05 0 -0.032318532234983266 0.0014105821915229961 0 -0.032829439333500771 0.0010770811451800849 0 -0.032029957654874354 0.00097503529413428167 0 -0.032318532234983266 0.0014105821915229961 0 -0.032029957654874354 0.00097503529413428167 0 -0.031687245688402352 0.0013089243942699409 0 -0.03103517388294421 0.0017133255501999441 0 -0.030796675691938554 0.0019247355312490861 0 -0.031090395635367724 0.0015497637914625205 0 -0.032029957654874354 0.00097503529413428167 0 -0.031687245688402352 0.0013089243942699409 0 -0.031090395635367724 0.0015497637914625205 0 -0.032029957654874354 0.00097503529413428167 0 -0.032391578482101509 4.8275131348775323e-05 0 -0.031090395635367724 0.0015497637914625205 0 -0.034671284326421491 0.005494362817974564 0 -0.030266417680258326 0.00021611129897024901 0 -0.031153070318690537 -0.00035964507791991972 0 -0.033884921540262687 0.0082671419975431006 0 -0.03103517388294421 0.0017133255501999441 0 -0.030978963057331468 0.0016115861940071321 0 -0.031082094968941123 0.0015534530939650712 0 -0.03103517388294421 0.0017133255501999441 0 -0.030796675691938554 0.0019247355312490861 0 -0.031020669526398752 0.0021394640667753572 0 -0.034671284326421491 0.005494362817974564 0 -0.033884921540262687 0.0082671419975431006 0 -0.030978963057331468 0.0016115861940071321 0 -0.031082094968941123 0.0015534530939650712 0 -0.03106071749312015 0.0015311427600328662 0 -0.038740394739857735 0.014202635805572289 0 -0.038796706849056811 0.014423051585375988 0 -0.038969542128533 0.014423456049600394 0 -0.038796706849056811 0.014423051585375988 0 -0.038568513320796922 0.014370513894674801 0 -0.038724000635500924 0.014517852455183899 0 -0.038740394739857735 0.014202635805572289 0 -0.038796706849056811 0.014423051585375988 0 -0.038568513320796922 0.014370513894674801 0 -0.034671284326421491 0.005494362817974564 0 -0.043593559995425309 0.014449685519475834 0 -0.039691818588441813 0.0095108744844945737 0 -0.040372877080186484 0.0090732026608809184 0 -0.041072671869228319 0.010614627953982323 0 -0.047818659402094787 0.014059379261242306 0 -0.049029725910574085 0.014756654524421346 0 -0.048887689324233249 0.013354995252497405 0 -0.047818659402094787 0.014059379261242306 0 -0.048712577076861045 0.016045534361562256 0 -0.049029725910574085 0.014756654524421346 0 -0.032829439333500771 0.0010770811451800849 0 -0.032391578482101509 4.8275131348775323e-05 0 -0.034112786595478492 0.0012106951293711029 0 -0.043593559995425309 0.014449685519475834 0 -0.042089608466991849 0.0098474544587413004 0 -0.033248180187463186 0.0018299242279242332 0 -0.032829439333500771 0.0010770811451800849 0 -0.034112786595478492 0.0012106951293711029 0 -0.034671284326421491 0.005494362817974564 0 -0.042089608466991849 0.0098474544587413004 0 -0.048712577076861045 0.016045534361562256 0 -0.049589304461752012 0.015729493123756693 0 -0.049029725910574085 0.014756654524421346 0 -0.05028491385211295 0.016112573920067871 0 -0.049231638096438192 0.016475265628975527 0 -0.049589304461752012 0.015729493123756693 0 -0.049231638096438192 0.016475265628975527 0 -0.048712577076861045 0.016045534361562256 0 -0.049589304461752012 0.015729493123756693 0 -0.049589304461752012 0.015729493123756693 0 -0.050093483725411406 0.015032583294218251 0 -0.049029725910574085 0.014756654524421346 0 -0.05028491385211295 0.016112573920067871 0 -0.049589304461752012 0.015729493123756693 0 -0.050093483725411406 0.015032583294218251 0 -0.050093483725411406 0.015032583294218251 0 -0.049029725910574085 0.014756654524421346 0 -0.049828702813968909 0.014222617782758908 0 -0.049029725910574085 0.014756654524421346 0 -0.049828702813968909 0.014222617782758908 0 -0.048887689324233249 0.013354995252497405 0 -0.053180805095853018 0.019690137173334357 0 -0.050895793575040059 0.025569878209521862 0 -0.051772617228221053 0.035509550914162656 0 -0.050895793575040059 0.025569878209521862 0 -0.051318505690488903 0.013743382371058778 0 -0.049828702813968909 0.014222617782758908 0 -0.048887689324233249 0.013354995252497405 0 -0.054248358110761591 0.031611945816509154 0 -0.054214310937456434 0.028007791500797262 0 -0.057868636351118732 0.027653445965885835 0 -0.048845259764479607 0.036922546546606212 0 -0.049135039725377271 0.036637658841930834 0 -0.049152929462026533 0.036681701002185603 0 -0.046249689188935718 0.022939081172154867 0 -0.047063031722541324 0.022423326643923675 0 -0.045919233879483663 0.022214597326658193 0 -0.049097150021493965 0.037159414544435936 0 -0.045833577132461285 0.030828403729677351 0 -0.048911776883055293 0.036632123007558866 0 -0.048845259764479607 0.036922546546606212 0 -0.049135039725377271 0.036637658841930834 0 -0.050895793575040059 0.025569878209521862 0 -0.04480085396066591 0.026144324551793816 0 -0.043593559995425309 0.014449685519475834 0 -0.050895793575040059 0.025569878209521862 0 -0.048845259764479607 0.036922546546606212 0 -0.048681400899127245 0.036947305271175943 0 -0.048625433609668658 0.036989351666984305 0 -0.048845259764479607 0.036922546546606212 0 -0.048679129031755419 0.036980635891085745 0 -0.048681400899127245 0.036947305271175943 0 -0.048845259764479607 0.036922546546606212 0 -0.048728886166216581 0.037024076823008359 0 -0.048679129031755419 0.036980635891085745 0 -0.048921888056575033 0.037162443570405171 0 -0.048911776883055293 0.036632123007558866 0 -0.048801160263889393 0.0370339191737818 0 -0.048911776883055293 0.036632123007558866 0 -0.048845259764479607 0.036922546546606212 0 -0.048801160263889393 0.0370339191737818 0 -0.048728886166216581 0.037024076823008359 0 -0.048801160263889393 0.0370339191737818 0 -0.048689555944179987 0.037079575014059347 0 -0.048845259764479607 0.036922546546606212 0 -0.048728886166216581 0.037024076823008359 0 -0.048801160263889393 0.0370339191737818 0 -0.048839912013787554 0.037051001061658019 0 -0.048801160263889393 0.0370339191737818 0 -0.048689555944179987 0.037079575014059347 0 -0.048688098990891451 0.037101686117346461 0 -0.048839912013787554 0.037051001061658019 0 -0.048689555944179987 0.037079575014059347 0 -0.048688098990891451 0.037101686117346461 0 -0.048689555944179987 0.037079575014059347 0 -0.048529400368077714 0.037183820217103682 0 -0.048689555944179987 0.037079575014059347 0 -0.048627148956068955 0.037084894989672247 0 -0.048529400368077714 0.037183820217103682 0 -0.048728886166216581 0.037024076823008359 0 -0.048689555944179987 0.037079575014059347 0 -0.048627148956068955 0.037084894989672247 0 -0.048728886166216581 0.037024076823008359 0 -0.048679129031755419 0.036980635891085745 0 -0.048627148956068955 0.037084894989672247 0 -0.048679129031755419 0.036980635891085745 0 -0.048627148956068955 0.037084894989672247 0 -0.048651600807100549 0.037084079594624633 0 -0.048627148956068955 0.037084894989672247 0 -0.048530053151264858 0.037327633409058196 0 -0.048651600807100549 0.037084079594624633 0 -0.048627148956068955 0.037084894989672247 0 -0.048530053151264858 0.037327633409058196 0 -0.048529400368077714 0.037183820217103682 0 -0.048062561674244907 0.037928322312545275 0 -0.048530053151264858 0.037327633409058196 0 -0.048340259951825393 0.037388904182542149 0 -0.048253402454794855 0.037395746685976096 0 -0.048688098990891451 0.037101686117346461 0 -0.048340259951825393 0.037388904182542149 0 -0.048688098990891451 0.037101686117346461 0 -0.048340259951825393 0.037388904182542149 0 -0.048529400368077714 0.037183820217103682 0 -0.048530053151264858 0.037327633409058196 0 -0.048340259951825393 0.037388904182542149 0 -0.048529400368077714 0.037183820217103682 0 -0.021182435764601572 0.041330445099661779 0 -0.020325070583530631 0.040112330556472897 0 -0.021996782750941753 0.039889975751526287 0 -0.048902617428564922 0.038512423434850784 0 -0.048530053151264858 0.037327633409058196 0 -0.049112968864225844 0.037315377726138729 0 -0.052683903373154414 0.036158684614595815 0 -0.035088552115376447 0.03699851168286656 0 -0.048530053151264858 0.037327633409058196 0 -0.048685357553775677 0.037184005957615555 0 -0.048651600807100549 0.037084079594624633 0 -0.034338784558703553 0.04009204986123549 0 -0.035088552115376447 0.03699851168286656 0 -0.048685357553775677 0.037184005957615555 0 -0.048651600807100549 0.037084079594624633 0 -0.048655528811606889 0.036973857187115225 0 -0.048679129031755419 0.036980635891085745 0 -0.048651600807100549 0.037084079594624633 0 -0.048655528811606889 0.036973857187115225 0 -0.035088552115376447 0.03699851168286656 0 -0.039415037011177476 0.034673443260784684 0 -0.028922525136820476 0.032339033747852963 0 -0.02972345899953531 0.032040893193205813 0 -0.028395389356557499 0.031387423976373736 0 -0.030006671927346486 0.031046856561273057 0 -0.02972345899953531 0.032040893193205813 0 -0.028395389356557499 0.031387423976373736 0 -0.035088552115376447 0.03699851168286656 0 -0.022967513794934762 0.035849026634469663 0 -0.039415037011177476 0.034673443260784684 0 -0.035996041064246767 0.029655244696083785 0 -0.028922525136820476 0.032339033747852963 0 -0.02972345899953531 0.032040893193205813 0 -0.029462596886467948 0.033038614173379374 0 -0.028922525136820476 0.032339033747852963 0 -0.029462596886467948 0.033038614173379374 0 -0.028150355533966952 0.032798133764228722 0 -0.048655528811606889 0.036973857187115225 0 -0.048607300838268933 0.036940184770941006 0 -0.048553860814686232 0.036912377696585751 0 -0.048679129031755419 0.036980635891085745 0 -0.048655528811606889 0.036973857187115225 0 -0.048649048072966702 0.036950523621828844 0 -0.048655528811606889 0.036973857187115225 0 -0.048607300838268933 0.036940184770941006 0 -0.048649048072966702 0.036950523621828844 0 -0.048607300838268933 0.036940184770941006 0 -0.048649048072966702 0.036950523621828844 0 -0.048617723874401358 0.036958019742984002 0 -0.048649048072966702 0.036950523621828844 0 -0.048681400899127245 0.036947305271175943 0 -0.048617723874401358 0.036958019742984002 0 -0.048679129031755419 0.036980635891085745 0 -0.048649048072966702 0.036950523621828844 0 -0.048681400899127245 0.036947305271175943 0 -0.048681400899127245 0.036947305271175943 0 -0.048617723874401358 0.036958019742984002 0 -0.048625433609668658 0.036989351666984305 0 -0.04652708382893498 0.032396778590971877 0 -0.045833577132461285 0.030828403729677351 0 -0.048617723874401358 0.036958019742984002 0 -0.048602140439120554 0.036940238931220344 0 -0.048602450824527466 0.03693821536398563 0 -0.047460915965729267 0.027568620919588276 0 -0.046652926442588706 0.025724569496517739 0 -0.043950873776583729 0.026911563584349339 0 -0.04480085396066591 0.026144324551793816 0 -0.043798619894632684 0.026677260512690659 0 -0.045833577132461285 0.030828403729677351 0 -0.043798619894632684 0.026677260512690659 0 -0.04480085396066591 0.026144324551793816 0 -0.045833577132461285 0.030828403729677351 0 -0.048607300838268933 0.036940184770941006 0 -0.048602450824527466 0.03693821536398563 0 -0.048553860814686232 0.036912377696585751 0 -0.043798619894632684 0.026677260512690659 0 -0.035996041064246767 0.029655244696083785 0 -0.048607300838268933 0.036940184770941006 0 -0.048617723874401358 0.036958019742984002 0 -0.048602450824527466 0.03693821536398563 0 -0.038796706849056811 0.014423051585375988 0 -0.038752311160580644 0.014650565826353545 0 -0.038957202380605037 0.014493931884449411 0 -0.038796706849056811 0.014423051585375988 0 -0.038752311160580644 0.014650565826353545 0 -0.038724000635500924 0.014517852455183899 0 -0.043798619894632684 0.026677260512690659 0 -0.034592720570216721 0.014417350085283427 0 -0.043593559995425309 0.014449685519475834 0 -0.04480085396066591 0.026144324551793816 0 -0.038568513320796922 0.014370513894674801 0 -0.038675667838269139 0.014642406705008831 0 -0.038724000635500924 0.014517852455183899 0 -0.038675667838269139 0.014642406705008831 0 -0.038752311160580644 0.014650565826353545 0 -0.038724000635500924 0.014517852455183899 0 -0.033799645429059152 0.01964623611294403 0 -0.032811175709799786 0.021332620885313968 0 -0.029774260718484678 0.018889046886468783 0 -0.035996041064246767 0.029655244696083785 0 -0.027616994334682343 0.019687147942906488 0 -0.035996041064246767 0.029655244696083785 0 -0.034592720570216721 0.014417350085283427 0 -0.039769102906322358 0.022759400016980253 0 -0.036937769279989624 0.022212696384583366 0 -0.036405402165145262 0.024173439562831068 0 -0.033799645429059152 0.01964623611294403 0 -0.033412533755421935 0.021076190045621227 0 -0.032811175709799786 0.021332620885313968 0 -0.038796706849056811 0.014423051585375988 0 -0.038957202380605037 0.014493931884449411 0 -0.038969542128533 0.014423456049600394 0 -0.034592720570216721 0.014417350085283427 0 -0.032640066483443766 0.0087861849728711194 0 -0.034592720570216721 0.014417350085283427 0 -0.033884921540262687 0.0082671419975431006 0 -0.03551883528232621 0.01043770521965437 0 -0.035310980631146897 0.011220353384808514 0 -0.03475539302992791 0.01076586334474936 0 -0.033884921540262687 0.0082671419975431006 0 -0.032640066483443766 0.0087861849728711194 0 -0.028982142003437846 0.0028376893821688096 0 -0.02955000147871235 0.0032998554157292869 0 -0.029585416318746758 0.00246918450453477 0 -0.032640066483443766 0.0087861849728711194 0 -0.027616994334682343 0.019687147942906488 0 -0.030098441029857072 0.0027943037540743756 0 -0.02955000147871235 0.0032998554157292869 0 -0.030425600129639328 0.0033628629092913123 0 -0.030098441029857072 0.0027943037540743756 0 -0.02955000147871235 0.0032998554157292869 0 -0.029585416318746758 0.00246918450453477 0 -0.028150355533966952 0.032798133764228722 0 -0.028395389356557499 0.031387423976373736 0 -0.026811154692715288 0.031769160438518011 0 -0.027616994334682343 0.019687147942906488 0 -0.028998230632750002 0.011801942088589543 0 -0.025175064341548987 0.02344952942646885 0 -0.027447342553456121 0.023956649550111002 0 -0.027218665277744986 0.024063322436973754 0 -0.027616994334682343 0.019687147942906488 0 -0.026021848627207911 0.03431714072194661 0 -0.025175064341548987 0.02344952942646885 0 -0.027054165917208026 0.025172612727610257 0 -0.027218665277744986 0.024063322436973754 0 -0.028922525136820476 0.032339033747852963 0 -0.028150355533966952 0.032798133764228722 0 -0.028395389356557499 0.031387423976373736 0 -0.021996782750941753 0.039889975751526287 0 -0.023573024529494217 0.040317394543482689 0 -0.024038602769999622 0.039538048870303842 0 -0.022967513794934762 0.035849026634469663 0 -0.026021848627207911 0.03431714072194661 0 -0.023888490846627215 0.042568279123552571 0 -0.023187494566429729 0.041324054553648397 0 -0.024271426982967227 0.040954070114957955 0 -0.021996782750941753 0.039889975751526287 0 -0.023573024529494217 0.040317394543482689 0 -0.023187494566429729 0.041324054553648397 0 -0.023573024529494217 0.040317394543482689 0 -0.023187494566429729 0.041324054553648397 0 -0.024271426982967227 0.040954070114957955 0 -0.021182435764601572 0.041330445099661779 0 -0.021996782750941753 0.039889975751526287 0 -0.023187494566429729 0.041324054553648397 0 -0.026633408668528685 0.042224046763968071 0 -0.025138787816525822 0.042258436824677142 0 -0.025555390099890742 0.041176339760383263 0 -0.026633408668528685 0.042224046763968071 0 -0.025555390099890742 0.041176339760383263 0 -0.026577165079327367 0.040472597189618861 0 -0.025555390099890742 0.041176339760383263 0 -0.024271426982967227 0.040954070114957955 0 -0.025196714498084118 0.040361282912036937 0 -0.025138787816525822 0.042258436824677142 0 -0.025555390099890742 0.041176339760383263 0 -0.024271426982967227 0.040954070114957955 0 -0.024271426982967227 0.040954070114957955 0 -0.02441592195656795 0.039881223584018202 0 -0.025196714498084118 0.040361282912036937 0 -0.023573024529494217 0.040317394543482689 0 -0.02441592195656795 0.039881223584018202 0 -0.024038602769999622 0.039538048870303842 0 -0.023573024529494217 0.040317394543482689 0 -0.024271426982967227 0.040954070114957955 0 -0.02441592195656795 0.039881223584018202 0 -0.02622334276108303 0.036677711774301354 0 -0.026021848627207911 0.03431714072194661 0 -0.026021848627207911 0.03431714072194661 0 -0.026379182538972184 0.033212995759858949 0 -0.02441592195656795 0.039881223584018202 0 -0.025196714498084118 0.040361282912036937 0 -0.025179711575393202 0.039288850960332973 0 -0.02441592195656795 0.039881223584018202 0 -0.024037383889094651 0.039547838346181835 0 -0.025179711575393202 0.039288850960332973 0 -0.026379182538972184 0.033212995759858949 0 -0.026678983240186305 0.042022622572410892 0 -0.025196714498084118 0.040361282912036937 0 -0.025179711575393202 0.039288850960332973 0 -0.026577165079327367 0.040472597189618861 0 -0.025169954379481281 0.041311847885155961 0 -0.026312656748559444 0.042189426540007562 0 -0.026298388945858044 0.041085838527673321 0 -0.025555390099890742 0.041176339760383263 0 -0.025196714498084118 0.040361282912036937 0 -0.026577165079327367 0.040472597189618861 0 -0.028998230632750002 0.011801942088589543 0 -0.028532706085518555 0.021682434144051368 0 -0.028089406999786813 0.024598799211823577 0 -0.027447342553456121 0.023956649550111002 0 -0.029235793794759282 0.024253001170812447 0 -0.026379182538972184 0.033212995759858949 0 -0.028532706085518555 0.021682434144051368 0 -0.030425600129639328 0.0033628629092913123 0 -0.03084625612822478 0.003018404185513409 0 -0.031107809470347261 0.003479623665108868 0 -0.027054165917208026 0.025172612727610257 0 -0.028328835922247241 0.024886959427968532 0 -0.027218665277744986 0.024063322436973754 0 -0.028089406999786813 0.024598799211823577 0 -0.027447342553456121 0.023956649550111002 0 -0.027218665277744986 0.024063322436973754 0 -0.026379182538972184 0.033212995759858949 0 -0.026186034924358264 0.024195780540951548 0 -0.030425600129639328 0.0033628629092913123 0 -0.030552175388040431 0.002666447350034198 0 -0.03084625612822478 0.003018404185513409 0 -0.030098441029857072 0.0027943037540743756 0 -0.030425600129639328 0.0033628629092913123 0 -0.030552175388040431 0.002666447350034198 0 -0.030552175388040431 0.002666447350034198 0 -0.03084625612822478 0.003018404185513409 0 -0.03090871184955564 0.0025880089924712074 0 -0.03084625612822478 0.003018404185513409 0 -0.03090871184955564 0.0025880089924712074 0 -0.031209272831429498 0.0030005688071975444 0 -0.03090871184955564 0.0025880089924712074 0 -0.030933996809765215 0.0020238647782197835 0 -0.030645108969692653 0.0022122078182653707 0 -0.030552175388040431 0.002666447350034198 0 -0.03090871184955564 0.0025880089924712074 0 -0.030645108969692653 0.0022122078182653707 0 -0.030933996809765215 0.0020238647782197835 0 -0.030634227996512345 0.0019809605980537332 0 -0.030645108969692653 0.0022122078182653707 0 -0.030933996809765215 0.0020238647782197835 0 -0.030634227996512345 0.0019809605980537332 0 -0.030674433656472707 0.0017496882041466762 0 -0.030405593697813111 0.0019506588548229009 0 -0.030645108969692653 0.0022122078182653707 0 -0.03032906241365994 0.0020311796512009683 0 -0.030405593697813111 0.0019506588548229009 0 -0.030540965596430786 0.0020347798560321228 0 -0.030291358600501458 0.0020136649216725405 0 -0.030498055844811623 0.001767096107077874 0 -0.029073807727412703 0.00090934410637802637 0 -0.030405593697813111 0.0019506588548229009 0 -0.030634227996512345 0.0019809605980537332 0 -0.030674433656472707 0.0017496882041466762 0 -0.030405593697813111 0.0019506588548229009 0 -0.030634227996512345 0.0019809605980537332 0 -0.030645108969692653 0.0022122078182653707 0 -0.030098441029857072 0.0027943037540743756 0 -0.030552175388040431 0.002666447350034198 0 -0.03032906241365994 0.0020311796512009683 0 -0.030552175388040431 0.002666447350034198 0 -0.030645108969692653 0.0022122078182653707 0 -0.03032906241365994 0.0020311796512009683 0 -0.030098441029857072 0.0027943037540743756 0 -0.03032906241365994 0.0020311796512009683 0 -0.029585416318746758 0.00246918450453477 0 -0.03032906241365994 0.0020311796512009683 0 -0.03080122989077087 0.0015725029218701839 0 -0.0307765130075397 0.0017565342855546649 0 -0.030328598617230348 0.002040456080420909 0 -0.030130152658940708 0.0017278639387247714 0 -0.030978963057331468 0.0016115861940071321 0 -0.03106071749312015 0.0015311427600328662 0 -0.03080122989077087 0.0015725029218701839 0 -0.03103517388294421 0.0017133255501999441 0 -0.030978963057331468 0.0016115861940071321 0 -0.0307765130075397 0.0017565342855546649 0 -0.032640066483443766 0.0087861849728711194 0 -0.030130152658940708 0.0017278639387247714 0 -0.030978963057331468 0.0016115861940071321 0 -0.03080122989077087 0.0015725029218701839 0 -0.0307765130075397 0.0017565342855546649 0 -0.03103517388294421 0.0017133255501999441 0 -0.031090395635367724 0.0015497637914625205 0 -0.0307765130075397 0.0017565342855546649 0 -0.031090395635367724 0.0015497637914625205 0 -0.0307765130075397 0.0017565342855546649 0 -0.030540965596430786 0.0020347798560321228 0 -0.031687245688402352 0.0013089243942699409 0 -0.031090395635367724 0.0015497637914625205 0 -0.030540965596430786 0.0020347798560321228 0 -0.03032906241365994 0.0020311796512009683 0 -0.0307765130075397 0.0017565342855546649 0 -0.030476268864902345 0.001946924403174313 0 -0.030405593697813111 0.0019506588548229009 0 -0.030476268864902345 0.001946924403174313 0 -0.030540965596430786 0.0020347798560321228 0 -0.030405593697813111 0.0019506588548229009 0 -0.03032906241365994 0.0020311796512009683 0 -0.030476268864902345 0.001946924403174313 0 -0.0307765130075397 0.0017565342855546649 0 -0.030476268864902345 0.001946924403174313 0 -0.030540965596430786 0.0020347798560321228 0 -0.030289414653979756 0.00051728064404129226 0 -0.030829158337761356 0.0014360165540850283 0 -0.029999336736690935 0.0014295426801985713 0 -0.030289414653979756 0.00051728064404129226 0 -0.029999336736690935 0.0014295426801985713 0 -0.029232235287829856 0.00084796750092728883 0 -0.031428074743357494 0.0013930006414239393 0 -0.030289414653979756 0.00051728064404129226 0 -0.030829158337761356 0.0014360165540850283 0 -0.031519610338784858 0.0012969930500136169 0 -0.030468424474519348 0.0012933068554505064 0 -0.030829158337761356 0.0014360165540850283 0 -0.030338139490500928 0.0022942261250571559 0 -0.031256227168724449 0.001991278577088773 0 -0.030829158337761356 0.0014360165540850283 0 -0.029999336736690935 0.0014295426801985713 0 -0.030338139490500928 0.0022942261250571559 0 -0.029043454803174364 0.0013546991822078129 0 -0.028248788057202434 0.00081832713203207807 0 -0.029232235287829856 0.00084796750092728883 0 -0.029999336736690935 0.0014295426801985713 0 -0.029043454803174364 0.0013546991822078129 0 -0.029469325507832111 0.001935070420281407 0 -0.029999336736690935 0.0014295426801985713 0 -0.029043454803174364 0.0013546991822078129 0 -0.029232235287829856 0.00084796750092728883 0 -0.029043454803174364 0.0013546991822078129 0 -0.028386493520104177 0.0012871116246357438 0 -0.028702315192980742 0.0017814392734592608 0 -0.029043454803174364 0.0013546991822078129 0 -0.028386493520104177 0.0012871116246357438 0 -0.028248788057202434 0.00081832713203207807 0 -0.028386493520104177 0.0012871116246357438 0 -0.028248788057202434 0.00081832713203207807 0 -0.027561610768131347 0.0012099551323229154 0 -0.028248788057202434 0.00081832713203207807 0 -0.027561610768131347 0.0012099551323229154 0 -0.02741613866199932 0.00066653022444621761 0 -0.030933996809765215 0.0020238647782197835 0 -0.030674433656472707 0.0017496882041466762 0 -0.031137729737541229 0.0017142154147217594 0 -0.027015384633061575 -0.0002104909830974157 0 -0.026032065205142438 0.00043955917791861952 0 -0.025962087862588079 -0.00013879337056559214 0 -0.029073807727412703 0.00090934410637802637 0 -0.02655341421396825 0.00049367325342522354 0 -0.029073807727412703 0.00090934410637802637 0 -0.028793476961945678 0.0007475807633428455 0 -0.028248788057202434 0.00081832713203207807 0 -0.02851841454719424 0.00015037683097187274 0 -0.02741613866199932 0.00066653022444621761 0 -0.030468424474519348 0.0012933068554505064 0 -0.029073807727412703 0.00090934410637802637 0 -0.030289414653979756 0.00051728064404129226 0 -0.02851841454719424 0.00015037683097187274 0 -0.029232235287829856 0.00084796750092728883 0 -0.028248788057202434 0.00081832713203207807 0 -0.02851841454719424 0.00015037683097187274 0 -0.029232235287829856 0.00084796750092728883 0 -0.028636461664160017 0.0016936634268124621 0 -0.029154252777091091 0.0018539196983384325 0 -0.028243469144444165 0.0019415759770312203 0 -0.028540895997790479 0.001204971397797317 0 -0.028636461664160017 0.0016936634268124621 0 -0.027931626728977227 0.0015093379528191323 0 -0.029978581316543556 0.0021197133250697589 0 -0.027972445238628196 0.0018957775873203505 0 -0.029978581316543556 0.0021197133250697589 0 -0.037928756738506736 0.002819811522594235 0 -0.028540895997790479 0.001204971397797317 0 -0.028636461664160017 0.0016936634268124621 0 -0.029246361936258913 0.0016862391426710178 0 -0.028636461664160017 0.0016936634268124621 0 -0.027931626728977227 0.0015093379528191323 0 -0.028243469144444165 0.0019415759770312203 0 -0.027651123142622837 0.0016719880816565016 0 -0.027931626728977227 0.0015093379528191323 0 -0.028243469144444165 0.0019415759770312203 0 -0.028155471898980669 0.001401671524242878 0 -0.027617453355897305 0.0014186662945630372 0 -0.027931626728977227 0.0015093379528191323 0 -0.027651123142622837 0.0016719880816565016 0 -0.027617453355897305 0.0014186662945630372 0 -0.027931626728977227 0.0015093379528191323 0 -0.029132899860183786 0.0028165343725873588 0 -0.027561610768131347 0.0012099551323229154 0 -0.028702315192980742 0.0017814392734592608 0 -0.029978581316543556 0.0021197133250697589 0 -0.027114942480673754 0.0011715479913535817 0 -0.028155471898980669 0.001401671524242878 0 -0.027617453355897305 0.0014186662945630372 0 -0.027561610768131347 0.0012099551323229154 0 -0.028386493520104177 0.0012871116246357438 0 -0.027561610768131347 0.0012099551323229154 0 -0.028702315192980742 0.0017814392734592608 0 -0.029132899860183786 0.0028165343725873588 0 -0.028702315192980742 0.0017814392734592608 0 -0.029469325507832111 0.001935070420281407 0 -0.029043454803174364 0.0013546991822078129 0 -0.028702315192980742 0.0017814392734592608 0 -0.029469325507832111 0.001935070420281407 0 -0.029132899860183786 0.0028165343725873588 0 -0.029469325507832111 0.001935070420281407 0 -0.030338139490500928 0.0022942261250571559 0 -0.029999336736690935 0.0014295426801985713 0 -0.029469325507832111 0.001935070420281407 0 -0.030338139490500928 0.0022942261250571559 0 -0.029978581316543556 0.0021197133250697589 0 -0.0346991840636727 0.0026874339451138885 0 -0.038511170957351057 0.0031755092659067896 0 -0.039210447427891801 0.0035710248213584261 0 -0.039980887620401681 0.0024614550413421931 0 -0.038394582403911956 0.0030042958601964121 0 -0.038511170957351057 0.0031755092659067896 0 -0.039980887620401681 0.0024614550413421931 0 -0.039787877266669679 0.0042216685975118269 0 -0.039210447427891801 0.0035710248213584261 0 -0.039980887620401681 0.0024614550413421931 0 -0.0346991840636727 0.0026874339451138885 0 -0.035583604235980476 0.0021052716678944361 0 -0.039787877266669679 0.0042216685975118269 0 -0.038543059386232315 0.003913288279743507 0 -0.038208763459800364 0.0045199998136378041 0 -0.044385811921741937 0.004912510539753185 0 -0.043760891002151331 0.0041887033156335811 0 -0.039787877266669679 0.0042216685975118269 0 -0.039210447427891801 0.0035710248213584261 0 -0.038543059386232315 0.003913288279743507 0 -0.038511170957351057 0.0031755092659067896 0 -0.039210447427891801 0.0035710248213584261 0 -0.038543059386232315 0.003913288279743507 0 -0.038394582403911956 0.0030042958601964121 0 -0.038511170957351057 0.0031755092659067896 0 -0.0373695672853986 0.0053040027568509824 0 -0.038511170957351057 0.0031755092659067896 0 -0.038543059386232315 0.003913288279743507 0 -0.037998324505820878 0.0043689432070880265 0 -0.038153445943598784 0.0039335658526020965 0 -0.037928756738506736 0.002819811522594235 0 -0.0355944509584376 0.0040448710172202602 0 -0.038394582403911956 0.0030042958601964121 0 -0.0373695672853986 0.0053040027568509824 0 -0.038543059386232315 0.003913288279743507 0 -0.038208763459800364 0.0045199998136378041 0 -0.037998324505820878 0.0043689432070880265 0 -0.043760891002151331 0.0041887033156335811 0 -0.037928756738506736 0.002819811522594235 0 -0.043760891002151331 0.0041887033156335811 0 -0.037162514147398532 0.0027338238652532525 0 -0.028636461664160017 0.0016936634268124621 0 -0.029154252777091091 0.0018539196983384325 0 -0.029246361936258913 0.0016862391426710178 0 -0.039229900404501854 0.0028281910696191801 0 -0.03984469713090686 0.0026933215251158972 0 -0.039626995832506076 0.0031207901942992031 0 -0.037162514147398532 0.0027338238652532525 0 -0.037928756738506736 0.002819811522594235 0 -0.049950309095957733 0.0040538440604069434 0 -0.049971648652892553 0.0036274696144115771 0 -0.049342607742988806 0.0036925657781221935 0 -0.050099535541748938 0.0040221281303961928 0 -0.049971648652892553 0.0036274696144115771 0 -0.050450117931179671 0.0033265644979965656 0 -0.037162514147398532 0.0027338238652532525 0 -0.040138651049175467 0.0025297569354584292 0 -0.049950309095957733 0.0040538440604069434 0 -0.050099535541748938 0.0040221281303961928 0 -0.049971648652892553 0.0036274696144115771 0 -0.048917000802241532 0.0055008415081518255 0 -0.049933093458731898 0.005216415170335313 0 -0.049164160321463507 0.0045191570703818915 0 -0.049971648652892553 0.0036274696144115771 0 -0.049342607742988806 0.0036925657781221935 0 -0.049960059318191079 0.0030419109376871594 0 -0.043760891002151331 0.0041887033156335811 0 -0.050253954970630024 0.004540184885086747 0 -0.049342607742988806 0.0036925657781221935 0 -0.049428223413341993 0.0030072717612633386 0 -0.049960059318191079 0.0030419109376871594 0 -0.049428223413341993 0.0030072717612633386 0 -0.049960059318191079 0.0030419109376871594 0 -0.049965493799616678 0.0024585883333157811 0 -0.049971648652892553 0.0036274696144115771 0 -0.049960059318191079 0.0030419109376871594 0 -0.050450117931179671 0.0033265644979965656 0 -0.049960059318191079 0.0030419109376871594 0 -0.050450117931179671 0.0033265644979965656 0 -0.050290014566116564 0.0027198362076133586 0 -0.049960059318191079 0.0030419109376871594 0 -0.049965493799616678 0.0024585883333157811 0 -0.050290014566116564 0.0027198362076133586 0 -0.028637342684583681 0.0024897438433070097 0 -0.028133492934366962 0.0023573108060589067 0 -0.028282849849246689 0.0031698423373127198 0 -0.050450117931179671 0.0033265644979965656 0 -0.050690132084467321 0.0026410619326322996 0 -0.050290014566116564 0.0027198362076133586 0 -0.040138651049175467 0.0025297569354584292 0 -0.033582187012971221 0.002435518010683051 0 -0.037162514147398532 0.0027338238652532525 0 -0.025833483858813934 0.002451022246553556 0 -0.029109368392232153 0.0017489862331723902 0 -0.028637342684583681 0.0024897438433070097 0 -0.028243469144444165 0.0019415759770312203 0 -0.028637342684583681 0.0024897438433070097 0 -0.028133492934366962 0.0023573108060589067 0 -0.028243469144444165 0.0019415759770312203 0 -0.028133492934366962 0.0023573108060589067 0 -0.028243469144444165 0.0019415759770312203 0 -0.027591478592130868 0.0020601562570680596 0 -0.027651123142622837 0.0016719880816565016 0 -0.028243469144444165 0.0019415759770312203 0 -0.027591478592130868 0.0020601562570680596 0 -0.028133492934366962 0.0023573108060589067 0 -0.027591478592130868 0.0020601562570680596 0 -0.027709729266839192 0.0025756054461045482 0 -0.027709729266839192 0.0025756054461045482 0 -0.027666433065286797 0.0031407315889591851 0 -0.028188871837933172 0.0030911470430214981 0 -0.028133492934366962 0.0023573108060589067 0 -0.027709729266839192 0.0025756054461045482 0 -0.028282849849246689 0.0031698423373127198 0 -0.027709729266839192 0.0025756054461045482 0 -0.027666433065286797 0.0031407315889591851 0 -0.027063049921009195 0.0029474293854070957 0 -0.026942801630918559 0.0020106234401592636 0 -0.033582187012971221 0.002435518010683051 0 -0.033582187012971221 0.002435518010683051 0 -0.028581968125994159 0.0028184326449667975 0 -0.027666433065286797 0.0031407315889591851 0 -0.028188871837933172 0.0030911470430214981 0 -0.027951949388825049 0.003655193842327327 0 -0.027666433065286797 0.0031407315889591851 0 -0.027951949388825049 0.003655193842327327 0 -0.027388971438341899 0.0034495883288290273 0 -0.033582187012971221 0.002435518010683051 0 -0.042807474414451922 0.0028199090855457955 0 -0.030644573969288713 -0.00077788844763996125 0 -0.029342848510224173 0.0016362957147285509 0 -0.032905747712932636 0.0020491179975588732 0 -0.050690132084467321 0.0026410619326322996 0 -0.050278307625873514 0.0019986834363606332 0 -0.050290014566116564 0.0027198362076133586 0 -0.029342848510224173 0.0016362957147285509 0 -0.030582941997402205 0.0039142595946689571 0 -0.032905747712932636 0.0020491179975588732 0 -0.030582941997402205 0.0039142595946689571 0 -0.03243409963984719 0.0042542216125549129 0 -0.032905747712932636 0.0020491179975588732 0 -0.029342848510224173 0.0016362957147285509 0 -0.028007789698500436 0.0041803166433697185 0 -0.030582941997402205 0.0039142595946689571 0 -0.027951949388825049 0.003655193842327327 0 -0.028007789698500436 0.0041803166433697185 0 -0.027388971438341899 0.0034495883288290273 0 -0.028581968125994159 0.0028184326449667975 0 -0.028066425247468902 0.0039685222329451505 0 -0.028007789698500436 0.0041803166433697185 0 -0.029192989294261496 0.0053735371778374326 0 -0.030582941997402205 0.0039142595946689571 0 -0.028007789698500436 0.0041803166433697185 0 -0.029192989294261496 0.0053735371778374326 0 -0.027273530711146413 0.0070837753875001323 0 -0.030582941997402205 0.0039142595946689571 0 -0.03243409963984719 0.0042542216125549129 0 -0.031034635387215685 0.0061536781569243998 0 -0.029192989294261496 0.0053735371778374326 0 -0.030582941997402205 0.0039142595946689571 0 -0.031034635387215685 0.0061536781569243998 0 -0.035130441771320159 -0.010541992804960003 0 -0.037177810720468774 -0.010103609794771541 0 -0.035627748545846827 -0.009095536277767961 0 -0.035130441771320159 -0.010541992804960003 0 -0.034035366150246493 -0.0087048112867001773 0 -0.035627748545846827 -0.009095536277767961 0 -0.035130441771320159 -0.010541992804960003 0 -0.032585038887302929 -0.0097044427215204239 0 -0.034035366150246493 -0.0087048112867001773 0 -0.029192989294261496 0.0053735371778374326 0 -0.031034635387215685 0.0061536781569243998 0 -0.027273530711146413 0.0070837753875001323 0 -0.032387474015045555 -0.0026326014005270738 0 -0.029410102574315561 0.00016300369017105434 0 -0.037848870489846927 -0.010323325225944317 0 -0.038518143957276013 -0.010321937474298807 0 -0.037942428542521466 -0.0095822885477651627 0 -0.04525840911611987 -0.0055369255660037879 0 -0.046060553839471864 -0.0048101434287665659 0 -0.052092854771753516 -0.0029544218905354215 0 -0.051592643409477119 -0.0028018754724472572 0 -0.051644845136349864 -0.0021929700174134694 0 -0.052092854771753516 -0.0029544218905354215 0 -0.051592643409477119 -0.0028018754724472572 0 -0.051882228582259958 -0.0031989278749136921 0 -0.051592643409477119 -0.0028018754724472572 0 -0.051005119295332163 -0.0033373155833114889 0 -0.051069431056346828 -0.002520677244720096 0 -0.051592643409477119 -0.0028018754724472572 0 -0.051005119295332163 -0.0033373155833114889 0 -0.051882228582259958 -0.0031989278749136921 0 -0.04525840911611987 -0.0055369255660037879 0 -0.0426373487270712 -0.0068561258335507261 0 -0.051005119295332163 -0.0033373155833114889 0 -0.051882228582259958 -0.0031989278749136921 0 -0.051654506442868231 -0.0049718576715335932 0 -0.051005119295332163 -0.0033373155833114889 0 -0.050349980419666478 -0.0039467933841239658 0 -0.051654506442868231 -0.0049718576715335932 0 -0.052068487338826401 -0.0029668373710262375 0 -0.051882228582259958 -0.0031989278749136921 0 -0.051654506442868231 -0.0049718576715335932 0 -0.038518143957276013 -0.010321937474298807 0 -0.037942428542521466 -0.0095822885477651627 0 -0.038775438572458978 -0.0088638739308327316 0 -0.037942428542521466 -0.0095822885477651627 0 -0.037177810720468774 -0.010103609794771541 0 -0.037080158924580144 -0.0088427326150795661 0 -0.037177810720468774 -0.010103609794771541 0 -0.037080158924580144 -0.0088427326150795661 0 -0.035627748545846827 -0.009095536277767961 0 -0.037848870489846927 -0.010323325225944317 0 -0.037177810720468774 -0.010103609794771541 0 -0.03775543641872698 -0.011287623077967766 0 -0.037848870489846927 -0.010323325225944317 0 -0.037942428542521466 -0.0095822885477651627 0 -0.037177810720468774 -0.010103609794771541 0 -0.03243409963984719 0.0042542216125549129 0 -0.031034635387215685 0.0061536781569243998 0 -0.035243533015702481 0.0049012848467133736 0 -0.035130441771320159 -0.010541992804960003 0 -0.037177810720468774 -0.010103609794771541 0 -0.03775543641872698 -0.011287623077967766 0 -0.03243409963984719 0.0042542216125549129 0 -0.035243533015702481 0.0049012848467133736 0 -0.032905747712932636 0.0020491179975588732 0 -0.032387474015045555 -0.0026326014005270738 0 -0.041062755456485252 -0.00041981031897538756 0 -0.049776994954272562 0.0013160862264916314 0 -0.049578698260271656 0.0013757567983590172 0 -0.049748470223093713 0.0019652073292961629 0 -0.041062755456485252 -0.00041981031897538756 0 -0.048845822898137894 -0.00081799853666188963 0 -0.04525840911611987 -0.0055369255660037879 0 -0.041062755456485252 -0.00041981031897538756 0 -0.052092854771753516 -0.0029544218905354215 0 -0.052454293947121151 -0.001313593915725201 0 -0.051644845136349864 -0.0021929700174134694 0 -0.044543115822360514 -0.0039674151993488033 0 -0.046716877037810148 -0.0011619949308990969 0 -0.045120468010514211 -0.00065708445718329757 0 -0.04525840911611987 -0.0055369255660037879 0 -0.048845822898137894 -0.00081799853666188963 0 -0.037848870489846927 -0.010323325225944317 0 -0.038518143957276013 -0.010321937474298807 0 -0.03775543641872698 -0.011287623077967766 0 -0.051069431056346828 -0.002520677244720096 0 -0.051644845136349864 -0.0021929700174134694 0 -0.050423376140140738 -0.001779753346257027 0 -0.052454293947121151 -0.001313593915725201 0 -0.051644845136349864 -0.0021929700174134694 0 -0.050423376140140738 -0.001779753346257027 0 -0.051592643409477119 -0.0028018754724472572 0 -0.051069431056346828 -0.002520677244720096 0 -0.051644845136349864 -0.0021929700174134694 0 -0.049962376657904366 0.00018350732113541147 0 -0.050084109964008292 0.0011845498597368518 0 -0.049158916054046736 0.0010538903547087505 0 -0.048845822898137894 -0.00081799853666188963 0 -0.049935738264725998 0.0018639095143678645 0 -0.050084109964008292 0.0011845498597368518 0 -0.04915934764737126 0.0021794295655402688 0 -0.049158916054046736 0.0010538903547087505 0 -0.041062755456485252 -0.00041981031897538756 0 -0.042807474414451922 0.0028199090855457955 0 -0.049776994954272562 0.0013160862264916314 0 -0.049748470223093713 0.0019652073292961629 0 -0.050278307625873514 0.0019986834363606332 0 -0.049748470223093713 0.0019652073292961629 0 -0.050278307625873514 0.0019986834363606332 0 -0.049965493799616678 0.0024585883333157811 0 -0.050278307625873514 0.0019986834363606332 0 -0.049965493799616678 0.0024585883333157811 0 -0.050290014566116564 0.0027198362076133586 0 -0.050084109964008292 0.0011845498597368518 0 -0.049965493799616678 0.0024585883333157811 0 -0.04915934764737126 0.0021794295655402688 0 -0.049935738264725998 0.0018639095143678645 0 -0.049958743338056714 0.0022105373543884841 0 -0.049428223413341993 0.0030072717612633386 0 -0.049965493799616678 0.0024585883333157811 0 -0.04915934764737126 0.0021794295655402688 0 -0.04915934764737126 0.0021794295655402688 0 -0.047915994105568814 0.0019348207308904413 0 -0.049158916054046736 0.0010538903547087505 0 -0.04915934764737126 0.0021794295655402688 0 -0.047915994105568814 0.0019348207308904413 0 -0.048283631972975402 0.0034534956961040936 0 -0.047915994105568814 0.0019348207308904413 0 -0.048327302249948433 0.00019492312470009926 0 -0.046466102294025896 0.00053599627069102933 0 -0.048327302249948433 0.00019492312470009926 0 -0.046544287311529195 -0.0012793709509645575 0 -0.046466102294025896 0.00053599627069102933 0 -0.047915994105568814 0.0019348207308904413 0 -0.048327302249948433 0.00019492312470009926 0 -0.049158916054046736 0.0010538903547087505 0 -0.049962376657904366 0.00018350732113541147 0 -0.048327302249948433 0.00019492312470009926 0 -0.049158916054046736 0.0010538903547087505 0 -0.052454293947121151 -0.001313593915725201 0 -0.048327302249948433 0.00019492312470009926 0 -0.050423376140140738 -0.001779753346257027 0 -0.050423376140140738 -0.001779753346257027 0 -0.048207636159854565 -0.0018454850742233065 0 -0.049168864613318104 -0.0030892875023954161 0 -0.048327302249948433 0.00019492312470009926 0 -0.050423376140140738 -0.001779753346257027 0 -0.048207636159854565 -0.0018454850742233065 0 -0.048845822898137894 -0.00081799853666188963 0 -0.049404674441441358 0.00016418787418388087 0 -0.051069431056346828 -0.002520677244720096 0 -0.050423376140140738 -0.001779753346257027 0 -0.050408096177477824 -0.0029926175212106622 0 -0.048327302249948433 0.00019492312470009926 0 -0.048207636159854565 -0.0018454850742233065 0 -0.046544287311529195 -0.0012793709509645575 0 -0.048207636159854565 -0.0018454850742233065 0 -0.047373281694721228 -0.0032130330975116759 0 -0.046544287311529195 -0.0012793709509645575 0 -0.047373281694721228 -0.0032130330975116759 0 -0.046287268312788073 -0.0048535379984284656 0 -0.048909472184969556 -0.0048232971024332544 0 -0.048207636159854565 -0.0018454850742233065 0 -0.047373281694721228 -0.0032130330975116759 0 -0.049168864613318104 -0.0030892875023954161 0 -0.047373281694721228 -0.0032130330975116759 0 -0.049168864613318104 -0.0030892875023954161 0 -0.048909472184969556 -0.0048232971024332544 0 -0.050349980419666478 -0.0039467933841239658 0 -0.048909472184969556 -0.0048232971024332544 0 -0.051654506442868231 -0.0049718576715335932 0 -0.050349980419666478 -0.0039467933841239658 0 -0.049168864613318104 -0.0030892875023954161 0 -0.048909472184969556 -0.0048232971024332544 0 -0.050423376140140738 -0.001779753346257027 0 -0.050408096177477824 -0.0029926175212106622 0 -0.049168864613318104 -0.0030892875023954161 0 -0.050349980419666478 -0.0039467933841239658 0 -0.050408096177477824 -0.0029926175212106622 0 -0.049168864613318104 -0.0030892875023954161 0 -0.051005119295332163 -0.0033373155833114889 0 -0.050349980419666478 -0.0039467933841239658 0 -0.050408096177477824 -0.0029926175212106622 0 -0.051005119295332163 -0.0033373155833114889 0 -0.051069431056346828 -0.002520677244720096 0 -0.050408096177477824 -0.0029926175212106622 0 -0.043700993450592328 -0.0053311312756127612 0 -0.044224756125015641 -0.0056444127483768446 0 -0.043634980403008838 -0.0035266668945314844 0 -0.043706867365198666 -0.0052256758268012168 0 -0.045202215777933409 -0.0033356910179227601 0 -0.047373281694721228 -0.0032130330975116759 0 -0.045202215777933409 -0.0033356910179227601 0 -0.046287268312788073 -0.0048535379984284656 0 -0.043706867365198666 -0.0052256758268012168 0 -0.045202215777933409 -0.0033356910179227601 0 -0.046287268312788073 -0.0048535379984284656 0 -0.045202215777933409 -0.0033356910179227601 0 -0.046544287311529195 -0.0012793709509645575 0 -0.044470331851886209 -0.0019115868529194658 0 -0.046620151817507172 -0.0013549397487183674 0 -0.044156771587725518 -0.0012968953229702466 0 -0.046544287311529195 -0.0012793709509645575 0 -0.044868161793032886 -0.00076312297964879902 0 -0.046466102294025896 0.00053599627069102933 0 -0.047373281694721228 -0.0032130330975116759 0 -0.045202215777933409 -0.0033356910179227601 0 -0.046544287311529195 -0.0012793709509645575 0 -0.044156771587725518 -0.0012968953229702466 0 -0.046564615317529458 0.0014561785118807342 0 -0.043634980403008838 -0.0035266668945314844 0 -0.044470331851886209 -0.0019115868529194658 0 -0.042725640625144584 -0.0021330445785907445 0 -0.043634980403008838 -0.0035266668945314844 0 -0.045202215777933409 -0.0033356910179227601 0 -0.044470331851886209 -0.0019115868529194658 0 -0.045144468913206448 0.00099984262104592337 0 -0.043781403842413823 0.002036084674472929 0 -0.043021244539534841 -0.00056478308201682857 0 -0.044868161793032886 -0.00076312297964879902 0 -0.045144468913206448 0.00099984262104592337 0 -0.043021244539534841 -0.00056478308201682857 0 -0.044868161793032886 -0.00076312297964879902 0 -0.045144468913206448 0.00099984262104592337 0 -0.046466102294025896 0.00053599627069102933 0 -0.047915994105568814 0.0019348207308904413 0 -0.046466102294025896 0.00053599627069102933 0 -0.046356623087000032 0.0020845539647392432 0 -0.045144468913206448 0.00099984262104592337 0 -0.046466102294025896 0.00053599627069102933 0 -0.046356623087000032 0.0020845539647392432 0 -0.045144468913206448 0.00099984262104592337 0 -0.046356623087000032 0.0020845539647392432 0 -0.045489790162910305 0.003109826925831212 0 -0.046356623087000032 0.0020845539647392432 0 -0.045489790162910305 0.003109826925831212 0 -0.046596937361510195 0.0036558589529149524 0 -0.047915994105568814 0.0019348207308904413 0 -0.046356623087000032 0.0020845539647392432 0 -0.046596937361510195 0.0036558589529149524 0 -0.045489790162910305 0.003109826925831212 0 -0.045309583916702818 0.0049828735590968934 0 -0.043781403842413823 0.002036084674472929 0 -0.045144468913206448 0.00099984262104592337 0 -0.045489790162910305 0.003109826925831212 0 -0.043781403842413823 0.002036084674472929 0 -0.045309583916702818 0.0049828735590968934 0 -0.04593807582939758 0.0048802480741530407 0 -0.046596937361510195 0.0036558589529149524 0 -0.045489790162910305 0.003109826925831212 0 -0.045309583916702818 0.0049828735590968934 0 -0.046596937361510195 0.0036558589529149524 0 -0.045199323422606047 0.0047463229393237098 0 -0.044811264250988234 0.005317795226479881 0 -0.04593807582939758 0.0048802480741530407 0 -0.045667303372661783 0.0049664906274552393 0 -0.046421085308937113 0.0052908804862763434 0 -0.045661780831085304 0.0050144526529837946 0 -0.04593807582939758 0.0048802480741530407 0 -0.045667303372661783 0.0049664906274552393 0 -0.045309583916702818 0.0049828735590968934 0 -0.045661780831085304 0.0050144526529837946 0 -0.046027742203859717 0.0052498104630905847 0 -0.045309583916702818 0.0049828735590968934 0 -0.045661780831085304 0.0050144526529837946 0 -0.04593807582939758 0.0048802480741530407 0 -0.045661780831085304 0.0050144526529837946 0 -0.045667303372661783 0.0049664906274552393 0 -0.04600702734032338 0.0049020192008179808 0 -0.045667303372661783 0.0049664906274552393 0 -0.045939363032370034 0.0046425011073511898 0 -0.04600702734032338 0.0049020192008179808 0 -0.04593807582939758 0.0048802480741530407 0 -0.046596937361510195 0.0036558589529149524 0 -0.047104378552141349 0.0047183386025333972 0 -0.04593807582939758 0.0048802480741530407 0 -0.047104378552141349 0.0047183386025333972 0 -0.046421085308937113 0.0052908804862763434 0 -0.047915994105568814 0.0019348207308904413 0 -0.046596937361510195 0.0036558589529149524 0 -0.048283631972975402 0.0034534956961040936 0 -0.046596937361510195 0.0036558589529149524 0 -0.048283631972975402 0.0034534956961040936 0 -0.047104378552141349 0.0047183386025333972 0 -0.049428223413341993 0.0030072717612633386 0 -0.04915934764737126 0.0021794295655402688 0 -0.048283631972975402 0.0034534956961040936 0 -0.049342607742988806 0.0036925657781221935 0 -0.049428223413341993 0.0030072717612633386 0 -0.048283631972975402 0.0034534956961040936 0 -0.050253954970630024 0.004540184885086747 0 -0.047947878142955751 0.0032411015400259937 0 -0.048917000802241532 0.0055008415081518255 0 -0.049164160321463507 0.0045191570703818915 0 -0.048215667595389484 0.0048508232865969048 0 -0.049164160321463507 0.0045191570703818915 0 -0.048283631972975402 0.0034534956961040936 0 -0.048215667595389484 0.0048508232865969048 0 -0.048283631972975402 0.0034534956961040936 0 -0.048215667595389484 0.0048508232865969048 0 -0.047104378552141349 0.0047183386025333972 0 -0.048215667595389484 0.0048508232865969048 0 -0.047104378552141349 0.0047183386025333972 0 -0.0475828336001973 0.0058728495176648948 0 -0.047104378552141349 0.0047183386025333972 0 -0.0475828336001973 0.0058728495176648948 0 -0.046421085308937113 0.0052908804862763434 0 -0.048917000802241532 0.0055008415081518255 0 -0.048215667595389484 0.0048508232865969048 0 -0.0475828336001973 0.0058728495176648948 0 -0.044385811921741937 0.004912510539753185 0 -0.044478104412673768 0.0048321824583736133 0 -0.039787877266669679 0.0042216685975118269 0 -0.041393512424252238 0.0039045659743563573 0 -0.039980887620401681 0.0024614550413421931 0 -0.041472074352839769 0.001862640246112675 0 -0.041393512424252238 0.0039045659743563573 0 -0.039980887620401681 0.0024614550413421931 0 -0.041472074352839769 0.001862640246112675 0 -0.041393512424252238 0.0039045659743563573 0 -0.043011697430105161 0.003586176250268421 0 -0.0401598465791062 0.0052874234883816982 0 -0.043017166253920762 0.0063936280235679004 0 -0.042859174219926313 0.0083045999309108599 0 -0.036802254144309793 0.0032985079925291344 0 -0.044745486196904077 0.0054095216235975681 0 -0.044745486196904077 0.0054095216235975681 0 -0.04629001461835467 0.0058276585017371357 0 -0.044720886054817437 0.005506218962601353 0 -0.043017166253920762 0.0063936280235679004 0 -0.045694775308479228 0.007711804532968004 0 -0.043017166253920762 0.0063936280235679004 0 -0.042859174219926313 0.0083045999309108599 0 -0.045694775308479228 0.007711804532968004 0 -0.046558914193349406 0.0074010748363856306 0 -0.04629001461835467 0.0058276585017371357 0 -0.045667303372661783 0.0049664906274552393 0 -0.045488409710131759 0.0041482708729357332 0 -0.044717702378382518 0.0038288639861291758 0 -0.045488409710131759 0.0041482708729357332 0 -0.044717702378382518 0.0038288639861291758 0 -0.046013904140789139 0.0035802079992571997 0 -0.045815829067679163 0.0049315973455705871 0 -0.044745486196904077 0.0054095216235975681 0 -0.045867014055081166 0.004221684701553095 0 -0.045488409710131759 0.0041482708729357332 0 -0.046013904140789139 0.0035802079992571997 0 -0.045867014055081166 0.004221684701553095 0 -0.045488409710131759 0.0041482708729357332 0 -0.045939363032370034 0.0046425011073511898 0 -0.045667303372661783 0.0049664906274552393 0 -0.045488409710131759 0.0041482708729357332 0 -0.045939363032370034 0.0046425011073511898 0 -0.045667303372661783 0.0049664906274552393 0 -0.046267015192061826 0.006060364233542055 0 -0.046421085308937113 0.0052908804862763434 0 -0.044478104412673768 0.0048321824583736133 0 -0.044745486196904077 0.0054095216235975681 0 -0.0475828336001973 0.0058728495176648948 0 -0.046267015192061826 0.006060364233542055 0 -0.046421085308937113 0.0052908804862763434 0 -0.047643390212249739 0.004496665217916411 0 -0.048589578615622839 0.0036326588364228719 0 -0.048533011421236172 0.0052077507800199702 0 -0.047397256240893852 0.0037145085005373512 0 -0.047643390212249739 0.004496665217916411 0 -0.048589578615622839 0.0036326588364228719 0 -0.047397256240893852 0.0037145085005373512 0 -0.047643390212249739 0.004496665217916411 0 -0.04663745015502823 0.0045850834155805294 0 -0.04663745015502823 0.0045850834155805294 0 -0.045939363032370034 0.0046425011073511898 0 -0.046204063441117632 0.0036427398161290397 0 -0.046042477477887006 0.0044105237263254611 0 -0.046301721175238154 0.0042067795603143556 0 -0.045867014055081166 0.004221684701553095 0 -0.045939363032370034 0.0046425011073511898 0 -0.046141151869930182 0.0038843824482895938 0 -0.04663745015502823 0.0045850834155805294 0 -0.04627363988414792 0.0035723217044594212 0 -0.046728128400820308 0.0035258041163186331 0 -0.045867014055081166 0.004221684701553095 0 -0.046141151869930182 0.0038843824482895938 0 -0.046013904140789139 0.0035802079992571997 0 -0.046503752176938973 0.0043090757792713661 0 -0.046301721175238154 0.0042067795603143556 0 -0.047397256240893852 0.0037145085005373512 0 -0.04663745015502823 0.0045850834155805294 0 -0.046728128400820308 0.0035258041163186331 0 -0.048380507596256672 0.0074300981468393206 0 -0.048567404157753076 0.0074523105689853148 0 -0.048468735721953135 0.0072140665740200926 0 -0.047397256240893852 0.0037145085005373512 0 -0.046728128400820308 0.0035258041163186331 0 -0.047104443650530334 0.0030740970428632776 0 -0.046728128400820308 0.0035258041163186331 0 -0.047104443650530334 0.0030740970428632776 0 -0.046554069928345022 0.0030689693579499513 0 -0.046323953775609675 0.0047919595313998462 0 -0.046209035522578726 0.0052299286221651692 0 -0.046489920578597972 0.0051714527542131425 0 -0.046301721175238154 0.0042067795603143556 0 -0.04629001461835467 0.0058276585017371357 0 -0.046728128400820308 0.0035258041163186331 0 -0.046554069928345022 0.0030689693579499513 0 -0.046402156640460115 0.0031031778651982246 0 -0.046301721175238154 0.0042067795603143556 0 -0.046950017118772232 0.0046264891392571615 0 -0.04627363988414792 0.0035723217044594212 0 -0.046728128400820308 0.0035258041163186331 0 -0.046402156640460115 0.0031031778651982246 0 -0.046921739286797277 0.0045717783198571957 0 -0.046950017118772232 0.0046264891392571615 0 -0.046950017118772232 0.0046264891392571615 0 -0.04629001461835467 0.0058276585017371357 0 -0.052586962229093016 0.0097478013493777528 0 -0.046950017118772232 0.0046264891392571615 0 -0.048380507596256672 0.0074300981468393206 0 -0.048417864398582082 0.0072254308110870011 0 -0.048468735721953135 0.0072140665740200926 0 -0.046726724148591171 0.0019754018321449327 0 -0.046554069928345022 0.0030689693579499513 0 -0.046399797507828709 0.0031036803213657831 0 -0.046726724148591171 0.0019754018321449327 0 -0.047104443650530334 0.0030740970428632776 0 -0.046554069928345022 0.0030689693579499513 0 -0.046726724148591171 0.0019754018321449327 0 -0.047104443650530334 0.0030740970428632776 0 -0.047592347447555555 0.0027701694191057135 0 -0.048526810302528686 0.0021083078497464293 0 -0.047592347447555555 0.0027701694191057135 0 -0.048589578615622839 0.0036326588364228719 0 -0.048526810302528686 0.0021083078497464293 0 -0.046726724148591171 0.0019754018321449327 0 -0.047592347447555555 0.0027701694191057135 0 -0.047397256240893852 0.0037145085005373512 0 -0.047592347447555555 0.0027701694191057135 0 -0.048589578615622839 0.0036326588364228719 0 -0.047397256240893852 0.0037145085005373512 0 -0.047104443650530334 0.0030740970428632776 0 -0.047592347447555555 0.0027701694191057135 0 -0.054764826167881586 0.0079330037174062864 0 -0.05428516657704599 0.0077837358231813763 0 -0.050512816596710544 0.0022968341887184521 0 -0.050295490411049748 0.0046225647092316066 0 -0.048589578615622839 0.0036326588364228719 0 -0.048526810302528686 0.0021083078497464293 0 -0.050512816596710544 0.0022968341887184521 0 -0.048589578615622839 0.0036326588364228719 0 -0.05428516657704599 0.0077837358231813763 0 -0.055264043389109299 0.0096026742732985802 0 -0.050512816596710544 0.0022968341887184521 0 -0.050295490411049748 0.0046225647092316066 0 -0.052166613835722964 0.004307559308285241 0 -0.050295490411049748 0.0046225647092316066 0 -0.051523319837176777 0.0058200918695439944 0 -0.052166613835722964 0.004307559308285241 0 -0.050295490411049748 0.0046225647092316066 0 -0.048589578615622839 0.0036326588364228719 0 -0.048533011421236172 0.0052077507800199702 0 -0.048533011421236172 0.0052077507800199702 0 -0.05013805913214766 0.0065718406569684898 0 -0.049057451071882988 0.0067308967796779499 0 -0.050295490411049748 0.0046225647092316066 0 -0.048533011421236172 0.0052077507800199702 0 -0.05013805913214766 0.0065718406569684898 0 -0.050295490411049748 0.0046225647092316066 0 -0.051523319837176777 0.0058200918695439944 0 -0.05013805913214766 0.0065718406569684898 0 -0.051523319837176777 0.0058200918695439944 0 -0.05013805913214766 0.0065718406569684898 0 -0.051929140418938279 0.0078874251298754923 0 -0.05013805913214766 0.0065718406569684898 0 -0.049438778516419063 0.009279896670322467 0 -0.051929140418938279 0.0078874251298754923 0 -0.049057451071882988 0.0067308967796779499 0 -0.048706171738179718 0.007238235616497609 0 -0.049433689595548475 0.0078663041548700467 0 -0.049379668534065321 0.0073666891444018482 0 -0.052590622494660323 0.00725976066248607 0 -0.05013805913214766 0.0065718406569684898 0 -0.049057451071882988 0.0067308967796779499 0 -0.049433689595548475 0.0078663041548700467 0 -0.049057451071882988 0.0067308967796779499 0 -0.048706171738179718 0.007238235616497609 0 -0.047927577593608807 0.006832971280686607 0 -0.047188064152886976 0.0064006793512993909 0 -0.04636236304590103 0.0065726651675554306 0 -0.048019873271280392 0.0074197755827714899 0 -0.047927577593608807 0.006832971280686607 0 -0.047188064152886976 0.0064006793512993909 0 -0.048019873271280392 0.0074197755827714899 0 -0.047927577593608807 0.006832971280686607 0 -0.047188064152886976 0.0064006793512993909 0 -0.047558168434815001 0.0062179535827298418 0 -0.047927577593608807 0.006832971280686607 0 -0.047558168434815001 0.0062179535827298418 0 -0.047995146975084398 0.0059076708914140991 0 -0.047558168434815001 0.0062179535827298418 0 -0.047995146975084398 0.0059076708914140991 0 -0.046857170324646598 0.0055910926860292462 0 -0.047188064152886976 0.0064006793512993909 0 -0.047558168434815001 0.0062179535827298418 0 -0.046857170324646598 0.0055910926860292462 0 -0.049057451071882988 0.0067308967796779499 0 -0.047927577593608807 0.006832971280686607 0 -0.047995146975084398 0.0059076708914140991 0 -0.048533011421236172 0.0052077507800199702 0 -0.049057451071882988 0.0067308967796779499 0 -0.047995146975084398 0.0059076708914140991 0 -0.048533011421236172 0.0052077507800199702 0 -0.047995146975084398 0.0059076708914140991 0 -0.04728929050550848 0.0051504864292434352 0 -0.047995146975084398 0.0059076708914140991 0 -0.04728929050550848 0.0051504864292434352 0 -0.046857170324646598 0.0055910926860292462 0 -0.047643390212249739 0.004496665217916411 0 -0.04663745015502823 0.0045850834155805294 0 -0.04728929050550848 0.0051504864292434352 0 -0.047643390212249739 0.004496665217916411 0 -0.048533011421236172 0.0052077507800199702 0 -0.04728929050550848 0.0051504864292434352 0 -0.045661780831085304 0.0050144526529837946 0 -0.04600702734032338 0.0049020192008179808 0 -0.04629826428701405 0.0050935316364832083 0 -0.04663745015502823 0.0045850834155805294 0 -0.045939363032370034 0.0046425011073511898 0 -0.04600702734032338 0.0049020192008179808 0 -0.04663745015502823 0.0045850834155805294 0 -0.04600702734032338 0.0049020192008179808 0 -0.04629826428701405 0.0050935316364832083 0 -0.04663745015502823 0.0045850834155805294 0 -0.04728929050550848 0.0051504864292434352 0 -0.04629826428701405 0.0050935316364832083 0 -0.04728929050550848 0.0051504864292434352 0 -0.046857170324646598 0.0055910926860292462 0 -0.04629826428701405 0.0050935316364832083 0 -0.046857170324646598 0.0055910926860292462 0 -0.046027742203859717 0.0052498104630905847 0 -0.04629826428701405 0.0050935316364832083 0 -0.045661780831085304 0.0050144526529837946 0 -0.046027742203859717 0.0052498104630905847 0 -0.04629826428701405 0.0050935316364832083 0 -0.046857170324646598 0.0055910926860292462 0 -0.046027742203859717 0.0052498104630905847 0 -0.046361360196877963 0.005748299541137359 0 -0.045309583916702818 0.0049828735590968934 0 -0.046027742203859717 0.0052498104630905847 0 -0.046361360196877963 0.005748299541137359 0 -0.047188064152886976 0.0064006793512993909 0 -0.046857170324646598 0.0055910926860292462 0 -0.046361360196877963 0.005748299541137359 0 -0.047188064152886976 0.0064006793512993909 0 -0.046361360196877963 0.005748299541137359 0 -0.04636236304590103 0.0065726651675554306 0 -0.045309583916702818 0.0049828735590968934 0 -0.046361360196877963 0.005748299541137359 0 -0.04636236304590103 0.0065726651675554306 0 -0.04636236304590103 0.0065726651675554306 0 -0.046830331197904175 0.0073580426670068486 0 -0.047846023453528057 0.006986258773741939 0 -0.045309583916702818 0.0049828735590968934 0 -0.04636236304590103 0.0065726651675554306 0 -0.045953131305445725 0.0075974786924257057 0 -0.04636236304590103 0.0065726651675554306 0 -0.046830331197904175 0.0073580426670068486 0 -0.045953131305445725 0.0075974786924257057 0 -0.046830331197904175 0.0073580426670068486 0 -0.045953131305445725 0.0075974786924257057 0 -0.047138303455503371 0.0080675090018830845 0 -0.046195691298872597 0.0066533814628560355 0 -0.048835112722475954 0.0070406876971222145 0 -0.048706171738179718 0.007238235616497609 0 -0.047927577593608807 0.006832971280686607 0 -0.048096274282144844 0.0076185321414476079 0 -0.048468655605670936 0.0069857325056475288 0 -0.048835112722475954 0.0070406876971222145 0 -0.046830331197904175 0.0073580426670068486 0 -0.047846023453528057 0.006986258773741939 0 -0.047138303455503371 0.0080675090018830845 0 -0.047138303455503371 0.0080675090018830845 0 -0.046502303936578053 0.0090929937311958701 0 -0.048139562432010029 0.0089833141468866097 0 -0.051962770337775854 0.0065649620680714258 0 -0.051881226562392205 0.0058822187665078501 0 -0.051773927413503194 0.0058911301755083592 0 -0.048835112722475954 0.0070406876971222145 0 -0.051352016515325623 0.0059082691430406122 0 -0.047846023453528057 0.006986258773741939 0 -0.047138303455503371 0.0080675090018830845 0 -0.048139562432010029 0.0089833141468866097 0 -0.045953131305445725 0.0075974786924257057 0 -0.047138303455503371 0.0080675090018830845 0 -0.046502303936578053 0.0090929937311958701 0 -0.044811264250988234 0.005317795226479881 0 -0.046564615317529458 0.0014561785118807342 0 -0.052705121700414075 0.0011255270788090943 0 -0.052046782579400069 0.00045491814434290851 0 -0.052374283625245814 -0.00038551630240576761 0 -0.046564615317529458 0.0014561785118807342 0 -0.047723622476756385 -0.0029254385341397925 0 -0.046564615317529458 0.0014561785118807342 0 -0.051352016515325623 0.0059082691430406122 0 -0.052705121700414075 0.0011255270788090943 0 -0.051318879605298864 0.0012644489946638802 0 -0.052046782579400069 0.00045491814434290851 0 -0.051352016515325623 0.0059082691430406122 0 -0.053497026811456107 0.002237031450665053 0 -0.051318879605298864 0.0012644489946638802 0 -0.052046782579400069 0.00045491814434290851 0 -0.05122295892404008 0.00064280122063645456 0 -0.053497026811456107 0.002237031450665053 0 -0.051268187859839311 -0.0013706900046710603 0 -0.051329802612291142 0.00073573498405325114 0 -0.05102430612760523 -0.0010155941959422083 0 -0.051760331686656308 -0.00095198282250454644 0 -0.052046782579400069 0.00045491814434290851 0 -0.05122295892404008 0.00064280122063645456 0 -0.051760331686656308 -0.00095198282250454644 0 -0.052046782579400069 0.00045491814434290851 0 -0.052374283625245814 -0.00038551630240576761 0 -0.051760331686656308 -0.00095198282250454644 0 -0.043634980403008838 -0.0035266668945314844 0 -0.043706867365198666 -0.0052256758268012168 0 -0.042749909943361107 -0.0048087772590548585 0 -0.043634980403008838 -0.0035266668945314844 0 -0.042725640625144584 -0.0021330445785907445 0 -0.042749909943361107 -0.0048087772590548585 0 -0.058196873135697769 0.0040049704134193084 0 -0.057471048624370288 0.0043907263282063754 0 -0.057500974128426321 0.0035709542193304166 0 -0.058196873135697769 0.0040049704134193084 0 -0.057500974128426321 0.0035709542193304166 0 -0.05816091478113862 0.0032085612969740785 0 -0.058196873135697769 0.0040049704134193084 0 -0.05909035404716375 0.004458460039031901 0 -0.058926074293288271 0.0031038814933919186 0 -0.053497026811456107 0.002237031450665053 0 -0.054672217333999906 0.0014094040612275031 0 -0.058196873135697769 0.0040049704134193084 0 -0.058452632583765304 0.0046350493867875634 0 -0.05909035404716375 0.004458460039031901 0 -0.053497026811456107 0.002237031450665053 0 -0.055600542226388133 0.0052834761378342523 0 -0.054086382723328184 0.0058134341183828818 0 -0.053620647021997536 0.0029442493329971562 0 -0.05274019188854108 0.0059236012211612817 0 -0.058452632583765304 0.0046350493867875634 0 -0.05909035404716375 0.004458460039031901 0 -0.058963514326940372 0.0050718434560799953 0 -0.051352016515325623 0.0059082691430406122 0 -0.055600542226388133 0.0052834761378342523 0 -0.058452632583765304 0.0046350493867875634 0 -0.058963514326940372 0.0050718434560799953 0 -0.057970076999169617 0.0052074250121363786 0 -0.055600542226388133 0.0052834761378342523 0 -0.059022853398070042 0.0051006195710039635 0 -0.058196873135697769 0.0040049704134193084 0 -0.057939788507858539 0.0046926433345881851 0 -0.057471048624370288 0.0043907263282063754 0 -0.058296328507081406 0.0048029842395286093 0 -0.057955792923925969 0.0051774369612268955 0 -0.058452632583765304 0.0046350493867875634 0 -0.05753636441135742 0.0055577818046002253 0 -0.057970076999169617 0.0052074250121363786 0 -0.058452632583765304 0.0046350493867875634 0 -0.057939788507858539 0.0046926433345881851 0 -0.057967981731377884 0.0052539013640901522 0 -0.058196873135697769 0.0040049704134193084 0 -0.058452632583765304 0.0046350493867875634 0 -0.057939788507858539 0.0046926433345881851 0 -0.057939788507858539 0.0046926433345881851 0 -0.057581898895116196 0.0050696921236775003 0 -0.057471048624370288 0.0043907263282063754 0 -0.057939788507858539 0.0046926433345881851 0 -0.057967981731377884 0.0052539013640901522 0 -0.057581898895116196 0.0050696921236775003 0 -0.05753636441135742 0.0055577818046002253 0 -0.058389401358331684 0.00681330599384148 0 -0.056719391779947864 0.0064745659132440089 0 -0.057967981731377884 0.0052539013640901522 0 -0.05745715726685844 0.0058601981203047293 0 -0.057581898895116196 0.0050696921236775003 0 -0.05753636441135742 0.0055577818046002253 0 -0.057970076999169617 0.0052074250121363786 0 -0.058389401358331684 0.00681330599384148 0 -0.057955792923925969 0.0051774369612268955 0 -0.05570908525023912 0.0071322145622467713 0 -0.055600542226388133 0.0052834761378342523 0 -0.052590622494660323 0.00725976066248607 0 -0.05890908346566831 0.0051387780569093393 0 -0.057970076999169617 0.0052074250121363786 0 -0.058389401358331684 0.00681330599384148 0 -0.051962770337775854 0.0065649620680714258 0 -0.051773927413503194 0.0058911301755083592 0 -0.051587150595417158 0.0064821053738385696 0 -0.048706171738179718 0.007238235616497609 0 -0.048096274282144844 0.0076185321414476079 0 -0.049433689595548475 0.0078663041548700467 0 -0.048835112722475954 0.0070406876971222145 0 -0.052590622494660323 0.00725976066248607 0 -0.049438778516419063 0.009279896670322467 0 -0.052155746474529745 0.0098189077835313804 0 -0.051929140418938279 0.0078874251298754923 0 -0.052590622494660323 0.00725976066248607 0 -0.05570908525023912 0.0071322145622467713 0 -0.052155746474529745 0.0098189077835313804 0 -0.053810178388972014 0.0079838150517621519 0 -0.051929140418938279 0.0078874251298754923 0 -0.05570908525023912 0.0071322145622467713 0 -0.05728080351885511 0.0056928741148648578 0 -0.05570908525023912 0.0071322145622467713 0 -0.055103506112201155 0.0074948484550827294 0 -0.056654202178973774 0.0057221110983561394 0 -0.056375837697152771 0.0062096686422077529 0 -0.056727811805846802 0.0067203367343951579 0 -0.057447428085948146 0.0059198256303412316 0 -0.056654202178973774 0.0057221110983561394 0 -0.056727811805846802 0.0067203367343951579 0 -0.056654202178973774 0.0057221110983561394 0 -0.056383591340898993 0.0050472323882799807 0 -0.056375837697152771 0.0062096686422077529 0 -0.056654202178973774 0.0057221110983561394 0 -0.057070324153003789 0.0050987624072275578 0 -0.056383591340898993 0.0050472323882799807 0 -0.05745715726685844 0.0058601981203047293 0 -0.057070324153003789 0.0050987624072275578 0 -0.057581898895116196 0.0050696921236775003 0 -0.05745715726685844 0.0058601981203047293 0 -0.056654202178973774 0.0057221110983561394 0 -0.057070324153003789 0.0050987624072275578 0 -0.057070324153003789 0.0050987624072275578 0 -0.057581898895116196 0.0050696921236775003 0 -0.057471048624370288 0.0043907263282063754 0 -0.057070324153003789 0.0050987624072275578 0 -0.057471048624370288 0.0043907263282063754 0 -0.056951520183030888 0.0044288206321963074 0 -0.057303835846109416 0.0040954800453180413 0 -0.057910873923025526 0.0021860952109639636 0 -0.056386467612067691 0.0035061087409704421 0 -0.056677341624837056 0.0049128734233149568 0 -0.058151076744093047 0.0015365769011608159 0 -0.057070324153003789 0.0050987624072275578 0 -0.056951520183030888 0.0044288206321963074 0 -0.056383591340898993 0.0050472323882799807 0 -0.056951520183030888 0.0044288206321963074 0 -0.056383591340898993 0.0050472323882799807 0 -0.056685159996665999 0.0036326484101382593 0 -0.058151076744093047 0.0015365769011608159 0 -0.056888592734263992 0.0027995207618171599 0 -0.057471048624370288 0.0043907263282063754 0 -0.057500974128426321 0.0035709542193304166 0 -0.057139513779974178 0.0039644519636295866 0 -0.056685159996665999 0.0036326484101382593 0 -0.057500974128426321 0.0035709542193304166 0 -0.057139513779974178 0.0039644519636295866 0 -0.056951520183030888 0.0044288206321963074 0 -0.056685159996665999 0.0036326484101382593 0 -0.057139513779974178 0.0039644519636295866 0 -0.057471048624370288 0.0043907263282063754 0 -0.056951520183030888 0.0044288206321963074 0 -0.057139513779974178 0.0039644519636295866 0 -0.054999843789640374 0.0011299679261494936 0 -0.057222537271514481 0.0022555936540122139 0 -0.057007535896409077 -0.00034257966142115859 0 -0.059364792427342196 0.00014159020230911949 0 -0.057222537271514481 0.0022555936540122139 0 -0.057007535896409077 -0.00034257966142115859 0 -0.057303835846109416 0.0040954800453180413 0 -0.056386467612067691 0.0035061087409704421 0 -0.056167565479775187 0.0047582509850365639 0 -0.054999843789640374 0.0011299679261494936 0 -0.057222537271514481 0.0022555936540122139 0 -0.055000016434306284 0.0043790028505508935 0 -0.056888592734263992 0.0027995207618171599 0 -0.05500009409455172 0.0043790434762524004 0 -0.054999784723645792 0.0043804806472099349 0 -0.056167565479775187 0.0047582509850365639 0 -0.05573604076179995 0.0056640722090886917 0 -0.056386467612067691 0.0035061087409704421 0 -0.054999784723645792 0.0043804806472099349 0 -0.056167565479775187 0.0047582509850365639 0 -0.056677341624837056 0.0049128734233149568 0 -0.056465730193005145 0.0059490814718886915 0 -0.057303835846109416 0.0040954800453180413 0 -0.056167565479775187 0.0047582509850365639 0 -0.056375837697152771 0.0062096686422077529 0 -0.056167565479775187 0.0047582509850365639 0 -0.056375837697152771 0.0062096686422077529 0 -0.05573604076179995 0.0056640722090886917 0 -0.056375837697152771 0.0062096686422077529 0 -0.05573604076179995 0.0056640722090886917 0 -0.055850529440887711 0.0066942320272909469 0 -0.054999784723645792 0.0043804806472099349 0 -0.05573604076179995 0.0056640722090886917 0 -0.054999290404425971 0.0063847987440046562 0 -0.05573604076179995 0.0056640722090886917 0 -0.054999290404425971 0.0063847987440046562 0 -0.055850529440887711 0.0066942320272909469 0 -0.054999290404425971 0.0063847987440046562 0 -0.055001134222540556 0.0083865071608051345 0 -0.055850529440887711 0.0066942320272909469 0 -0.055001134222540556 0.0083865071608051345 0 -0.055850529440887711 0.0066942320272909469 0 -0.055911150065829876 0.0072975446849950229 0 -0.054999059256090554 0.0087507815835429006 0 -0.055966021088597571 0.0094123987404155958 0 -0.056203203639097511 0.0098639688349257161 0 -0.055000208195586195 0.0087536550006428303 0 -0.056819580826315462 0.010401301154722167 0 -0.055000906537561275 0.0083925353349297103 0 -0.054999059256090554 0.0087507815835429006 0 -0.055966021088597571 0.0094123987404155958 0 -0.055000044816851591 0.0083894173155702172 0 -0.055977305176445877 0.0080520418455762317 0 -0.055001134222540556 0.0083865071608051345 0 -0.056211940732673257 0.0066801538095905893 0 -0.055911150065829876 0.0072975446849950229 0 -0.055675363081968375 0.0067704726189580572 0 -0.056211940732673257 0.0066801538095905893 0 -0.055911150065829876 0.0072975446849950229 0 -0.055675363081968375 0.0067704726189580572 0 -0.056167534920064682 0.0068740775602130844 0 -0.055911150065829876 0.0072975446849950229 0 -0.056375837697152771 0.0062096686422077529 0 -0.055850529440887711 0.0066942320272909469 0 -0.056167534920064682 0.0068740775602130844 0 -0.055850529440887711 0.0066942320272909469 0 -0.056167534920064682 0.0068740775602130844 0 -0.055911150065829876 0.0072975446849950229 0 -0.055675363081968375 0.0067704726189580572 0 -0.056167534920064682 0.0068740775602130844 0 -0.056727811805846802 0.0067203367343951579 0 -0.056375837697152771 0.0062096686422077529 0 -0.056167534920064682 0.0068740775602130844 0 -0.056727811805846802 0.0067203367343951579 0 -0.055787503208015163 0.006673146698425312 0 -0.055103506112201155 0.0074948484550827294 0 -0.053810178388972014 0.0079838150517621519 0 -0.051929140418938279 0.0078874251298754923 0 -0.053299958011187774 0.0062464104522202916 0 -0.051523319837176777 0.0058200918695439944 0 -0.051929140418938279 0.0078874251298754923 0 -0.053299958011187774 0.0062464104522202916 0 -0.051523319837176777 0.0058200918695439944 0 -0.053299958011187774 0.0062464104522202916 0 -0.052166613835722964 0.004307559308285241 0 -0.055675363081968375 0.0067704726189580572 0 -0.053810178388972014 0.0079838150517621519 0 -0.053299958011187774 0.0062464104522202916 0 -0.055675363081968375 0.0067704726189580572 0 -0.053299958011187774 0.0062464104522202916 0 -0.054719427899696763 0.004358508081276519 0 -0.053299958011187774 0.0062464104522202916 0 -0.054719427899696763 0.004358508081276519 0 -0.052166613835722964 0.004307559308285241 0 -0.056790942257256172 0.010159521353921742 0 -0.057205645037598216 0.010795100967096105 0 -0.056203203639097511 0.0098639688349257161 0 -0.054719427899696763 0.004358508081276519 0 -0.052166613835722964 0.004307559308285241 0 -0.052758059787585222 0.0025721990059628884 0 -0.050512816596710544 0.0022968341887184521 0 -0.052166613835722964 0.004307559308285241 0 -0.052758059787585222 0.0025721990059628884 0 -0.056932915123508725 0.01368601581338915 0 -0.058537621255058556 0.013512160282474756 0 -0.056329438164886288 0.013145072740315823 0 -0.057927146346662253 0.0134772193824414 0 -0.058659265367107312 0.013339641814189356 0 -0.05732702907561002 0.012232753612005277 0 -0.05729119976867824 0.012246194222986692 0 -0.057345576158127319 0.012243107041288845 0 -0.057256079065518981 0.012231762415016927 0 -0.05732702907561002 0.012232753612005277 0 -0.05729119976867824 0.012246194222986692 0 -0.055264043389109299 0.0096026742732985802 0 -0.057973638253780956 0.012004263033544444 0 -0.057927146346662253 0.0134772193824414 0 -0.055264043389109299 0.0096026742732985802 0 -0.059736024111168171 0.013225384965395473 0 -0.059467558897576378 0.012980838348934027 0 -0.05744481844472156 0.012523868840252226 0 -0.055534369704171103 0.0068822973167095179 0 -0.055264043389109299 0.0096026742732985802 0 -0.057973638253780956 0.012004263033544444 0 -0.056819580826315462 0.010401301154722167 0 -0.058659265367107312 0.013339641814189356 0 -0.057360704906347953 0.012850052223430979 0 -0.057426392748096862 0.014821164713532373 0 -0.058750844601167918 0.014153404705572374 0 -0.057127317028384479 0.013088582774131425 0 -0.056790942257256172 0.010159521353921742 0 -0.057561567253025789 0.010840949623534111 0 -0.057205645037598216 0.010795100967096105 0 -0.058659265367107312 0.013339641814189356 0 -0.057973638253780956 0.012004263033544444 0 -0.059467558897576378 0.012980838348934027 0 -0.05744481844472156 0.012523868840252226 0 -0.05732275631289846 0.010964946834558578 0 -0.054999873820548696 0.015080770589547734 0 -0.057127317028384479 0.013088582774131425 0 -0.05499974052522507 0.011862405728974368 0 -0.057360704906347953 0.012850052223430979 0 -0.05500018586586157 0.011861701401692909 0 -0.05744481844472156 0.012523868840252226 0 -0.054999974938378465 0.011861325756860039 0 -0.05732275631289846 0.010964946834558578 0 -0.054999976277253712 0.0087536044455386736 0 -0.054999974938378465 0.011861325756860039 0 -0.05732275631289846 0.010964946834558578 0 -0.055675363081968375 0.0067704726189580572 0 -0.056211940732673257 0.0066801538095905893 0 -0.054719427899696763 0.004358508081276519 0 -0.055966021088597571 0.0094123987404155958 0 -0.056790942257256172 0.010159521353921742 0 -0.056203203639097511 0.0098639688349257161 0 -0.055977305176445877 0.0080520418455762317 0 -0.055534369704171103 0.0068822973167095179 0 -0.016653006069968165 0.0041279995246272646 0 -0.016212303433265643 0.0038951599794868272 0 -0.016551618327721004 0.0031275045204643081 0 -0.016653006069968165 0.0041279995246272646 0 -0.016551618327721004 0.0031275045204643081 0 -0.016893637564905278 0.0035655537250143163 0 -0.016653006069968165 0.0041279995246272646 0 -0.016769435373001091 0.0046395886166123767 0 -0.016547242554569266 0.0047860225882448522 0 -0.016653006069968165 0.0041279995246272646 0 -0.016312572800371416 0.004445342446147236 0 -0.016547242554569266 0.0047860225882448522 0 -0.016653006069968165 0.0041279995246272646 0 -0.016312572800371416 0.004445342446147236 0 -0.016212303433265643 0.0038951599794868272 0 -0.016312572800371416 0.004445342446147236 0 -0.015946641685418664 0.0044372814070306726 0 -0.016212303433265643 0.0038951599794868272 0 -0.015946641685418664 0.0044372814070306726 0 -0.015694966024596562 0.0039453127944017131 0 -0.016212303433265643 0.0038951599794868272 0 -0.015946641685418664 0.0044372814070306726 0 -0.015565118338712236 0.0043750826903237467 0 -0.015694966024596562 0.0039453127944017131 0 -0.015565118338712236 0.0043750826903237467 0 -0.015694966024596562 0.0039453127944017131 0 -0.015216784140729285 0.0040037924430265329 0 -0.015694966024596562 0.0039453127944017131 0 -0.015416868625459197 0.0034913096617792123 0 -0.015216784140729285 0.0040037924430265329 0 -0.015694966024596562 0.0039453127944017131 0 -0.015891360422963328 0.0033758956979152623 0 -0.015416868625459197 0.0034913096617792123 0 -0.015891360422963328 0.0033758956979152623 0 -0.016212303433265643 0.0038951599794868272 0 -0.016551618327721004 0.0031275045204643081 0 -0.015694966024596562 0.0039453127944017131 0 -0.015891360422963328 0.0033758956979152623 0 -0.016212303433265643 0.0038951599794868272 0 -0.015891360422963328 0.0033758956979152623 0 -0.016042144946939594 0.0023555557030179287 0 -0.016551618327721004 0.0031275045204643081 0 -0.015891360422963328 0.0033758956979152623 0 -0.016042144946939594 0.0023555557030179287 0 -0.015403360838597457 0.0026715489099015896 0 -0.015891360422963328 0.0033758956979152623 0 -0.015416868625459197 0.0034913096617792123 0 -0.015403360838597457 0.0026715489099015896 0 -0.016042144946939594 0.0023555557030179287 0 -0.015403360838597457 0.0026715489099015896 0 -0.016060301731685392 0.0014361760243690352 0 -0.016042144946939594 0.0023555557030179287 0 -0.016498597394337934 0.0010544019294331422 0 -0.016060301731685392 0.0014361760243690352 0 -0.016042144946939594 0.0023555557030179287 0 -0.016551618327721004 0.0031275045204643081 0 -0.016498597394337934 0.0010544019294331422 0 -0.016551618327721004 0.0031275045204643081 0 -0.016998197445713657 0.0025370835891168259 0 -0.016498597394337934 0.0010544019294331422 0 -0.016551618327721004 0.0031275045204643081 0 -0.016893637564905278 0.0035655537250143163 0 -0.016998197445713657 0.0025370835891168259 0 -0.016893637564905278 0.0035655537250143163 0 -0.016998197445713657 0.0025370835891168259 0 -0.017078488955050701 0.0035122596219040272 0 -0.015292527456117149 -0.0010867715789721255 0 -0.013452856439741145 -0.0029686002392968432 0 -0.013834634899012406 -0.00067884232120462174 0 -0.016025627769587047 0.00068735941723960389 0 -0.01522788109188147 0.00025841220304273244 0 -0.013452856439741145 -0.0029686002392968432 0 -0.012020543645001667 -0.0019118395150340133 0 -0.010992656175033937 -0.0046136362241733057 0 -0.013452856439741145 -0.0029686002392968432 0 -0.012020543645001667 -0.0019118395150340133 0 -0.013834634899012406 -0.00067884232120462174 0 -0.017078488955050701 0.0035122596219040272 0 -0.017116401720239125 0.0041037575669108676 0 -0.01694779666152036 0.0043050876868307572 0 -0.01522788109188147 0.00025841220304273244 0 -0.013872299520702472 -0.00031631433264327132 0 -0.016893637564905278 0.0035655537250143163 0 -0.017078488955050701 0.0035122596219040272 0 -0.01694779666152036 0.0043050876868307572 0 -0.010992656175033937 -0.0046136362241733057 0 -0.0085784025302157365 -0.0040194125814693579 0 -0.0098507549573233315 -0.0019962539587001786 0 -0.012020543645001667 -0.0019118395150340133 0 -0.010992656175033937 -0.0046136362241733057 0 -0.0098507549573233315 -0.0019962539587001786 0 -0.0083001228422275395 -0.005886879865873277 0 -0.010992656175033937 -0.0046136362241733057 0 -0.0085784025302157365 -0.0040194125814693579 0 -0.013517886704462035 -0.00050359680521553784 0 -0.013872299520702472 -0.00031631433264327132 0 -0.017016130014054255 0.0046832174832282672 0 -0.01680454946233249 0.0050810257174655205 0 -0.017068442233563321 0.0054339259432747561 0 -0.0173684473161363 0.0044546323666365571 0 -0.017116401720239125 0.0041037575669108676 0 -0.017016130014054255 0.0046832174832282672 0 -0.017116401720239125 0.0041037575669108676 0 -0.017016130014054255 0.0046832174832282672 0 -0.01694779666152036 0.0043050876868307572 0 -0.0173684473161363 0.0044546323666365571 0 -0.017016130014054255 0.0046832174832282672 0 -0.017068442233563321 0.0054339259432747561 0 -0.016653006069968165 0.0041279995246272646 0 -0.016893637564905278 0.0035655537250143163 0 -0.01694779666152036 0.0043050876868307572 0 -0.017016130014054255 0.0046832174832282672 0 -0.01694779666152036 0.0043050876868307572 0 -0.01680454946233249 0.0050810257174655205 0 -0.016653006069968165 0.0041279995246272646 0 -0.01694779666152036 0.0043050876868307572 0 -0.016769435373001091 0.0046395886166123767 0 -0.01694779666152036 0.0043050876868307572 0 -0.016769435373001091 0.0046395886166123767 0 -0.01680454946233249 0.0050810257174655205 0 -0.016769435373001091 0.0046395886166123767 0 -0.01680454946233249 0.0050810257174655205 0 -0.016781543850283655 0.0051714376856281281 0 -0.01680454946233249 0.0050810257174655205 0 -0.016814180973848188 0.0056821640077955888 0 -0.016335224994371244 0.0060007150014446545 0 -0.01680454946233249 0.0050810257174655205 0 -0.016781543850283655 0.0051714376856281281 0 -0.017213494270246973 0.0056936525093229107 0 -0.01678312317046397 0.0058971698374328859 0 -0.016929925107411231 0.0041680960099336768 0 -0.016781543850283655 0.0051714376856281281 0 -0.016938197069037545 0.0056702968549428327 0 -0.016523717834812022 0.0052680190514475343 0 -0.016781543850283655 0.0051714376856281281 0 -0.016938197069037545 0.0056702968549428327 0 -0.017213494270246973 0.0056936525093229107 0 -0.01680454946233249 0.0050810257174655205 0 -0.017068442233563321 0.0054339259432747561 0 -0.016814180973848188 0.0056821640077955888 0 -0.017068442233563321 0.0054339259432747561 0 -0.016814180973848188 0.0056821640077955888 0 -0.016917157216538393 0.0058516129845521681 0 -0.016814180973848188 0.0056821640077955888 0 -0.016917157216538393 0.0058516129845521681 0 -0.016820817713768001 0.0059716751258373224 0 -0.01683112988118857 0.0061008909223162081 0 -0.016820817713768001 0.0059716751258373224 0 -0.016604244722189097 0.0062753134702991072 0 -0.016615279846395346 0.0060310499826554259 0 -0.016425212830095147 0.0062690664971558133 0 -0.016335224994371244 0.0060007150014446545 0 -0.016814180973848188 0.0056821640077955888 0 -0.016615279846395346 0.0060310499826554259 0 -0.016335224994371244 0.0060007150014446545 0 -0.016615279846395346 0.0060310499826554259 0 -0.016425212830095147 0.0062690664971558133 0 -0.016604244722189097 0.0062753134702991072 0 -0.016820817713768001 0.0059716751258373224 0 -0.016615279846395346 0.0060310499826554259 0 -0.016604244722189097 0.0062753134702991072 0 -0.016814180973848188 0.0056821640077955888 0 -0.016820817713768001 0.0059716751258373224 0 -0.016615279846395346 0.0060310499826554259 0 -0.016363562442952589 0.0067267843680892756 0 -0.016392086802464883 0.0064722018492587513 0 -0.016604244722189097 0.0062753134702991072 0 -0.016183424826634617 0.0066746773079849313 0 -0.016425212830095147 0.0062690664971558133 0 -0.016392086802464883 0.0064722018492587513 0 -0.016425212830095147 0.0062690664971558133 0 -0.016392086802464883 0.0064722018492587513 0 -0.016604244722189097 0.0062753134702991072 0 -0.016363562442952589 0.0067267843680892756 0 -0.016604244722189097 0.0062753134702991072 0 -0.016671688390083213 0.0065228033728910537 0 -0.01683112988118857 0.0061008909223162081 0 -0.016604244722189097 0.0062753134702991072 0 -0.016671688390083213 0.0065228033728910537 0 -0.01693768538183835 0.0056584437195666484 0 -0.016642905026309513 0.0054896237276506445 0 -0.016938197069037545 0.0056702968549428327 0 -0.016966383083730645 0.0059964536923843284 0 -0.01671869058671854 0.0059491555371345133 0 -0.016938197069037545 0.0056702968549428327 0 -0.017213494270246973 0.0056936525093229107 0 -0.016966383083730645 0.0059964536923843284 0 -0.016183424826634617 0.0066746773079849313 0 -0.016425212830095147 0.0062690664971558133 0 -0.016335224994371244 0.0060007150014446545 0 -0.015153916589623541 0.013693216477163718 0 -0.016929925107411231 0.0041680960099336768 0 -0.017284624871690166 0.0064456923139588531 0 -0.017213494270246973 0.0056936525093229107 0 -0.016966383083730645 0.0059964536923843284 0 -0.016966383083730645 0.0059964536923843284 0 -0.016758064887708413 0.0062523460296390861 0 -0.01671869058671854 0.0059491555371345133 0 -0.017284624871690166 0.0064456923139588531 0 -0.016966383083730645 0.0059964536923843284 0 -0.016758064887708413 0.0062523460296390861 0 -0.016758064887708413 0.0062523460296390861 0 -0.01671869058671854 0.0059491555371345133 0 -0.016455459543896558 0.0062310461337394592 0 -0.015709041621086842 0.026437696614381889 0 -0.014944672207883558 0.026912470079215493 0 -0.016401795609840987 0.027137111173017564 0 -0.014705681136950571 0.016380272668916448 0 -0.021955180921698601 0.020429462492006573 0 -0.016541300006440933 0.0058528274423095628 0 -0.01671869058671854 0.0059491555371345133 0 -0.016455459543896558 0.0062310461337394592 0 -0.016541300006440933 0.0058528274423095628 0 -0.01671869058671854 0.0059491555371345133 0 -0.016725414702531742 0.0057123597586403443 0 -0.016938197069037545 0.0056702968549428327 0 -0.01671869058671854 0.0059491555371345133 0 -0.016725414702531742 0.0057123597586403443 0 -0.016781543850283655 0.0051714376856281281 0 -0.016523717834812022 0.0052680190514475343 0 -0.016547242554569266 0.0047860225882448522 0 -0.016642905026309513 0.0054896237276506445 0 -0.016330249658123387 0.0052438055879977597 0 -0.016541300006440933 0.0058528274423095628 0 -0.016725414702531742 0.0057123597586403443 0 -0.016477287476147618 0.0054996847724223374 0 -0.016523717834812022 0.0052680190514475343 0 -0.016198646387372964 0.0049901992762384478 0 -0.016547242554569266 0.0047860225882448522 0 -0.016312572800371416 0.004445342446147236 0 -0.016198646387372964 0.0049901992762384478 0 -0.016547242554569266 0.0047860225882448522 0 -0.016769435373001091 0.0046395886166123767 0 -0.016781543850283655 0.0051714376856281281 0 -0.016547242554569266 0.0047860225882448522 0 -0.015565118338712236 0.0043750826903237467 0 -0.015735593782054708 0.0047581450152277176 0 -0.015136319236663918 0.0046413454480296237 0 -0.015946641685418664 0.0044372814070306726 0 -0.015565118338712236 0.0043750826903237467 0 -0.015735593782054708 0.0047581450152277176 0 -0.016330249658123387 0.0052438055879977597 0 -0.015827317354433029 0.004941027739428179 0 -0.016312572800371416 0.004445342446147236 0 -0.015946641685418664 0.0044372814070306726 0 -0.016198646387372964 0.0049901992762384478 0 -0.015946641685418664 0.0044372814070306726 0 -0.016198646387372964 0.0049901992762384478 0 -0.015735593782054708 0.0047581450152277176 0 -0.016477287476147618 0.0054996847724223374 0 -0.01598106930604002 0.0051273131990719374 0 -0.01611678353894189 0.0058548320247522219 0 -0.016541300006440933 0.0058528274423095628 0 -0.016477287476147618 0.0054996847724223374 0 -0.01611678353894189 0.0058548320247522219 0 -0.01598106930604002 0.0051273131990719374 0 -0.01611678353894189 0.0058548320247522219 0 -0.015467741989493482 0.0051583930457537201 0 -0.023464526800084425 0.004451817827570149 0 -0.022473549005045577 0.0052255862154580819 0 -0.031145093514191473 0.00736307220156343 0 -0.029133277970933454 0.0044573272322867589 0 -0.028725093422055457 0.0068739166403685159 0 -0.031145093514191473 0.00736307220156343 0 -0.030258923828004429 0.0094580364867846538 0 -0.028725093422055457 0.0068739166403685159 0 -0.023464526800084425 0.004451817827570149 0 -0.021955180921698601 0.020429462492006573 0 -0.031145093514191473 0.00736307220156343 0 -0.033029620576622391 0.01011855591909604 0 -0.030258923828004429 0.0094580364867846538 0 -0.016541300006440933 0.0058528274423095628 0 -0.01611678353894189 0.0058548320247522219 0 -0.016455459543896558 0.0062310461337394592 0 -0.024643230138881731 0.042399229943734247 0 -0.022387424430346161 0.043454250472565535 0 -0.025499275698291312 0.043854950094858486 0 -0.021955180921698601 0.020429462492006573 0 -0.029199180497907287 0.027433181202495605 0 -0.024643230138881731 0.042399229943734247 0 -0.025499275698291312 0.043854950094858486 0 -0.026278059877444068 0.043058315961570427 0 -0.025499275698291312 0.043854950094858486 0 -0.026278059877444068 0.043058315961570427 0 -0.026973705424126099 0.043658943325477359 0 -0.02687198402238071 0.043187493304808221 0 -0.026278059877444068 0.043058315961570427 0 -0.026973705424126099 0.043658943325477359 0 -0.029199180497907287 0.027433181202495605 0 -0.026801787455248305 0.026134726168496058 0 -0.030258923828004429 0.0094580364867846538 0 -0.027327273156800291 0.0088403530158437781 0 -0.028725093422055457 0.0068739166403685159 0 -0.027327273156800291 0.0088403530158437781 0 -0.024332560710965987 0.0082273310890000843 0 -0.026629799936185493 0.0059364628853423645 0 -0.027327273156800291 0.0088403530158437781 0 -0.028725093422055457 0.0068739166403685159 0 -0.026629799936185493 0.0059364628853423645 0 -0.026801787455248305 0.026134726168496058 0 -0.026116970880939869 0.02586347056324409 0 -0.02687198402238071 0.043187493304808221 0 -0.026973705424126099 0.043658943325477359 0 -0.027373970405444717 0.04326943283525423 0 -0.026973705424126099 0.043658943325477359 0 -0.027373970405444717 0.04326943283525423 0 -0.027637122546297244 0.043414288035222917 0 -0.027373970405444717 0.04326943283525423 0 -0.027771260899409358 0.043209528843278673 0 -0.027637122546297244 0.043414288035222917 0 -0.027771260899409358 0.043209528843278673 0 -0.027884039242357612 0.043187030029058646 0 -0.027637122546297244 0.043414288035222917 0 -0.027771260899409358 0.043209528843278673 0 -0.027884039242357612 0.043187030029058646 0 -0.028080376531240736 0.043090156021568425 0 -0.027884039242357612 0.043187030029058646 0 -0.027637122546297244 0.043414288035222917 0 -0.027985606113220998 0.043011559430243942 0 -0.024332560710965987 0.0082273310890000843 0 -0.022874893009324888 0.0061305283653288111 0 -0.021532659556142142 0.0076243279412689614 0 -0.026116970880939869 0.02586347056324409 0 -0.024365302606362844 0.025055883884288074 0 -0.024332560710965987 0.0082273310890000843 0 -0.024545335718939989 0.0053723682359300279 0 -0.026629799936185493 0.0059364628853423645 0 -0.024332560710965987 0.0082273310890000843 0 -0.024545335718939989 0.0053723682359300279 0 -0.022874893009324888 0.0061305283653288111 0 -0.024545335718939989 0.0053723682359300279 0 -0.022874893009324888 0.0061305283653288111 0 -0.023091383252543785 0.0039848649843712428 0 -0.022874893009324888 0.0061305283653288111 0 -0.023091383252543785 0.0039848649843712428 0 -0.020876686621713984 0.0048692035784907335 0 -0.02462436080090958 0.0021130188663724216 0 -0.024219706346628796 0.0019217306546138277 0 -0.024377745152281388 0.0016476082852572606 0 -0.024133235053484747 0.0030245662421702411 0 -0.021750044949929864 0.0034372581288155809 0 -0.02462436080090958 0.0021130188663724216 0 -0.025629644410459642 0.0028460080788562997 0 -0.02502016533013935 0.0017652266483037646 0 -0.024545335718939989 0.0053723682359300279 0 -0.023091383252543785 0.0039848649843712428 0 -0.025629644410459642 0.0028460080788562997 0 -0.024545335718939989 0.0053723682359300279 0 -0.025629644410459642 0.0028460080788562997 0 -0.026629799936185493 0.0059364628853423645 0 -0.024133235053484747 0.0030245662421702411 0 -0.025489203268392869 0.0028100629869762823 0 -0.025629644410459642 0.0028460080788562997 0 -0.02721607381241219 0.0039601370942658554 0 -0.026629799936185493 0.0059364628853423645 0 -0.025629644410459642 0.0028460080788562997 0 -0.02721607381241219 0.0039601370942658554 0 -0.026859517148652524 0.0016839718188024543 0 -0.01598106930604002 0.0051273131990719374 0 -0.015136319236663918 0.0046413454480296237 0 -0.015467741989493482 0.0051583930457537201 0 -0.015136319236663918 0.0046413454480296237 0 -0.015467741989493482 0.0051583930457537201 0 -0.01469718690653506 0.0041514367244847306 0 -0.02721607381241219 0.0039601370942658554 0 -0.029133277970933454 0.0044573272322867589 0 -0.026859517148652524 0.0016839718188024543 0 -0.015827317354433029 0.004941027739428179 0 -0.015177616335090327 0.0046600055463009672 0 -0.022473549005045577 0.0052255862154580819 0 -0.020389118822293197 0.0028320606351541606 0 -0.02721607381241219 0.0039601370942658554 0 -0.029133277970933454 0.0044573272322867589 0 -0.027847751602765116 0.005134240493322016 0 -0.027847751602765116 0.005134240493322016 0 -0.028725093422055457 0.0068739166403685159 0 -0.026629799936185493 0.0059364628853423645 0 -0.029133277970933454 0.0044573272322867589 0 -0.027847751602765116 0.005134240493322016 0 -0.028725093422055457 0.0068739166403685159 0 -0.02721607381241219 0.0039601370942658554 0 -0.027847751602765116 0.005134240493322016 0 -0.026629799936185493 0.0059364628853423645 0 -0.026312656748559444 0.042189426540007562 0 -0.027453808093279655 0.042907848718416117 0 -0.027464358639474669 0.042187099952078838 0 -0.026312656748559444 0.042189426540007562 0 -0.027464358639474669 0.042187099952078838 0 -0.027235450219763008 0.041381960328718444 0 -0.026312656748559444 0.042189426540007562 0 -0.027235450219763008 0.041381960328718444 0 -0.026298388945858044 0.041085838527673321 0 -0.026633408668528685 0.042224046763968071 0 -0.026577165079327367 0.040472597189618861 0 -0.02777452682411425 0.041811071555483192 0 -0.026678983240186305 0.042022622572410892 0 -0.027473127227635421 0.042237553294630636 0 -0.028173654727172058 0.042947140841062062 0 -0.027473127227635421 0.042237553294630636 0 -0.027453808093279655 0.042907848718416117 0 -0.027464358639474669 0.042187099952078838 0 -0.028099280496924367 0.042701126201764902 0 -0.027464358639474669 0.042187099952078838 0 -0.028109627975546787 0.04164389701184245 0 -0.027235450219763008 0.041381960328718444 0 -0.02807916737025588 0.042715625733964084 0 -0.028099280496924367 0.042701126201764902 0 -0.027985606113220998 0.043011559430243942 0 -0.024973995603705494 0.027180568311456248 0 -0.024365302606362844 0.025055883884288074 0 -0.027464358639474669 0.042187099952078838 0 -0.028109627975546787 0.04164389701184245 0 -0.028099280496924367 0.042701126201764902 0 -0.024973995603705494 0.027180568311456248 0 -0.028435859427592153 0.046685608494796714 0 -0.028211759552889338 0.043036763002241907 0 -0.027453808093279655 0.042907848718416117 0 -0.028099280496924367 0.042701126201764902 0 -0.028211759552889338 0.043036763002241907 0 -0.028099280496924367 0.042701126201764902 0 -0.028080376531240736 0.043090156021568425 0 -0.027884039242357612 0.043187030029058646 0 -0.028080376531240736 0.043090156021568425 0 -0.027985606113220998 0.043011559430243942 0 -0.028099280496924367 0.042701126201764902 0 -0.028080376531240736 0.043090156021568425 0 -0.027985606113220998 0.043011559430243942 0 -0.021532659556142142 0.0076243279412689614 0 -0.020876686621713984 0.0048692035784907335 0 -0.020050913038091096 0.0061709963193051637 0 -0.022874893009324888 0.0061305283653288111 0 -0.021532659556142142 0.0076243279412689614 0 -0.020876686621713984 0.0048692035784907335 0 -0.024219706346628796 0.0019217306546138277 0 -0.024377745152281388 0.0016476082852572606 0 -0.024246654512155633 0.0012090630793579456 0 -0.025948430060020643 0.0057289336842350248 0 -0.028148826631722954 0.0011620224734422658 0 -0.024219706346628796 0.0019217306546138277 0 -0.023807474319034305 0.0020256914735881006 0 -0.02381768096894667 0.0012359329229959628 0 -0.021750044949929864 0.0034372581288155809 0 -0.025948430060020643 0.0057289336842350248 0 -0.018949572487768372 0.0071657860109818408 0 -0.021532659556142142 0.0076243279412689614 0 -0.020050913038091096 0.0061709963193051637 0 -0.020876686621713984 0.0048692035784907335 0 -0.01876720810826257 0.0056016685618822878 0 -0.020050913038091096 0.0061709963193051637 0 -0.018949572487768372 0.0071657860109818408 0 -0.01876720810826257 0.0056016685618822878 0 -0.020050913038091096 0.0061709963193051637 0 -0.027819151845624404 0.019116494928211505 0 -0.027814782138120817 0.01895771442813176 0 -0.02778466151219856 0.019042131964215506 0 -0.024973995603705494 0.027180568311456248 0 -0.025948430060020643 0.0057289336842350248 0 -0.027819151845624404 0.019116494928211505 0 -0.02778466151219856 0.019042131964215506 0 -0.027756318278065129 0.019078909438956553 0 -0.024973995603705494 0.027180568311456248 0 -0.02808518124205104 0.030092890367397585 0 -0.02778466151219856 0.019042131964215506 0 -0.027756318278065129 0.019078909438956553 0 -0.027757386106524288 0.019043018862235715 0 -0.025948430060020643 0.0057289336842350248 0 -0.030513014838843958 0.01109765833308167 0 -0.031860811636218893 0.0032378231913204594 0 -0.031477165365975314 0.0033502062573123733 0 -0.031530685822517432 0.0029118503040147029 0 -0.027814782138120817 0.01895771442813176 0 -0.02778466151219856 0.019042131964215506 0 -0.027757386106524288 0.019043018862235715 0 -0.031860811636218893 0.0032378231913204594 0 -0.031530685822517432 0.0029118503040147029 0 -0.031767556816909882 0.0024128292716474346 0 -0.031530685822517432 0.0029118503040147029 0 -0.031209272831429498 0.0030005688071975444 0 -0.031320613895295606 0.0025348340018401072 0 -0.03090871184955564 0.0025880089924712074 0 -0.031209272831429498 0.0030005688071975444 0 -0.031320613895295606 0.0025348340018401072 0 -0.031477165365975314 0.0033502062573123733 0 -0.031530685822517432 0.0029118503040147029 0 -0.031209272831429498 0.0030005688071975444 0 -0.02808518124205104 0.030092890367397585 0 -0.028532706085518555 0.021682434144051368 0 -0.031477165365975314 0.0033502062573123733 0 -0.031209272831429498 0.0030005688071975444 0 -0.031107809470347261 0.003479623665108868 0 -0.03084625612822478 0.003018404185513409 0 -0.031209272831429498 0.0030005688071975444 0 -0.031107809470347261 0.003479623665108868 0 -0.027756318278065129 0.019078909438956553 0 -0.027757386106524288 0.019043018862235715 0 -0.027753335458097411 0.019098066143427905 0 -0.030513014838843958 0.01109765833308167 0 -0.028532706085518555 0.021682434144051368 0 -0.030933996809765215 0.0020238647782197835 0 -0.031359397037010614 0.0020699741700815301 0 -0.031320613895295606 0.0025348340018401072 0 -0.030933996809765215 0.0020238647782197835 0 -0.031359397037010614 0.0020699741700815301 0 -0.031137729737541229 0.0017142154147217594 0 -0.03090871184955564 0.0025880089924712074 0 -0.030933996809765215 0.0020238647782197835 0 -0.031320613895295606 0.0025348340018401072 0 -0.031359397037010614 0.0020699741700815301 0 -0.031320613895295606 0.0025348340018401072 0 -0.031767556816909882 0.0024128292716474346 0 -0.031530685822517432 0.0029118503040147029 0 -0.031320613895295606 0.0025348340018401072 0 -0.031767556816909882 0.0024128292716474346 0 -0.028148826631722954 0.0011620224734422658 0 -0.026869736921536946 0.0012220537885090591 0 -0.031359397037010614 0.0020699741700815301 0 -0.031767556816909882 0.0024128292716474346 0 -0.031629000134709116 0.0016673442671998146 0 -0.02381768096894667 0.0012359329229959628 0 -0.024287040165767746 0.00069357096274679745 0 -0.024027206361109936 0.00042994360906629882 0 -0.02381768096894667 0.0012359329229959628 0 -0.024287040165767746 0.00069357096274679745 0 -0.024246654512155633 0.0012090630793579456 0 -0.024219706346628796 0.0019217306546138277 0 -0.02381768096894667 0.0012359329229959628 0 -0.024246654512155633 0.0012090630793579456 0 -0.024377745152281388 0.0016476082852572606 0 -0.024246654512155633 0.0012090630793579456 0 -0.024508507304104796 0.0013695069014187536 0 -0.024246654512155633 0.0012090630793579456 0 -0.024363559931504627 0.00064949779966598064 0 -0.024418652868020273 0.00078192212512074167 0 -0.024287040165767746 0.00069357096274679745 0 -0.024246654512155633 0.0012090630793579456 0 -0.024363559931504627 0.00064949779966598064 0 -0.024363559931504627 0.00064949779966598064 0 -0.024418652868020273 0.00078192212512074167 0 -0.024388290537091913 0.00043071911992601631 0 -0.024363559931504627 0.00064949779966598064 0 -0.02445245181457464 0.00041040339833183274 0 -0.024388290537091913 0.00043071911992601631 0 -0.02445245181457464 0.00041040339833183274 0 -0.024388290537091913 0.00043071911992601631 0 -0.024374994173952155 0.00031768071266364759 0 -0.024287040165767746 0.00069357096274679745 0 -0.024363559931504627 0.00064949779966598064 0 -0.02445245181457464 0.00041040339833183274 0 -0.02445245181457464 0.00041040339833183274 0 -0.024481915913972852 0.0004549842676156206 0 -0.024374994173952155 0.00031768071266364759 0 -0.024481915913972852 0.0004549842676156206 0 -0.024808913385673637 0.00065823862263205367 0 -0.024594834343910518 0.00046022923603919366 0 -0.02445245181457464 0.00041040339833183274 0 -0.024481915913972852 0.0004549842676156206 0 -0.024594834343910518 0.00046022923603919366 0 -0.024481915913972852 0.0004549842676156206 0 -0.024808913385673637 0.00065823862263205367 0 -0.024741007412169787 0.00078408937664762853 0 -0.024808913385673637 0.00065823862263205367 0 -0.024800549880049424 0.00054033398044809364 0 -0.024594834343910518 0.00046022923603919366 0 -0.024808913385673637 0.00065823862263205367 0 -0.025024198250046658 0.00075403768424300735 0 -0.024800549880049424 0.00054033398044809364 0 -0.024800549880049424 0.00054033398044809364 0 -0.024594834343910518 0.00046022923603919366 0 -0.024447673714177463 0.00038320733165544686 0 -0.024287040165767746 0.00069357096274679745 0 -0.024447673714177463 0.00038320733165544686 0 -0.024027206361109936 0.00042994360906629882 0 -0.024800549880049424 0.00054033398044809364 0 -0.024447673714177463 0.00038320733165544686 0 -0.024960903329782128 0.00028535823514472253 0 -0.02445245181457464 0.00041040339833183274 0 -0.024594834343910518 0.00046022923603919366 0 -0.024447673714177463 0.00038320733165544686 0 -0.024287040165767746 0.00069357096274679745 0 -0.02445245181457464 0.00041040339833183274 0 -0.024447673714177463 0.00038320733165544686 0 -0.024066636275842747 0.00068709498047113805 0 -0.026869736921536946 0.0012220537885090591 0 -0.025055965452058647 -4.543681401769173e-05 0 -0.025466664200931622 0.00037478650458274391 0 -0.025962087862588079 -0.00013879337056559214 0 -0.026869736921536946 0.0012220537885090591 0 -0.028793476961945678 0.0007475807633428455 0 -0.025055965452058647 -4.543681401769173e-05 0 -0.02513016292930776 0.00059876195503976869 0 -0.025466664200931622 0.00037478650458274391 0 -0.024800549880049424 0.00054033398044809364 0 -0.024960903329782128 0.00028535823514472253 0 -0.02513016292930776 0.00059876195503976869 0 -0.026869736921536946 0.0012220537885090591 0 -0.025200769858286665 0.00014781372956862104 0 -0.025024198250046658 0.00075403768424300735 0 -0.024800549880049424 0.00054033398044809364 0 -0.02513016292930776 0.00059876195503976869 0 -0.025024198250046658 0.00075403768424300735 0 -0.02513016292930776 0.00059876195503976869 0 -0.025172366428292695 0.00084089249855686082 0 -0.02513016292930776 0.00059876195503976869 0 -0.025172366428292695 0.00084089249855686082 0 -0.025466664200931622 0.00037478650458274391 0 -0.026552428194960963 0.00076724601485196457 0 -0.02741613866199932 0.00066653022444621761 0 -0.027047896024985123 0.0011942985385977162 0 -0.027561610768131347 0.0012099551323229154 0 -0.02741613866199932 0.00066653022444621761 0 -0.027047896024985123 0.0011942985385977162 0 -0.025172366428292695 0.00084089249855686082 0 -0.025466664200931622 0.00037478650458274391 0 -0.026032065205142438 0.00043955917791861952 0 -0.025873271099811957 0.00083277180221897056 0 -0.02655341421396825 0.00049367325342522354 0 -0.031359397037010614 0.0020699741700815301 0 -0.031629000134709116 0.0016673442671998146 0 -0.031137729737541229 0.0017142154147217594 0 -0.025466664200931622 0.00037478650458274391 0 -0.026032065205142438 0.00043955917791861952 0 -0.025962087862588079 -0.00013879337056559214 0 -0.020389118822293197 0.0028320606351541606 0 -0.021960622837712409 0.001320668980461355 0 -0.014877331785653189 0.0033821519961284778 0 -0.01469718690653506 0.0041514367244847306 0 -0.014054089364278146 0.0032920406543522334 0 -0.014877331785653189 0.0033821519961284778 0 -0.015216784140729285 0.0040037924430265329 0 -0.01469718690653506 0.0041514367244847306 0 -0.014877331785653189 0.0033821519961284778 0 -0.015416868625459197 0.0034913096617792123 0 -0.015216784140729285 0.0040037924430265329 0 -0.015565118338712236 0.0043750826903237467 0 -0.015136319236663918 0.0046413454480296237 0 -0.015216784140729285 0.0040037924430265329 0 -0.015136319236663918 0.0046413454480296237 0 -0.015216784140729285 0.0040037924430265329 0 -0.01469718690653506 0.0041514367244847306 0 -0.026859517148652524 0.0016839718188024543 0 -0.025676554538393809 0.0018479104929261352 0 -0.025360764430860716 0.0012114015208500102 0 -0.025629644410459642 0.0028460080788562997 0 -0.026859517148652524 0.0016839718188024543 0 -0.025676554538393809 0.0018479104929261352 0 -0.025629644410459642 0.0028460080788562997 0 -0.025676554538393809 0.0018479104929261352 0 -0.02502016533013935 0.0017652266483037646 0 -0.02502016533013935 0.0017652266483037646 0 -0.024818129781221401 0.0011833001262863364 0 -0.025360764430860716 0.0012114015208500102 0 -0.025676554538393809 0.0018479104929261352 0 -0.02502016533013935 0.0017652266483037646 0 -0.025360764430860716 0.0012114015208500102 0 -0.024246654512155633 0.0012090630793579456 0 -0.024508507304104796 0.0013695069014187536 0 -0.024418652868020273 0.00078192212512074167 0 -0.02462436080090958 0.0021130188663724216 0 -0.024377745152281388 0.0016476082852572606 0 -0.024508507304104796 0.0013695069014187536 0 -0.02462436080090958 0.0021130188663724216 0 -0.02502016533013935 0.0017652266483037646 0 -0.024508507304104796 0.0013695069014187536 0 -0.02502016533013935 0.0017652266483037646 0 -0.024818129781221401 0.0011833001262863364 0 -0.024508507304104796 0.0013695069014187536 0 -0.024818129781221401 0.0011833001262863364 0 -0.024508507304104796 0.0013695069014187536 0 -0.024572853482879145 0.00088293931646779783 0 -0.024508507304104796 0.0013695069014187536 0 -0.024418652868020273 0.00078192212512074167 0 -0.024572853482879145 0.00088293931646779783 0 -0.024572853482879145 0.00088293931646779783 0 -0.024435076022126627 0.00050533972651788345 0 -0.024529307398073286 0.00039665437173069004 0 -0.024418652868020273 0.00078192212512074167 0 -0.024572853482879145 0.00088293931646779783 0 -0.024435076022126627 0.00050533972651788345 0 -0.024418652868020273 0.00078192212512074167 0 -0.024435076022126627 0.00050533972651788345 0 -0.024388290537091913 0.00043071911992601631 0 -0.026859517148652524 0.0016839718188024543 0 -0.025360764430860716 0.0012114015208500102 0 -0.025192021451794236 0.00011281662555128445 0 -0.025360764430860716 0.0012114015208500102 0 -0.024849422774161335 0.00064641198331196305 0 -0.025192021451794236 0.00011281662555128445 0 -0.024818129781221401 0.0011833001262863364 0 -0.025360764430860716 0.0012114015208500102 0 -0.024849422774161335 0.00064641198331196305 0 -0.024818129781221401 0.0011833001262863364 0 -0.024572853482879145 0.00088293931646779783 0 -0.024849422774161335 0.00064641198331196305 0 -0.024849422774161335 0.00064641198331196305 0 -0.024529307398073286 0.00039665437173069004 0 -0.02489219751417876 0.00039741943545506067 0 -0.023909096433774816 4.0233302160225523e-05 0 -0.021960622837712409 0.001320668980461355 0 -0.024572853482879145 0.00088293931646779783 0 -0.024849422774161335 0.00064641198331196305 0 -0.024529307398073286 0.00039665437173069004 0 -0.023889098699856975 -0.00036348498625157397 0 -0.024261174756837041 3.5213569555786468e-05 0 -0.023658901924179857 0.00011755386687490007 0 -0.023889098699856975 -0.00036348498625157397 0 -0.023658901924179857 0.00011755386687490007 0 -0.022992297518715107 -1.9065271928524858e-05 0 -0.024529307398073286 0.00039665437173069004 0 -0.02489219751417876 0.00039741943545506067 0 -0.024261174756837041 3.5213569555786468e-05 0 -0.021960622837712409 0.001320668980461355 0 -0.02354865781450716 0.00074992296421353061 0 -0.024261174756837041 3.5213569555786468e-05 0 -0.023658901924179857 0.00011755386687490007 0 -0.024134308086632542 0.00024139010674081147 0 -0.024388290537091913 0.00043071911992601631 0 -0.024347680053369632 0.0002328932756617202 0 -0.024374994173952155 0.00031768071266364759 0 -0.024435076022126627 0.00050533972651788345 0 -0.024388290537091913 0.00043071911992601631 0 -0.024347680053369632 0.0002328932756617202 0 -0.024435076022126627 0.00050533972651788345 0 -0.024529307398073286 0.00039665437173069004 0 -0.024347680053369632 0.0002328932756617202 0 -0.024529307398073286 0.00039665437173069004 0 -0.024261174756837041 3.5213569555786468e-05 0 -0.024347680053369632 0.0002328932756617202 0 -0.024347680053369632 0.0002328932756617202 0 -0.024374994173952155 0.00031768071266364759 0 -0.024134308086632542 0.00024139010674081147 0 -0.024261174756837041 3.5213569555786468e-05 0 -0.024347680053369632 0.0002328932756617202 0 -0.024134308086632542 0.00024139010674081147 0 -0.024481915913972852 0.0004549842676156206 0 -0.024134308086632542 0.00024139010674081147 0 -0.023814692006538716 0.00051029058529583485 0 -0.024481915913972852 0.0004549842676156206 0 -0.024374994173952155 0.00031768071266364759 0 -0.024134308086632542 0.00024139010674081147 0 -0.023658901924179857 0.00011755386687490007 0 -0.023814692006538716 0.00051029058529583485 0 -0.022925008066203123 0.00040566878382714667 0 -0.023658901924179857 0.00011755386687490007 0 -0.024134308086632542 0.00024139010674081147 0 -0.023814692006538716 0.00051029058529583485 0 -0.022992297518715107 -1.9065271928524858e-05 0 -0.021730927131079169 0.00021866678072870939 0 -0.022925008066203123 0.00040566878382714667 0 -0.023658901924179857 0.00011755386687490007 0 -0.022992297518715107 -1.9065271928524858e-05 0 -0.022925008066203123 0.00040566878382714667 0 -0.018334445634680209 0.0014545402384425351 0 -0.018536773951956097 0.00088647410435671982 0 -0.014877331785653189 0.0033821519961284778 0 -0.014054089364278146 0.0032920406543522334 0 -0.014560086768423288 0.0024987946488124572 0 -0.021960622837712409 0.001320668980461355 0 -0.018334445634680209 0.0014545402384425351 0 -0.014877331785653189 0.0033821519961284778 0 -0.015416868625459197 0.0034913096617792123 0 -0.015403360838597457 0.0026715489099015896 0 -0.014877331785653189 0.0033821519961284778 0 -0.014560086768423288 0.0024987946488124572 0 -0.015403360838597457 0.0026715489099015896 0 -0.015403360838597457 0.0026715489099015896 0 -0.015269235387829564 0.0015470677437119152 0 -0.016060301731685392 0.0014361760243690352 0 -0.014560086768423288 0.0024987946488124572 0 -0.015403360838597457 0.0026715489099015896 0 -0.015269235387829564 0.0015470677437119152 0 -0.021730927131079169 0.00021866678072870939 0 -0.021862969469140188 0.0010058118198914576 0 -0.019847671315021423 0.00091930917582211619 0 -0.018536773951956097 0.00088647410435671982 0 -0.018023815946637524 0.0011582721967961518 0 -0.021862969469140188 0.0010058118198914576 0 -0.022078216876329361 0.0025645873823513976 0 -0.019847671315021423 0.00091930917582211619 0 -0.021862969469140188 0.0010058118198914576 0 -0.023205969510285567 0.0011336227588454289 0 -0.022078216876329361 0.0025645873823513976 0 -0.021730927131079169 0.00021866678072870939 0 -0.021862969469140188 0.0010058118198914576 0 -0.022925008066203123 0.00040566878382714667 0 -0.021862969469140188 0.0010058118198914576 0 -0.022925008066203123 0.00040566878382714667 0 -0.023205969510285567 0.0011336227588454289 0 -0.023814692006538716 0.00051029058529583485 0 -0.024376889621747732 0.0010715381560714265 0 -0.023205969510285567 0.0011336227588454289 0 -0.023814692006538716 0.00051029058529583485 0 -0.022925008066203123 0.00040566878382714667 0 -0.023205969510285567 0.0011336227588454289 0 -0.024481915913972852 0.0004549842676156206 0 -0.023814692006538716 0.00051029058529583485 0 -0.024376889621747732 0.0010715381560714265 0 -0.024376889621747732 0.0010715381560714265 0 -0.023864766924417215 0.0019819245667849882 0 -0.025141263784319474 0.0020142584935667332 0 -0.024376889621747732 0.0010715381560714265 0 -0.023205969510285567 0.0011336227588454289 0 -0.023864766924417215 0.0019819245667849882 0 -0.023864766924417215 0.0019819245667849882 0 -0.023718117832298199 0.0023424779112125533 0 -0.022977728819973984 0.0014912481348510927 0 -0.023205969510285567 0.0011336227588454289 0 -0.023864766924417215 0.0019819245667849882 0 -0.022078216876329361 0.0025645873823513976 0 -0.023864766924417215 0.0019819245667849882 0 -0.024518308608541414 0.0025239202496486627 0 -0.025141263784319474 0.0020142584935667332 0 -0.024518308608541414 0.0025239202496486627 0 -0.023718117832298199 0.0023424779112125533 0 -0.024090475451769816 0.0028016653039629499 0 -0.023864766924417215 0.0019819245667849882 0 -0.024518308608541414 0.0025239202496486627 0 -0.023718117832298199 0.0023424779112125533 0 -0.023718117832298199 0.0023424779112125533 0 -0.023174392640787803 0.0023663516366709738 0 -0.023693154624321883 0.002875536295121107 0 -0.023174392640787803 0.0023663516366709738 0 -0.022477860499313929 0.0021861730712840039 0 -0.022977728819973984 0.0014912481348510927 0 -0.023718117832298199 0.0023424779112125533 0 -0.023174392640787803 0.0023663516366709738 0 -0.022977728819973984 0.0014912481348510927 0 -0.022477860499313929 0.0021861730712840039 0 -0.022977728819973984 0.0014912481348510927 0 -0.021874938639682623 0.0016077092084687758 0 -0.022078216876329361 0.0025645873823513976 0 -0.018777899808078077 0.0026251517806254372 0 -0.019847671315021423 0.00091930917582211619 0 -0.022977728819973984 0.0014912481348510927 0 -0.021874938639682623 0.0016077092084687758 0 -0.021442053726306181 0.00083466199522106658 0 -0.022475506599735701 0.00199806105518433 0 -0.020093599198425204 0.0017141727632511096 0 -0.023756797112553792 0.0019876218313800973 0 -0.022475506599735701 0.00199806105518433 0 -0.027617453355897305 0.0014186662945630372 0 -0.027025787084033127 0.001641502738028919 0 -0.027047896024985123 0.0011942985385977162 0 -0.027025787084033127 0.001641502738028919 0 -0.027047896024985123 0.0011942985385977162 0 -0.02644091610899724 0.0013201963155669647 0 -0.027651123142622837 0.0016719880816565016 0 -0.027591478592130868 0.0020601562570680596 0 -0.027025787084033127 0.001641502738028919 0 -0.027651123142622837 0.0016719880816565016 0 -0.027617453355897305 0.0014186662945630372 0 -0.027025787084033127 0.001641502738028919 0 -0.027617453355897305 0.0014186662945630372 0 -0.027561610768131347 0.0012099551323229154 0 -0.027047896024985123 0.0011942985385977162 0 -0.026552428194960963 0.00076724601485196457 0 -0.02644091610899724 0.0013201963155669647 0 -0.025272449500514198 0.0010697254979287021 0 -0.026552428194960963 0.00076724601485196457 0 -0.027047896024985123 0.0011942985385977162 0 -0.02644091610899724 0.0013201963155669647 0 -0.02644091610899724 0.0013201963155669647 0 -0.025272449500514198 0.0010697254979287021 0 -0.026086194901696492 0.0018956084420652037 0 -0.027025787084033127 0.001641502738028919 0 -0.02644091610899724 0.0013201963155669647 0 -0.026086194901696492 0.0018956084420652037 0 -0.025272449500514198 0.0010697254979287021 0 -0.025141263784319474 0.0020142584935667332 0 -0.026086194901696492 0.0018956084420652037 0 -0.024808913385673637 0.00065823862263205367 0 -0.025024198250046658 0.00075403768424300735 0 -0.025272449500514198 0.0010697254979287021 0 -0.025024198250046658 0.00075403768424300735 0 -0.025172366428292695 0.00084089249855686082 0 -0.025272449500514198 0.0010697254979287021 0 -0.024808913385673637 0.00065823862263205367 0 -0.025272449500514198 0.0010697254979287021 0 -0.024741007412169787 0.00078408937664762853 0 -0.025873271099811957 0.00083277180221897056 0 -0.025277204865649126 0.0010974359243971351 0 -0.024376889621747732 0.0010715381560714265 0 -0.025272449500514198 0.0010697254979287021 0 -0.024741007412169787 0.00078408937664762853 0 -0.024481915913972852 0.0004549842676156206 0 -0.024376889621747732 0.0010715381560714265 0 -0.024741007412169787 0.00078408937664762853 0 -0.024376889621747732 0.0010715381560714265 0 -0.025272449500514198 0.0010697254979287021 0 -0.025141263784319474 0.0020142584935667332 0 -0.024518308608541414 0.0025239202496486627 0 -0.025450764096097259 0.0026576784604772502 0 -0.025040474262854221 0.0034309012616342131 0 -0.024518308608541414 0.0025239202496486627 0 -0.025141263784319474 0.0020142584935667332 0 -0.025450764096097259 0.0026576784604772502 0 -0.025450764096097259 0.0026576784604772502 0 -0.025736511684532209 0.0022941390173751314 0 -0.026249448745012838 0.0026030662906539963 0 -0.025450764096097259 0.0026576784604772502 0 -0.026249448745012838 0.0026030662906539963 0 -0.025860798951190863 0.0033224396854857918 0 -0.025141263784319474 0.0020142584935667332 0 -0.025736511684532209 0.0022941390173751314 0 -0.026086194901696492 0.0018956084420652037 0 -0.025141263784319474 0.0020142584935667332 0 -0.025450764096097259 0.0026576784604772502 0 -0.025736511684532209 0.0022941390173751314 0 -0.026086194901696492 0.0018956084420652037 0 -0.026249448745012838 0.0026030662906539963 0 -0.026963532617046152 0.0022849127548648144 0 -0.025736511684532209 0.0022941390173751314 0 -0.026086194901696492 0.0018956084420652037 0 -0.026249448745012838 0.0026030662906539963 0 -0.027025787084033127 0.001641502738028919 0 -0.026086194901696492 0.0018956084420652037 0 -0.026963532617046152 0.0022849127548648144 0 -0.026249448745012838 0.0026030662906539963 0 -0.027063049921009195 0.0029474293854070957 0 -0.026519056325731049 0.0031757417402688668 0 -0.026249448745012838 0.0026030662906539963 0 -0.027063049921009195 0.0029474293854070957 0 -0.026963532617046152 0.0022849127548648144 0 -0.027709729266839192 0.0025756054461045482 0 -0.027063049921009195 0.0029474293854070957 0 -0.026963532617046152 0.0022849127548648144 0 -0.027591478592130868 0.0020601562570680596 0 -0.027709729266839192 0.0025756054461045482 0 -0.026963532617046152 0.0022849127548648144 0 -0.027591478592130868 0.0020601562570680596 0 -0.027025787084033127 0.001641502738028919 0 -0.026963532617046152 0.0022849127548648144 0 -0.026975180212506094 0.0040950350088616444 0 -0.027388971438341899 0.0034495883288290273 0 -0.027251629618317053 0.0043403046673587825 0 -0.027423018656522521 0.0030038266802903816 0 -0.027199510786591906 0.0055615841746200143 0 -0.028007789698500436 0.0041803166433697185 0 -0.027388971438341899 0.0034495883288290273 0 -0.027498156335552994 0.0042388838881185246 0 -0.026975180212506094 0.0040950350088616444 0 -0.026857280105026103 0.0038083308339420772 0 -0.026511949849784392 0.0040869804910307738 0 -0.026975180212506094 0.0040950350088616444 0 -0.026857280105026103 0.0038083308339420772 0 -0.027388971438341899 0.0034495883288290273 0 -0.027666433065286797 0.0031407315889591851 0 -0.027063049921009195 0.0029474293854070957 0 -0.027388971438341899 0.0034495883288290273 0 -0.027063049921009195 0.0029474293854070957 0 -0.026863895008640264 0.0033952886331296674 0 -0.026519056325731049 0.0031757417402688668 0 -0.027063049921009195 0.0029474293854070957 0 -0.027388971438341899 0.0034495883288290273 0 -0.026863895008640264 0.0033952886331296674 0 -0.026857280105026103 0.0038083308339420772 0 -0.027388971438341899 0.0034495883288290273 0 -0.026863895008640264 0.0033952886331296674 0 -0.026249448745012838 0.0026030662906539963 0 -0.026519056325731049 0.0031757417402688668 0 -0.025860798951190863 0.0033224396854857918 0 -0.026863895008640264 0.0033952886331296674 0 -0.026519056325731049 0.0031757417402688668 0 -0.026500223352619121 0.0036290529699813203 0 -0.026519056325731049 0.0031757417402688668 0 -0.026500223352619121 0.0036290529699813203 0 -0.025860798951190863 0.0033224396854857918 0 -0.026500223352619121 0.0036290529699813203 0 -0.026048737108092114 0.0038923313795046484 0 -0.025860798951190863 0.0033224396854857918 0 -0.026500223352619121 0.0036290529699813203 0 -0.026511949849784392 0.0040869804910307738 0 -0.026048737108092114 0.0038923313795046484 0 -0.026857280105026103 0.0038083308339420772 0 -0.026500223352619121 0.0036290529699813203 0 -0.026511949849784392 0.0040869804910307738 0 -0.026857280105026103 0.0038083308339420772 0 -0.026863895008640264 0.0033952886331296674 0 -0.026500223352619121 0.0036290529699813203 0 -0.026975180212506094 0.0040950350088616444 0 -0.026511949849784392 0.0040869804910307738 0 -0.026796479422517113 0.0044008044053340948 0 -0.026511949849784392 0.0040869804910307738 0 -0.026048737108092114 0.0038923313795046484 0 -0.025937967838479764 0.0044091119195962293 0 -0.025466508341739042 0.0040760515157559187 0 -0.025860798951190863 0.0033224396854857918 0 -0.025040474262854221 0.0034309012616342131 0 -0.026048737108092114 0.0038923313795046484 0 -0.025466508341739042 0.0040760515157559187 0 -0.025860798951190863 0.0033224396854857918 0 -0.026048737108092114 0.0038923313795046484 0 -0.025466508341739042 0.0040760515157559187 0 -0.025937967838479764 0.0044091119195962293 0 -0.025450764096097259 0.0026576784604772502 0 -0.025860798951190863 0.0033224396854857918 0 -0.025040474262854221 0.0034309012616342131 0 -0.025466508341739042 0.0040760515157559187 0 -0.025040474262854221 0.0034309012616342131 0 -0.024602563385531052 0.0041042296767194912 0 -0.025084324006721431 0.0036641507697110611 0 -0.025020766458402986 0.0031185374866224864 0 -0.025466508341739042 0.0040760515157559187 0 -0.025337335708748143 0.0048384761434510449 0 -0.024602563385531052 0.0041042296767194912 0 -0.024939909954528661 0.0019199170936686624 0 -0.025390042307388439 0.0023000878214253923 0 -0.025344818650112927 0.0019572315146341029 0 -0.024939909954528661 0.0019199170936686624 0 -0.025344818650112927 0.0019572315146341029 0 -0.025395325442439078 0.0015438284622773955 0 -0.024939909954528661 0.0019199170936686624 0 -0.025395325442439078 0.0015438284622773955 0 -0.024928634731220138 0.0013153441859283254 0 -0.024939909954528661 0.0019199170936686624 0 -0.024538895563693101 0.0014482100798854857 0 -0.024928634731220138 0.0013153441859283254 0 -0.025084324006721431 0.0036641507697110611 0 -0.02654487660996005 0.0011839234495828468 0 -0.025337335708748143 0.0048384761434510449 0 -0.025900542361725169 0.0048905653945052691 0 -0.026053134649020145 0.005519998917277137 0 -0.025900542361725169 0.0048905653945052691 0 -0.026356080207456455 0.0046728700193620536 0 -0.026053134649020145 0.005519998917277137 0 -0.025466508341739042 0.0040760515157559187 0 -0.025337335708748143 0.0048384761434510449 0 -0.025937967838479764 0.0044091119195962293 0 -0.025900542361725169 0.0048905653945052691 0 -0.025937967838479764 0.0044091119195962293 0 -0.026356080207456455 0.0046728700193620536 0 -0.025337335708748143 0.0048384761434510449 0 -0.025900542361725169 0.0048905653945052691 0 -0.025937967838479764 0.0044091119195962293 0 -0.026511949849784392 0.0040869804910307738 0 -0.025937967838479764 0.0044091119195962293 0 -0.026356080207456455 0.0046728700193620536 0 -0.026511949849784392 0.0040869804910307738 0 -0.026356080207456455 0.0046728700193620536 0 -0.026796479422517113 0.0044008044053340948 0 -0.026356080207456455 0.0046728700193620536 0 -0.02682649916959233 0.0048054284622886887 0 -0.026796479422517113 0.0044008044053340948 0 -0.027221344691359211 0.0051462458508053062 0 -0.02682649916959233 0.0048054284622886887 0 -0.026053134649020145 0.005519998917277137 0 -0.026356080207456455 0.0046728700193620536 0 -0.02682649916959233 0.0048054284622886887 0 -0.026053134649020145 0.005519998917277137 0 -0.029410102574315561 0.00016300369017105434 0 -0.02654487660996005 0.0011839234495828468 0 -0.028007789698500436 0.0041803166433697185 0 -0.027273530711146413 0.0070837753875001323 0 -0.027498156335552994 0.0042388838881185246 0 -0.029410102574315561 0.00016300369017105434 0 -0.027199510786591906 0.0055615841746200143 0 -0.027221344691359211 0.0051462458508053062 0 -0.02682649916959233 0.0048054284622886887 0 -0.027251629618317053 0.0043403046673587825 0 -0.02682649916959233 0.0048054284622886887 0 -0.026796479422517113 0.0044008044053340948 0 -0.027251629618317053 0.0043403046673587825 0 -0.026975180212506094 0.0040950350088616444 0 -0.026796479422517113 0.0044008044053340948 0 -0.027251629618317053 0.0043403046673587825 0 -0.025118295200260873 0.0023103283769209783 0 -0.024754784286114988 0.001799304478906358 0 -0.025318318077857008 0.0021969938904794328 0 -0.025118295200260873 0.0023103283769209783 0 -0.024692219496378728 0.0025767325035484833 0 -0.024754784286114988 0.001799304478906358 0 -0.025118295200260873 0.0023103283769209783 0 -0.025361926672613444 0.002313955425880772 0 -0.025159089110436232 0.0024666349853197092 0 -0.025118295200260873 0.0023103283769209783 0 -0.024692219496378728 0.0025767325035484833 0 -0.025159089110436232 0.0024666349853197092 0 -0.024692219496378728 0.0025767325035484833 0 -0.024374087726814733 0.0028065944352313912 0 -0.023562261112752812 0.0026106988130147357 0 -0.023562261112752812 0.0026106988130147357 0 -0.023935821195703675 0.0031461007841274138 0 -0.021981902348724446 0.002572882943204098 0 -0.024374087726814733 0.0028065944352313912 0 -0.023562261112752812 0.0026106988130147357 0 -0.023935821195703675 0.0031461007841274138 0 -0.024692219496378728 0.0025767325035484833 0 -0.023562261112752812 0.0026106988130147357 0 -0.024754784286114988 0.001799304478906358 0 -0.023889563761293614 0.0023496279880477226 0 -0.022156818638827458 0.0025107025026410669 0 -0.022477860499313929 0.0021861730712840039 0 -0.022941947572082119 0.0028556452315088047 0 -0.021981902348724446 0.002572882943204098 0 -0.023562261112752812 0.0026106988130147357 0 -0.024754784286114988 0.001799304478906358 0 -0.021981902348724446 0.002572882943204098 0 -0.023889563761293614 0.0023496279880477226 0 -0.024353556304568841 0.0029973279917511367 0 -0.023174392640787803 0.0023663516366709738 0 -0.022941947572082119 0.0028556452315088047 0 -0.023693154624321883 0.002875536295121107 0 -0.023174392640787803 0.0023663516366709738 0 -0.022477860499313929 0.0021861730712840039 0 -0.022941947572082119 0.0028556452315088047 0 -0.022941947572082119 0.0028556452315088047 0 -0.023693154624321883 0.002875536295121107 0 -0.023884296347853336 0.0031014057944045124 0 -0.024754784286114988 0.001799304478906358 0 -0.02551496693586261 0.0020896142286700036 0 -0.025318318077857008 0.0021969938904794328 0 -0.023718117832298199 0.0023424779112125533 0 -0.023693154624321883 0.002875536295121107 0 -0.024090475451769816 0.0028016653039629499 0 -0.023693154624321883 0.002875536295121107 0 -0.02388209966980552 0.0031768936688203971 0 -0.024090475451769816 0.0028016653039629499 0 -0.023978791285497673 0.0028357554557802791 0 -0.024353556304568841 0.0029973279917511367 0 -0.024810019588306392 0.0034780052773223618 0 -0.024353556304568841 0.0029973279917511367 0 -0.024518308608541414 0.0025239202496486627 0 -0.025040474262854221 0.0034309012616342131 0 -0.024090475451769816 0.0028016653039629499 0 -0.025040474262854221 0.0034309012616342131 0 -0.02388209966980552 0.0031768936688203971 0 -0.024090475451769816 0.0028016653039629499 0 -0.02551496693586261 0.0020896142286700036 0 -0.025390042307388439 0.0023000878214253923 0 -0.025449580421346832 0.0022502919496764019 0 -0.024353556304568841 0.0029973279917511367 0 -0.025020766458402986 0.0031185374866224864 0 -0.025040474262854221 0.0034309012616342131 0 -0.02392729994662051 0.0033760328661050451 0 -0.024602563385531052 0.0041042296767194912 0 -0.025390042307388439 0.0023000878214253923 0 -0.025449580421346832 0.0022502919496764019 0 -0.025478220803717085 0.0022522572898459395 0 -0.02551496693586261 0.0020896142286700036 0 -0.025318318077857008 0.0021969938904794328 0 -0.025449580421346832 0.0022502919496764019 0 -0.025449580421346832 0.0022502919496764019 0 -0.025361926672613444 0.002313955425880772 0 -0.025478220803717085 0.0022522572898459395 0 -0.025318318077857008 0.0021969938904794328 0 -0.025449580421346832 0.0022502919496764019 0 -0.025361926672613444 0.002313955425880772 0 -0.025118295200260873 0.0023103283769209783 0 -0.025318318077857008 0.0021969938904794328 0 -0.025361926672613444 0.002313955425880772 0 -0.025361926672613444 0.002313955425880772 0 -0.025430812859169045 0.0023255711260284119 0 -0.025159089110436232 0.0024666349853197092 0 -0.025361926672613444 0.002313955425880772 0 -0.025430812859169045 0.0023255711260284119 0 -0.025478220803717085 0.0022522572898459395 0 -0.025430812859169045 0.0023255711260284119 0 -0.025478220803717085 0.0022522572898459395 0 -0.025562507315969304 0.0021610927450750692 0 -0.025478220803717085 0.0022522572898459395 0 -0.025562507315969304 0.0021610927450750692 0 -0.025475542605045847 0.0021078231819020672 0 -0.025562507315969304 0.0021610927450750692 0 -0.025475542605045847 0.0021078231819020672 0 -0.025562400476477568 0.0018400696674803706 0 -0.025430812859169045 0.0023255711260284119 0 -0.025562507315969304 0.0021610927450750692 0 -0.025362792507963548 0.0024071153500962346 0 -0.025562507315969304 0.0021610927450750692 0 -0.025551815981297743 0.0022463785763199387 0 -0.025362792507963548 0.0024071153500962346 0 -0.025390042307388439 0.0023000878214253923 0 -0.025475542605045847 0.0021078231819020672 0 -0.025344818650112927 0.0019572315146341029 0 -0.025390042307388439 0.0023000878214253923 0 -0.025478220803717085 0.0022522572898459395 0 -0.025475542605045847 0.0021078231819020672 0 -0.025344818650112927 0.0019572315146341029 0 -0.025562400476477568 0.0018400696674803706 0 -0.025395325442439078 0.0015438284622773955 0 -0.025475542605045847 0.0021078231819020672 0 -0.025344818650112927 0.0019572315146341029 0 -0.025562400476477568 0.0018400696674803706 0 -0.025562400476477568 0.0018400696674803706 0 -0.025801235084707129 0.0012907889379390942 0 -0.025395325442439078 0.0015438284622773955 0 -0.025703784732984736 0.0018096904538497558 0 -0.025725914298554881 0.0019450808719496085 0 -0.025551815981297743 0.0022463785763199387 0 -0.025562507315969304 0.0021610927450750692 0 -0.025703784732984736 0.0018096904538497558 0 -0.025551815981297743 0.0022463785763199387 0 -0.025562507315969304 0.0021610927450750692 0 -0.025562400476477568 0.0018400696674803706 0 -0.025703784732984736 0.0018096904538497558 0 -0.025562400476477568 0.0018400696674803706 0 -0.025801235084707129 0.0012907889379390942 0 -0.025703784732984736 0.0018096904538497558 0 -0.025801235084707129 0.0012907889379390942 0 -0.025703784732984736 0.0018096904538497558 0 -0.025874009500892161 0.0013470986079927771 0 -0.025703784732984736 0.0018096904538497558 0 -0.025725914298554881 0.0019450808719496085 0 -0.025874009500892161 0.0013470986079927771 0 -0.025725914298554881 0.0019450808719496085 0 -0.025775039605119589 0.0021778334794384452 0 -0.025874009500892161 0.0013470986079927771 0 -0.023358068805578384 0.0058312001520973277 0 -0.023608671819581553 0.0057550221026386322 0 -0.022963718715153257 0.0061183624290210752 0 -0.025775039605119589 0.0021778334794384452 0 -0.025614063411768549 0.0022152370219489501 0 -0.025333232802911065 0.0024421618606554024 0 -0.025725914298554881 0.0019450808719496085 0 -0.025775039605119589 0.0021778334794384452 0 -0.025614063411768549 0.0022152370219489501 0 -0.025551815981297743 0.0022463785763199387 0 -0.025614063411768549 0.0022152370219489501 0 -0.025333232802911065 0.0024421618606554024 0 -0.025725914298554881 0.0019450808719496085 0 -0.025551815981297743 0.0022463785763199387 0 -0.025614063411768549 0.0022152370219489501 0 -0.025551815981297743 0.0022463785763199387 0 -0.025362792507963548 0.0024071153500962346 0 -0.025333232802911065 0.0024421618606554024 0 -0.025362792507963548 0.0024071153500962346 0 -0.025333232802911065 0.0024421618606554024 0 -0.024988310745173197 0.0026168582290783523 0 -0.024692219496378728 0.0025767325035484833 0 -0.024988310745173197 0.0026168582290783523 0 -0.025159089110436232 0.0024666349853197092 0 -0.024692219496378728 0.0025767325035484833 0 -0.024374087726814733 0.0028065944352313912 0 -0.024988310745173197 0.0026168582290783523 0 -0.025362792507963548 0.0024071153500962346 0 -0.024988310745173197 0.0026168582290783523 0 -0.025159089110436232 0.0024666349853197092 0 -0.025430812859169045 0.0023255711260284119 0 -0.025362792507963548 0.0024071153500962346 0 -0.025159089110436232 0.0024666349853197092 0 -0.025775039605119589 0.0021778334794384452 0 -0.025333232802911065 0.0024421618606554024 0 -0.023935821195703675 0.0031461007841274138 0 -0.025333232802911065 0.0024421618606554024 0 -0.024988310745173197 0.0026168582290783523 0 -0.023935821195703675 0.0031461007841274138 0 -0.024374087726814733 0.0028065944352313912 0 -0.024988310745173197 0.0026168582290783523 0 -0.023935821195703675 0.0031461007841274138 0 -0.02454089859638249 0.0039280231574939945 0 -0.022735891019335295 0.0036740814313623209 0 -0.023358068805578384 0.0058312001520973277 0 -0.021713082387400343 0.0043608519892207841 0 -0.022388441535439726 0.0057737423164835712 0 -0.021713082387400343 0.0043608519892207841 0 -0.021709731468205182 0.0055035348060649943 0 -0.022388441535439726 0.0057737423164835712 0 -0.023358068805578384 0.0058312001520973277 0 -0.022388441535439726 0.0057737423164835712 0 -0.022963718715153257 0.0061183624290210752 0 -0.022388441535439726 0.0057737423164835712 0 -0.022311358448703134 0.0066495079185398438 0 -0.022963718715153257 0.0061183624290210752 0 -0.021709731468205182 0.0055035348060649943 0 -0.022388441535439726 0.0057737423164835712 0 -0.02166234198788557 0.0062395579898818351 0 -0.022388441535439726 0.0057737423164835712 0 -0.02166234198788557 0.0062395579898818351 0 -0.022311358448703134 0.0066495079185398438 0 -0.021709731468205182 0.0055035348060649943 0 -0.02166234198788557 0.0062395579898818351 0 -0.02086072918199423 0.0061387478241846085 0 -0.021709731468205182 0.0055035348060649943 0 -0.02086072918199423 0.0061387478241846085 0 -0.021103922474626564 0.0051777136190456607 0 -0.02086072918199423 0.0061387478241846085 0 -0.019954148274493048 0.0058703856270329556 0 -0.020360585352574449 0.0052972348353149228 0 -0.02086072918199423 0.0061387478241846085 0 -0.021103922474626564 0.0051777136190456607 0 -0.020360585352574449 0.0052972348353149228 0 -0.019464732752633131 0.0061968886054904896 0 -0.019161925421298916 0.0057470417875731886 0 -0.019170627927690122 0.0064172593279640316 0 -0.02086072918199423 0.0061387478241846085 0 -0.019464732752633131 0.0061968886054904896 0 -0.019954148274493048 0.0058703856270329556 0 -0.019464732752633131 0.0061968886054904896 0 -0.019161925421298916 0.0057470417875731886 0 -0.019954148274493048 0.0058703856270329556 0 -0.019161925421298916 0.0057470417875731886 0 -0.019954148274493048 0.0058703856270329556 0 -0.020360585352574449 0.0052972348353149228 0 -0.019161925421298916 0.0057470417875731886 0 -0.019586673660675815 0.0044772039141930666 0 -0.020360585352574449 0.0052972348353149228 0 -0.019161925421298916 0.0057470417875731886 0 -0.019586673660675815 0.0044772039141930666 0 -0.017098166754002077 0.0055946460089425715 0 -0.019586673660675815 0.0044772039141930666 0 -0.020864610727173456 0.0046623915333417034 0 -0.021210766123467156 0.0039804755872640809 0 -0.021713082387400343 0.0043608519892207841 0 -0.021709731468205182 0.0055035348060649943 0 -0.021103922474626564 0.0051777136190456607 0 -0.021713082387400343 0.0043608519892207841 0 -0.020864610727173456 0.0046623915333417034 0 -0.021103922474626564 0.0051777136190456607 0 -0.021713082387400343 0.0043608519892207841 0 -0.020864610727173456 0.0046623915333417034 0 -0.021210766123467156 0.0039804755872640809 0 -0.019586673660675815 0.0044772039141930666 0 -0.020864610727173456 0.0046623915333417034 0 -0.020360585352574449 0.0052972348353149228 0 -0.020864610727173456 0.0046623915333417034 0 -0.021103922474626564 0.0051777136190456607 0 -0.020360585352574449 0.0052972348353149228 0 -0.017098166754002077 0.0055946460089425715 0 -0.015369149660127878 0.0031814949075838466 0 -0.014798136350981227 0.0061816162996997303 0 -0.014798136350981227 0.0061816162996997303 0 -0.014453770447998011 0.0074714439871851127 0 -0.015868521396707844 0.0075873826352631166 0 -0.017098166754002077 0.0055946460089425715 0 -0.014798136350981227 0.0061816162996997303 0 -0.015868521396707844 0.0075873826352631166 0 -0.017098166754002077 0.0055946460089425715 0 -0.017010370686860326 0.0076142476315360164 0 -0.015868521396707844 0.0075873826352631166 0 -0.019161925421298916 0.0057470417875731886 0 -0.017098166754002077 0.0055946460089425715 0 -0.019170627927690122 0.0064172593279640316 0 -0.017171799396979159 0.0055442662216722881 0 -0.018022343933040391 0.0068980710130996667 0 -0.019586673660675815 0.0044772039141930666 0 -0.017098166754002077 0.0055946460089425715 0 -0.018356646707115162 0.0032829833875893709 0 -0.017098166754002077 0.0055946460089425715 0 -0.018356646707115162 0.0032829833875893709 0 -0.015369149660127878 0.0031814949075838466 0 -0.018677507654473888 0.0038583529092731041 0 -0.015491176408123114 0.0036871009052458644 0 -0.019019729843452904 0.0044348630848362637 0 -0.018529433742238557 0.0028003441968416061 0 -0.015598064652305106 0.0042101359279926231 0 -0.018529433742238557 0.0028003441968416061 0 -0.015598064652305106 0.0042101359279926231 0 -0.016720013386274116 0.0023335977082852852 0 -0.023935821195703675 0.0031461007841274138 0 -0.020869474539611885 0.0030695362356157906 0 -0.021981902348724446 0.002572882943204098 0 -0.021210766123467156 0.0039804755872640809 0 -0.019889102247786193 0.0035514031044610954 0 -0.020869474539611885 0.0030695362356157906 0 -0.022735891019335295 0.0036740814313623209 0 -0.0209851202341866 0.0029400460486119534 0 -0.021713082387400343 0.0043608519892207841 0 -0.021210766123467156 0.0039804755872640809 0 -0.020869474539611885 0.0030695362356157906 0 -0.019019729843452904 0.0044348630848362637 0 -0.021210766123467156 0.0039804755872640809 0 -0.019889102247786193 0.0035514031044610954 0 -0.019586673660675815 0.0044772039141930666 0 -0.018356646707115162 0.0032829833875893709 0 -0.021210766123467156 0.0039804755872640809 0 -0.018677507654473888 0.0038583529092731041 0 -0.021009898080692486 0.0040189387598086497 0 -0.019889102247786193 0.0035514031044610954 0 -0.020162570303840853 0.0026245150255045928 0 -0.020869474539611885 0.0030695362356157906 0 -0.019019729843452904 0.0044348630848362637 0 -0.018529433742238557 0.0028003441968416061 0 -0.019889102247786193 0.0035514031044610954 0 -0.018529433742238557 0.0028003441968416061 0 -0.020162570303840853 0.0026245150255045928 0 -0.019824107063911075 0.0018435162397305303 0 -0.018529433742238557 0.0028003441968416061 0 -0.019889102247786193 0.0035514031044610954 0 -0.020162570303840853 0.0026245150255045928 0 -0.020162570303840853 0.0026245150255045928 0 -0.021195449122001345 0.0024470109449388992 0 -0.020869474539611885 0.0030695362356157906 0 -0.020162570303840853 0.0026245150255045928 0 -0.021195449122001345 0.0024470109449388992 0 -0.020998909956488909 0.0019162784576055819 0 -0.021195449122001345 0.0024470109449388992 0 -0.021981902348724446 0.002572882943204098 0 -0.021789147227304059 0.0021613882173372027 0 -0.021195449122001345 0.0024470109449388992 0 -0.021789147227304059 0.0021613882173372027 0 -0.020998909956488909 0.0019162784576055819 0 -0.021195449122001345 0.0024470109449388992 0 -0.020869474539611885 0.0030695362356157906 0 -0.021981902348724446 0.002572882943204098 0 -0.022477860499313929 0.0021861730712840039 0 -0.021981902348724446 0.002572882943204098 0 -0.021789147227304059 0.0021613882173372027 0 -0.022477860499313929 0.0021861730712840039 0 -0.021789147227304059 0.0021613882173372027 0 -0.021874938639682623 0.0016077092084687758 0 -0.021789147227304059 0.0021613882173372027 0 -0.020998909956488909 0.0019162784576055819 0 -0.021874938639682623 0.0016077092084687758 0 -0.020998909956488909 0.0019162784576055819 0 -0.021874938639682623 0.0016077092084687758 0 -0.020603356390831253 0.001390086130331066 0 -0.021874938639682623 0.0016077092084687758 0 -0.021442053726306181 0.00083466199522106658 0 -0.020603356390831253 0.001390086130331066 0 -0.018777899808078077 0.0026251517806254372 0 -0.017580674133028006 0.002091849173384475 0 -0.019847671315021423 0.00091930917582211619 0 -0.017492122422122593 0.0020937796095540973 0 -0.018023815946637524 0.0011582721967961518 0 -0.017580674133028006 0.002091849173384475 0 -0.016623377450968892 0.0015283016550325691 0 -0.015810072838413677 0.0020463444818014541 0 -0.018777899808078077 0.0026251517806254372 0 -0.017580674133028006 0.002091849173384475 0 -0.015810072838413677 0.0020463444818014541 0 -0.020093599198425204 0.0017141727632511096 0 -0.017159206686099014 0.0013938503639513338 0 -0.017580674133028006 0.002091849173384475 0 -0.016623377450968892 0.0015283016550325691 0 -0.016667872295937986 0.0011339792641108935 0 -0.020603356390831253 0.001390086130331066 0 -0.019824107063911075 0.0018435162397305303 0 -0.018445426624330463 0.00061016760772451709 0 -0.021442053726306181 0.00083466199522106658 0 -0.020603356390831253 0.001390086130331066 0 -0.018445426624330463 0.00061016760772451709 0 -0.020162570303840853 0.0026245150255045928 0 -0.020998909956488909 0.0019162784576055819 0 -0.019824107063911075 0.0018435162397305303 0 -0.020998909956488909 0.0019162784576055819 0 -0.020603356390831253 0.001390086130331066 0 -0.019824107063911075 0.0018435162397305303 0 -0.018529433742238557 0.0028003441968416061 0 -0.016720013386274116 0.0023335977082852852 0 -0.018445426624330463 0.00061016760772451709 0 -0.018529433742238557 0.0028003441968416061 0 -0.019824107063911075 0.0018435162397305303 0 -0.018445426624330463 0.00061016760772451709 0 -0.015598064652305106 0.0042101359279926231 0 -0.016720013386274116 0.0023335977082852852 0 -0.014683266214366395 0.0016219989767705572 0 -0.017159206686099014 0.0013938503639513338 0 -0.01486600975114173 0.0015762947299768674 0 -0.016720013386274116 0.0023335977082852852 0 -0.018445426624330463 0.00061016760772451709 0 -0.014683266214366395 0.0016219989767705572 0 -0.015810072838413677 0.0020463444818014541 0 -0.01523061972972679 0.00069117491655847627 0 -0.014683266214366395 0.0016219989767705572 0 -0.015810072838413677 0.0020463444818014541 0 -0.016229837647965376 0.0011102131193963191 0 -0.01523061972972679 0.00069117491655847627 0 -0.016623377450968892 0.0015283016550325691 0 -0.015810072838413677 0.0020463444818014541 0 -0.016229837647965376 0.0011102131193963191 0 -0.016229837647965376 0.0011102131193963191 0 -0.01523061972972679 0.00069117491655847627 0 -0.016498597394337934 0.0010544019294331422 0 -0.015292527456117149 -0.0010867715789721255 0 -0.01523061972972679 0.00069117491655847627 0 -0.013834634899012406 -0.00067884232120462174 0 -0.015292527456117149 -0.0010867715789721255 0 -0.01523061972972679 0.00069117491655847627 0 -0.016498597394337934 0.0010544019294331422 0 -0.016025627769587047 0.00068735941723960389 0 -0.016375122331332554 0.00096897184874539385 0 -0.016498597394337934 0.0010544019294331422 0 -0.016060301731685392 0.0014361760243690352 0 -0.016667872295937986 0.0011339792641108935 0 -0.015269235387829564 0.0015470677437119152 0 -0.016060301731685392 0.0014361760243690352 0 -0.0163224263580855 0.0010292180726260316 0 -0.017580674133028006 0.002091849173384475 0 -0.0163224263580855 0.0010292180726260316 0 -0.016667872295937986 0.0011339792641108935 0 -0.016060301731685392 0.0014361760243690352 0 -0.0163224263580855 0.0010292180726260316 0 -0.016667872295937986 0.0011339792641108935 0 -0.016229837647965376 0.0011102131193963191 0 -0.016498597394337934 0.0010544019294331422 0 -0.016667872295937986 0.0011339792641108935 0 -0.016623377450968892 0.0015283016550325691 0 -0.016229837647965376 0.0011102131193963191 0 -0.016667872295937986 0.0011339792641108935 0 -0.01001796621180687 0.00032802140837648346 0 -0.0098507549573233315 -0.0019962539587001786 0 -0.012059449951592065 -5.0376572680649572e-05 0 -0.01001796621180687 0.00032802140837648346 0 -0.012059449951592065 -5.0376572680649572e-05 0 -0.011805307737838344 0.0017534592284307292 0 -0.0073759695803856358 -0.00074226444638498677 0 -0.0085166241017060329 0.001425242292710687 0 -0.01001796621180687 0.00032802140837648346 0 -0.0073759695803856358 -0.00074226444638498677 0 -0.01001796621180687 0.00032802140837648346 0 -0.0098507549573233315 -0.0019962539587001786 0 -0.012020543645001667 -0.0019118395150340133 0 -0.0098507549573233315 -0.0019962539587001786 0 -0.012059449951592065 -5.0376572680649572e-05 0 -0.012020543645001667 -0.0019118395150340133 0 -0.013834634899012406 -0.00067884232120462174 0 -0.012059449951592065 -5.0376572680649572e-05 0 -0.01523061972972679 0.00069117491655847627 0 -0.013834634899012406 -0.00067884232120462174 0 -0.013638207310173489 0.00065998909768185852 0 -0.013834634899012406 -0.00067884232120462174 0 -0.013638207310173489 0.00065998909768185852 0 -0.012059449951592065 -5.0376572680649572e-05 0 -0.013638207310173489 0.00065998909768185852 0 -0.012059449951592065 -5.0376572680649572e-05 0 -0.011805307737838344 0.0017534592284307292 0 -0.01523061972972679 0.00069117491655847627 0 -0.013638207310173489 0.00065998909768185852 0 -0.014683266214366395 0.0016219989767705572 0 -0.013638207310173489 0.00065998909768185852 0 -0.014683266214366395 0.0016219989767705572 0 -0.011805307737838344 0.0017534592284307292 0 -0.014683266214366395 0.0016219989767705572 0 -0.011805307737838344 0.0017534592284307292 0 -0.012803074292413034 0.0034498588710146277 0 -0.011805307737838344 0.0017534592284307292 0 -0.0097002375321845816 0.0021918137277643726 0 -0.010053966695752146 0.0036070257188740079 0 -0.011805307737838344 0.0017534592284307292 0 -0.010053966695752146 0.0036070257188740079 0 -0.012803074292413034 0.0034498588710146277 0 -0.01001796621180687 0.00032802140837648346 0 -0.011805307737838344 0.0017534592284307292 0 -0.0097002375321845816 0.0021918137277643726 0 -0.0085166241017060329 0.001425242292710687 0 -0.01001796621180687 0.00032802140837648346 0 -0.0097002375321845816 0.0021918137277643726 0 -0.0079638297515760154 0.0029630124125358186 0 -0.0097002375321845816 0.0021918137277643726 0 -0.010053966695752146 0.0036070257188740079 0 -0.010053966695752146 0.0036070257188740079 0 -0.011204057569841058 0.0050002890823061096 0 -0.012803074292413034 0.0034498588710146277 0 -0.0083490706419110747 0.0043094512204449554 0 -0.010053966695752146 0.0036070257188740079 0 -0.0093464067559361833 0.0055561327643398051 0 -0.010053966695752146 0.0036070257188740079 0 -0.011204057569841058 0.0050002890823061096 0 -0.0093464067559361833 0.0055561327643398051 0 -0.015491176408123114 0.0036871009052458644 0 -0.013010165072994741 0.0034299653774342294 0 -0.015598064652305106 0.0042101359279926231 0 -0.014683266214366395 0.0016219989767705572 0 -0.012803074292413034 0.0034498588710146277 0 -0.011204057569841058 0.0050002890823061096 0 -0.012803074292413034 0.0034498588710146277 0 -0.013066762162859881 0.0053794528449563278 0 -0.015369149660127878 0.0031814949075838466 0 -0.012803074292413034 0.0034498588710146277 0 -0.013066762162859881 0.0053794528449563278 0 -0.015369149660127878 0.0031814949075838466 0 -0.013066762162859881 0.0053794528449563278 0 -0.014798136350981227 0.0061816162996997303 0 -0.013066762162859881 0.0053794528449563278 0 -0.013067366003594446 0.0074029435423693564 0 -0.010655655798062708 0.0071579924403316602 0 -0.013067366003594446 0.0074029435423693564 0 -0.014798136350981227 0.0061816162996997303 0 -0.014453770447998011 0.0074714439871851127 0 -0.013066762162859881 0.0053794528449563278 0 -0.013067366003594446 0.0074029435423693564 0 -0.014798136350981227 0.0061816162996997303 0 -0.011204057569841058 0.0050002890823061096 0 -0.0093464067559361833 0.0055561327643398051 0 -0.010655655798062708 0.0071579924403316602 0 -0.0078264253544094685 0.0077496645696664831 0 -0.0093464067559361833 0.0055561327643398051 0 -0.010655655798062708 0.0071579924403316602 0 -0.011204057569841058 0.0050002890823061096 0 -0.013066762162859881 0.0053794528449563278 0 -0.010655655798062708 0.0071579924403316602 0 -0.013067366003594446 0.0074029435423693564 0 -0.010655655798062708 0.0071579924403316602 0 -0.012017083281059229 0.0081597332007398507 0 -0.0078264253544094685 0.0077496645696664831 0 -0.010655655798062708 0.0071579924403316602 0 -0.0091424579463971947 0.0085467529079393742 0 -0.010655655798062708 0.0071579924403316602 0 -0.0091424579463971947 0.0085467529079393742 0 -0.0096613299144434478 0.0092469591420982732 0 -0.0091424579463971947 0.0085467529079393742 0 -0.0096613299144434478 0.0092469591420982732 0 -0.0083805625494766875 0.0096344783251867822 0 -0.01063622748540888 0.0071694413119088802 0 -0.010532980230198321 0.0088219829219363666 0 -0.010655655798062708 0.0071579924403316602 0 -0.012017083281059229 0.0081597332007398507 0 -0.011409947376816365 0.0086002046789932125 0 -0.012017083281059229 0.0081597332007398507 0 -0.011409947376816365 0.0086002046789932125 0 -0.01228590267808906 0.0089713426830366552 0 -0.011409947376816365 0.0086002046789932125 0 -0.01228590267808906 0.0089713426830366552 0 -0.011948778758036143 0.0095788031114948328 0 -0.0096613299144434478 0.0092469591420982732 0 -0.0093643723239680721 0.0095196777779169069 0 -0.0083805625494766875 0.0096344783251867822 0 -0.0092331515298367268 0.0094670177495567668 0 -0.0078910637605067533 0.008751805139361208 0 -0.013067366003594446 0.0074029435423693564 0 -0.014453770447998011 0.0074714439871851127 0 -0.013748686757672659 0.0084076536500080918 0 -0.014453770447998011 0.0074714439871851127 0 -0.013748686757672659 0.0084076536500080918 0 -0.01490283426395652 0.0085250028102999195 0 -0.013067366003594446 0.0074029435423693564 0 -0.012704788280940623 0.0084885892115126056 0 -0.013748686757672659 0.0084076536500080918 0 -0.013067366003594446 0.0074029435423693564 0 -0.012017083281059229 0.0081597332007398507 0 -0.012704788280940623 0.0084885892115126056 0 -0.012017083281059229 0.0081597332007398507 0 -0.012704788280940623 0.0084885892115126056 0 -0.01228590267808906 0.0089713426830366552 0 -0.012704788280940623 0.0084885892115126056 0 -0.01228590267808906 0.0089713426830366552 0 -0.013197154200517602 0.0091654446249146704 0 -0.012704788280940623 0.0084885892115126056 0 -0.013197154200517602 0.0091654446249146704 0 -0.013748686757672659 0.0084076536500080918 0 -0.013197154200517602 0.0091654446249146704 0 -0.013748686757672659 0.0084076536500080918 0 -0.014179797267705175 0.0092570273036753879 0 -0.013748686757672659 0.0084076536500080918 0 -0.014179797267705175 0.0092570273036753879 0 -0.01490283426395652 0.0085250028102999195 0 -0.014521313145530925 0.010053504156390766 0 -0.014179797267705175 0.0092570273036753879 0 -0.013603954627819319 0.0099883269633839929 0 -0.014521313145530925 0.010053504156390766 0 -0.014179797267705175 0.0092570273036753879 0 -0.015173324400366906 0.0094057412718102727 0 -0.013197154200517602 0.0091654446249146704 0 -0.014179797267705175 0.0092570273036753879 0 -0.013603954627819319 0.0099883269633839929 0 -0.013603954627819319 0.0099883269633839929 0 -0.012668338460503553 0.0098416369817460412 0 -0.013081039049336803 0.010712759528881555 0 -0.013197154200517602 0.0091654446249146704 0 -0.013603954627819319 0.0099883269633839929 0 -0.012668338460503553 0.0098416369817460412 0 -0.01228590267808906 0.0089713426830366552 0 -0.012668338460503553 0.0098416369817460412 0 -0.011948778758036143 0.0095788031114948328 0 -0.01228590267808906 0.0089713426830366552 0 -0.013197154200517602 0.0091654446249146704 0 -0.012668338460503553 0.0098416369817460412 0 -0.012668338460503553 0.0098416369817460412 0 -0.013081039049336803 0.010712759528881555 0 -0.012174668363879685 0.01053389708817808 0 -0.013081039049336803 0.010712759528881555 0 -0.012174668363879685 0.01053389708817808 0 -0.012605342329572564 0.011507282357145959 0 -0.013081039049336803 0.010712759528881555 0 -0.012605342329572564 0.011507282357145959 0 -0.013510646431969059 0.011354442250808635 0 -0.013603954627819319 0.0099883269633839929 0 -0.013081039049336803 0.010712759528881555 0 -0.01397987245711171 0.010813424496708643 0 -0.014521313145530925 0.010053504156390766 0 -0.013603954627819319 0.0099883269633839929 0 -0.01397987245711171 0.010813424496708643 0 -0.013081039049336803 0.010712759528881555 0 -0.01397987245711171 0.010813424496708643 0 -0.013510646431969059 0.011354442250808635 0 -0.01397987245711171 0.010813424496708643 0 -0.014467844846500754 0.011147587399322626 0 -0.014810508091827356 0.010692521149449035 0 -0.01397987245711171 0.010813424496708643 0 -0.014467844846500754 0.011147587399322626 0 -0.014188195181279856 0.011539631460957609 0 -0.014521313145530925 0.010053504156390766 0 -0.01397987245711171 0.010813424496708643 0 -0.014810508091827356 0.010692521149449035 0 -0.0093643723239680721 0.0095196777779169069 0 -0.009423461553926156 0.0098917818047524163 0 -0.0080079528958598451 0.0099743067650498746 0 -0.0093643723239680721 0.0095196777779169069 0 -0.0080079528958598451 0.0099743067650498746 0 -0.0074111450431927862 0.0091079505089365059 0 -0.0096613299144434478 0.0092469591420982732 0 -0.0093643723239680721 0.0095196777779169069 0 -0.009423461553926156 0.0098917818047524163 0 -0.010532980230198321 0.0088219829219363666 0 -0.010369263343614082 0.010117721722276389 0 -0.011409947376816365 0.0086002046789932125 0 -0.011948778758036143 0.0095788031114948328 0 -0.011300417136855215 0.010105521403896728 0 -0.012668338460503553 0.0098416369817460412 0 -0.011948778758036143 0.0095788031114948328 0 -0.012174668363879685 0.01053389708817808 0 -0.011948778758036143 0.0095788031114948328 0 -0.011300417136855215 0.010105521403896728 0 -0.012174668363879685 0.01053389708817808 0 -0.010369263343614082 0.010117721722276389 0 -0.010308745051827793 0.012529697748573591 0 -0.011300417136855215 0.010105521403896728 0 -0.010298647904757595 0.012576088878835693 0 -0.011586332232215377 0.011432231039260922 0 -0.011300417136855215 0.010105521403896728 0 -0.012174668363879685 0.01053389708817808 0 -0.011586332232215377 0.011432231039260922 0 -0.012174668363879685 0.01053389708817808 0 -0.011586332232215377 0.011432231039260922 0 -0.012605342329572564 0.011507282357145959 0 -0.009423461553926156 0.0098917818047524163 0 -0.0087092748567387229 0.011095303897183741 0 -0.010298647904757595 0.012576088878835693 0 -0.009423461553926156 0.0098917818047524163 0 -0.0087092748567387229 0.011095303897183741 0 -0.0080079528958598451 0.0099743067650498746 0 -0.0087092748567387229 0.011095303897183741 0 -0.0082437323092429231 0.012852699933196508 0 -0.0075250433322021464 0.011607033616807124 0 -0.0087092748567387229 0.011095303897183741 0 -0.0082437323092429231 0.012852699933196508 0 -0.010298647904757595 0.012576088878835693 0 -0.0045926426937516465 0.012831347609012805 0 -0.011478691776720411 0.010807626935473833 0 -0.0030931984515056069 0.01248197700139826 0 -0.0026440877952787546 0.011632687105879749 0 -0.0020631537131093193 0.011797096020241132 0 -0.0030931984515056069 0.01248197700139826 0 -0.0026440877952787546 0.011632687105879749 0 -0.0041087845120189878 0.01185158378126382 0 -0.0020631537131093193 0.011797096020241132 0 -0.0016315941851671226 0.012279913066251705 0 -0.0020701293584858916 0.011363225154862766 0 -0.019717696755359903 0.009141651201553018 0 -0.019730719754100443 0.010991869424559561 0 -0.021050093918597825 0.0083754770804684922 0 -0.011478691776720411 0.010807626935473833 0 -0.0054731201489070262 0.011187153543275421 0 -0.0030931984515056069 0.01248197700139826 0 -0.0020631537131093193 0.011797096020241132 0 -0.0016315941851671226 0.012279913066251705 0 -0.019717696755359903 0.009141651201553018 0 -0.019730719754100443 0.010991869424559561 0 -0.018615165742342617 0.0090999541949769499 0 -0.0040287446263681899 0.011531060210690501 0 -0.0054731201489070262 0.011187153543275421 0 -0.0026440877952787546 0.011632687105879749 0 -0.0020631537131093193 0.011797096020241132 0 -0.001940540280576342 0.011426323723923507 0 -0.0082437323092429231 0.012852699933196508 0 -0.011740653911644885 0.01293248927342614 0 -0.010298647904757595 0.012576088878835693 0 -0.011740653911644885 0.01293248927342614 0 -0.010298647904757595 0.012576088878835693 0 -0.011586332232215377 0.011432231039260922 0 -0.011740653911644885 0.01293248927342614 0 -0.011586332232215377 0.011432231039260922 0 -0.012605342329572564 0.011507282357145959 0 -0.012259287420151034 0.012286609198310075 0 -0.012605342329572564 0.011507282357145959 0 -0.013627947825823378 0.012108352036040443 0 -0.011478691776720411 0.010807626935473833 0 -0.016112846006366196 0.011487299860845053 0 -0.012605342329572564 0.011507282357145959 0 -0.013510646431969059 0.011354442250808635 0 -0.013627947825823378 0.012108352036040443 0 -0.011478691776720411 0.010807626935473833 0 -0.012184061762047052 0.011909295323853739 0 -0.016112846006366196 0.011487299860845053 0 -0.014198859706095289 0.011258653789457881 0 -0.013627947825823378 0.012108352036040443 0 -0.014188195181279856 0.011539631460957609 0 -0.014459742894724173 0.011094737317163698 0 -0.014467844846500754 0.011147587399322626 0 -0.014188195181279856 0.011539631460957609 0 -0.014562796272021302 0.011758227535266815 0 -0.013510646431969059 0.011354442250808635 0 -0.013627947825823378 0.012108352036040443 0 -0.014188195181279856 0.011539631460957609 0 -0.01397987245711171 0.010813424496708643 0 -0.013510646431969059 0.011354442250808635 0 -0.014188195181279856 0.011539631460957609 0 -0.014188195181279856 0.011539631460957609 0 -0.014459742894724173 0.011094737317163698 0 -0.014562796272021302 0.011758227535266815 0 -0.017078042456139149 0.011011954900580635 0 -0.01568769839732341 0.0088001728390759929 0 -0.017141124720280076 0.0081969328212679656 0 -0.017078042456139149 0.011011954900580635 0 -0.014655652910381066 0.0095025244521641187 0 -0.014459742894724173 0.011094737317163698 0 -0.017078042456139149 0.011011954900580635 0 -0.01568769839732341 0.0088001728390759929 0 -0.014655652910381066 0.0095025244521641187 0 -0.01568769839732341 0.0088001728390759929 0 -0.014217644514336705 0.007996591035623276 0 -0.014655652910381066 0.0095025244521641187 0 -0.019730719754100443 0.010991869424559561 0 -0.017078042456139149 0.011011954900580635 0 -0.018615165742342617 0.0090999541949769499 0 -0.017078042456139149 0.011011954900580635 0 -0.018615165742342617 0.0090999541949769499 0 -0.017141124720280076 0.0081969328212679656 0 -0.019717696755359903 0.009141651201553018 0 -0.018615165742342617 0.0090999541949769499 0 -0.01947390817879088 0.008088667800651041 0 -0.018615165742342617 0.0090999541949769499 0 -0.018436425171032323 0.007294223767358823 0 -0.01947390817879088 0.008088667800651041 0 -0.018615165742342617 0.0090999541949769499 0 -0.017141124720280076 0.0081969328212679656 0 -0.018436425171032323 0.007294223767358823 0 -0.017141124720280076 0.0081969328212679656 0 -0.018436425171032323 0.007294223767358823 0 -0.017655856858718351 0.0058527465454630782 0 -0.018436425171032323 0.007294223767358823 0 -0.017655856858718351 0.0058527465454630782 0 -0.019516130054226137 0.0062948230976492426 0 -0.018436425171032323 0.007294223767358823 0 -0.01947390817879088 0.008088667800651041 0 -0.019516130054226137 0.0062948230976492426 0 -0.01568769839732341 0.0088001728390759929 0 -0.015538132558099056 0.0069787273752163212 0 -0.014217644514336705 0.007996591035623276 0 -0.01568769839732341 0.0088001728390759929 0 -0.017141124720280076 0.0081969328212679656 0 -0.015538132558099056 0.0069787273752163212 0 -0.017141124720280076 0.0081969328212679656 0 -0.015538132558099056 0.0069787273752163212 0 -0.017655856858718351 0.0058527465454630782 0 -0.015538132558099056 0.0069787273752163212 0 -0.015672932454503213 0.0046294302902843412 0 -0.013635690248561594 0.0058938490136443413 0 -0.015538132558099056 0.0069787273752163212 0 -0.015672932454503213 0.0046294302902843412 0 -0.017655856858718351 0.0058527465454630782 0 -0.017655856858718351 0.0058527465454630782 0 -0.019148059511043602 0.0044743394866479944 0 -0.019516130054226137 0.0062948230976492426 0 -0.017655856858718351 0.0058527465454630782 0 -0.019148059511043602 0.0044743394866479944 0 -0.017850968968544895 0.0033570081004652081 0 -0.015672932454503213 0.0046294302902843412 0 -0.017655856858718351 0.0058527465454630782 0 -0.017850968968544895 0.0033570081004652081 0 -0.019148059511043602 0.0044743394866479944 0 -0.021009248894106394 0.0040998980967024978 0 -0.019439638711719893 0.0025007365742044912 0 0.0019320493390174156 0.010083040312409584 0 -0.0001700456380974921 0.010889058238797924 0 0.001511487742387544 0.014544316842500474 0 -0.019148059511043602 0.0044743394866479944 0 -0.021009248894106394 0.0040998980967024978 0 -0.019516130054226137 0.0062948230976492426 0 -0.0020106012306055246 0.0097426190803060701 0 -0.0023181957749387402 0.010665851644750181 0 -0.0030910171180217124 0.010366105090443348 0 -0.00039468466749127738 0.010807479668617259 0 -0.0054731201489070262 0.011187153543275421 0 -0.0020106012306055246 0.0097426190803060701 0 -0.0023181957749387402 0.010665851644750181 0 -0.001940540280576342 0.011426323723923507 0 -0.0023181957749387402 0.010665851644750181 0 -0.0030910171180217124 0.010366105090443348 0 -0.0031919021551613689 0.011173670352988841 0 -0.0023181957749387402 0.010665851644750181 0 -0.0024875445799379097 0.011228472146646117 0 -0.0031919021551613689 0.011173670352988841 0 -0.0026440877952787546 0.011632687105879749 0 -0.0024875445799379097 0.011228472146646117 0 -0.0031919021551613689 0.011173670352988841 0 -0.0023181957749387402 0.010665851644750181 0 -0.0024875445799379097 0.011228472146646117 0 -0.001940540280576342 0.011426323723923507 0 -0.0026440877952787546 0.011632687105879749 0 -0.0024875445799379097 0.011228472146646117 0 -0.001940540280576342 0.011426323723923507 0 -0.010043895563618878 0.0071403491206106246 0 -0.0054731201489070262 0.011187153543275421 0 -0.021009248894106394 0.0040998980967024978 0 -0.021050093918597825 0.0083754770804684922 0 -0.019516130054226137 0.0062948230976492426 0 -0.019717696755359903 0.009141651201553018 0 -0.021050093918597825 0.0083754770804684922 0 -0.01947390817879088 0.008088667800651041 0 -0.021050093918597825 0.0083754770804684922 0 -0.01947390817879088 0.008088667800651041 0 -0.019516130054226137 0.0062948230976492426 0 -0.021878008455456264 0.007418764313401772 0 -0.018860024817763926 0.011480176462682149 0 -0.017151753879193574 0.013411368173557621 0 -0.018230047945594165 0.013821740650616414 0 -0.01784601792041153 0.012753370095817734 0 -0.020919011498545723 0.0099320906151732502 0 -0.02012066855970893 0.0086188244315961275 0 -0.021286469033725715 0.0089409337676004379 0 -0.018073340376852785 0.0039960982599026029 0 -0.018881132790812969 0.003656956323962326 0 -0.01839130589119042 0.0028793442333112386 0 -0.021878008455456264 0.007418764313401772 0 -0.013654968679262112 0.0064374310155233469 0 -0.017151753879193574 0.013411368173557621 0 -0.018230047945594165 0.013821740650616414 0 -0.017176364935938316 0.014220052758866833 0 -0.0088252705514958729 0.0045057030781751215 0 -0.011699192705381646 0.0086320786137034818 0 -0.011591605402772976 0.0033826257333257215 0 -0.013635690248561594 0.0058938490136443413 0 -0.011699192705381646 0.0086320786137034818 0 -0.011591605402772976 0.0033826257333257215 0 -0.013654968679262112 0.0064374310155233469 0 -0.010121988683195898 0.0038600741412808332 0 -0.015672932454503213 0.0046294302902843412 0 -0.013635690248561594 0.0058938490136443413 0 -0.013990684965158026 0.0033340170906527382 0 -0.013635690248561594 0.0058938490136443413 0 -0.013990684965158026 0.0033340170906527382 0 -0.011591605402772976 0.0033826257333257215 0 -0.013635690248561594 0.0058938490136443413 0 -0.014217644514336705 0.007996591035623276 0 -0.011699192705381646 0.0086320786137034818 0 -0.015538132558099056 0.0069787273752163212 0 -0.013635690248561594 0.0058938490136443413 0 -0.014217644514336705 0.007996591035623276 0 -0.017151753879193574 0.013411368173557621 0 -0.016209347431210951 0.013191755006960949 0 -0.017204186840322568 0.01289151744159695 0 -0.017151753879193574 0.013411368173557621 0 -0.017176364935938316 0.014220052758866833 0 -0.016209347431210951 0.013191755006960949 0 -0.013654968679262112 0.0064374310155233469 0 -0.013956148748693172 0.011469555648532534 0 -0.016209347431210951 0.013191755006960949 0 -0.015553047384101595 0.011756861176484662 0 -0.016362574077657028 0.012022770407597428 0 -0.016209347431210951 0.013191755006960949 0 -0.016362574077657028 0.012022770407597428 0 -0.017006269271846598 0.012333910024165581 0 -0.016209347431210951 0.013191755006960949 0 -0.017006269271846598 0.012333910024165581 0 -0.017204186840322568 0.01289151744159695 0 -0.011699192705381646 0.0086320786137034818 0 -0.014459742894724173 0.011094737317163698 0 -0.014562796272021302 0.011758227535266815 0 -0.014217644514336705 0.007996591035623276 0 -0.011699192705381646 0.0086320786137034818 0 -0.014655652910381066 0.0095025244521641187 0 -0.016209347431210951 0.013191755006960949 0 -0.015553047384101595 0.011756861176484662 0 -0.014562796272021302 0.011758227535266815 0 -0.013956148748693172 0.011469555648532534 0 -0.014458205165929461 0.011454535502049459 0 -0.011699192705381646 0.0086320786137034818 0 -0.014655652910381066 0.0095025244521641187 0 -0.014459742894724173 0.011094737317163698 0 -0.015553047384101595 0.011756861176484662 0 -0.016195615445309605 0.011208013942179188 0 -0.015314486793097432 0.01098520243073769 0 -0.015553047384101595 0.011756861176484662 0 -0.014828195991825744 0.011272378041395557 0 -0.015314486793097432 0.01098520243073769 0 -0.015553047384101595 0.011756861176484662 0 -0.014562796272021302 0.011758227535266815 0 -0.014828195991825744 0.011272378041395557 0 -0.014467844846500754 0.011147587399322626 0 -0.014562796272021302 0.011758227535266815 0 -0.014828195991825744 0.011272378041395557 0 -0.016362574077657028 0.012022770407597428 0 -0.016807665761742651 0.01157724626428378 0 -0.017006269271846598 0.012333910024165581 0 -0.015553047384101595 0.011756861176484662 0 -0.016362574077657028 0.012022770407597428 0 -0.016195615445309605 0.011208013942179188 0 -0.016362574077657028 0.012022770407597428 0 -0.016195615445309605 0.011208013942179188 0 -0.016807665761742651 0.01157724626428378 0 -0.016195615445309605 0.011208013942179188 0 -0.016807665761742651 0.01157724626428378 0 -0.016855180807297161 0.010802551859425687 0 -0.017554519343007786 0.011418521041916643 0 -0.017006269271846598 0.012333910024165581 0 -0.01784601792041153 0.012753370095817734 0 -0.01818601983932017 0.009873271160893534 0 -0.018860024817763926 0.011480176462682149 0 -0.016807665761742651 0.01157724626428378 0 -0.017554519343007786 0.011418521041916643 0 -0.016855180807297161 0.010802551859425687 0 -0.018999975026917769 0.0088602061222253416 0 -0.020200463111410757 0.0083534820791889824 0 -0.018462424900137796 0.0091654893309742018 0 -0.016807665761742651 0.01157724626428378 0 -0.017554519343007786 0.011418521041916643 0 -0.017006269271846598 0.012333910024165581 0 -0.017006269271846598 0.012333910024165581 0 -0.017204186840322568 0.01289151744159695 0 -0.01784601792041153 0.012753370095817734 0 -0.017151753879193574 0.013411368173557621 0 -0.017204186840322568 0.01289151744159695 0 -0.01784601792041153 0.012753370095817734 0 -0.02012066855970893 0.0086188244315961275 0 -0.020972171405049218 0.0083286808601136554 0 -0.021286469033725715 0.0089409337676004379 0 -0.020200463111410757 0.0083534820791889824 0 -0.020933102691235314 0.0077912014302651718 0 -0.020972171405049218 0.0083286808601136554 0 -0.02012066855970893 0.0086188244315961275 0 -0.020200463111410757 0.0083534820791889824 0 -0.020972171405049218 0.0083286808601136554 0 -0.020200463111410757 0.0083534820791889824 0 -0.020701448505419336 0.0072620720927294964 0 -0.020133117238278771 0.0067671018318992875 0 -0.020200463111410757 0.0083534820791889824 0 -0.020933102691235314 0.0077912014302651718 0 -0.020701448505419336 0.0072620720927294964 0 -0.018999975026917769 0.0088602061222253416 0 -0.02012066855970893 0.0086188244315961275 0 -0.020200463111410757 0.0083534820791889824 0 -0.020100769698545098 0.0084805340326487028 0 -0.019363452756542492 0.008048768453421791 0 -0.020933102691235314 0.0077912014302651718 0 -0.020701448505419336 0.0072620720927294964 0 -0.021284481161249518 0.0073489849184078353 0 -0.020701448505419336 0.0072620720927294964 0 -0.020695163215050959 0.0066199370467873346 0 -0.021441377858394915 0.0068585448787931661 0 -0.020695163215050959 0.0066199370467873346 0 -0.020133117238278771 0.0067671018318992875 0 -0.020284412321113245 0.0064754352663135379 0 -0.020701448505419336 0.0072620720927294964 0 -0.020695163215050959 0.0066199370467873346 0 -0.020133117238278771 0.0067671018318992875 0 -0.01818601983932017 0.009873271160893534 0 -0.017475780226955083 0.0094385093960258747 0 -0.018999975026917769 0.0088602061222253416 0 -0.018462424900137796 0.0091654893309742018 0 -0.017358725978502784 0.0094766433402321722 0 -0.017554519343007786 0.011418521041916643 0 -0.017358725978502784 0.0094766433402321722 0 -0.016855180807297161 0.010802551859425687 0 -0.018462424900137796 0.0091654893309742018 0 -0.017358725978502784 0.0094766433402321722 0 -0.017373992018895161 0.0090621422702234136 0 -0.019363452756542492 0.008048768453421791 0 -0.018665068521525489 0.0076371880562091099 0 -0.020133117238278771 0.0067671018318992875 0 -0.020284412321113245 0.0064754352663135379 0 -0.019925136880465984 0.006218486819053618 0 -0.020237778177858611 0.0062526764380843236 0 -0.020284412321113245 0.0064754352663135379 0 -0.019925136880465984 0.006218486819053618 0 -0.020237778177858611 0.0062526764380843236 0 -0.020620493725891993 0.0062341790378753273 0 -0.020201786414012508 0.0061150033467790247 0 -0.020237778177858611 0.0062526764380843236 0 -0.020620493725891993 0.0062341790378753273 0 -0.020284412321113245 0.0064754352663135379 0 -0.020620493725891993 0.0062341790378753273 0 -0.020756947348593437 0.0059555679504243991 0 -0.021168308892270105 0.0060722944709402839 0 -0.020695163215050959 0.0066199370467873346 0 -0.020620493725891993 0.0062341790378753273 0 -0.021283031915214478 0.0063845446744355116 0 -0.020695163215050959 0.0066199370467873346 0 -0.020620493725891993 0.0062341790378753273 0 -0.020284412321113245 0.0064754352663135379 0 -0.014521313145530925 0.010053504156390766 0 -0.014810508091827356 0.010692521149449035 0 -0.015366578622274904 0.010193098759891281 0 -0.014810508091827356 0.010692521149449035 0 -0.015314486793097432 0.01098520243073769 0 -0.015366578622274904 0.010193098759891281 0 -0.014467844846500754 0.011147587399322626 0 -0.014828195991825744 0.011272378041395557 0 -0.014810508091827356 0.010692521149449035 0 -0.014828195991825744 0.011272378041395557 0 -0.014810508091827356 0.010692521149449035 0 -0.015314486793097432 0.01098520243073769 0 -0.016195615445309605 0.011208013942179188 0 -0.015314486793097432 0.01098520243073769 0 -0.015830103006121289 0.010700415200455175 0 -0.015314486793097432 0.01098520243073769 0 -0.015366578622274904 0.010193098759891281 0 -0.015830103006121289 0.010700415200455175 0 -0.015366578622274904 0.010193098759891281 0 -0.016309999941241011 0.010265654513373627 0 -0.015830103006121289 0.010700415200455175 0 -0.016195615445309605 0.011208013942179188 0 -0.016309999941241011 0.010265654513373627 0 -0.015830103006121289 0.010700415200455175 0 -0.016195615445309605 0.011208013942179188 0 -0.016309999941241011 0.010265654513373627 0 -0.016855180807297161 0.010802551859425687 0 -0.017358725978502784 0.0094766433402321722 0 -0.016309999941241011 0.010265654513373627 0 -0.016855180807297161 0.010802551859425687 0 -0.017358725978502784 0.0094766433402321722 0 -0.016309999941241011 0.010265654513373627 0 -0.016130938767013145 0.0094743139845624852 0 -0.017358725978502784 0.0094766433402321722 0 -0.016130938767013145 0.0094743139845624852 0 -0.016704308855491609 0.0090244436204509251 0 -0.017358725978502784 0.0094766433402321722 0 -0.016704308855491609 0.0090244436204509251 0 -0.017373992018895161 0.0090621422702234136 0 -0.015366578622274904 0.010193098759891281 0 -0.016309999941241011 0.010265654513373627 0 -0.016130938767013145 0.0094743139845624852 0 -0.015366578622274904 0.010193098759891281 0 -0.016130938767013145 0.0094743139845624852 0 -0.015173324400366906 0.0094057412718102727 0 -0.016130938767013145 0.0094743139845624852 0 -0.015173324400366906 0.0094057412718102727 0 -0.01591244412700903 0.0087340158625195796 0 -0.014521313145530925 0.010053504156390766 0 -0.015366578622274904 0.010193098759891281 0 -0.015173324400366906 0.0094057412718102727 0 -0.01490283426395652 0.0085250028102999195 0 -0.01591244412700903 0.0087340158625195796 0 -0.015868521396707844 0.0075873826352631166 0 -0.014179797267705175 0.0092570273036753879 0 -0.015173324400366906 0.0094057412718102727 0 -0.01490283426395652 0.0085250028102999195 0 -0.015173324400366906 0.0094057412718102727 0 -0.01490283426395652 0.0085250028102999195 0 -0.01591244412700903 0.0087340158625195796 0 -0.01591244412700903 0.0087340158625195796 0 -0.016591717608163373 0.0084140701670728513 0 -0.015868521396707844 0.0075873826352631166 0 -0.016591717608163373 0.0084140701670728513 0 -0.017010370686860326 0.0076142476315360164 0 -0.017373992018895161 0.0090621422702234136 0 -0.016130938767013145 0.0094743139845624852 0 -0.01591244412700903 0.0087340158625195796 0 -0.016704308855491609 0.0090244436204509251 0 -0.01591244412700903 0.0087340158625195796 0 -0.016591717608163373 0.0084140701670728513 0 -0.016704308855491609 0.0090244436204509251 0 -0.016591717608163373 0.0084140701670728513 0 -0.016704308855491609 0.0090244436204509251 0 -0.017373992018895161 0.0090621422702234136 0 -0.016591717608163373 0.0084140701670728513 0 -0.017010370686860326 0.0076142476315360164 0 -0.015868521396707844 0.0075873826352631166 0 -0.014453770447998011 0.0074714439871851127 0 -0.01490283426395652 0.0085250028102999195 0 -0.015868521396707844 0.0075873826352631166 0 -0.020201786414012508 0.0061150033467790247 0 -0.019801903662833423 0.0061615968370188163 0 -0.020348993813001634 0.0057863905143167357 0 -0.020756947348593437 0.0059555679504243991 0 -0.020201786414012508 0.0061150033467790247 0 -0.020348993813001634 0.0057863905143167357 0 -0.020620493725891993 0.0062341790378753273 0 -0.020756947348593437 0.0059555679504243991 0 -0.020201786414012508 0.0061150033467790247 0 -0.020201786414012508 0.0061150033467790247 0 -0.019925136880465984 0.006218486819053618 0 -0.019801903662833423 0.0061615968370188163 0 -0.020237778177858611 0.0062526764380843236 0 -0.020201786414012508 0.0061150033467790247 0 -0.019925136880465984 0.006218486819053618 0 -0.019170627927690122 0.0064172593279640316 0 -0.019925136880465984 0.006218486819053618 0 -0.019801903662833423 0.0061615968370188163 0 -0.018022343933040391 0.0068980710130996667 0 -0.018665068521525489 0.0076371880562091099 0 -0.019630092863125718 0.0061901823130239581 0 -0.020697951415790578 0.0064772466101539168 0 -0.019464732752633131 0.0061968886054904896 0 -0.019801903662833423 0.0061615968370188163 0 -0.020348993813001634 0.0057863905143167357 0 -0.019464732752633131 0.0061968886054904896 0 -0.019170627927690122 0.0064172593279640316 0 -0.019801903662833423 0.0061615968370188163 0 -0.02086072918199423 0.0061387478241846085 0 -0.019464732752633131 0.0061968886054904896 0 -0.021023180524312221 0.0071553337065362963 0 -0.02166234198788557 0.0062395579898818351 0 -0.02086072918199423 0.0061387478241846085 0 -0.021023180524312221 0.0071553337065362963 0 -0.022311358448703134 0.0066495079185398438 0 -0.022655240357949909 0.008068213699217423 0 -0.023072869926733363 0.0069729506104541875 0 -0.02166234198788557 0.0062395579898818351 0 -0.021023180524312221 0.0071553337065362963 0 -0.022311358448703134 0.0066495079185398438 0 -0.021023180524312221 0.0071553337065362963 0 -0.022311358448703134 0.0066495079185398438 0 -0.022655240357949909 0.008068213699217423 0 -0.022311358448703134 0.0066495079185398438 0 -0.023072869926733363 0.0069729506104541875 0 -0.022963718715153257 0.0061183624290210752 0 -0.020756947348593437 0.0059555679504243991 0 -0.020348993813001634 0.0057863905143167357 0 -0.021452121753417926 0.0056508959690279789 0 -0.020697951415790578 0.0064772466101539168 0 -0.022069392948399942 0.0070245357361468797 0 -0.020756947348593437 0.0059555679504243991 0 -0.021452121753417926 0.0056508959690279789 0 -0.021168308892270105 0.0060722944709402839 0 -0.024204291894140046 0.0065383081790603148 0 -0.023951042469611054 0.006169936361032839 0 -0.022069392948399942 0.0070245357361468797 0 -0.023951042469611054 0.006169936361032839 0 -0.022655240357949909 0.008068213699217423 0 -0.023995930485982322 0.0076021708983342387 0 -0.024364722020482683 0.0090969990670793539 0 -0.022655240357949909 0.008068213699217423 0 -0.023995930485982322 0.0076021708983342387 0 -0.023072869926733363 0.0069729506104541875 0 -0.023995930485982322 0.0076021708983342387 0 -0.023072869926733363 0.0069729506104541875 0 -0.023608671819581553 0.0057550221026386322 0 -0.02454089859638249 0.0039280231574939945 0 -0.025353661526798729 0.0027397415012028864 0 -0.024204291894140046 0.0065383081790603148 0 -0.023725183063031768 0.0056671166243434292 0 -0.023358068805578384 0.0058312001520973277 0 -0.023608671819581553 0.0057550221026386322 0 -0.024575211691257724 0.0051250607647250358 0 -0.02442219194997107 0.0052086477385820014 0 -0.023608671819581553 0.0057550221026386322 0 -0.024575211691257724 0.0051250607647250358 0 -0.023072869926733363 0.0069729506104541875 0 -0.023608671819581553 0.0057550221026386322 0 -0.022963718715153257 0.0061183624290210752 0 -0.025775039605119589 0.0021778334794384452 0 -0.025874009500892161 0.0013470986079927771 0 -0.026167030569903771 0.00025496326771258895 0 -0.025874009500892161 0.0013470986079927771 0 -0.026040834396128053 0.00056010604126255944 0 -0.026167030569903771 0.00025496326771258895 0 -0.025801235084707129 0.0012907889379390942 0 -0.025874009500892161 0.0013470986079927771 0 -0.026040834396128053 0.00056010604126255944 0 -0.026040834396128053 0.00056010604126255944 0 -0.026147054657798888 -9.2052281347735371e-05 0 -0.026167030569903771 0.00025496326771258895 0 -0.025801235084707129 0.0012907889379390942 0 -0.025395325442439078 0.0015438284622773955 0 -0.026147054657798888 -9.2052281347735371e-05 0 -0.025801235084707129 0.0012907889379390942 0 -0.026040834396128053 0.00056010604126255944 0 -0.026147054657798888 -9.2052281347735371e-05 0 -0.026147054657798888 -9.2052281347735371e-05 0 -0.026991879771159206 -0.00017706071252702348 0 -0.027182371578626949 -0.00037009538500572584 0 -0.026147054657798888 -9.2052281347735371e-05 0 -0.026167030569903771 0.00025496326771258895 0 -0.026991879771159206 -0.00017706071252702348 0 -0.025353661526798729 0.0027397415012028864 0 -0.026263960850053909 0.0023525107883494117 0 -0.02442219194997107 0.0052086477385820014 0 -0.024575211691257724 0.0051250607647250358 0 -0.024750766443084122 0.0051053525412679763 0 -0.024575211691257724 0.0051250607647250358 0 -0.024750766443084122 0.0051053525412679763 0 -0.024982461262982491 0.0050272901878885487 0 -0.023951042469611054 0.006169936361032839 0 -0.02466569092699256 0.0054084457766110546 0 -0.023951042469611054 0.006169936361032839 0 -0.023984295274384945 0.0059366268718451147 0 -0.022590727901407828 0.0058950085430624554 0 -0.023213896277800187 0.0065914630251326161 0 -0.022394576039717683 0.0063897959733364299 0 -0.024735436666040212 0.0048744105724051415 0 -0.024982461262982491 0.0050272901878885487 0 -0.024763079762418864 0.0054367974450881653 0 -0.024575211691257724 0.0051250607647250358 0 -0.024982461262982491 0.0050272901878885487 0 -0.025528721247987145 0.0048637629243772872 0 -0.024982461262982491 0.0050272901878885487 0 -0.025528721247987145 0.0048637629243772872 0 -0.025576166200998496 0.0053478288450522719 0 -0.025576166200998496 0.0053478288450522719 0 -0.024763079762418864 0.0054367974450881653 0 -0.025860812739649526 0.0058545487756917177 0 -0.025576166200998496 0.0053478288450522719 0 -0.026879204082381574 0.0057495776861780428 0 -0.025860812739649526 0.0058545487756917177 0 -0.025528721247987145 0.0048637629243772872 0 -0.025576166200998496 0.0053478288450522719 0 -0.026879204082381574 0.0057495776861780428 0 -0.024982461262982491 0.0050272901878885487 0 -0.025576166200998496 0.0053478288450522719 0 -0.024763079762418864 0.0054367974450881653 0 -0.023213896277800187 0.0065914630251326161 0 -0.022394576039717683 0.0063897959733364299 0 -0.022400256984414297 0.0068094298198508908 0 -0.022394576039717683 0.0063897959733364299 0 -0.021869371783390289 0.0065048396031231357 0 -0.022400256984414297 0.0068094298198508908 0 -0.021869371783390289 0.0065048396031231357 0 -0.022400256984414297 0.0068094298198508908 0 -0.021441377858394915 0.0068585448787931661 0 -0.022400256984414297 0.0068094298198508908 0 -0.021441377858394915 0.0068585448787931661 0 -0.021957190421639346 0.0072758678856572863 0 -0.020695163215050959 0.0066199370467873346 0 -0.021441377858394915 0.0068585448787931661 0 -0.021283031915214478 0.0063845446744355116 0 -0.021869371783390289 0.0065048396031231357 0 -0.021441377858394915 0.0068585448787931661 0 -0.021283031915214478 0.0063845446744355116 0 -0.021869371783390289 0.0065048396031231357 0 -0.021283031915214478 0.0063845446744355116 0 -0.021815431824914543 0.0061351798891035834 0 -0.021452121753417926 0.0056508959690279789 0 -0.021168308892270105 0.0060722944709402839 0 -0.021815431824914543 0.0061351798891035834 0 -0.020620493725891993 0.0062341790378753273 0 -0.021283031915214478 0.0063845446744355116 0 -0.021168308892270105 0.0060722944709402839 0 -0.021283031915214478 0.0063845446744355116 0 -0.021168308892270105 0.0060722944709402839 0 -0.021815431824914543 0.0061351798891035834 0 -0.021452121753417926 0.0056508959690279789 0 -0.022590727901407828 0.0058950085430624554 0 -0.021815431824914543 0.0061351798891035834 0 -0.022590727901407828 0.0058950085430624554 0 -0.022394576039717683 0.0063897959733364299 0 -0.021815431824914543 0.0061351798891035834 0 -0.022394576039717683 0.0063897959733364299 0 -0.021869371783390289 0.0065048396031231357 0 -0.021815431824914543 0.0061351798891035834 0 -0.028647514989847571 -0.00099545834627950036 0 -0.0286476056936339 -0.0013914350548498878 0 -0.028269060904868592 -0.0013121652938554978 0 -0.030523962995197555 -0.0034693034306322846 0 -0.030652885331183079 -0.005766127806571401 0 -0.032513394354918651 -0.0063926126294580931 0 -0.03255794033537044 -0.0079952796492251607 0 -0.033629173653949296 -0.0070720190698942888 0 -0.029410102574315561 0.00016300369017105434 0 -0.030652885331183079 -0.005766127806571401 0 -0.028662014794876286 -0.0017824271985297142 0 -0.0286476056936339 -0.0013914350548498878 0 -0.028269060904868592 -0.0013121652938554978 0 -0.028269060904868592 -0.0013121652938554978 0 -0.028129897655184973 -0.0012056771234642814 0 -0.02795422241522004 -0.0016179068368338471 0 -0.028662014794876286 -0.0017824271985297142 0 -0.028269060904868592 -0.0013121652938554978 0 -0.028005847709183906 -0.0015667041994892198 0 -0.027937532162473157 -0.0015225979261046757 0 -0.02654487660996005 0.0011839234495828468 0 -0.030523962995197555 -0.0034693034306322846 0 -0.028506578931542185 -0.0010033813706416654 0 -0.02942184069279212 -0.00097051630420289426 0 -0.028768948394183282 -0.0011253344876239523 0 -0.028951218390065907 -0.00067869854461692603 0 -0.028647514989847571 -0.00099545834627950036 0 -0.028269060904868592 -0.0013121652938554978 0 -0.028129897655184973 -0.0012056771234642814 0 -0.028768948394183282 -0.0011253344876239523 0 -0.028105890436827173 -0.00061140514017828259 0 -0.028951218390065907 -0.00067869854461692603 0 -0.028768948394183282 -0.0011253344876239523 0 -0.028105890436827173 -0.00061140514017828259 0 -0.027727068187384244 -0.0013454342253875083 0 -0.028129897655184973 -0.0012056771234642814 0 -0.02795422241522004 -0.0016179068368338471 0 -0.027521380671660729 -0.0014757614873098885 0 -0.028506578931542185 -0.0010033813706416654 0 -0.026154130120308334 -0.00022064098945514035 0 -0.02654487660996005 0.0011839234495828468 0 -0.026154130120308334 -0.00022064098945514035 0 -0.024828656124054691 0.0015222568233287824 0 -0.026154130120308334 -0.00022064098945514035 0 -0.025977832460902739 -0.00018700969982506026 0 -0.026154130120308334 -0.00022064098945514035 0 -0.025395325442439078 0.0015438284622773955 0 -0.026147054657798888 -9.2052281347735371e-05 0 -0.023674906721328787 0.000574397783929492 0 -0.028105890436827173 -0.00061140514017828259 0 -0.027727068187384244 -0.0013454342253875083 0 -0.027182371578626949 -0.00037009538500572584 0 -0.026147054657798888 -9.2052281347735371e-05 0 -0.027727068187384244 -0.0013454342253875083 0 -0.027182371578626949 -0.00037009538500572584 0 -0.026991879771159206 -0.00017706071252702348 0 -0.027182371578626949 -0.00037009538500572584 0 -0.027785633712124089 -0.00035381317496201593 0 -0.028105890436827173 -0.00061140514017828259 0 -0.027182371578626949 -0.00037009538500572584 0 -0.027785633712124089 -0.00035381317496201593 0 -0.026991879771159206 -0.00017706071252702348 0 -0.027785633712124089 -0.00035381317496201593 0 -0.028242795654109733 -0.00017731225774448247 0 -0.027785633712124089 -0.00035381317496201593 0 -0.028242795654109733 -0.00017731225774448247 0 -0.028444884235405057 -0.00045311000729651268 0 -0.026263960850053909 0.0023525107883494117 0 -0.027501175278354831 0.0027647942862039881 0 -0.028242795654109733 -0.00017731225774448247 0 -0.028444884235405057 -0.00045311000729651268 0 -0.029156848968780322 -0.00057697125584656498 0 -0.028105890436827173 -0.00061140514017828259 0 -0.027785633712124089 -0.00035381317496201593 0 -0.028444884235405057 -0.00045311000729651268 0 -0.028105890436827173 -0.00061140514017828259 0 -0.028444884235405057 -0.00045311000729651268 0 -0.028951218390065907 -0.00067869854461692603 0 -0.028951218390065907 -0.00067869854461692603 0 -0.029156848968780322 -0.00057697125584656498 0 -0.029625673950800225 -0.00068435470735658593 0 -0.028444884235405057 -0.00045311000729651268 0 -0.028951218390065907 -0.00067869854461692603 0 -0.029156848968780322 -0.00057697125584656498 0 -0.031876298260868852 -0.0067053124791015854 0 -0.031491715759517036 -0.0040192246692988248 0 -0.033508042677520833 -0.0058570882250762535 0 -0.02942184069279212 -0.00097051630420289426 0 -0.028951218390065907 -0.00067869854461692603 0 -0.029625673950800225 -0.00068435470735658593 0 -0.030523962995197555 -0.0034693034306322846 0 -0.030601654850512961 -0.0023526932307221357 0 -0.031409533942755072 0.00029810871321283867 0 -0.030731413265078902 -0.00090034662967776143 0 -0.029030607090033501 -0.00010927771560281613 0 -0.029156848968780322 -0.00057697125584656498 0 -0.029625673950800225 -0.00068435470735658593 0 -0.030731413265078902 -0.00090034662967776143 0 -0.030601654850512961 -0.0023526932307221357 0 -0.030676808557852674 -0.00086043123748002787 0 -0.029156848968780322 -0.00057697125584656498 0 -0.030731413265078902 -0.00090034662967776143 0 -0.029030607090033501 -0.00010927771560281613 0 -0.026640059451319618 0.0052684774566725571 0 -0.02720719529001972 0.0061389103636024251 0 -0.026993093295217419 0.0046889740141545042 0 -0.027501175278354831 0.0027647942862039881 0 -0.027852324348179421 0.0025563845206524011 0 -0.026879204082381574 0.0057495776861780428 0 -0.026640059451319618 0.0052684774566725571 0 -0.02720719529001972 0.0061389103636024251 0 -0.028242795654109733 -0.00017731225774448247 0 -0.029156848968780322 -0.00057697125584656498 0 -0.029030607090033501 -0.00010927771560281613 0 -0.026879204082381574 0.0057495776861780428 0 -0.02720719529001972 0.0061389103636024251 0 -0.025860812739649526 0.0058545487756917177 0 -0.02720719529001972 0.0061389103636024251 0 -0.027704589097685629 0.0043938004713050139 0 -0.026993093295217419 0.0046889740141545042 0 -0.02720719529001972 0.0061389103636024251 0 -0.027704589097685629 0.0043938004713050139 0 -0.028568906594301786 0.0045431855440663778 0 -0.027704589097685629 0.0043938004713050139 0 -0.027821574820157336 0.0036264351389598657 0 -0.027157952716478778 0.0040110256369488614 0 -0.027704589097685629 0.0043938004713050139 0 -0.027157952716478778 0.0040110256369488614 0 -0.026993093295217419 0.0046889740141545042 0 -0.027704589097685629 0.0043938004713050139 0 -0.027821574820157336 0.0036264351389598657 0 -0.028766674365627343 0.0037640664185577166 0 -0.027821574820157336 0.0036264351389598657 0 -0.028810853931032946 0.0030315083054922821 0 -0.027749040359140342 0.002834819651868064 0 -0.027821574820157336 0.0036264351389598657 0 -0.028766674365627343 0.0037640664185577166 0 -0.028810853931032946 0.0030315083054922821 0 -0.027821574820157336 0.0036264351389598657 0 -0.027023924509426828 0.0034784258440149298 0 -0.027749040359140342 0.002834819651868064 0 -0.027821574820157336 0.0036264351389598657 0 -0.027023924509426828 0.0034784258440149298 0 -0.027157952716478778 0.0040110256369488614 0 -0.027023924509426828 0.0034784258440149298 0 -0.026640164970293635 0.0033620724182299145 0 -0.026758814029217343 0.0028625760604353112 0 -0.027023924509426828 0.0034784258440149298 0 -0.027157952716478778 0.0040110256369488614 0 -0.026666803209252393 0.0036779014664882971 0 -0.027023924509426828 0.0034784258440149298 0 -0.026666803209252393 0.0036779014664882971 0 -0.026640164970293635 0.0033620724182299145 0 -0.026640059451319618 0.0052684774566725571 0 -0.026993093295217419 0.0046889740141545042 0 -0.026666803209252393 0.0036779014664882971 0 -0.027157952716478778 0.0040110256369488614 0 -0.026993093295217419 0.0046889740141545042 0 -0.026666803209252393 0.0036779014664882971 0 -0.026640059451319618 0.0052684774566725571 0 -0.026666803209252393 0.0036779014664882971 0 -0.026696675244890014 0.0031278821829178083 0 -0.027852324348179421 0.0025563845206524011 0 -0.028639291304464354 0.0024457736764637084 0 -0.026666803209252393 0.0036779014664882971 0 -0.026640164970293635 0.0033620724182299145 0 -0.026880233930796534 0.0036368654612926837 0 -0.026640164970293635 0.0033620724182299145 0 -0.026880233930796534 0.0036368654612926837 0 -0.026449717221251026 0.0029874261134974892 0 -0.026666803209252393 0.0036779014664882971 0 -0.026880233930796534 0.0036368654612926837 0 -0.026696675244890014 0.0031278821829178083 0 -0.02829767374796965 0.00427474909616005 0 -0.026696675244890014 0.0031278821829178083 0 -0.031273109767820342 0.0044710601467832737 0 -0.028639291304464354 0.0024457736764637084 0 -0.031164705320301234 0.0045392832074586222 0 -0.026880233930796534 0.0036368654612926837 0 -0.02829767374796965 0.00427474909616005 0 -0.026696675244890014 0.0031278821829178083 0 -0.030247450297349401 0.0014192915955359613 0 -0.032164552281631689 0.0027574220368083171 0 -0.031273109767820342 0.0044710601467832737 0 -0.026880233930796534 0.0036368654612926837 0 -0.02829767374796965 0.00427474909616005 0 -0.028149318299162 0.005331844823605424 0 -0.031409533942755072 0.00029810871321283867 0 -0.030247450297349401 0.0014192915955359613 0 -0.03291906656182992 0.0012944759778294825 0 -0.031409533942755072 0.00029810871321283867 0 -0.029030607090033501 -0.00010927771560281613 0 -0.030247450297349401 0.0014192915955359613 0 -0.023275672824381227 0.0080253497781468015 0 -0.024429212351331324 0.0085862445054734095 0 -0.022404375213077015 0.0094082758162338485 0 -0.023275672824381227 0.0080253497781468015 0 -0.02202300259471493 0.0081136025659427034 0 -0.022404375213077015 0.0094082758162338485 0 -0.023275672824381227 0.0080253497781468015 0 -0.02202300259471493 0.0081136025659427034 0 -0.022942785976263685 0.0072219168828109824 0 -0.02202300259471493 0.0081136025659427034 0 -0.022404375213077015 0.0094082758162338485 0 -0.021286469033725715 0.0089409337676004379 0 -0.020972171405049218 0.0083286808601136554 0 -0.02202300259471493 0.0081136025659427034 0 -0.021286469033725715 0.0089409337676004379 0 -0.020972171405049218 0.0083286808601136554 0 -0.02202300259471493 0.0081136025659427034 0 -0.021445040011363742 0.0077821450788788018 0 -0.02202300259471493 0.0081136025659427034 0 -0.021445040011363742 0.0077821450788788018 0 -0.021957190421639346 0.0072758678856572863 0 -0.020933102691235314 0.0077912014302651718 0 -0.020972171405049218 0.0083286808601136554 0 -0.021445040011363742 0.0077821450788788018 0 -0.020933102691235314 0.0077912014302651718 0 -0.021445040011363742 0.0077821450788788018 0 -0.021284481161249518 0.0073489849184078353 0 -0.020701448505419336 0.0072620720927294964 0 -0.021441377858394915 0.0068585448787931661 0 -0.021284481161249518 0.0073489849184078353 0 -0.021441377858394915 0.0068585448787931661 0 -0.021284481161249518 0.0073489849184078353 0 -0.021957190421639346 0.0072758678856572863 0 -0.021445040011363742 0.0077821450788788018 0 -0.021284481161249518 0.0073489849184078353 0 -0.021957190421639346 0.0072758678856572863 0 -0.022400256984414297 0.0068094298198508908 0 -0.021957190421639346 0.0072758678856572863 0 -0.022942785976263685 0.0072219168828109824 0 -0.02202300259471493 0.0081136025659427034 0 -0.021957190421639346 0.0072758678856572863 0 -0.022942785976263685 0.0072219168828109824 0 -0.023213896277800187 0.0065914630251326161 0 -0.022400256984414297 0.0068094298198508908 0 -0.022942785976263685 0.0072219168828109824 0 -0.023984295274384945 0.0059366268718451147 0 -0.024515547156106748 0.0071619156398058563 0 -0.024763079762418864 0.0054367974450881653 0 -0.025860812739649526 0.0058545487756917177 0 -0.024563268232536163 0.0070580274334971554 0 -0.023213896277800187 0.0065914630251326161 0 -0.022942785976263685 0.0072219168828109824 0 -0.024563268232536163 0.0070580274334971554 0 -0.02720719529001972 0.0061389103636024251 0 -0.025860812739649526 0.0058545487756917177 0 -0.024563268232536163 0.0070580274334971554 0 -0.027210571653486504 0.006252283089330909 0 -0.026704373407866692 0.0067210355152096234 0 -0.02720719529001972 0.0061389103636024251 0 -0.024563268232536163 0.0070580274334971554 0 -0.024429212351331324 0.0085862445054734095 0 -0.02720719529001972 0.0061389103636024251 0 -0.029502616721064377 0.004852847275153665 0 -0.028568906594301786 0.0045431855440663778 0 -0.023275672824381227 0.0080253497781468015 0 -0.022942785976263685 0.0072219168828109824 0 -0.024563268232536163 0.0070580274334971554 0 -0.023275672824381227 0.0080253497781468015 0 -0.024563268232536163 0.0070580274334971554 0 -0.024429212351331324 0.0085862445054734095 0 -0.029461782411293925 0.0039806794398481978 0 -0.029737585006495065 0.0034568539709262571 0 -0.029999590376548306 0.0040297404426202178 0 -0.029502616721064377 0.004852847275153665 0 -0.029461782411293925 0.0039806794398481978 0 -0.029999590376548306 0.0040297404426202178 0 -0.029502616721064377 0.004852847275153665 0 -0.029461782411293925 0.0039806794398481978 0 -0.028568906594301786 0.0045431855440663778 0 -0.029461782411293925 0.0039806794398481978 0 -0.028568906594301786 0.0045431855440663778 0 -0.028766674365627343 0.0037640664185577166 0 -0.027704589097685629 0.0043938004713050139 0 -0.028568906594301786 0.0045431855440663778 0 -0.028766674365627343 0.0037640664185577166 0 -0.029461782411293925 0.0039806794398481978 0 -0.028766674365627343 0.0037640664185577166 0 -0.029495274651603211 0.0031199517473125124 0 -0.028766674365627343 0.0037640664185577166 0 -0.029495274651603211 0.0031199517473125124 0 -0.028810853931032946 0.0030315083054922821 0 -0.029461782411293925 0.0039806794398481978 0 -0.029495274651603211 0.0031199517473125124 0 -0.029737585006495065 0.0034568539709262571 0 -0.029737585006495065 0.0034568539709262571 0 -0.030009619681093006 0.0033111355050185615 0 -0.029999590376548306 0.0040297404426202178 0 -0.026704373407866692 0.0067210355152096234 0 -0.026982988698933896 0.0065369840928291931 0 -0.021878008455456264 0.007418764313401772 0 -0.026982988698933896 0.0065369840928291931 0 -0.020919011498545723 0.0099320906151732502 0 -0.022404375213077015 0.0094082758162338485 0 -0.021286469033725715 0.0089409337676004379 0 -0.021878008455456264 0.007418764313401772 0 -0.023862776262627311 0.0022165373177910849 0 -0.030287273225153469 0.0037607403288116622 0 -0.030009619681093006 0.0033111355050185615 0 -0.029999590376548306 0.0040297404426202178 0 -0.030287273225153469 0.0037607403288116622 0 -0.030009619681093006 0.0033111355050185615 0 -0.030242716191942492 0.0029273710444848327 0 -0.030009619681093006 0.0033111355050185615 0 -0.030242716191942492 0.0029273710444848327 0 -0.029941555997691039 0.0028809000021954878 0 -0.017650084996618486 0.0028100194208840615 0 -0.017269278578301791 0.001629091012229312 0 -0.017908047426109408 0.0020944187840468004 0 -0.023862776262627311 0.0022165373177910849 0 -0.025884160529875935 0.0015376052321627014 0 -0.029823539130560534 0.0023880384799579261 0 -0.029592284874866152 0.00241224855892453 0 -0.029776012665285189 0.0020207208200269566 0 -0.030242716191942492 0.0029273710444848327 0 -0.029830263881945023 0.0026084281690367207 0 -0.029941555997691039 0.0028809000021954878 0 -0.030242716191942492 0.0029273710444848327 0 -0.029830263881945023 0.0026084281690367207 0 -0.029989305934500901 0.0022875793729650339 0 -0.029830263881945023 0.0026084281690367207 0 -0.029941555997691039 0.0028809000021954878 0 -0.029723796169672967 0.0027511076483986178 0 -0.029956351407289122 0.0022288905023371609 0 -0.029668488892340084 0.0028088195199571981 0 -0.029737585006495065 0.0034568539709262571 0 -0.030009619681093006 0.0033111355050185615 0 -0.029723796169672967 0.0027511076483986178 0 -0.030009619681093006 0.0033111355050185615 0 -0.029941555997691039 0.0028809000021954878 0 -0.029723796169672967 0.0027511076483986178 0 -0.029495274651603211 0.0031199517473125124 0 -0.029723796169672967 0.0027511076483986178 0 -0.029790819907832045 0.0024546881480118693 0 -0.029495274651603211 0.0031199517473125124 0 -0.029737585006495065 0.0034568539709262571 0 -0.029723796169672967 0.0027511076483986178 0 -0.029495274651603211 0.0031199517473125124 0 -0.028810853931032946 0.0030315083054922821 0 -0.029790819907832045 0.0024546881480118693 0 -0.028810853931032946 0.0030315083054922821 0 -0.029790819907832045 0.0024546881480118693 0 -0.028636645753104782 0.0017608095845745115 0 -0.029790819907832045 0.0024546881480118693 0 -0.030221359025863235 -0.00021299368494142107 0 -0.033521582014884123 -0.00048064738561871188 0 -0.030025193863295947 0.0023271084880095044 0 -0.031733365576033741 0.00096011192888252573 0 -0.029790819907832045 0.0024546881480118693 0 -0.030221359025863235 -0.00021299368494142107 0 -0.028636645753104782 0.0017608095845745115 0 -0.029723796169672967 0.0027511076483986178 0 -0.029790819907832045 0.0024546881480118693 0 -0.029592284874866152 0.00241224855892453 0 -0.029823539130560534 0.0023880384799579261 0 -0.029723796169672967 0.0027511076483986178 0 -0.029592284874866152 0.00241224855892453 0 -0.031733365576033741 0.00096011192888252573 0 -0.030131084306006313 -0.0027783836653009751 0 -0.033521582014884123 -0.00048064738561871188 0 -0.03262740411948193 -0.0028055666445747436 0 -0.036392250257777696 -0.0039588542871070052 0 -0.03262740411948193 -0.0028055666445747436 0 -0.032144724114713537 -0.0055784199652804652 0 -0.036392250257777696 -0.0039588542871070052 0 -0.029592284874866152 0.00241224855892453 0 -0.029776012665285189 0.0020207208200269566 0 -0.029699531561238904 0.0018556263854940477 0 -0.030221359025863235 -0.00021299368494142107 0 -0.03262740411948193 -0.0028055666445747436 0 -0.02906290135319246 -0.0027267432141072443 0 -0.03262740411948193 -0.0028055666445747436 0 -0.032144724114713537 -0.0055784199652804652 0 -0.02906290135319246 -0.0027267432141072443 0 -0.030221359025863235 -0.00021299368494142107 0 -0.033521582014884123 -0.00048064738561871188 0 -0.03262740411948193 -0.0028055666445747436 0 -0.032144724114713537 -0.0055784199652804652 0 -0.028843245409298852 -0.0060528887335575881 0 -0.029534983484338685 -0.0084702614583778528 0 -0.032144724114713537 -0.0055784199652804652 0 -0.02906290135319246 -0.0027267432141072443 0 -0.028843245409298852 -0.0060528887335575881 0 -0.032144724114713537 -0.0055784199652804652 0 -0.036392250257777696 -0.0039588542871070052 0 -0.03380958678119534 -0.0094701529584849085 0 -0.030131084306006313 -0.0027783836653009751 0 -0.02949197159667968 -0.011108528711918381 0 -0.020818611374063028 -0.0092959037847910458 0 -0.030131084306006313 -0.0027783836653009751 0 -0.029798137585059423 0.00062581441583607058 0 -0.029749098068152183 0.00083431758638885111 0 -0.029408112939790607 0.0015294871280386621 0 -0.027836900780226569 -0.010058400093282977 0 -0.026606307641992434 -0.0083400133189627385 0 -0.025152881946829134 -0.011161423896125212 0 -0.029784250178360883 0.0013165633432279528 0 -0.029749098068152183 0.00083431758638885111 0 -0.030235756591706724 0.0013660296393795293 0 -0.028442975508927573 0.0032188736350124403 0 -0.019473583112756602 -0.0011644886637305161 0 -0.029784250178360883 0.0013165633432279528 0 -0.029749098068152183 0.00083431758638885111 0 -0.029408112939790607 0.0015294871280386621 0 -0.029784250178360883 0.0013165633432279528 0 -0.030235756591706724 0.0013660296393795293 0 -0.029909250103990179 0.0015221396726158684 0 -0.0033472492329241206 -0.0054480753493472119 0 -0.0055830778996584229 -0.0091471365273662741 0 -0.0055136746818973898 -0.0063587404693011829 0 -0.029798137585059423 0.00062581441583607058 0 -0.029749098068152183 0.00083431758638885111 0 -0.029720008321952526 0.00082824777711659021 0 -0.020818611374063028 -0.0092959037847910458 0 -0.012266988545797834 -0.0042436993990526781 0 -0.0033472492329241206 -0.0054480753493472119 0 -0.0059608385029967939 -0.0046238830378006607 0 -0.0055136746818973898 -0.0063587404693011829 0 -0.029749098068152183 0.00083431758638885111 0 -0.029720008321952526 0.00082824777711659021 0 -0.029701038606045716 0.00082036520272128809 0 -0.012266988545797834 -0.0042436993990526781 0 -0.019473583112756602 -0.0011644886637305161 0 -0.019473583112756602 -0.0011644886637305161 0 -0.010742333131494551 -0.00010021407433217353 0 -0.0044343579851282471 -0.0033368410023002838 0 -0.0054727017055040354 -0.0015065436284947464 0 -0.0063024598537673778 -0.0019602232867159024 0 -0.019473583112756602 -0.0011644886637305161 0 -0.025884160529875935 0.0015376052321627014 0 -0.0047227757681718129 -0.003782104819120626 0 -0.0044343579851282471 -0.0033368410023002838 0 -0.0063024598537673778 -0.0019602232867159024 0 -0.012266988545797834 -0.0042436993990526781 0 -0.0036002700559221953 -0.0030224225305716728 0 -0.017450805208743189 0.0013268316798818857 0 -0.017269278578301791 0.001629091012229312 0 -0.017908047426109408 0.0020944187840468004 0 -0.029956351407289122 0.0022288905023371609 0 -0.025884160529875935 0.0015376052321627014 0 -0.029823539130560534 0.0023880384799579261 0 -0.029776012665285189 0.0020207208200269566 0 -0.029999543262341603 0.0018223325006230398 0 -0.029784250178360883 0.0013165633432279528 0 -0.029408112939790607 0.0015294871280386621 0 -0.029765296025683577 0.0016345144838767675 0 -0.029776012665285189 0.0020207208200269566 0 -0.029408112939790607 0.0015294871280386621 0 -0.029765296025683577 0.0016345144838767675 0 -0.030835031328005979 0.0013682892847501416 0 -0.030131084306006313 -0.0027783836653009751 0 -0.029784250178360883 0.0013165633432279528 0 -0.029765296025683577 0.0016345144838767675 0 -0.029909250103990179 0.0015221396726158684 0 -0.029765296025683577 0.0016345144838767675 0 -0.029909250103990179 0.0015221396726158684 0 -0.029999543262341603 0.0018223325006230398 0 -0.030235756591706724 0.0013660296393795293 0 -0.029909250103990179 0.0015221396726158684 0 -0.029999543262341603 0.0018223325006230398 0 -0.029776012665285189 0.0020207208200269566 0 -0.029765296025683577 0.0016345144838767675 0 -0.029999543262341603 0.0018223325006230398 0 -0.033416857005164384 0.0037124051780531714 0 -0.033591686135532144 0.0052321576306866352 0 -0.0347626301645486 0.0038356952602913593 0 -0.033416857005164384 0.0037124051780531714 0 -0.032429192751441467 0.0042502709927688944 0 -0.033591686135532144 0.0052321576306866352 0 -0.033416857005164384 0.0037124051780531714 0 -0.0347626301645486 0.0038356952602913593 0 -0.034881471863095447 0.0025544949506352728 0 -0.028149318299162 0.005331844823605424 0 -0.025603942153953643 0.0065669812733254148 0 -0.030786777363166904 0.0060132958488918241 0 -0.033416857005164384 0.0037124051780531714 0 -0.031964857019201764 0.0026754820816103342 0 -0.034881471863095447 0.0025544949506352728 0 -0.027786017892517126 0.0038821369310563024 0 -0.033025252259066634 0.0043468361601720013 0 -0.029605173683584205 0.0050078867419007644 0 -0.028149318299162 0.005331844823605424 0 -0.030786777363166904 0.0060132958488918241 0 -0.02829767374796965 0.00427474909616005 0 -0.029605173683584205 0.0050078867419007644 0 -0.031273109767820342 0.0044710601467832737 0 -0.02829767374796965 0.00427474909616005 0 -0.029605173683584205 0.0050078867419007644 0 -0.028149318299162 0.005331844823605424 0 -0.026880233930796534 0.0036368654612926837 0 -0.026449717221251026 0.0029874261134974892 0 -0.026204378773244115 0.002634124973129497 0 -0.026429325377968785 0.0040305648269614372 0 -0.027786017892517126 0.0038821369310563024 0 -0.026880233930796534 0.0036368654612926837 0 -0.028149318299162 0.005331844823605424 0 -0.025603942153953643 0.0065669812733254148 0 -0.027786017892517126 0.0038821369310563024 0 -0.026091053714432683 0.0031298716106826535 0 -0.026449717221251026 0.0029874261134974892 0 -0.026204378773244115 0.002634124973129497 0 -0.02621094778646256 0.0022499898296666635 0 -0.031964857019201764 0.0026754820816103342 0 -0.032429192751441467 0.0042502709927688944 0 -0.030755566353951085 0.0053796918998922387 0 -0.027786017892517126 0.0038821369310563024 0 -0.029506119862616576 -0.0025479538628194911 0 -0.033416857005164384 0.0037124051780531714 0 -0.031964857019201764 0.0026754820816103342 0 -0.032429192751441467 0.0042502709927688944 0 -0.024946908630042862 0.0022663223148802905 0 -0.026470527532072484 0.00097005096356740867 0 -0.025943103849758994 -0.001633093863877671 0 -0.026470527532072484 0.00097005096356740867 0 -0.027816265277679813 3.7507064604030904e-05 0 -0.025943103849758994 -0.001633093863877671 0 -0.026470527532072484 0.00097005096356740867 0 -0.027208387385888266 0.001889938758407991 0 -0.027816265277679813 3.7507064604030904e-05 0 -0.024946908630042862 0.0022663223148802905 0 -0.026470527532072484 0.00097005096356740867 0 -0.02621094778646256 0.0022499898296666635 0 -0.02621094778646256 0.0022499898296666635 0 -0.026758814029217343 0.0028625760604353112 0 -0.027208387385888266 0.001889938758407991 0 -0.026470527532072484 0.00097005096356740867 0 -0.02621094778646256 0.0022499898296666635 0 -0.027208387385888266 0.001889938758407991 0 -0.026640164970293635 0.0033620724182299145 0 -0.026449717221251026 0.0029874261134974892 0 -0.026758814029217343 0.0028625760604353112 0 -0.026449717221251026 0.0029874261134974892 0 -0.02621094778646256 0.0022499898296666635 0 -0.026758814029217343 0.0028625760604353112 0 -0.026758814029217343 0.0028625760604353112 0 -0.027208387385888266 0.001889938758407991 0 -0.027749040359140342 0.002834819651868064 0 -0.027023924509426828 0.0034784258440149298 0 -0.026758814029217343 0.0028625760604353112 0 -0.027749040359140342 0.002834819651868064 0 -0.027208387385888266 0.001889938758407991 0 -0.027749040359140342 0.002834819651868064 0 -0.028636645753104782 0.0017608095845745115 0 -0.028810853931032946 0.0030315083054922821 0 -0.027749040359140342 0.002834819651868064 0 -0.028636645753104782 0.0017608095845745115 0 -0.030221359025863235 -0.00021299368494142107 0 -0.028636645753104782 0.0017608095845745115 0 -0.027816265277679813 3.7507064604030904e-05 0 -0.030221359025863235 -0.00021299368494142107 0 -0.027816265277679813 3.7507064604030904e-05 0 -0.02906290135319246 -0.0027267432141072443 0 -0.027208387385888266 0.001889938758407991 0 -0.028636645753104782 0.0017608095845745115 0 -0.027816265277679813 3.7507064604030904e-05 0 -0.027302729813142242 -0.0025685265229343315 0 -0.029506119862616576 -0.0025479538628194911 0 -0.027816265277679813 3.7507064604030904e-05 0 -0.02906290135319246 -0.0027267432141072443 0 -0.025943103849758994 -0.001633093863877671 0 -0.02906290135319246 -0.0027267432141072443 0 -0.028843245409298852 -0.0060528887335575881 0 -0.026165142651088241 -0.0059616858719065274 0 -0.028843245409298852 -0.0060528887335575881 0 -0.026165142651088241 -0.0059616858719065274 0 -0.02758649382161996 -0.0093185895897770349 0 -0.031576694442403588 -0.01204046581895896 0 -0.032776773824295224 -0.012380301925311464 0 -0.032366246229435736 -0.011503488123875784 0 -0.031576694442403588 -0.01204046581895896 0 -0.032062555525250204 -0.013229569139781369 0 -0.032776773824295224 -0.012380301925311464 0 -0.02906290135319246 -0.0027267432141072443 0 -0.026165142651088241 -0.0059616858719065274 0 -0.024937812255954341 -0.0029754969646786813 0 -0.029055853528338539 -0.0095383534258165984 0 -0.029506119862616576 -0.0025479538628194911 0 -0.032062555525250204 -0.013229569139781369 0 -0.032776773824295224 -0.012380301925311464 0 -0.034235564793354926 -0.013743075253742016 0 -0.032429192751441467 0.0042502709927688944 0 -0.030755566353951085 0.0053796918998922387 0 -0.033591686135532144 0.0052321576306866352 0 -0.029506119862616576 -0.0025479538628194911 0 -0.034379871234531664 -0.0043564762202354191 0 -0.032776773824295224 -0.012380301925311464 0 -0.033881454549025199 -0.011826595958204487 0 -0.032366246229435736 -0.011503488123875784 0 -0.032776773824295224 -0.012380301925311464 0 -0.033881454549025199 -0.011826595958204487 0 -0.034235564793354926 -0.013743075253742016 0 -0.033881454549025199 -0.011826595958204487 0 -0.034235564793354926 -0.013743075253742016 0 -0.035727231125335809 -0.01276594671460482 0 -0.034426980957955426 -0.0090955556994452621 0 -0.034028652695573168 -0.010628312180764297 0 -0.032692717468477607 -0.010311343716906118 0 -0.034426980957955426 -0.0090955556994452621 0 -0.034028652695573168 -0.010628312180764297 0 -0.035407085548309673 -0.010845612278962132 0 -0.033881454549025199 -0.011826595958204487 0 -0.034028652695573168 -0.010628312180764297 0 -0.034733872857374157 -0.011260883982042823 0 -0.033881454549025199 -0.011826595958204487 0 -0.034733872857374157 -0.011260883982042823 0 -0.035582048866864655 -0.011648085086384581 0 -0.034028652695573168 -0.010628312180764297 0 -0.034733872857374157 -0.011260883982042823 0 -0.035407085548309673 -0.010845612278962132 0 -0.033881454549025199 -0.011826595958204487 0 -0.032692717468477607 -0.010311343716906118 0 -0.032366246229435736 -0.011503488123875784 0 -0.033881454549025199 -0.011826595958204487 0 -0.034028652695573168 -0.010628312180764297 0 -0.032692717468477607 -0.010311343716906118 0 -0.035209810295878344 -0.015049715209601038 0 -0.033716819665492462 -0.01575813736418534 0 -0.03406892704070319 -0.014430961112012934 0 -0.033716819665492462 -0.01575813736418534 0 -0.033364406095247393 -0.014859818784658816 0 -0.03406892704070319 -0.014430961112012934 0 -0.03734884912746976 -0.014733598148249701 0 -0.03298514654550698 -0.013032541991810528 0 -0.033716819665492462 -0.01575813736418534 0 -0.032489622310061111 -0.015111146326926374 0 -0.033364406095247393 -0.014859818784658816 0 -0.033716819665492462 -0.01575813736418534 0 -0.032489622310061111 -0.015111146326926374 0 -0.031948267823787013 -0.016689409205547168 0 -0.031576694442403588 -0.01204046581895896 0 -0.032366246229435736 -0.011503488123875784 0 -0.031124150881761493 -0.011003693360854864 0 -0.029055853528338539 -0.0095383534258165984 0 -0.030225379702253058 -0.011449179281185988 0 -0.032692717468477607 -0.010311343716906118 0 -0.032366246229435736 -0.011503488123875784 0 -0.031124150881761493 -0.011003693360854864 0 -0.03298514654550698 -0.013032541991810528 0 -0.030225379702253058 -0.011449179281185988 0 -0.028843245409298852 -0.0060528887335575881 0 -0.02758649382161996 -0.0093185895897770349 0 -0.029534983484338685 -0.0084702614583778528 0 -0.030225379702253058 -0.011449179281185988 0 -0.029378460325962009 -0.0098110644904298074 0 -0.027625881667580589 -0.0094597510978152079 0 -0.029719932398558066 -0.0098634301245658466 0 -0.030167528621768358 -0.011574475686825672 0 -0.027625881667580589 -0.0094597510978152079 0 -0.029534983484338685 -0.0084702614583778528 0 -0.029719932398558066 -0.0098634301245658466 0 -0.032489622310061111 -0.015111146326926374 0 -0.031948267823787013 -0.016689409205547168 0 -0.030877170571438652 -0.014366960963539956 0 -0.027625881667580589 -0.0094597510978152079 0 -0.030167528621768358 -0.011574475686825672 0 -0.030877170571438652 -0.014366960963539956 0 -0.030225379702253058 -0.011449179281185988 0 -0.030733046296055212 -0.014877666519439843 0 -0.032489622310061111 -0.015111146326926374 0 -0.030877170571438652 -0.014366960963539956 0 -0.031984452730445118 -0.01442051865264834 0 -0.031498026312687853 -0.014293920587594641 0 -0.032086335555668151 -0.013241341038493991 0 -0.031294886085365306 -0.014609133293092089 0 -0.030877170571438652 -0.014366960963539956 0 -0.031498026312687853 -0.014293920587594641 0 -0.031294886085365306 -0.014609133293092089 0 -0.030877170571438652 -0.014366960963539956 0 -0.031984452730445118 -0.01442051865264834 0 -0.031498026312687853 -0.014293920587594641 0 -0.031984452730445118 -0.01442051865264834 0 -0.032084748987024111 -0.013884446391586473 0 -0.032509273744377454 -0.014140909207703991 0 -0.031984452730445118 -0.01442051865264834 0 -0.031498026312687853 -0.014293920587594641 0 -0.032084748987024111 -0.013884446391586473 0 -0.031498026312687853 -0.014293920587594641 0 -0.032086335555668151 -0.013241341038493991 0 -0.032084748987024111 -0.013884446391586473 0 -0.025314568682597901 -0.016525857546789639 0 -0.028056473319701736 -0.013533159485039128 0 -0.025314568682597901 -0.016525857546789639 0 -0.023734745472550067 -0.017205122952541715 0 -0.032086335555668151 -0.013241341038493991 0 -0.03226050382404623 -0.01327684896320467 0 -0.032084748987024111 -0.013884446391586473 0 -0.03226050382404623 -0.01327684896320467 0 -0.032084748987024111 -0.013884446391586473 0 -0.032531891404895971 -0.013806907026775792 0 -0.03226050382404623 -0.01327684896320467 0 -0.032531891404895971 -0.013806907026775792 0 -0.033104385047734476 -0.013492295248050087 0 -0.032084748987024111 -0.013884446391586473 0 -0.032531891404895971 -0.013806907026775792 0 -0.032509273744377454 -0.014140909207703991 0 -0.032531891404895971 -0.013806907026775792 0 -0.033167789764731517 -0.01406002608065368 0 -0.032509273744377454 -0.014140909207703991 0 -0.032531891404895971 -0.013806907026775792 0 -0.033104385047734476 -0.013492295248050087 0 -0.033167789764731517 -0.01406002608065368 0 -0.033104385047734476 -0.013492295248050087 0 -0.033020835347241984 -0.013125847662187214 0 -0.033429830461482353 -0.013081527108126288 0 -0.03226050382404623 -0.01327684896320467 0 -0.033104385047734476 -0.013492295248050087 0 -0.033020835347241984 -0.013125847662187214 0 -0.033020835347241984 -0.013125847662187214 0 -0.033429830461482353 -0.013081527108126288 0 -0.033294834127339967 -0.012632527610745788 0 -0.03226050382404623 -0.01327684896320467 0 -0.033020835347241984 -0.013125847662187214 0 -0.033294834127339967 -0.012632527610745788 0 -0.033983939607633837 -0.01315580322722849 0 -0.034235405144078648 -0.013624880245897159 0 -0.034905664129625265 -0.012695724077073893 0 -0.033980799352045385 -0.012780691483017116 0 -0.033983939607633837 -0.01315580322722849 0 -0.034905664129625265 -0.012695724077073893 0 -0.033980799352045385 -0.012780691483017116 0 -0.033429830461482353 -0.013081527108126288 0 -0.033983939607633837 -0.01315580322722849 0 -0.033980799352045385 -0.012780691483017116 0 -0.033429830461482353 -0.013081527108126288 0 -0.033294834127339967 -0.012632527610745788 0 -0.033104385047734476 -0.013492295248050087 0 -0.033429830461482353 -0.013081527108126288 0 -0.033983939607633837 -0.01315580322722849 0 -0.033104385047734476 -0.013492295248050087 0 -0.034235405144078648 -0.013624880245897159 0 -0.033167789764731517 -0.01406002608065368 0 -0.034235405144078648 -0.013624880245897159 0 -0.033167789764731517 -0.01406002608065368 0 -0.035784275659989033 -0.014260481633213447 0 -0.033104385047734476 -0.013492295248050087 0 -0.033983939607633837 -0.01315580322722849 0 -0.034235405144078648 -0.013624880245897159 0 -0.033167789764731517 -0.01406002608065368 0 -0.033360576317516141 -0.014449508983409166 0 -0.032791870747949363 -0.014500193984034966 0 -0.033167789764731517 -0.01406002608065368 0 -0.032509273744377454 -0.014140909207703991 0 -0.032791870747949363 -0.014500193984034966 0 -0.031984452730445118 -0.01442051865264834 0 -0.032509273744377454 -0.014140909207703991 0 -0.032791870747949363 -0.014500193984034966 0 -0.032489622310061111 -0.015111146326926374 0 -0.032791870747949363 -0.014500193984034966 0 -0.033364406095247393 -0.014859818784658816 0 -0.032489622310061111 -0.015111146326926374 0 -0.031984452730445118 -0.01442051865264834 0 -0.032791870747949363 -0.014500193984034966 0 -0.033360576317516141 -0.014449508983409166 0 -0.032791870747949363 -0.014500193984034966 0 -0.033364406095247393 -0.014859818784658816 0 -0.033167789764731517 -0.01406002608065368 0 -0.036404470721709839 -0.015937489690234865 0 -0.035784275659989033 -0.014260481633213447 0 -0.033341219410732738 -0.014143366943024571 0 -0.035336988376990758 -0.015270389528480737 0 -0.033167789764731517 -0.01406002608065368 0 -0.033360576317516141 -0.014449508983409166 0 -0.03406892704070319 -0.014430961112012934 0 -0.033360576317516141 -0.014449508983409166 0 -0.033364406095247393 -0.014859818784658816 0 -0.03406892704070319 -0.014430961112012934 0 -0.036404470721709839 -0.015937489690234865 0 -0.035784275659989033 -0.014260481633213447 0 -0.03856779401180626 -0.014725246144266239 0 -0.034235405144078648 -0.013624880245897159 0 -0.035784275659989033 -0.014260481633213447 0 -0.037359983903377685 -0.012882880397317418 0 -0.034235405144078648 -0.013624880245897159 0 -0.037359983903377685 -0.012882880397317418 0 -0.03873225284060236 -0.010046527551538264 0 -0.034235405144078648 -0.013624880245897159 0 -0.037117556891603148 -0.012301102936171704 0 -0.034905664129625265 -0.012695724077073893 0 -0.035176811491274287 -0.010608306816644897 0 -0.038029658114945346 -0.020144899890514725 0 -0.035784275659989033 -0.014260481633213447 0 -0.037359983903377685 -0.012882880397317418 0 -0.03856779401180626 -0.014725246144266239 0 -0.037359983903377685 -0.012882880397317418 0 -0.039596960309810192 -0.012539142342262553 0 -0.03856779401180626 -0.014725246144266239 0 -0.037359983903377685 -0.012882880397317418 0 -0.039596960309810192 -0.012539142342262553 0 -0.03873225284060236 -0.010046527551538264 0 -0.039596960309810192 -0.012539142342262553 0 -0.041558002411219735 -0.011562953414123714 0 -0.03873225284060236 -0.010046527551538264 0 -0.039596960309810192 -0.012539142342262553 0 -0.040196570164235605 -0.014211981296564972 0 -0.042051059706676157 -0.013900034348071692 0 -0.039596960309810192 -0.012539142342262553 0 -0.040196570164235605 -0.014211981296564972 0 -0.03856779401180626 -0.014725246144266239 0 -0.03734884912746976 -0.014733598148249701 0 -0.035336988376990758 -0.015270389528480737 0 -0.039737371364917388 -0.017575168822573047 0 -0.036404470721709839 -0.015937489690234865 0 -0.03856779401180626 -0.014725246144266239 0 -0.040196570164235605 -0.014211981296564972 0 -0.03856779401180626 -0.014725246144266239 0 -0.040813361874567938 -0.015724448162981717 0 -0.039737371364917388 -0.017575168822573047 0 -0.03856779401180626 -0.014725246144266239 0 -0.040813361874567938 -0.015724448162981717 0 -0.014043647264187669 -0.016232836225820151 0 -0.014933218817679507 -0.01666600399432943 0 -0.014793365773061711 -0.015682102750465225 0 -0.014043647264187669 -0.016232836225820151 0 -0.013398785425428324 -0.017319844611166788 0 -0.012932436078227798 -0.016288570871494715 0 -0.014043647264187669 -0.016232836225820151 0 -0.013398785425428324 -0.017319844611166788 0 -0.014321363894371639 -0.017237271902329834 0 -0.014043647264187669 -0.016232836225820151 0 -0.014321363894371639 -0.017237271902329834 0 -0.014933218817679507 -0.01666600399432943 0 -0.014321363894371639 -0.017237271902329834 0 -0.014933218817679507 -0.01666600399432943 0 -0.015029209349421755 -0.017811867558313765 0 -0.014933218817679507 -0.01666600399432943 0 -0.015898940719180767 -0.017333218658966275 0 -0.015029209349421755 -0.017811867558313765 0 -0.014933218817679507 -0.01666600399432943 0 -0.015898940719180767 -0.017333218658966275 0 -0.01585755371142341 -0.015953282799750626 0 -0.014933218817679507 -0.01666600399432943 0 -0.01585755371142341 -0.015953282799750626 0 -0.014793365773061711 -0.015682102750465225 0 -0.014648901635639667 -0.014314550126518749 0 -0.01585755371142341 -0.015953282799750626 0 -0.014793365773061711 -0.015682102750465225 0 -0.012468121369183171 -0.011788847509085362 0 -0.01585755371142341 -0.015953282799750626 0 -0.016728854505698273 -0.014654489639663896 0 -0.012468121369183171 -0.011788847509085362 0 -0.013995283944859096 -0.0099102112219612189 0 -0.016728854505698273 -0.014654489639663896 0 -0.020818611374063028 -0.0092959037847910458 0 -0.014035405748298226 -0.016326688735117181 0 -0.012266988545797834 -0.0042436993990526781 0 -0.010798050340960763 -0.012315415763448309 0 -0.020818611374063028 -0.0092959037847910458 0 -0.019881658626501781 -0.015413246392010119 0 -0.014648901635639667 -0.014314550126518749 0 -0.014043647264187669 -0.016232836225820151 0 -0.012932436078227798 -0.016288570871494715 0 -0.014648901635639667 -0.014314550126518749 0 -0.014043647264187669 -0.016232836225820151 0 -0.014793365773061711 -0.015682102750465225 0 -0.027836900780226569 -0.010058400093282977 0 -0.025152881946829134 -0.011161423896125212 0 -0.025956304621206041 -0.012257279116085573 0 -0.032144724114713537 -0.0055784199652804652 0 -0.029534983484338685 -0.0084702614583778528 0 -0.031411729491557711 -0.0099393217898062665 0 -0.032144724114713537 -0.0055784199652804652 0 -0.03380958678119534 -0.0094701529584849085 0 -0.031411729491557711 -0.0099393217898062665 0 -0.029534983484338685 -0.0084702614583778528 0 -0.029719932398558066 -0.0098634301245658466 0 -0.031411729491557711 -0.0099393217898062665 0 -0.029719932398558066 -0.0098634301245658466 0 -0.030167528621768358 -0.011574475686825672 0 -0.031411729491557711 -0.0099393217898062665 0 -0.030167528621768358 -0.011574475686825672 0 -0.031411729491557711 -0.0099393217898062665 0 -0.031294886085365306 -0.014609133293092089 0 -0.02949197159667968 -0.011108528711918381 0 -0.028056473319701736 -0.013533159485039128 0 -0.03380958678119534 -0.0094701529584849085 0 -0.031411729491557711 -0.0099393217898062665 0 -0.031294886085365306 -0.014609133293092089 0 -0.030167528621768358 -0.011574475686825672 0 -0.030877170571438652 -0.014366960963539956 0 -0.031294886085365306 -0.014609133293092089 0 -0.025956304621206041 -0.012257279116085573 0 -0.025487598439092079 -0.01283761597555526 0 -0.023898921405116975 -0.013807180697151044 0 -0.025152881946829134 -0.011161423896125212 0 -0.025956304621206041 -0.012257279116085573 0 -0.023898921405116975 -0.013807180697151044 0 -0.019881658626501781 -0.015413246392010119 0 -0.021259295460586684 -0.016748398553169241 0 -0.013398785425428324 -0.017319844611166788 0 -0.012427156058667366 -0.016915251530939757 0 -0.01286882975859065 -0.017862895852318119 0 -0.013398785425428324 -0.017319844611166788 0 -0.012932436078227798 -0.016288570871494715 0 -0.012427156058667366 -0.016915251530939757 0 -0.013398785425428324 -0.017319844611166788 0 -0.01286882975859065 -0.017862895852318119 0 -0.013237693925476642 -0.018531976731584968 0 -0.012427156058667366 -0.016915251530939757 0 -0.01286882975859065 -0.017862895852318119 0 -0.012571311727948033 -0.018521073261410424 0 -0.021259295460586684 -0.016748398553169241 0 -0.017359186375869851 -0.020229509647614261 0 -0.012427156058667366 -0.016915251530939757 0 -0.012571311727948033 -0.018521073261410424 0 -0.011819894603364939 -0.019356131476827798 0 -0.012571311727948033 -0.018521073261410424 0 -0.013237693925476642 -0.018531976731584968 0 -0.012842289378053463 -0.019642005804198146 0 -0.01286882975859065 -0.017862895852318119 0 -0.012571311727948033 -0.018521073261410424 0 -0.013237693925476642 -0.018531976731584968 0 -0.022840347242910227 -0.016122052411734426 0 -0.023898921405116975 -0.013807180697151044 0 -0.02426597666170812 -0.014288730297752484 0 -0.025487598439092079 -0.01283761597555526 0 -0.023898921405116975 -0.013807180697151044 0 -0.02426597666170812 -0.014288730297752484 0 -0.023964322871494081 -0.019120196351890564 0 -0.023538351332727331 -0.019724140887152734 0 -0.023747474016511352 -0.020031247342424736 0 -0.021259295460586684 -0.016748398553169241 0 -0.023734745472550067 -0.017205122952541715 0 -0.023538351332727331 -0.019724140887152734 0 -0.023747474016511352 -0.020031247342424736 0 -0.02341191250813298 -0.020380987216233805 0 -0.011819894603364939 -0.019356131476827798 0 -0.012455792996148542 -0.020711691564815515 0 -0.011388762473259737 -0.021650612156829997 0 -0.023747474016511352 -0.020031247342424736 0 -0.02341191250813298 -0.020380987216233805 0 -0.0235172103163486 -0.020894828535568982 0 -0.017359186375869851 -0.020229509647614261 0 -0.017496570523622308 -0.020163930273982791 0 -0.022981364133815501 -0.020528734290569253 0 -0.023538351332727331 -0.019724140887152734 0 -0.02341191250813298 -0.020380987216233805 0 -0.013237693925476642 -0.018531976731584968 0 -0.012842289378053463 -0.019642005804198146 0 -0.013872842326913003 -0.019422394297674662 0 -0.011819894603364939 -0.019356131476827798 0 -0.012842289378053463 -0.019642005804198146 0 -0.012455792996148542 -0.020711691564815515 0 -0.012571311727948033 -0.018521073261410424 0 -0.011819894603364939 -0.019356131476827798 0 -0.012842289378053463 -0.019642005804198146 0 -0.012842289378053463 -0.019642005804198146 0 -0.013872842326913003 -0.019422394297674662 0 -0.013397231244733169 -0.020765658564535199 0 -0.012842289378053463 -0.019642005804198146 0 -0.013397231244733169 -0.020765658564535199 0 -0.012455792996148542 -0.020711691564815515 0 -0.013872842326913003 -0.019422394297674662 0 -0.014894182705538885 -0.02033095940472723 0 -0.013397231244733169 -0.020765658564535199 0 -0.013872842326913003 -0.019422394297674662 0 -0.014921487263962968 -0.018941902371645461 0 -0.014894182705538885 -0.02033095940472723 0 -0.013237693925476642 -0.018531976731584968 0 -0.013872842326913003 -0.019422394297674662 0 -0.014118181381191024 -0.018228434123966495 0 -0.014118181381191024 -0.018228434123966495 0 -0.015029209349421755 -0.017811867558313765 0 -0.014921487263962968 -0.018941902371645461 0 -0.013872842326913003 -0.019422394297674662 0 -0.014118181381191024 -0.018228434123966495 0 -0.014921487263962968 -0.018941902371645461 0 -0.014321363894371639 -0.017237271902329834 0 -0.014118181381191024 -0.018228434123966495 0 -0.015029209349421755 -0.017811867558313765 0 -0.013398785425428324 -0.017319844611166788 0 -0.014321363894371639 -0.017237271902329834 0 -0.014118181381191024 -0.018228434123966495 0 -0.013398785425428324 -0.017319844611166788 0 -0.013237693925476642 -0.018531976731584968 0 -0.014118181381191024 -0.018228434123966495 0 -0.015898940719180767 -0.017333218658966275 0 -0.015029209349421755 -0.017811867558313765 0 -0.016020522060901276 -0.018467684055652137 0 -0.015029209349421755 -0.017811867558313765 0 -0.014921487263962968 -0.018941902371645461 0 -0.016020522060901276 -0.018467684055652137 0 -0.014921487263962968 -0.018941902371645461 0 -0.016020522060901276 -0.018467684055652137 0 -0.015803898884118386 -0.019705948434906483 0 -0.014921487263962968 -0.018941902371645461 0 -0.015803898884118386 -0.019705948434906483 0 -0.014894182705538885 -0.02033095940472723 0 -0.015803898884118386 -0.019705948434906483 0 -0.014894182705538885 -0.02033095940472723 0 -0.015807533177917284 -0.020854067853223968 0 -0.015803898884118386 -0.019705948434906483 0 -0.016409217607680552 -0.020280371978895061 0 -0.015807533177917284 -0.020854067853223968 0 -0.016409217607680552 -0.020280371978895061 0 -0.017061960935019008 -0.019498516782301082 0 -0.017516346242662077 -0.021011556753684536 0 -0.015803898884118386 -0.019705948434906483 0 -0.016409217607680552 -0.020280371978895061 0 -0.017061960935019008 -0.019498516782301082 0 -0.016020522060901276 -0.018467684055652137 0 -0.015803898884118386 -0.019705948434906483 0 -0.017061960935019008 -0.019498516782301082 0 -0.017061960935019008 -0.019498516782301082 0 -0.01898553883156991 -0.019780143126192622 0 -0.017516346242662077 -0.021011556753684536 0 -0.010095185328196501 -0.016594633906813386 0 -0.0078009765245710544 -0.012834372679820665 0 -0.010874433914333513 -0.012871944079470914 0 -0.017061960935019008 -0.019498516782301082 0 -0.01898553883156991 -0.019780143126192622 0 -0.017924170966810378 -0.017624266316549703 0 -0.014433215470005915 -0.018132992443964664 0 -0.012903138979838949 -0.015149535498509944 0 -0.015898940719180767 -0.017333218658966275 0 -0.016020522060901276 -0.018467684055652137 0 -0.017924170966810378 -0.017624266316549703 0 -0.016020522060901276 -0.018467684055652137 0 -0.017061960935019008 -0.019498516782301082 0 -0.017924170966810378 -0.017624266316549703 0 -0.01585755371142341 -0.015953282799750626 0 -0.017924170966810378 -0.017624266316549703 0 -0.016728854505698273 -0.014654489639663896 0 -0.015898940719180767 -0.017333218658966275 0 -0.01585755371142341 -0.015953282799750626 0 -0.017924170966810378 -0.017624266316549703 0 -0.012903138979838949 -0.015149535498509944 0 -0.010798050340960763 -0.012315415763448309 0 -0.0078009765245710544 -0.012834372679820665 0 -0.0095965040624847661 -0.0089936965685059843 0 -0.010874433914333513 -0.012871944079470914 0 -0.0078009765245710544 -0.012834372679820665 0 -0.0095965040624847661 -0.0089936965685059843 0 -0.0055830778996584229 -0.0091471365273662741 0 -0.0095965040624847661 -0.0089936965685059843 0 -0.0071511260919830842 -0.0062181544315069032 0 -0.009538425820037685 -0.005938755067576856 0 -0.0055830778996584229 -0.0091471365273662741 0 -0.0071511260919830842 -0.0062181544315069032 0 -0.0055136746818973898 -0.0063587404693011829 0 -0.0095965040624847661 -0.0089936965685059843 0 -0.0055830778996584229 -0.0091471365273662741 0 -0.0071511260919830842 -0.0062181544315069032 0 -0.015020516815523927 -0.0092197754647479271 0 -0.015039337830089025 -0.0058081869215203565 0 -0.011961673952132415 -0.0059602457435550529 0 -0.011807452065329403 -0.010282927486320401 0 -0.015020516815523927 -0.0092197754647479271 0 -0.011961673952132415 -0.0059602457435550529 0 -0.012574308600439002 -0.010642206734990957 0 -0.012476895544442137 -0.0060772851866351292 0 -0.0095965040624847661 -0.0089936965685059843 0 -0.009538425820037685 -0.005938755067576856 0 -0.012998119655150698 -0.0062607255332038864 0 -0.0095965040624847661 -0.0089936965685059843 0 -0.013337323344455296 -0.010740282424465486 0 -0.012998119655150698 -0.0062607255332038864 0 -0.0095965040624847661 -0.0089936965685059843 0 -0.013337323344455296 -0.010740282424465486 0 -0.010874433914333513 -0.012871944079470914 0 -0.011807452065329403 -0.010282927486320401 0 -0.013962129299624716 -0.012323566550515233 0 -0.015020516815523927 -0.0092197754647479271 0 -0.012574308600439002 -0.010642206734990957 0 -0.012732915508609183 -0.01445891501495233 0 -0.011807452065329403 -0.010282927486320401 0 -0.011826755967098434 -0.014636869008979593 0 -0.013962129299624716 -0.012323566550515233 0 -0.011826755967098434 -0.014636869008979593 0 -0.013962129299624716 -0.012323566550515233 0 -0.014787581676747841 -0.014651645111029381 0 -0.010095185328196501 -0.016594633906813386 0 -0.013568667336725897 -0.015231841035747389 0 -0.010874433914333513 -0.012871944079470914 0 -0.013337323344455296 -0.010740282424465486 0 -0.013568667336725897 -0.015231841035747389 0 -0.010874433914333513 -0.012871944079470914 0 -0.010095185328196501 -0.016594633906813386 0 -0.012467042059534299 -0.017535905390149233 0 -0.012475966919465812 -0.020424832255417667 0 -0.010095185328196501 -0.016594633906813386 0 -0.013568667336725897 -0.015231841035747389 0 -0.012467042059534299 -0.017535905390149233 0 -0.011826755967098434 -0.014636869008979593 0 -0.013613179737370534 -0.016275474932581899 0 -0.011948485355522485 -0.018871007066943751 0 -0.013613179737370534 -0.016275474932581899 0 -0.01589248836891877 -0.016841731054685932 0 -0.011948485355522485 -0.018871007066943751 0 -0.013568667336725897 -0.015231841035747389 0 -0.012467042059534299 -0.017535905390149233 0 -0.013749279121711056 -0.01978015899930495 0 -0.011826755967098434 -0.014636869008979593 0 -0.013613179737370534 -0.016275474932581899 0 -0.014787581676747841 -0.014651645111029381 0 -0.012732915508609183 -0.01445891501495233 0 -0.012473046389605185 -0.021532922683292759 0 -0.013613179737370534 -0.016275474932581899 0 -0.01589248836891877 -0.016841731054685932 0 -0.014787581676747841 -0.014651645111029381 0 -0.01589248836891877 -0.016841731054685932 0 -0.01731770916004818 -0.014492508433159239 0 -0.014787581676747841 -0.014651645111029381 0 -0.013570077976077939 -0.018006986181654749 0 -0.019796809966163103 -0.015420709887986189 0 -0.012514579293917284 -0.01909577879929529 0 -0.017474978007579273 -0.019052104331257695 0 -0.019815843319083998 -0.015386122701737989 0 -0.012514579293917284 -0.01909577879929529 0 -0.017474978007579273 -0.019052104331257695 0 -0.016058528736872378 -0.021154016490403868 0 -0.01589248836891877 -0.016841731054685932 0 -0.01731770916004818 -0.014492508433159239 0 -0.019815843319083998 -0.015386122701737989 0 -0.01731770916004818 -0.014492508433159239 0 -0.018925782526881058 -0.013662383651971994 0 -0.019815843319083998 -0.015386122701737989 0 -0.01731770916004818 -0.014492508433159239 0 -0.018925782526881058 -0.013662383651971994 0 -0.018029346584220094 -0.013018065542351295 0 -0.018925782526881058 -0.013662383651971994 0 -0.019276309196500318 -0.012032645591099587 0 -0.018029346584220094 -0.013018065542351295 0 -0.01731770916004818 -0.014492508433159239 0 -0.018029346584220094 -0.013018065542351295 0 -0.016352693805653882 -0.012804908384820042 0 -0.018029346584220094 -0.013018065542351295 0 -0.016352693805653882 -0.012804908384820042 0 -0.01799009819605275 -0.010605671316832937 0 -0.013962129299624716 -0.012323566550515233 0 -0.016352693805653882 -0.012804908384820042 0 -0.014787581676747841 -0.014651645111029381 0 -0.01731770916004818 -0.014492508433159239 0 -0.016352693805653882 -0.012804908384820042 0 -0.014787581676747841 -0.014651645111029381 0 -0.00011855737119847235 -0.016389041543034295 0 2.2813320878136514e-05 -0.018108733910647573 0 -0.0012798045512173669 -0.018564135384002717 0 2.2813320878136514e-05 -0.018108733910647573 0 -3.2530879195565765e-05 -0.019833135540865004 0 -0.0012798045512173669 -0.018564135384002717 0 2.2813320878136514e-05 -0.018108733910647573 0 0.0015696959691456291 -0.017388973355646483 0 -3.2530879195565765e-05 -0.019833135540865004 0 -0.00011855737119847235 -0.016389041543034295 0 2.2813320878136514e-05 -0.018108733910647573 0 0.0015696959691456291 -0.017388973355646483 0 -0.00011855737119847235 -0.016389041543034295 0 0.0015696959691456291 -0.017388973355646483 0 0.0014876510501633602 -0.015263054604450672 0 0.0015696959691456291 -0.017388973355646483 0 0.0038090316722308357 -0.014630622802885657 0 0.0035732034130369038 -0.019757752583091252 0 -0.017474978007579273 -0.019052104331257695 0 -0.019815843319083998 -0.015386122701737989 0 -0.019978524278510153 -0.021425545563406489 0 -0.0084167324902224994 -0.01349737339860797 0 -0.0074127103853739431 -0.023351024526541128 0 -0.019815843319083998 -0.015386122701737989 0 -0.020442944821442193 -0.013595357467796195 0 -0.019978524278510153 -0.021425545563406489 0 -0.018925782526881058 -0.013662383651971994 0 -0.019815843319083998 -0.015386122701737989 0 -0.020442944821442193 -0.013595357467796195 0 -0.018925782526881058 -0.013662383651971994 0 -0.019276309196500318 -0.012032645591099587 0 -0.020442944821442193 -0.013595357467796195 0 0.0038090316722308357 -0.014630622802885657 0 0.0020155259285772414 -0.01379072087574168 0 0.0021253597660515567 -0.011632960378798386 0 0.0038090316722308357 -0.014630622802885657 0 0.0020155259285772414 -0.01379072087574168 0 0.0014876510501633602 -0.015263054604450672 0 0.0015696959691456291 -0.017388973355646483 0 0.0038090316722308357 -0.014630622802885657 0 0.0014876510501633602 -0.015263054604450672 0 0.00029265191186697223 -0.013919507115674154 0 -0.0012679862773641926 -0.011753722048313353 0 -0.0032121333018772713 -0.01406674815402717 0 -0.00011855737119847235 -0.016389041543034295 0 0.00029265191186697223 -0.013919507115674154 0 -0.0032121333018772713 -0.01406674815402717 0 -0.00011855737119847235 -0.016389041543034295 0 0.0014876510501633602 -0.015263054604450672 0 0.00029265191186697223 -0.013919507115674154 0 0.0020155259285772414 -0.01379072087574168 0 0.0014876510501633602 -0.015263054604450672 0 0.00029265191186697223 -0.013919507115674154 0 0.00029265191186697223 -0.013919507115674154 0 -0.0012679862773641926 -0.011753722048313353 0 0.0021253597660515567 -0.011632960378798386 0 0.0020155259285772414 -0.01379072087574168 0 0.00029265191186697223 -0.013919507115674154 0 0.0021253597660515567 -0.011632960378798386 0 -0.00064530942494028798 -0.0090563470048094577 0 -0.0012679862773641926 -0.011753722048313353 0 0.0021253597660515567 -0.011632960378798386 0 -0.00064530942494028798 -0.0090563470048094577 0 0.0021253597660515567 -0.011632960378798386 0 0.0038527468412507954 -0.0082269182734323616 0 -0.019276309196500318 -0.012032645591099587 0 -0.020442944821442193 -0.013595357467796195 0 -0.020514114236084364 -0.0090820955564691747 0 -0.0084167324902224994 -0.01349737339860797 0 -0.0083378529425978919 -0.0087797363158084816 0 0.0038090316722308357 -0.014630622802885657 0 0.0021253597660515567 -0.011632960378798386 0 0.0038527468412507954 -0.0082269182734323616 0 -0.020514114236084364 -0.0090820955564691747 0 -0.019379715265422492 -0.0063428243154175674 0 -0.020697304687072551 -0.0045785233678913798 0 -0.0083378529425978919 -0.0087797363158084816 0 -0.0086560925573444716 -0.0029664406243003452 0 -0.00064530942494028798 -0.0090563470048094577 0 -0.00074217662903679129 -0.0049087062892327372 0 -0.0045819068684067104 -0.0090501606126329667 0 -0.00064530942494028798 -0.0090563470048094577 0 0.0038527468412507954 -0.0082269182734323616 0 -0.00074217662903679129 -0.0049087062892327372 0 0.0038527468412507954 -0.0082269182734323616 0 -0.00074217662903679129 -0.0049087062892327372 0 0.0012298536676573562 -0.0018420901941799848 0 -0.013962129299624716 -0.012323566550515233 0 -0.016352693805653882 -0.012804908384820042 0 -0.015020516815523927 -0.0092197754647479271 0 -0.016352693805653882 -0.012804908384820042 0 -0.01799009819605275 -0.010605671316832937 0 -0.015020516815523927 -0.0092197754647479271 0 -0.019276309196500318 -0.012032645591099587 0 -0.020514114236084364 -0.0090820955564691747 0 -0.01799009819605275 -0.010605671316832937 0 -0.019276309196500318 -0.012032645591099587 0 -0.018029346584220094 -0.013018065542351295 0 -0.01799009819605275 -0.010605671316832937 0 -0.020514114236084364 -0.0090820955564691747 0 -0.017664224901626471 -0.007039844111424799 0 -0.019379715265422492 -0.0063428243154175674 0 -0.020514114236084364 -0.0090820955564691747 0 -0.01799009819605275 -0.010605671316832937 0 -0.017664224901626471 -0.007039844111424799 0 -0.01799009819605275 -0.010605671316832937 0 -0.017664224901626471 -0.007039844111424799 0 -0.015020516815523927 -0.0092197754647479271 0 -0.017664224901626471 -0.007039844111424799 0 -0.015020516815523927 -0.0092197754647479271 0 -0.015039337830089025 -0.0058081869215203565 0 -0.017664224901626471 -0.007039844111424799 0 -0.015039337830089025 -0.0058081869215203565 0 -0.016544815795985355 -0.0034994715509174012 0 -0.015039337830089025 -0.0058081869215203565 0 -0.016544815795985355 -0.0034994715509174012 0 -0.014133483604456367 -0.0036302914331639209 0 -0.017664224901626471 -0.007039844111424799 0 -0.018651249543535853 -0.0046881103975471676 0 -0.016544815795985355 -0.0034994715509174012 0 -0.017664224901626471 -0.007039844111424799 0 -0.019379715265422492 -0.0063428243154175674 0 -0.018651249543535853 -0.0046881103975471676 0 -0.018814851145327095 -0.0021483712967047108 0 -0.016544815795985355 -0.0034994715509174012 0 -0.016952040948357571 -0.00078014953147152212 0 -0.018651249543535853 -0.0046881103975471676 0 -0.018814851145327095 -0.0021483712967047108 0 -0.016544815795985355 -0.0034994715509174012 0 -0.018651249543535853 -0.0046881103975471676 0 -0.018814851145327095 -0.0021483712967047108 0 -0.020697304687072551 -0.0045785233678913798 0 -0.016544815795985355 -0.0034994715509174012 0 -0.014794044288649211 -0.0010959031580080483 0 -0.016952040948357571 -0.00078014953147152212 0 -0.016544815795985355 -0.0034994715509174012 0 -0.014794044288649211 -0.0010959031580080483 0 -0.014133483604456367 -0.0036302914331639209 0 -0.00074217662903679129 -0.0049087062892327372 0 0.0012298536676573562 -0.0018420901941799848 0 -0.0027839015684734255 -3.7654164088329915e-05 0 0.0010275216564703314 -0.001679175855552823 0 -0.0029677772367461002 0.00035766245548073485 0 0.0038527468412507954 -0.0082269182734323616 0 0.0012298536676573562 -0.0018420901941799848 0 0.0034350938353223956 -0.0013647493368693722 0 -0.019379715265422492 -0.0063428243154175674 0 -0.018651249543535853 -0.0046881103975471676 0 -0.020697304687072551 -0.0045785233678913798 0 -0.0086560925573444716 -0.0029664406243003452 0 -0.009052144817123969 0.0022360998474376544 0 0.0012298536676573562 -0.0018420901941799848 0 0.0034350938353223956 -0.0013647493368693722 0 0.00047051316329928733 0.0021335496943820035 0 0.0034350938353223956 -0.0013647493368693722 0 0.00047051316329928733 0.0021335496943820035 0 0.0026178276260851994 0.0048137321728043466 0 -0.018814851145327095 -0.0021483712967047108 0 -0.020697304687072551 -0.0045785233678913798 0 -0.0208625431893882 -0.00021916223001887495 0 0.0012298536676573562 -0.0018420901941799848 0 0.00047051316329928733 0.0021335496943820035 0 -0.0025462634217818217 0.00052149920656628039 0 0.00047051316329928733 0.0021335496943820035 0 -0.0025462634217818217 0.00052149920656628039 0 -0.0033666065560520771 0.0032689736963749795 0 0.00047051316329928733 0.0021335496943820035 0 -0.0024279574030645814 0.0066981029912475155 0 -0.0033666065560520771 0.0032689736963749795 0 0.00047051316329928733 0.0021335496943820035 0 0.00068271705656516065 0.0074497632074871176 0 -0.0024279574030645814 0.0066981029912475155 0 -0.0208625431893882 -0.00021916223001887495 0 -0.01834097457334976 0.00077749270343510613 0 -0.019439638711719893 0.0025007365742044912 0 0.00047051316329928733 0.0021335496943820035 0 0.0026178276260851994 0.0048137321728043466 0 0.00068271705656516065 0.0074497632074871176 0 -0.010043895563618878 0.0071403491206106246 0 -0.009052144817123969 0.0022360998474376544 0 -0.021009248894106394 0.0040998980967024978 0 -0.0208625431893882 -0.00021916223001887495 0 -0.019439638711719893 0.0025007365742044912 0 0.0019320493390174156 0.010083040312409584 0 0.0026178276260851994 0.0048137321728043466 0 0.00068271705656516065 0.0074497632074871176 0 -0.0001700456380974921 0.010889058238797924 0 0.00068271705656516065 0.0074497632074871176 0 -0.0024279574030645814 0.0066981029912475155 0 -0.00039468466749127738 0.010807479668617259 0 -0.0026411825684808485 0.0066176396397915355 0 0.0019320493390174156 0.010083040312409584 0 -0.0001700456380974921 0.010889058238797924 0 0.00068271705656516065 0.0074497632074871176 0 -0.014794044288649211 -0.0010959031580080483 0 -0.016952040948357571 -0.00078014953147152212 0 -0.015881552582472876 0.0016804690108304648 0 -0.018814851145327095 -0.0021483712967047108 0 -0.0208625431893882 -0.00021916223001887495 0 -0.01834097457334976 0.00077749270343510613 0 -0.016952040948357571 -0.00078014953147152212 0 -0.01834097457334976 0.00077749270343510613 0 -0.015881552582472876 0.0016804690108304648 0 -0.018814851145327095 -0.0021483712967047108 0 -0.016952040948357571 -0.00078014953147152212 0 -0.01834097457334976 0.00077749270343510613 0 -0.01834097457334976 0.00077749270343510613 0 -0.019439638711719893 0.0025007365742044912 0 -0.017850968968544895 0.0033570081004652081 0 -0.01834097457334976 0.00077749270343510613 0 -0.017850968968544895 0.0033570081004652081 0 -0.015881552582472876 0.0016804690108304648 0 -0.019148059511043602 0.0044743394866479944 0 -0.019439638711719893 0.0025007365742044912 0 -0.017850968968544895 0.0033570081004652081 0 -0.015672932454503213 0.0046294302902843412 0 -0.015881552582472876 0.0016804690108304648 0 -0.013990684965158026 0.0033340170906527382 0 -0.015672932454503213 0.0046294302902843412 0 -0.017850968968544895 0.0033570081004652081 0 -0.015881552582472876 0.0016804690108304648 0 -0.015881552582472876 0.0016804690108304648 0 -0.013990684965158026 0.0033340170906527382 0 -0.013137876643057116 0.0011177087678272389 0 -0.013990684965158026 0.0033340170906527382 0 -0.013137876643057116 0.0011177087678272389 0 -0.011591605402772976 0.0033826257333257215 0 -0.014794044288649211 -0.0010959031580080483 0 -0.015881552582472876 0.0016804690108304648 0 -0.013137876643057116 0.0011177087678272389 0 -0.014794044288649211 -0.0010959031580080483 0 -0.013137876643057116 0.0011177087678272389 0 -0.012370258905816306 -0.0019563583351245727 0 -0.01048833939412998 0.00080110061903993694 0 -0.0098265411455168272 -0.0030003763853864007 0 -0.012370258905816306 -0.0019563583351245727 0 -0.013137876643057116 0.0011177087678272389 0 -0.01048833939412998 0.00080110061903993694 0 -0.012370258905816306 -0.0019563583351245727 0 -0.013137876643057116 0.0011177087678272389 0 -0.01048833939412998 0.00080110061903993694 0 -0.011591605402772976 0.0033826257333257215 0 -0.0090788544907587799 0.0043241436990367 0 -0.01048833939412998 0.00080110061903993694 0 -0.011591605402772976 0.0033826257333257215 0 -0.0090788544907587799 0.0043241436990367 0 -0.01048833939412998 0.00080110061903993694 0 -0.0071411759163311044 0.0013904393971033095 0 -0.013654968679262112 0.0064374310155233469 0 -0.012813763707117148 0.0018900828162759229 0 -0.018073340376852785 0.0039960982599026029 0 -0.017650084996618486 0.0028100194208840615 0 -0.01839130589119042 0.0028793442333112386 0 -0.0071411759163311044 0.0013904393971033095 0 -0.0084452784309956824 -0.00071404297960219734 0 -0.0063024598537673778 -0.0019602232867159024 0 -0.017650084996618486 0.0028100194208840615 0 -0.01839130589119042 0.0028793442333112386 0 -0.017908047426109408 0.0020944187840468004 0 -0.0071411759163311044 0.0013904393971033095 0 -0.0054727017055040354 -0.0015065436284947464 0 -0.0063024598537673778 -0.0019602232867159024 0 -0.012813763707117148 0.0018900828162759229 0 -0.010742333131494551 -0.00010021407433217353 0 -0.01048833939412998 0.00080110061903993694 0 -0.0084452784309956824 -0.00071404297960219734 0 -0.0098265411455168272 -0.0030003763853864007 0 -0.01048833939412998 0.00080110061903993694 0 -0.0071411759163311044 0.0013904393971033095 0 -0.0084452784309956824 -0.00071404297960219734 0 -0.0084452784309956824 -0.00071404297960219734 0 -0.0098265411455168272 -0.0030003763853864007 0 -0.0078130888991791558 -0.0035984738077791292 0 -0.0098265411455168272 -0.0030003763853864007 0 -0.0078130888991791558 -0.0035984738077791292 0 -0.009538425820037685 -0.005938755067576856 0 -0.0033472492329241206 -0.0054480753493472119 0 -0.0063024598537673778 -0.0019602232867159024 0 -0.0059608385029967939 -0.0046238830378006607 0 -0.0084452784309956824 -0.00071404297960219734 0 -0.0078130888991791558 -0.0035984738077791292 0 -0.0063024598537673778 -0.0019602232867159024 0 -0.0078130888991791558 -0.0035984738077791292 0 -0.0063024598537673778 -0.0019602232867159024 0 -0.0059608385029967939 -0.0046238830378006607 0 -0.0078130888991791558 -0.0035984738077791292 0 -0.0059608385029967939 -0.0046238830378006607 0 -0.0071511260919830842 -0.0062181544315069032 0 -0.0059608385029967939 -0.0046238830378006607 0 -0.0071511260919830842 -0.0062181544315069032 0 -0.0055136746818973898 -0.0063587404693011829 0 -0.0078130888991791558 -0.0035984738077791292 0 -0.0071511260919830842 -0.0062181544315069032 0 -0.009538425820037685 -0.005938755067576856 0 -0.0098265411455168272 -0.0030003763853864007 0 -0.009538425820037685 -0.005938755067576856 0 -0.012998119655150698 -0.0062607255332038864 0 -0.015039337830089025 -0.0058081869215203565 0 -0.011961673952132415 -0.0059602457435550529 0 -0.014133483604456367 -0.0036302914331639209 0 -0.012476895544442137 -0.0060772851866351292 0 -0.012378517862332778 -0.0022788999896024118 0 -0.011961673952132415 -0.0059602457435550529 0 -0.012370258905816306 -0.0019563583351245727 0 -0.014133483604456367 -0.0036302914331639209 0 -0.014794044288649211 -0.0010959031580080483 0 -0.012370258905816306 -0.0019563583351245727 0 -0.014133483604456367 -0.0036302914331639209 0 -0.0098265411455168272 -0.0030003763853864007 0 -0.012998119655150698 -0.0062607255332038864 0 -0.012370258905816306 -0.0019563583351245727 0 -0.056989230347742614 -0.010325017072059109 0 -0.056650137567795175 -0.012465264595461949 0 -0.058674858123354393 -0.011359441862301355 0 -0.056989230347742614 -0.010325017072059109 0 -0.054999707069588261 -0.011865813273962739 0 -0.056650137567795175 -0.012465264595461949 0 -0.054999707069588261 -0.011865813273962739 0 -0.056650137567795175 -0.012465264595461949 0 -0.054999701851446092 -0.01511279843079919 0 -0.056650137567795175 -0.012465264595461949 0 -0.057926705265237952 -0.012949423843550828 0 -0.05679865723137139 -0.014303187411979256 0 -0.056650137567795175 -0.012465264595461949 0 -0.057926705265237952 -0.012949423843550828 0 -0.058674858123354393 -0.011359441862301355 0 -0.057926705265237952 -0.012949423843550828 0 -0.059639911706831819 -0.012936573651472702 0 -0.058674858123354393 -0.011359441862301355 0 -0.059639911706831819 -0.012936573651472702 0 -0.060264805421966786 -0.011217856314487415 0 -0.058674858123354393 -0.011359441862301355 0 -0.060264805421966786 -0.011217856314487415 0 -0.059531981016200941 -0.010327408950578395 0 -0.058674858123354393 -0.011359441862301355 0 -0.060264805421966786 -0.011217856314487415 0 -0.059531981016200941 -0.010327408950578395 0 -0.060533488640552753 -0.0098063656278399181 0 -0.056989230347742614 -0.010325017072059109 0 -0.058674858123354393 -0.011359441862301355 0 -0.058783402888878844 -0.009553805897238114 0 -0.059531981016200941 -0.010327408950578395 0 -0.058674858123354393 -0.011359441862301355 0 -0.058783402888878844 -0.009553805897238114 0 -0.058783402888878844 -0.009553805897238114 0 -0.059860063515048544 -0.0089109433070112889 0 -0.059174674437283262 -0.0077566599362923396 0 -0.059531981016200941 -0.010327408950578395 0 -0.059860063515048544 -0.0089109433070112889 0 -0.060533488640552753 -0.0098063656278399181 0 -0.059531981016200941 -0.010327408950578395 0 -0.058783402888878844 -0.009553805897238114 0 -0.059860063515048544 -0.0089109433070112889 0 -0.059860063515048544 -0.0089109433070112889 0 -0.060886603130535066 -0.0085517975666862325 0 -0.060533488640552753 -0.0098063656278399181 0 -0.059860063515048544 -0.0089109433070112889 0 -0.060424587485164945 -0.0075036931076235547 0 -0.060886603130535066 -0.0085517975666862325 0 -0.059860063515048544 -0.0089109433070112889 0 -0.060424587485164945 -0.0075036931076235547 0 -0.059174674437283262 -0.0077566599362923396 0 -0.060424587485164945 -0.0075036931076235547 0 -0.059174674437283262 -0.0077566599362923396 0 -0.059875607016008296 -0.0064622616166723429 0 -0.058783402888878844 -0.009553805897238114 0 -0.059174674437283262 -0.0077566599362923396 0 -0.057498458674235524 -0.0081620331509008569 0 -0.059174674437283262 -0.0077566599362923396 0 -0.057498458674235524 -0.0081620331509008569 0 -0.058533745027230258 -0.0061511803436122645 0 -0.057498458674235524 -0.0081620331509008569 0 -0.056601873779504673 -0.0064944546024458929 0 -0.058533745027230258 -0.0061511803436122645 0 -0.056989230347742614 -0.010325017072059109 0 -0.057498458674235524 -0.0081620331509008569 0 -0.054999784416067649 -0.0086166259298118362 0 -0.056989230347742614 -0.010325017072059109 0 -0.058783402888878844 -0.009553805897238114 0 -0.057498458674235524 -0.0081620331509008569 0 -0.056989230347742614 -0.010325017072059109 0 -0.054999707069588261 -0.011865813273962739 0 -0.054999784416067649 -0.0086166259298118362 0 -0.057498458674235524 -0.0081620331509008569 0 -0.054999784416067649 -0.0086166259298118362 0 -0.056601873779504673 -0.0064944546024458929 0 -0.054999793515752057 -0.0053679054893385871 0 -0.056601873779504673 -0.0064944546024458929 0 -0.057228948574654 -0.0050665423434338372 0 -0.054999784416067649 -0.0086166259298118362 0 -0.054999793515752057 -0.0053679054893385871 0 -0.056601873779504673 -0.0064944546024458929 0 -0.056601873779504673 -0.0064944546024458929 0 -0.057228948574654 -0.0050665423434338372 0 -0.058533745027230258 -0.0061511803436122645 0 -0.057228948574654 -0.0050665423434338372 0 -0.057193050137800627 -0.0030133470897676733 0 -0.058760142888044396 -0.0042732501693946139 0 -0.054999793515752057 -0.0053679054893385871 0 -0.057228948574654 -0.0050665423434338372 0 -0.057193050137800627 -0.0030133470897676733 0 -0.054999793515752057 -0.0053679054893385871 0 -0.054999836691177528 -0.0021190009050675051 0 -0.057193050137800627 -0.0030133470897676733 0 -0.054999836691177528 -0.0021190009050675051 0 -0.057193050137800627 -0.0030133470897676733 0 -0.057007535896409077 -0.00034257966142115859 0 -0.057193050137800627 -0.0030133470897676733 0 -0.057007535896409077 -0.00034257966142115859 0 -0.05840245226773879 -0.0014082553361302113 0 -0.054999843789640374 0.0011299679261494936 0 -0.054999836691177528 -0.0021190009050675051 0 -0.057007535896409077 -0.00034257966142115859 0 -0.05909195200416209 -0.00058134260655969201 0 -0.059532975993747794 -0.0020040231795167627 0 -0.060949313602078961 -0.002255623729109871 0 -0.056685159996665999 0.0036326484101382593 0 -0.057500974128426321 0.0035709542193304166 0 -0.057663588671322083 0.0026753551176035336 0 -0.058151076744093047 0.0015365769011608159 0 -0.059475582647616175 0.00031519877370591855 0 -0.058151076744093047 0.0015365769011608159 0 -0.059737541053684395 -0.0021215952920159192 0 -0.059364792427342196 0.00014159020230911949 0 -0.059781010638182586 -0.0015862209796756027 0 -0.05840245226773879 -0.0014082553361302113 0 -0.059364792427342196 0.00014159020230911949 0 -0.057007535896409077 -0.00034257966142115859 0 -0.05840245226773879 -0.0014082553361302113 0 -0.059781010638182586 -0.0015862209796756027 0 -0.05840245226773879 -0.0014082553361302113 0 -0.058844186889039175 -0.0027992373384332467 0 -0.057193050137800627 -0.0030133470897676733 0 -0.058844186889039175 -0.0027992373384332467 0 -0.058760142888044396 -0.0042732501693946139 0 -0.057193050137800627 -0.0030133470897676733 0 -0.05840245226773879 -0.0014082553361302113 0 -0.058844186889039175 -0.0027992373384332467 0 -0.059781010638182586 -0.0015862209796756027 0 -0.058844186889039175 -0.0027992373384332467 0 -0.060024103344076783 -0.0033571695544372428 0 -0.058844186889039175 -0.0027992373384332467 0 -0.060024103344076783 -0.0033571695544372428 0 -0.058760142888044396 -0.0042732501693946139 0 -0.060024103344076783 -0.0033571695544372428 0 -0.060967793102878198 -0.0040039783242879178 0 -0.060949313602078961 -0.002255623729109871 0 -0.059532975993747794 -0.0020040231795167627 0 -0.060024103344076783 -0.0033571695544372428 0 -0.060949313602078961 -0.002255623729109871 0 -0.059737541053684395 -0.0021215952920159192 0 -0.059961909740717925 -0.0030153060746941911 0 -0.060024103344076783 -0.0033571695544372428 0 -0.060175291213343279 -0.0050396139341163729 0 -0.058760142888044396 -0.0042732501693946139 0 -0.060024103344076783 -0.0033571695544372428 0 -0.060175291213343279 -0.0050396139341163729 0 -0.060967793102878198 -0.0040039783242879178 0 -0.057228948574654 -0.0050665423434338372 0 -0.058760142888044396 -0.0042732501693946139 0 -0.058533745027230258 -0.0061511803436122645 0 -0.060175291213343279 -0.0050396139341163729 0 -0.058760142888044396 -0.0042732501693946139 0 -0.058533745027230258 -0.0061511803436122645 0 -0.059174674437283262 -0.0077566599362923396 0 -0.058533745027230258 -0.0061511803436122645 0 -0.059875607016008296 -0.0064622616166723429 0 -0.060175291213343279 -0.0050396139341163729 0 -0.059875607016008296 -0.0064622616166723429 0 -0.061315474523227539 -0.0059841840170713357 0 -0.060424587485164945 -0.0075036931076235547 0 -0.059875607016008296 -0.0064622616166723429 0 -0.061315474523227539 -0.0059841840170713357 0 -0.060175291213343279 -0.0050396139341163729 0 -0.058533745027230258 -0.0061511803436122645 0 -0.059875607016008296 -0.0064622616166723429 0 -0.060175291213343279 -0.0050396139341163729 0 -0.061315474523227539 -0.0059841840170713357 0 -0.061780061975037874 -0.0051608664029553506 0 -0.061315474523227539 -0.0059841840170713357 0 -0.063482987149813028 -0.0072020928835338973 0 -0.061580298853679195 -0.0073764370603932941 0 -0.062548672079598619 -0.004813483434268814 0 -0.061780061975037874 -0.0051608664029553506 0 -0.063337655611611046 -0.0068271066315284427 0 -0.062802865032332719 -0.0062042143627750726 0 -0.059751709823658204 -0.0073733997893587304 0 -0.061315474523227539 -0.0059841840170713357 0 -0.061780061975037874 -0.0051608664029553506 0 -0.063337655611611046 -0.0068271066315284427 0 -0.062548672079598619 -0.004813483434268814 0 -0.063766209142019983 -0.0050482181895104544 0 -0.063337655611611046 -0.0068271066315284427 0 -0.050805885771520058 -0.0027504247359525658 0 -0.051454022995971571 -0.002390382434622093 0 -0.051701020203627233 -0.0035438391126720497 0 -0.062548672079598619 -0.004813483434268814 0 -0.062641210316039142 -0.0040520971303126966 0 -0.063766209142019983 -0.0050482181895104544 0 -0.062548672079598619 -0.004813483434268814 0 -0.062720661444393477 -0.0039441256601856576 0 -0.061796458585837419 -0.0040276821243672711 0 -0.060925461410835401 -0.0043422448914222957 0 -0.059250648546857354 -0.0021289685033117167 0 -0.059250648546857354 -0.0021289685033117167 0 -0.052169637080910568 -0.0055426024133755063 0 -0.060175291213343279 -0.0050396139341163729 0 -0.061780061975037874 -0.0051608664029553506 0 -0.060967793102878198 -0.0040039783242879178 0 -0.062548672079598619 -0.004813483434268814 0 -0.061780061975037874 -0.0051608664029553506 0 -0.061796458585837419 -0.0040276821243672711 0 -0.061780061975037874 -0.0051608664029553506 0 -0.061796458585837419 -0.0040276821243672711 0 -0.060967793102878198 -0.0040039783242879178 0 -0.062720661444393477 -0.0039441256601856576 0 -0.061796458585837419 -0.0040276821243672711 0 -0.060949313602078961 -0.002255623729109871 0 -0.059250648546857354 -0.0021289685033117167 0 -0.059475582647616175 0.00031519877370591855 0 -0.058734551611136575 0.0016741709507111693 0 -0.057663588671322083 0.0026753551176035336 0 -0.058373540246716683 0.0026666654297834861 0 -0.061796458585837419 -0.0040276821243672711 0 -0.060967793102878198 -0.0040039783242879178 0 -0.060949313602078961 -0.002255623729109871 0 -0.058734551611136575 0.0016741709507111693 0 -0.058926074293288271 0.0031038814933919186 0 -0.058373540246716683 0.0026666654297834861 0 -0.059250648546857354 -0.0021289685033117167 0 -0.054672217333999906 0.0014094040612275031 0 -0.050805885771520058 -0.0027504247359525658 0 -0.05102430612760523 -0.0010155941959422083 0 -0.051432403180566189 -0.0017357712649282036 0 -0.050805885771520058 -0.0027504247359525658 0 -0.051432403180566189 -0.0017357712649282036 0 -0.051454022995971571 -0.002390382434622093 0 -0.058926074293288271 0.0031038814933919186 0 -0.05816091478113862 0.0032085612969740785 0 -0.058373540246716683 0.0026666654297834861 0 -0.058196873135697769 0.0040049704134193084 0 -0.058926074293288271 0.0031038814933919186 0 -0.05816091478113862 0.0032085612969740785 0 -0.057500974128426321 0.0035709542193304166 0 -0.05816091478113862 0.0032085612969740785 0 -0.057663588671322083 0.0026753551176035336 0 -0.05816091478113862 0.0032085612969740785 0 -0.057663588671322083 0.0026753551176035336 0 -0.058373540246716683 0.0026666654297834861 0 -0.043706867365198666 -0.0052256758268012168 0 -0.042749909943361107 -0.0048087772590548585 0 -0.043447132331470399 -0.0053574130695669747 0 -0.042749909943361107 -0.0048087772590548585 0 -0.043447132331470399 -0.0053574130695669747 0 -0.043742495904869338 -0.0053242733707584561 0 -0.052374283625245814 -0.00038551630240576761 0 -0.051760331686656308 -0.00095198282250454644 0 -0.052060123643242806 -0.0019379262309283248 0 -0.047723622476756385 -0.0029254385341397925 0 -0.047451878266253786 -0.0033326932583637781 0 -0.05102430612760523 -0.0010155941959422083 0 -0.051760331686656308 -0.00095198282250454644 0 -0.051432403180566189 -0.0017357712649282036 0 -0.051760331686656308 -0.00095198282250454644 0 -0.052060123643242806 -0.0019379262309283248 0 -0.051432403180566189 -0.0017357712649282036 0 -0.052060123643242806 -0.0019379262309283248 0 -0.051454022995971571 -0.002390382434622093 0 -0.051701020203627233 -0.0035438391126720497 0 -0.052060123643242806 -0.0019379262309283248 0 -0.051432403180566189 -0.0017357712649282036 0 -0.051454022995971571 -0.002390382434622093 0 -0.043447132331470399 -0.0053574130695669747 0 -0.043806597914574856 -0.0049952746979242436 0 -0.043415747818136854 -0.0054114797056303713 0 -0.043447132331470399 -0.0053574130695669747 0 -0.043742495904869338 -0.0053242733707584561 0 -0.043806597914574856 -0.0049952746979242436 0 -0.043806597914574856 -0.0049952746979242436 0 -0.044344663198943236 -0.0047813622256480722 0 -0.044179594773298615 -0.0043019982147170944 0 -0.043742495904869338 -0.0053242733707584561 0 -0.043806597914574856 -0.0049952746979242436 0 -0.044344663198943236 -0.0047813622256480722 0 -0.047451878266253786 -0.0033326932583637781 0 -0.052169637080910568 -0.0055426024133755063 0 -0.052169637080910568 -0.0055426024133755063 0 -0.045464667396900915 -0.0053253740815754919 0 -0.052169637080910568 -0.0055426024133755063 0 -0.059751709823658204 -0.0073733997893587304 0 -0.051357316268481987 -0.0097984223903049457 0 -0.047722273071078743 -0.0067327934963235169 0 -0.052648050519105045 -0.0051321917706930818 0 -0.043806597914574856 -0.0049952746979242436 0 -0.044179594773298615 -0.0043019982147170944 0 -0.043681463915842225 -0.0044329219524314577 0 -0.045464667396900915 -0.0053253740815754919 0 -0.044635899536081707 -0.003895898237223124 0 -0.047722273071078743 -0.0067327934963235169 0 -0.047259586397251613 -0.0028302149826361085 0 -0.044445247230477915 -0.0035897599224019878 0 -0.055714019706839549 -0.01013308824418104 0 -0.054649955901475332 -0.0077454270394252791 0 -0.057364484461938245 -0.0085329743848422349 0 -0.057364484461938245 -0.0085329743848422349 0 -0.05592037300324184 -0.0064765536547483054 0 -0.058085328043019399 -0.0071218936652673844 0 -0.054649955901475332 -0.0077454270394252791 0 -0.057364484461938245 -0.0085329743848422349 0 -0.05592037300324184 -0.0064765536547483054 0 -0.054649955901475332 -0.0077454270394252791 0 -0.05592037300324184 -0.0064765536547483054 0 -0.053048814260472928 -0.0056774697138313717 0 -0.055714019706839549 -0.01013308824418104 0 -0.057364484461938245 -0.0085329743848422349 0 -0.058984728690928662 -0.0098066918961219884 0 -0.05883019591479257 -0.0080051499981997343 0 -0.058085328043019399 -0.0071218936652673844 0 -0.059491865906099443 -0.0073905708314673879 0 -0.05883019591479257 -0.0080051499981997343 0 -0.059751030926903842 -0.0077868965531166434 0 -0.059491865906099443 -0.0073905708314673879 0 -0.05883019591479257 -0.0080051499981997343 0 -0.057364484461938245 -0.0085329743848422349 0 -0.058085328043019399 -0.0071218936652673844 0 -0.05883019591479257 -0.0080051499981997343 0 -0.057364484461938245 -0.0085329743848422349 0 -0.058984728690928662 -0.0098066918961219884 0 -0.05883019591479257 -0.0080051499981997343 0 -0.058984728690928662 -0.0098066918961219884 0 -0.059751030926903842 -0.0077868965531166434 0 -0.047722273071078743 -0.0067327934963235169 0 -0.047259586397251613 -0.0028302149826361085 0 -0.052648050519105045 -0.0051321917706930818 0 -0.050845620232223727 -0.0064869393033454327 0 -0.059751709823658204 -0.0073733997893587304 0 -0.055714019706839549 -0.01013308824418104 0 -0.058984728690928662 -0.0098066918961219884 0 -0.05982373093539714 -0.011695228626161982 0 -0.063482987149813028 -0.0072020928835338973 0 -0.061580298853679195 -0.0073764370603932941 0 -0.061963335662551015 -0.0083588070265435636 0 -0.063482987149813028 -0.0072020928835338973 0 -0.061963335662551015 -0.0083588070265435636 0 -0.062292223666362098 -0.0089509740567608083 0 -0.060424587485164945 -0.0075036931076235547 0 -0.061315474523227539 -0.0059841840170713357 0 -0.061580298853679195 -0.0073764370603932941 0 -0.061580298853679195 -0.0073764370603932941 0 -0.061963335662551015 -0.0083588070265435636 0 -0.060886603130535066 -0.0085517975666862325 0 -0.060424587485164945 -0.0075036931076235547 0 -0.061580298853679195 -0.0073764370603932941 0 -0.060886603130535066 -0.0085517975666862325 0 -0.060886603130535066 -0.0085517975666862325 0 -0.061510794359620487 -0.0093872721239597941 0 -0.060533488640552753 -0.0098063656278399181 0 -0.061963335662551015 -0.0083588070265435636 0 -0.060886603130535066 -0.0085517975666862325 0 -0.061510794359620487 -0.0093872721239597941 0 -0.061963335662551015 -0.0083588070265435636 0 -0.061510794359620487 -0.0093872721239597941 0 -0.062292223666362098 -0.0089509740567608083 0 -0.061510794359620487 -0.0093872721239597941 0 -0.061930982138955669 -0.0097315376210681207 0 -0.061324520161482515 -0.010470666806946614 0 -0.061510794359620487 -0.0093872721239597941 0 -0.060533488640552753 -0.0098063656278399181 0 -0.061324520161482515 -0.010470666806946614 0 -0.058984728690928662 -0.0098066918961219884 0 -0.05982373093539714 -0.011695228626161982 0 -0.060605213090491362 -0.0070866498225655231 0 -0.059751709823658204 -0.0073733997893587304 0 -0.061846277242935704 -0.0091149677681890192 0 -0.063482987149813028 -0.0072020928835338973 0 -0.062292223666362098 -0.0089509740567608083 0 -0.062520872985326784 -0.010025363521323293 0 -0.058984728690928662 -0.0098066918961219884 0 -0.060605213090491362 -0.0070866498225655231 0 -0.059751030926903842 -0.0077868965531166434 0 -0.061510794359620487 -0.0093872721239597941 0 -0.062292223666362098 -0.0089509740567608083 0 -0.061930982138955669 -0.0097315376210681207 0 -0.062292223666362098 -0.0089509740567608083 0 -0.062520872985326784 -0.010025363521323293 0 -0.061930982138955669 -0.0097315376210681207 0 -0.060605213090491362 -0.0070866498225655231 0 -0.059751030926903842 -0.0077868965531166434 0 -0.060833657987455179 -0.0074573346202436927 0 -0.059751030926903842 -0.0077868965531166434 0 -0.060833657987455179 -0.0074573346202436927 0 -0.059491865906099443 -0.0073905708314673879 0 -0.060833657987455179 -0.0074573346202436927 0 -0.059617264404910698 -0.006884154068897589 0 -0.059491865906099443 -0.0073905708314673879 0 -0.061846277242935704 -0.0091149677681890192 0 -0.061029109768166293 -0.011736827508945931 0 -0.060605213090491362 -0.0070866498225655231 0 -0.060833657987455179 -0.0074573346202436927 0 -0.0610786956430679 -0.012285681213658939 0 -0.062520872985326784 -0.010025363521323293 0 -0.061324520161482515 -0.010470666806946614 0 -0.0610786956430679 -0.012285681213658939 0 -0.062520872985326784 -0.010025363521323293 0 -0.061930982138955669 -0.0097315376210681207 0 -0.061324520161482515 -0.010470666806946614 0 -0.060264805421966786 -0.011217856314487415 0 -0.061324520161482515 -0.010470666806946614 0 -0.0610786956430679 -0.012285681213658939 0 -0.060264805421966786 -0.011217856314487415 0 -0.060533488640552753 -0.0098063656278399181 0 -0.061324520161482515 -0.010470666806946614 0 -0.059639911706831819 -0.012936573651472702 0 -0.060264805421966786 -0.011217856314487415 0 -0.0610786956430679 -0.012285681213658939 0 -0.060833657987455179 -0.0074573346202436927 0 -0.0610786956430679 -0.012285681213658939 0 -0.063680707967108466 -0.011734424730494145 0 -0.058672383921173368 -0.0067407379569708057 0 -0.057917129953389081 -0.0073029345120490044 0 -0.059617264404910698 -0.006884154068897589 0 -0.058672383921173368 -0.0067407379569708057 0 -0.057917129953389081 -0.0073029345120490044 0 -0.057501053484638319 -0.0072173344007224107 0 -0.055545280966604625 -0.0019109250533235784 0 -0.05592037300324184 -0.0064765536547483054 0 -0.053048814260472928 -0.0056774697138313717 0 -0.055545280966604625 -0.0019109250533235784 0 -0.05592037300324184 -0.0064765536547483054 0 -0.058085328043019399 -0.0071218936652673844 0 -0.055545280966604625 -0.0019109250533235784 0 -0.058085328043019399 -0.0071218936652673844 0 -0.059617264404910698 -0.006884154068897589 0 -0.056617254792331179 -0.0045957958229913068 0 -0.059350191817134773 -0.0066318499423815456 0 -0.060833657987455179 -0.0074573346202436927 0 -0.058672383921173368 -0.0067407379569708057 0 -0.059617264404910698 -0.006884154068897589 0 -0.060827550366709171 -0.0076720775516884764 0 -0.06121265426055722 -0.0092553923303086896 0 -0.058085328043019399 -0.0071218936652673844 0 -0.059617264404910698 -0.006884154068897589 0 -0.059491865906099443 -0.0073905708314673879 0 -0.051152939251525781 -0.0029693682361333165 0 -0.046098979114724888 -0.0049218143460085864 0 -0.050945670457088608 -0.0078560565583688062 0 -0.051152939251525781 -0.0029693682361333165 0 -0.047790296102328572 -0.00038483507915414037 0 -0.046098979114724888 -0.0049218143460085864 0 -0.051152939251525781 -0.0029693682361333165 0 -0.053048814260472928 -0.0056774697138313717 0 -0.050945670457088608 -0.0078560565583688062 0 -0.055545280966604625 -0.0019109250533235784 0 -0.051152939251525781 -0.0029693682361333165 0 -0.053048814260472928 -0.0056774697138313717 0 -0.056617254792331179 -0.0045957958229913068 0 -0.053721523622059578 -0.0031333153823230619 0 -0.055545280966604625 -0.0019109250533235784 0 -0.051152939251525781 -0.0029693682361333165 0 -0.051263496588579399 0.0016852019999212349 0 -0.051152939251525781 -0.0029693682361333165 0 -0.047790296102328572 -0.00038483507915414037 0 -0.051263496588579399 0.0016852019999212349 0 -0.047790296102328572 -0.00038483507915414037 0 -0.043977571051638839 0.00018366528563471847 0 -0.046098979114724888 -0.0049218143460085864 0 -0.047790296102328572 -0.00038483507915414037 0 -0.043977571051638839 0.00018366528563471847 0 -0.0453531933345106 0.0026370926849847826 0 -0.043977571051638839 0.00018366528563471847 0 -0.040685598584203841 -0.00064604899387528348 0 -0.039576429431318186 0.0040199799065959935 0 -0.043977571051638839 0.00018366528563471847 0 -0.040685598584203841 -0.00064604899387528348 0 -0.046098979114724888 -0.0049218143460085864 0 -0.040685598584203841 -0.00064604899387528348 0 -0.041707430194477375 -0.0010911126727138479 0 -0.040021736690729733 -0.0018535585361375935 0 -0.040930680129554212 -0.00093969911078400925 0 -0.043897360935852552 -0.0029382651983673553 0 -0.041707430194477375 -0.0010911126727138479 0 -0.041210519691209743 -0.0025078802955772468 0 -0.042208043122431413 -0.0022528116696258573 0 -0.041707430194477375 -0.0010911126727138479 0 -0.040021736690729733 -0.0018535585361375935 0 -0.041210519691209743 -0.0025078802955772468 0 -0.040021736690729733 -0.0018535585361375935 0 -0.041210519691209743 -0.0025078802955772468 0 -0.040596157688538623 -0.0036789100448171648 0 -0.040021736690729733 -0.0018535585361375935 0 -0.040596157688538623 -0.0036789100448171648 0 -0.039037938940584056 -0.0033028685985286941 0 -0.041210519691209743 -0.0025078802955772468 0 -0.041880564750991778 -0.0034327475520393104 0 -0.042208043122431413 -0.0022528116696258573 0 -0.041210519691209743 -0.0025078802955772468 0 -0.041880564750991778 -0.0034327475520393104 0 -0.040596157688538623 -0.0036789100448171648 0 -0.041880564750991778 -0.0034327475520393104 0 -0.043064894633319167 -0.0036581447810170704 0 -0.042208043122431413 -0.0022528116696258573 0 -0.043064894633319167 -0.0036581447810170704 0 -0.042208043122431413 -0.0022528116696258573 0 -0.043525330646329692 -0.0018235639055474986 0 -0.041707430194477375 -0.0010911126727138479 0 -0.042208043122431413 -0.0022528116696258573 0 -0.043525330646329692 -0.0018235639055474986 0 -0.043897360935852552 -0.0029382651983673553 0 -0.047448703343357511 -0.0048543639584551698 0 -0.055714019706839549 -0.01013308824418104 0 -0.054649955901475332 -0.0077454270394252791 0 -0.050945670457088608 -0.0078560565583688062 0 -0.054649955901475332 -0.0077454270394252791 0 -0.053048814260472928 -0.0056774697138313717 0 -0.050945670457088608 -0.0078560565583688062 0 -0.050845620232223727 -0.0064869393033454327 0 -0.047448703343357511 -0.0048543639584551698 0 -0.043064894633319167 -0.0036581447810170704 0 -0.043525330646329692 -0.0018235639055474986 0 -0.044445247230477915 -0.0035897599224019878 0 -0.047259586397251613 -0.0028302149826361085 0 -0.043525330646329692 -0.0018235639055474986 0 -0.044445247230477915 -0.0035897599224019878 0 -0.043064894633319167 -0.0036581447810170704 0 -0.044445247230477915 -0.0035897599224019878 0 -0.043681463915842225 -0.0044329219524314577 0 -0.044179594773298615 -0.0043019982147170944 0 -0.044445247230477915 -0.0035897599224019878 0 -0.043681463915842225 -0.0044329219524314577 0 -0.043064894633319167 -0.0036581447810170704 0 -0.043681463915842225 -0.0044329219524314577 0 -0.042217446795317116 -0.0044071634036404062 0 -0.041880564750991778 -0.0034327475520393104 0 -0.043064894633319167 -0.0036581447810170704 0 -0.042217446795317116 -0.0044071634036404062 0 -0.043681463915842225 -0.0044329219524314577 0 -0.042217446795317116 -0.0044071634036404062 0 -0.042838907432737001 -0.0051083895120247582 0 -0.043681463915842225 -0.0044329219524314577 0 -0.042838907432737001 -0.0051083895120247582 0 -0.043477471672152178 -0.0049867387315242822 0 -0.043806597914574856 -0.0049952746979242436 0 -0.043681463915842225 -0.0044329219524314577 0 -0.043477471672152178 -0.0049867387315242822 0 -0.042838907432737001 -0.0051083895120247582 0 -0.043477471672152178 -0.0049867387315242822 0 -0.043415747818136854 -0.0054114797056303713 0 -0.043806597914574856 -0.0049952746979242436 0 -0.043477471672152178 -0.0049867387315242822 0 -0.043415747818136854 -0.0054114797056303713 0 -0.042838907432737001 -0.0051083895120247582 0 -0.042893931136889232 -0.0057765016130387151 0 -0.041846306486949598 -0.0059491502001882126 0 -0.042838907432737001 -0.0051083895120247582 0 -0.043415747818136854 -0.0054114797056303713 0 -0.042893931136889232 -0.0057765016130387151 0 -0.043706867365198666 -0.0052256758268012168 0 -0.042893931136889232 -0.0057765016130387151 0 -0.04262543731372976 -0.0064982466638843816 0 -0.042893931136889232 -0.0057765016130387151 0 -0.04262543731372976 -0.0064982466638843816 0 -0.041846306486949598 -0.0059491502001882126 0 -0.043706867365198666 -0.0052256758268012168 0 -0.043415747818136854 -0.0054114797056303713 0 -0.042893931136889232 -0.0057765016130387151 0 -0.043706867365198666 -0.0052256758268012168 0 -0.043447132331470399 -0.0053574130695669747 0 -0.043415747818136854 -0.0054114797056303713 0 -0.045612099863360234 -0.0059230446526201026 0 -0.0426373487270712 -0.0068561258335507261 0 -0.040495962768208021 -0.0066553886729811794 0 -0.041109937296108942 -0.0071210691437287406 0 -0.039836594370285222 -0.0072044203262234445 0 -0.040495962768208021 -0.0066553886729811794 0 -0.041109937296108942 -0.0071210691437287406 0 -0.041846306486949598 -0.0059491502001882126 0 -0.044224756125015641 -0.0056444127483768446 0 -0.045612099863360234 -0.0059230446526201026 0 -0.04262543731372976 -0.0064982466638843816 0 -0.041109937296108942 -0.0071210691437287406 0 -0.041846306486949598 -0.0059491502001882126 0 -0.041846306486949598 -0.0059491502001882126 0 -0.040887035972384363 -0.005861568264890483 0 -0.041155431225705023 -0.0049546732863916445 0 -0.040887035972384363 -0.005861568264890483 0 -0.039323388369189097 -0.0048415809586262511 0 -0.039673324311259729 -0.0063613411890123999 0 -0.040495962768208021 -0.0066553886729811794 0 -0.041846306486949598 -0.0059491502001882126 0 -0.040887035972384363 -0.005861568264890483 0 -0.040495962768208021 -0.0066553886729811794 0 -0.040887035972384363 -0.005861568264890483 0 -0.039673324311259729 -0.0063613411890123999 0 -0.040887035972384363 -0.005861568264890483 0 -0.041155431225705023 -0.0049546732863916445 0 -0.039323388369189097 -0.0048415809586262511 0 -0.042838907432737001 -0.0051083895120247582 0 -0.041846306486949598 -0.0059491502001882126 0 -0.041155431225705023 -0.0049546732863916445 0 -0.042217446795317116 -0.0044071634036404062 0 -0.042838907432737001 -0.0051083895120247582 0 -0.041155431225705023 -0.0049546732863916445 0 -0.042217446795317116 -0.0044071634036404062 0 -0.041155431225705023 -0.0049546732863916445 0 -0.040596157688538623 -0.0036789100448171648 0 -0.041880564750991778 -0.0034327475520393104 0 -0.042217446795317116 -0.0044071634036404062 0 -0.040596157688538623 -0.0036789100448171648 0 -0.040596157688538623 -0.0036789100448171648 0 -0.039323388369189097 -0.0048415809586262511 0 -0.039037938940584056 -0.0033028685985286941 0 -0.041155431225705023 -0.0049546732863916445 0 -0.040596157688538623 -0.0036789100448171648 0 -0.039323388369189097 -0.0048415809586262511 0 -0.03722244633564966 -0.0034760566914677949 0 -0.039323388369189097 -0.0048415809586262511 0 -0.039037938940584056 -0.0033028685985286941 0 -0.03722244633564966 -0.0034760566914677949 0 -0.037006039166839547 -0.0048949071893678578 0 -0.034483952645980767 -0.0036405896950259379 0 -0.03722244633564966 -0.0034760566914677949 0 -0.037006039166839547 -0.0048949071893678578 0 -0.039323388369189097 -0.0048415809586262511 0 -0.037006039166839547 -0.0048949071893678578 0 -0.038136399996456016 -0.0058425504904120887 0 -0.036573358134082808 -0.0061865714973028691 0 -0.037006039166839547 -0.0048949071893678578 0 -0.036573358134082808 -0.0061865714973028691 0 -0.035295325841237159 -0.0054293287633612238 0 -0.037006039166839547 -0.0048949071893678578 0 -0.039323388369189097 -0.0048415809586262511 0 -0.038136399996456016 -0.0058425504904120887 0 -0.039323388369189097 -0.0048415809586262511 0 -0.038136399996456016 -0.0058425504904120887 0 -0.039673324311259729 -0.0063613411890123999 0 -0.038136399996456016 -0.0058425504904120887 0 -0.039673324311259729 -0.0063613411890123999 0 -0.037778807964500137 -0.0072561035955030929 0 -0.038136399996456016 -0.0058425504904120887 0 -0.036573358134082808 -0.0061865714973028691 0 -0.037778807964500137 -0.0072561035955030929 0 -0.036573358134082808 -0.0061865714973028691 0 -0.037778807964500137 -0.0072561035955030929 0 -0.036227903014916525 -0.0076836810494013245 0 -0.037778807964500137 -0.0072561035955030929 0 -0.036227903014916525 -0.0076836810494013245 0 -0.037080158924580144 -0.0088427326150795661 0 -0.036227903014916525 -0.0076836810494013245 0 -0.037080158924580144 -0.0088427326150795661 0 -0.035627748545846827 -0.009095536277767961 0 -0.040495962768208021 -0.0066553886729811794 0 -0.039673324311259729 -0.0063613411890123999 0 -0.039836594370285222 -0.0072044203262234445 0 -0.037778807964500137 -0.0072561035955030929 0 -0.037080158924580144 -0.0088427326150795661 0 -0.039155963021689652 -0.0090291860220768592 0 -0.039673324311259729 -0.0063613411890123999 0 -0.037778807964500137 -0.0072561035955030929 0 -0.039155963021689652 -0.0090291860220768592 0 -0.036125689338280288 -0.0087891646793051073 0 -0.0426373487270712 -0.0068561258335507261 0 -0.037942428542521466 -0.0095822885477651627 0 -0.037080158924580144 -0.0088427326150795661 0 -0.038775438572458978 -0.0088638739308327316 0 -0.039205247947845114 -0.007085265499495918 0 -0.0426373487270712 -0.0068561258335507261 0 -0.034035366150246493 -0.0087048112867001773 0 -0.034808076591676056 -0.0078362971627685598 0 -0.033629173653949296 -0.0070720190698942888 0 -0.03255794033537044 -0.0079952796492251607 0 -0.034035366150246493 -0.0087048112867001773 0 -0.033629173653949296 -0.0070720190698942888 0 -0.032585038887302929 -0.0097044427215204239 0 -0.03255794033537044 -0.0079952796492251607 0 -0.034035366150246493 -0.0087048112867001773 0 -0.034035366150246493 -0.0087048112867001773 0 -0.035627748545846827 -0.009095536277767961 0 -0.034808076591676056 -0.0078362971627685598 0 -0.036227903014916525 -0.0076836810494013245 0 -0.035627748545846827 -0.009095536277767961 0 -0.034808076591676056 -0.0078362971627685598 0 -0.036227903014916525 -0.0076836810494013245 0 -0.034808076591676056 -0.0078362971627685598 0 -0.034996130792244715 -0.0066861190321760283 0 -0.036573358134082808 -0.0061865714973028691 0 -0.036227903014916525 -0.0076836810494013245 0 -0.034996130792244715 -0.0066861190321760283 0 -0.034996130792244715 -0.0066861190321760283 0 -0.033629173653949296 -0.0070720190698942888 0 -0.033508042677520833 -0.0058570882250762535 0 -0.034808076591676056 -0.0078362971627685598 0 -0.034996130792244715 -0.0066861190321760283 0 -0.033629173653949296 -0.0070720190698942888 0 -0.032513394354918651 -0.0063926126294580931 0 -0.033629173653949296 -0.0070720190698942888 0 -0.033508042677520833 -0.0058570882250762535 0 -0.030523962995197555 -0.0034693034306322846 0 -0.033130119543654656 -0.0055899511327983271 0 -0.033508042677520833 -0.0058570882250762535 0 -0.035295325841237159 -0.0054293287633612238 0 -0.034483952645980767 -0.0036405896950259379 0 -0.034996130792244715 -0.0066861190321760283 0 -0.033508042677520833 -0.0058570882250762535 0 -0.035295325841237159 -0.0054293287633612238 0 -0.036573358134082808 -0.0061865714973028691 0 -0.034996130792244715 -0.0066861190321760283 0 -0.035295325841237159 -0.0054293287633612238 0 -0.037006039166839547 -0.0048949071893678578 0 -0.035295325841237159 -0.0054293287633612238 0 -0.034483952645980767 -0.0036405896950259379 0 -0.031491715759517036 -0.0040192246692988248 0 -0.033508042677520833 -0.0058570882250762535 0 -0.034483952645980767 -0.0036405896950259379 0 -0.031491715759517036 -0.0040192246692988248 0 -0.030731413265078902 -0.00090034662967776143 0 -0.034483952645980767 -0.0036405896950259379 0 -0.030731413265078902 -0.00090034662967776143 0 -0.034483952645980767 -0.0036405896950259379 0 -0.033595646458163819 -0.0012276053438821639 0 -0.031409533942755072 0.00029810871321283867 0 -0.030731413265078902 -0.00090034662967776143 0 -0.033595646458163819 -0.0012276053438821639 0 -0.031409533942755072 0.00029810871321283867 0 -0.033595646458163819 -0.0012276053438821639 0 -0.033249903705446962 4.028234768019608e-05 0 -0.033595646458163819 -0.0012276053438821639 0 -0.03571253440687637 -0.0022403611348226927 0 -0.035154344863109907 -0.00013512494961272033 0 -0.033595646458163819 -0.0012276053438821639 0 -0.033249903705446962 4.028234768019608e-05 0 -0.035154344863109907 -0.00013512494961272033 0 -0.03722244633564966 -0.0034760566914677949 0 -0.034483952645980767 -0.0036405896950259379 0 -0.03571253440687637 -0.0022403611348226927 0 -0.034483952645980767 -0.0036405896950259379 0 -0.033595646458163819 -0.0012276053438821639 0 -0.03571253440687637 -0.0022403611348226927 0 -0.03722244633564966 -0.0034760566914677949 0 -0.039037938940584056 -0.0033028685985286941 0 -0.037505934185360704 -0.0016929749117222212 0 -0.03722244633564966 -0.0034760566914677949 0 -0.03571253440687637 -0.0022403611348226927 0 -0.037505934185360704 -0.0016929749117222212 0 -0.040021736690729733 -0.0018535585361375935 0 -0.039037938940584056 -0.0033028685985286941 0 -0.037505934185360704 -0.0016929749117222212 0 -0.040021736690729733 -0.0018535585361375935 0 -0.037505934185360704 -0.0016929749117222212 0 -0.037945534445024159 -0.00038787797225119618 0 -0.03571253440687637 -0.0022403611348226927 0 -0.037505934185360704 -0.0016929749117222212 0 -0.035154344863109907 -0.00013512494961272033 0 -0.037505934185360704 -0.0016929749117222212 0 -0.037945534445024159 -0.00038787797225119618 0 -0.035154344863109907 -0.00013512494961272033 0 -0.037945534445024159 -0.00038787797225119618 0 -0.035154344863109907 -0.00013512494961272033 0 -0.035803042358456952 0.0012839504332033261 0 -0.037945534445024159 -0.00038787797225119618 0 -0.037984372105428939 0.0013969473351323652 0 -0.035803042358456952 0.0012839504332033261 0 -0.040685598584203841 -0.00064604899387528348 0 -0.040021736690729733 -0.0018535585361375935 0 -0.037945534445024159 -0.00038787797225119618 0 -0.040685598584203841 -0.00064604899387528348 0 -0.037945534445024159 -0.00038787797225119618 0 -0.037984372105428939 0.0013969473351323652 0 -0.040685598584203841 -0.00064604899387528348 0 -0.037984372105428939 0.0013969473351323652 0 -0.039576429431318186 0.0040199799065959935 0 -0.037984372105428939 0.0013969473351323652 0 -0.036552946080641982 0.0028982202224536713 0 -0.039576429431318186 0.0040199799065959935 0 -0.037984372105428939 0.0013969473351323652 0 -0.036552946080641982 0.0028982202224536713 0 -0.035803042358456952 0.0012839504332033261 0 -0.034155489816798071 0.0028509178362555176 0 -0.03291906656182992 0.0012944759778294825 0 -0.035803042358456952 0.0012839504332033261 0 -0.036552946080641982 0.0028982202224536713 0 -0.034155489816798071 0.0028509178362555176 0 -0.035803042358456952 0.0012839504332033261 0 -0.030247450297349401 0.0014192915955359613 0 -0.032164552281631689 0.0027574220368083171 0 -0.03291906656182992 0.0012944759778294825 0 -0.032164552281631689 0.0027574220368083171 0 -0.031273109767820342 0.0044710601467832737 0 -0.032841097795853383 0.0040946274593583023 0 -0.034155489816798071 0.0028509178362555176 0 -0.032164552281631689 0.0027574220368083171 0 -0.032841097795853383 0.0040946274593583023 0 -0.034155489816798071 0.0028509178362555176 0 -0.032164552281631689 0.0027574220368083171 0 -0.03291906656182992 0.0012944759778294825 0 -0.031409533942755072 0.00029810871321283867 0 -0.033249903705446962 4.028234768019608e-05 0 -0.03291906656182992 0.0012944759778294825 0 -0.03291906656182992 0.0012944759778294825 0 -0.035154344863109907 -0.00013512494961272033 0 -0.035803042358456952 0.0012839504332033261 0 -0.033249903705446962 4.028234768019608e-05 0 -0.03291906656182992 0.0012944759778294825 0 -0.035154344863109907 -0.00013512494961272033 0 -0.037528856053916183 0.0039692981968306416 0 -0.039425703182256806 0.0048293793264978522 0 -0.03662731091291762 0.0051140035652261868 0 -0.037528856053916183 0.0039692981968306416 0 -0.03633946831532988 0.0035956512123609579 0 -0.038051869724954654 0.0024197249906315241 0 -0.037528856053916183 0.0039692981968306416 0 -0.03633946831532988 0.0035956512123609579 0 -0.03662731091291762 0.0051140035652261868 0 -0.0347626301645486 0.0038356952602913593 0 -0.03633946831532988 0.0035956512123609579 0 -0.03662731091291762 0.0051140035652261868 0 -0.033591686135532144 0.0052321576306866352 0 -0.0347626301645486 0.0038356952602913593 0 -0.03662731091291762 0.0051140035652261868 0 -0.0347626301645486 0.0038356952602913593 0 -0.03633946831532988 0.0035956512123609579 0 -0.034881471863095447 0.0025544949506352728 0 -0.030786777363166904 0.0060132958488918241 0 -0.032841097795853383 0.0040946274593583023 0 -0.035603745749702015 0.0049574857399490042 0 -0.030786777363166904 0.0060132958488918241 0 -0.031273109767820342 0.0044710601467832737 0 -0.032841097795853383 0.0040946274593583023 0 -0.029605173683584205 0.0050078867419007644 0 -0.030786777363166904 0.0060132958488918241 0 -0.031273109767820342 0.0044710601467832737 0 -0.034155489816798071 0.0028509178362555176 0 -0.032841097795853383 0.0040946274593583023 0 -0.035603745749702015 0.0049574857399490042 0 -0.033025252259066634 0.0043468361601720013 0 -0.036719815730024426 0.003698378113564747 0 -0.03633946831532988 0.0035956512123609579 0 -0.034881471863095447 0.0025544949506352728 0 -0.038051869724954654 0.0024197249906315241 0 -0.036552946080641982 0.0028982202224536713 0 -0.034155489816798071 0.0028509178362555176 0 -0.035603745749702015 0.0049574857399490042 0 -0.036719815730024426 0.003698378113564747 0 -0.040783667595724118 0.0032093541251472829 0 -0.038051869724954654 0.0024197249906315241 0 -0.041928894790157378 0.0024371953057663203 0 -0.039740089943727387 0.0036882929773355104 0 -0.036552946080641982 0.0028982202224536713 0 -0.035603745749702015 0.0049574857399490042 0 -0.039576429431318186 0.0040199799065959935 0 -0.042276840249020911 0.0051608180224975223 0 -0.039664966254396541 0.00057968400155573017 0 -0.041510551595163807 0.0041620773202503195 0 -0.042368955397228972 0.0054037710935382621 0 -0.04013607524075203 0.0055272084909737977 0 -0.041928894790157378 0.0024371953057663203 0 -0.041510551595163807 0.0041620773202503195 0 -0.043379214393844484 0.0038315781147050354 0 -0.041510551595163807 0.0041620773202503195 0 -0.042368955397228972 0.0054037710935382621 0 -0.043379214393844484 0.0038315781147050354 0 -0.041928894790157378 0.0024371953057663203 0 -0.041510551595163807 0.0041620773202503195 0 -0.039740089943727387 0.0036882929773355104 0 -0.037528856053916183 0.0039692981968306416 0 -0.039740089943727387 0.0036882929773355104 0 -0.04013607524075203 0.0055272084909737977 0 -0.038259985473562456 0.0048430877936221119 0 -0.039664966254396541 0.00057968400155573017 0 -0.037528856053916183 0.0039692981968306416 0 -0.038051869724954654 0.0024197249906315241 0 -0.039740089943727387 0.0036882929773355104 0 -0.041510551595163807 0.0041620773202503195 0 -0.039740089943727387 0.0036882929773355104 0 -0.04013607524075203 0.0055272084909737977 0 -0.039069062787229956 -0.014467312589035367 0 -0.038808009372882202 -0.013928930926245945 0 -0.036518802375245921 -0.014138064966248169 0 -0.038808009372882202 -0.013928930926245945 0 -0.040206797314956404 -0.014094473119693796 0 -0.038806706296197285 -0.012392976430299234 0 -0.038808009372882202 -0.013928930926245945 0 -0.038806706296197285 -0.012392976430299234 0 -0.03747779264388864 -0.013143326205859111 0 -0.039069062787229956 -0.014467312589035367 0 -0.038808009372882202 -0.013928930926245945 0 -0.040053833957761117 -0.013944764303526622 0 -0.046453357515913875 -0.013293150916417253 0 -0.0417878030986778 -0.016503015260567359 0 -0.042162846596617023 0.0052146122199906919 0 -0.03983982707609237 0.0053284857830846076 0 -0.041320307857618227 0.0061012647903530542 0 -0.040206797314956404 -0.014094473119693796 0 -0.041024766111247973 -0.013728132396950872 0 -0.038806706296197285 -0.012392976430299234 0 -0.041344447190035799 -0.0082859717872746166 0 -0.046083490400416961 -0.0048331550931680692 0 -0.043068737745128725 -0.0077938031494353081 0 -0.044699357485919189 -0.0069856981342843547 0 -0.046242569587517185 -0.0080254325799463191 0 -0.042162846596617023 0.0052146122199906919 0 -0.041320307857618227 0.0061012647903530542 0 -0.043413933197725997 0.0060603111517853218 0 -0.041344447190035799 -0.0082859717872746166 0 -0.046453357515913875 -0.013293150916417253 0 -0.039014310035611052 -0.012651860613887747 0 -0.041344447190035799 -0.0082859717872746166 0 -0.039664966254396541 0.00057968400155573017 0 -0.041344447190035799 -0.0082859717872746166 0 -0.0486825828523932 -0.021869375234510015 0 -0.048377754568939647 -0.019520245435978915 0 -0.044818816583161378 -0.019674147750289594 0 -0.0481093481278798 -0.019260571302421103 0 -0.045069104237889061 -0.017240453810048424 0 -0.0417878030986778 -0.016503015260567359 0 -0.038221128563026709 -0.013291545895836757 0 -0.048377754568939647 -0.019520245435978915 0 -0.044818816583161378 -0.019674147750289594 0 -0.043818173228869634 -0.015349962381189453 0 -0.038806706296197285 -0.012392976430299234 0 -0.036766906344930898 -0.012342587601585081 0 -0.03747779264388864 -0.013143326205859111 0 -0.038806706296197285 -0.012392976430299234 0 -0.036766906344930898 -0.012342587601585081 0 -0.036809917264601741 -0.011392588321295213 0 -0.036766906344930898 -0.012342587601585081 0 -0.03747779264388864 -0.013143326205859111 0 -0.035727231125335809 -0.01276594671460482 0 -0.036766906344930898 -0.012342587601585081 0 -0.035582048866864655 -0.011648085086384581 0 -0.036809917264601741 -0.011392588321295213 0 -0.039664966254396541 0.00057968400155573017 0 -0.036443518427294389 -0.0051463155981874356 0 -0.038808009372882202 -0.013928930926245945 0 -0.03747779264388864 -0.013143326205859111 0 -0.036518802375245921 -0.014138064966248169 0 -0.03747779264388864 -0.013143326205859111 0 -0.036518802375245921 -0.014138064966248169 0 -0.035727231125335809 -0.01276594671460482 0 -0.034235564793354926 -0.013743075253742016 0 -0.036518802375245921 -0.014138064966248169 0 -0.035727231125335809 -0.01276594671460482 0 -0.034379871234531664 -0.0043564762202354191 0 -0.036443518427294389 -0.0051463155981874356 0 -0.033881454549025199 -0.011826595958204487 0 -0.035727231125335809 -0.01276594671460482 0 -0.035582048866864655 -0.011648085086384581 0 -0.036766906344930898 -0.012342587601585081 0 -0.035727231125335809 -0.01276594671460482 0 -0.035582048866864655 -0.011648085086384581 0 -0.039535923175439684 -0.015337758470832441 0 -0.038246695682648872 -0.011297241892809489 0 -0.035407085548309673 -0.010845612278962132 0 -0.034733872857374157 -0.011260883982042823 0 -0.035582048866864655 -0.011648085086384581 0 -0.035407085548309673 -0.010845612278962132 0 -0.035582048866864655 -0.011648085086384581 0 -0.036809917264601741 -0.011392588321295213 0 -0.035407085548309673 -0.010845612278962132 0 -0.038221128563026709 -0.013291545895836757 0 -0.035629896911348775 -0.011147517884104294 0 -0.039535923175439684 -0.015337758470832441 0 -0.038246695682648872 -0.011297241892809489 0 -0.043818173228869634 -0.015349962381189453 0 -0.04091778297119409 -0.014529536009311389 0 -0.045069104237889061 -0.017240453810048424 0 -0.043697943377939447 -0.018165468751089937 0 -0.044787518098020236 -0.017395598225057183 0 -0.046445956094270324 -0.019078601310043009 0 -0.044787518098020236 -0.017395598225057183 0 -0.043096022016097787 -0.016804175053161133 0 -0.044734355004203231 -0.015872778016737935 0 -0.043697943377939447 -0.018165468751089937 0 -0.044787518098020236 -0.017395598225057183 0 -0.043096022016097787 -0.016804175053161133 0 -0.044787518098020236 -0.017395598225057183 0 -0.044734355004203231 -0.015872778016737935 0 -0.045850899635458457 -0.016819131283402098 0 -0.034426980957955426 -0.0090955556994452621 0 -0.038246695682648872 -0.011297241892809489 0 -0.035407085548309673 -0.010845612278962132 0 -0.03734884912746976 -0.014733598148249701 0 -0.04091778297119409 -0.014529536009311389 0 -0.040839759812138755 -0.016817621487715633 0 -0.043697943377939447 -0.018165468751089937 0 -0.043096022016097787 -0.016804175053161133 0 -0.039737371364917388 -0.017575168822573047 0 -0.040813361874567938 -0.015724448162981717 0 -0.042817205953996164 -0.015813201343255985 0 -0.042817205953996164 -0.015813201343255985 0 -0.044031794820140052 -0.013035431898055453 0 -0.042051059706676157 -0.013900034348071692 0 -0.043096022016097787 -0.016804175053161133 0 -0.042817205953996164 -0.015813201343255985 0 -0.044031794820140052 -0.013035431898055453 0 -0.04309093842613191 -0.01538242714411161 0 -0.044936807625324489 -0.016541796552144855 0 -0.040839759812138755 -0.016817621487715633 0 -0.043096022016097787 -0.016804175053161133 0 -0.042817205953996164 -0.015813201343255985 0 -0.03734884912746976 -0.014733598148249701 0 -0.043012568153030714 -0.015771714209397221 0 -0.040813361874567938 -0.015724448162981717 0 -0.042817205953996164 -0.015813201343255985 0 -0.042051059706676157 -0.013900034348071692 0 -0.040196570164235605 -0.014211981296564972 0 -0.040813361874567938 -0.015724448162981717 0 -0.042051059706676157 -0.013900034348071692 0 -0.044734355004203231 -0.015872778016737935 0 -0.044041216057542472 -0.013676890759871867 0 -0.046269253625425541 -0.014863022400169941 0 -0.043096022016097787 -0.016804175053161133 0 -0.044734355004203231 -0.015872778016737935 0 -0.044041216057542472 -0.013676890759871867 0 -0.05065611090224937 -0.017651342329347116 0 -0.050718055994821584 -0.017638309649979905 0 -0.050680838766536895 -0.017619180065774155 0 -0.044936807625324489 -0.016541796552144855 0 -0.048204292880730394 -0.021594035967484663 0 -0.05065611090224937 -0.017651342329347116 0 -0.050718055994821584 -0.017638309649979905 0 -0.050766602133887687 -0.017625400832494045 0 -0.044936807625324489 -0.016541796552144855 0 -0.048843555296120243 -0.016298494207945206 0 -0.042915257821536434 -0.022171510635780354 0 -0.042110326578417311 -0.021809931247122313 0 -0.043153707330731338 -0.021348431134347902 0 -0.044936807625324489 -0.016541796552144855 0 -0.041623878067678415 -0.016679531690149348 0 -0.044031794820140052 -0.013035431898055453 0 -0.041558002411219735 -0.011562953414123714 0 -0.042051059706676157 -0.013900034348071692 0 -0.039596960309810192 -0.012539142342262553 0 -0.041558002411219735 -0.011562953414123714 0 -0.042051059706676157 -0.013900034348071692 0 -0.050729710941110347 -0.017626553954032741 0 -0.050751020567696807 -0.017650455840296887 0 -0.050661482877911328 -0.017757263506380457 0 -0.052258404829517845 -0.018013887244709797 0 -0.050511925072999821 -0.017719387250984361 0 -0.050729710941110347 -0.017626553954032741 0 -0.050751020567696807 -0.017650455840296887 0 -0.050766602133887687 -0.017625400832494045 0 -0.050718055994821584 -0.017638309649979905 0 -0.050751020567696807 -0.017650455840296887 0 -0.050766602133887687 -0.017625400832494045 0 -0.046269253625425541 -0.014863022400169941 0 -0.04689618673381489 -0.016247458524896244 0 -0.045850899635458457 -0.016819131283402098 0 -0.046269253625425541 -0.014863022400169941 0 -0.04689618673381489 -0.016247458524896244 0 -0.04826058455651458 -0.016003697770489184 0 -0.048843555296120243 -0.016298494207945206 0 -0.049386686961399834 -0.016673297342724065 0 -0.044734355004203231 -0.015872778016737935 0 -0.046269253625425541 -0.014863022400169941 0 -0.045850899635458457 -0.016819131283402098 0 -0.050729710941110347 -0.017626553954032741 0 -0.050766602133887687 -0.017625400832494045 0 -0.050669404876818279 -0.017372567023479238 0 -0.050729710941110347 -0.017626553954032741 0 -0.050669404876818279 -0.017372567023479238 0 -0.050661482877911328 -0.017757263506380457 0 -0.050669404876818279 -0.017372567023479238 0 -0.050379279026447468 -0.017414166823800176 0 -0.050661482877911328 -0.017757263506380457 0 -0.04826058455651458 -0.016003697770489184 0 -0.048274149799771439 -0.018121970600500161 0 -0.05017465215279255 -0.017144873583041786 0 -0.04826058455651458 -0.016003697770489184 0 -0.047145343433962976 -0.017271119894202928 0 -0.048274149799771439 -0.018121970600500161 0 -0.04689618673381489 -0.016247458524896244 0 -0.04826058455651458 -0.016003697770489184 0 -0.047145343433962976 -0.017271119894202928 0 -0.044787518098020236 -0.017395598225057183 0 -0.045850899635458457 -0.016819131283402098 0 -0.046445956094270324 -0.019078601310043009 0 -0.045850899635458457 -0.016819131283402098 0 -0.047145343433962976 -0.017271119894202928 0 -0.046445956094270324 -0.019078601310043009 0 -0.04689618673381489 -0.016247458524896244 0 -0.045850899635458457 -0.016819131283402098 0 -0.047145343433962976 -0.017271119894202928 0 -0.047145343433962976 -0.017271119894202928 0 -0.046445956094270324 -0.019078601310043009 0 -0.048274149799771439 -0.018121970600500161 0 -0.044818816583161378 -0.019674147750289594 0 -0.039535923175439684 -0.015337758470832441 0 -0.043818173228869634 -0.015349962381189453 0 -0.048377754568939647 -0.019520245435978915 0 -0.046445956094270324 -0.019078601310043009 0 -0.048274149799771439 -0.018121970600500161 0 -0.048377754568939647 -0.019520245435978915 0 -0.048274149799771439 -0.018121970600500161 0 -0.049451699226877512 -0.018637069795085105 0 -0.049451699226877512 -0.018637069795085105 0 -0.050632113786688686 -0.018349818866103568 0 -0.05017465215279255 -0.017144873583041786 0 -0.049451699226877512 -0.018637069795085105 0 -0.050632113786688686 -0.018349818866103568 0 -0.050005695249249325 -0.019531056194439376 0 -0.05136751009725312 -0.018524427604051975 0 -0.050920088236925502 -0.01723166767194129 0 -0.052476992948193323 -0.019175024967541067 0 -0.05136751009725312 -0.018524427604051975 0 -0.052476992948193323 -0.019175024967541067 0 -0.051435711190014791 -0.019397593815725634 0 -0.050632113786688686 -0.018349818866103568 0 -0.05136751009725312 -0.018524427604051975 0 -0.051435711190014791 -0.019397593815725634 0 -0.050632113786688686 -0.018349818866103568 0 -0.051435711190014791 -0.019397593815725634 0 -0.050005695249249325 -0.019531056194439376 0 -0.050632113786688686 -0.018349818866103568 0 -0.050920088236925502 -0.01723166767194129 0 -0.05017465215279255 -0.017144873583041786 0 -0.050632113786688686 -0.018349818866103568 0 -0.05136751009725312 -0.018524427604051975 0 -0.050920088236925502 -0.01723166767194129 0 -0.048274149799771439 -0.018121970600500161 0 -0.049451699226877512 -0.018637069795085105 0 -0.05017465215279255 -0.017144873583041786 0 -0.049386686961399834 -0.016673297342724065 0 -0.050139076638912261 -0.017098011358994802 0 -0.050669404876818279 -0.017372567023479238 0 -0.05017465215279255 -0.017144873583041786 0 -0.050379279026447468 -0.017414166823800176 0 -0.05017465215279255 -0.017144873583041786 0 -0.050379279026447468 -0.017414166823800176 0 -0.050008107119486729 -0.017470813166033269 0 -0.052599373069685651 -0.019430620232461466 0 -0.052723933417444205 -0.02080018868474301 0 -0.054302444584937284 -0.021410419634380139 0 -0.054055753865981507 -0.023098136651971711 0 -0.055418985745777076 -0.024078060801086345 0 -0.050920088236925502 -0.01723166767194129 0 -0.05017465215279255 -0.017144873583041786 0 -0.050008107119486729 -0.017470813166033269 0 -0.055418985745777076 -0.024078060801086345 0 -0.05454354492809247 -0.025149949960460459 0 -0.055759415598634975 -0.025933444271276231 0 -0.054055753865981507 -0.023098136651971711 0 -0.055418985745777076 -0.024078060801086345 0 -0.05454354492809247 -0.025149949960460459 0 -0.052723933417444205 -0.02080018868474301 0 -0.052938342466923617 -0.022686375967462712 0 -0.050379279026447468 -0.017414166823800176 0 -0.050008107119486729 -0.017470813166033269 0 -0.050661482877911328 -0.017757263506380457 0 -0.050008107119486729 -0.017470813166033269 0 -0.050661482877911328 -0.017757263506380457 0 -0.050095500672560966 -0.019387960812774073 0 -0.054579550981910391 -0.02672709461442958 0 -0.055459337972295131 -0.025799054822335892 0 -0.053946997809102511 -0.025959076059512264 0 -0.054579550981910391 -0.02672709461442958 0 -0.055459337972295131 -0.025799054822335892 0 -0.05499084696976457 -0.027348783612107661 0 -0.054055753865981507 -0.023098136651971711 0 -0.05454354492809247 -0.025149949960460459 0 -0.052804808032058725 -0.023465674446745802 0 -0.05454354492809247 -0.025149949960460459 0 -0.052804808032058725 -0.023465674446745802 0 -0.053442867818313831 -0.02555293340353007 0 -0.054149904513607308 -0.024393761446753166 0 -0.054236262423633108 -0.02637156957850938 0 -0.054055753865981507 -0.023098136651971711 0 -0.052804808032058725 -0.023465674446745802 0 -0.052393134485889135 -0.020837199332338189 0 -0.054149904513607308 -0.024393761446753166 0 -0.05378778785985347 -0.023307084858358914 0 -0.055459337972295131 -0.025799054822335892 0 -0.054431609999434277 -0.024448889826378405 0 -0.053946997809102511 -0.025959076059512264 0 -0.054431609999434277 -0.024448889826378405 0 -0.055021436603749349 -0.023337047998770965 0 -0.054071565480068515 -0.023063919407976897 0 -0.054431609999434277 -0.024448889826378405 0 -0.055657558247270908 -0.02403252119130737 0 -0.055021436603749349 -0.023337047998770965 0 -0.055459337972295131 -0.025799054822335892 0 -0.054431609999434277 -0.024448889826378405 0 -0.055657558247270908 -0.02403252119130737 0 -0.054302444584937284 -0.021410419634380139 0 -0.054055753865981507 -0.023098136651971711 0 -0.052393134485889135 -0.020837199332338189 0 -0.054302444584937284 -0.021410419634380139 0 -0.052393134485889135 -0.020837199332338189 0 -0.052476992948193323 -0.019175024967541067 0 -0.052476992948193323 -0.019175024967541067 0 -0.052593249751950365 -0.01913067741001323 0 -0.051435711190014791 -0.019397593815725634 0 -0.052393134485889135 -0.020837199332338189 0 -0.052476992948193323 -0.019175024967541067 0 -0.052593249751950365 -0.01913067741001323 0 -0.055657558247270908 -0.02403252119130737 0 -0.055021436603749349 -0.023337047998770965 0 -0.05576638506932919 -0.022157241897410949 0 -0.05378778785985347 -0.023307084858358914 0 -0.057382467932278587 -0.016502572966848449 0 -0.052599373069685651 -0.019430620232461466 0 -0.052528375847502709 -0.019234586509684799 0 -0.057382467932278587 -0.016502572966848449 0 -0.061397357654777406 -0.022180192232073511 0 -0.055021436603749349 -0.023337047998770965 0 -0.05576638506932919 -0.022157241897410949 0 -0.054071565480068515 -0.023063919407976897 0 -0.065757937374326031 -0.018812812911996376 0 -0.067638425767478416 -0.01844351220063321 0 -0.06530880413041841 -0.019703161683208677 0 -0.062665619779794429 -0.012026336873196807 0 -0.057382467932278587 -0.016502572966848449 0 -0.065757937374326031 -0.018812812911996376 0 -0.066321902593724114 -0.017874359490444681 0 -0.065766685776148387 -0.017986314898275374 0 -0.065757937374326031 -0.018812812911996376 0 -0.066321902593724114 -0.017874359490444681 0 -0.067638425767478416 -0.01844351220063321 0 -0.066321902593724114 -0.017874359490444681 0 -0.065766592412592223 -0.015665901575521606 0 -0.067638425767478416 -0.01844351220063321 0 -0.066321902593724114 -0.017874359490444681 0 -0.065690539768831047 -0.017239745962949849 0 -0.065766592412592223 -0.015665901575521606 0 -0.066321902593724114 -0.017874359490444681 0 -0.065766685776148387 -0.017986314898275374 0 -0.065690539768831047 -0.017239745962949849 0 -0.05749071516358252 -0.0081228213430379007 0 -0.060051984177461354 -0.0069904247101104933 0 -0.060178032134785162 -0.012424740670887875 0 -0.065690539768831047 -0.017239745962949849 0 -0.065766592412592223 -0.015665901575521606 0 -0.065153500477504248 -0.016571913728569979 0 -0.05749071516358252 -0.0081228213430379007 0 -0.060051984177461354 -0.0069904247101104933 0 -0.057542363222964167 -0.007152422002662473 0 -0.052334264078061778 -0.012137674907904999 0 -0.053366660347783333 -0.013404017293662451 0 -0.051409974776299383 -0.013279054401333109 0 -0.052334264078061778 -0.012137674907904999 0 -0.053366660347783333 -0.013404017293662451 0 -0.053453198748254452 -0.010398888985395378 0 -0.055402253785778129 -0.0078145720462426804 0 -0.051907842160869667 -0.0088275691777338298 0 -0.055402253785778129 -0.0078145720462426804 0 -0.057382467932278587 -0.016502572966848449 0 -0.057382467932278587 -0.016502572966848449 0 -0.050542887720422466 -0.01629292249353315 0 -0.052334264078061778 -0.012137674907904999 0 -0.053453198748254452 -0.010398888985395378 0 -0.051084331313222382 -0.011479928739046725 0 -0.052593249751950365 -0.01913067741001323 0 -0.051435711190014791 -0.019397593815725634 0 -0.051081850731044057 -0.020344918505124286 0 -0.051435711190014791 -0.019397593815725634 0 -0.051081850731044057 -0.020344918505124286 0 -0.050005695249249325 -0.019531056194439376 0 -0.0486825828523932 -0.021869375234510015 0 -0.048377754568939647 -0.019520245435978915 0 -0.050005695249249325 -0.019531056194439376 0 -0.0486825828523932 -0.021869375234510015 0 -0.051081850731044057 -0.020344918505124286 0 -0.050005695249249325 -0.019531056194439376 0 -0.048377754568939647 -0.019520245435978915 0 -0.049451699226877512 -0.018637069795085105 0 -0.050005695249249325 -0.019531056194439376 0 -0.048607701039452333 -0.012616355571620351 0 -0.051084331313222382 -0.011479928739046725 0 -0.050212015317477231 -0.012594775759093738 0 -0.046453357515913875 -0.013293150916417253 0 -0.050542887720422466 -0.01629292249353315 0 -0.050212015317477231 -0.012594775759093738 0 -0.04935865743200267 -0.013128449102652168 0 -0.051409974776299383 -0.013279054401333109 0 -0.046083490400416961 -0.0048331550931680692 0 -0.051907842160869667 -0.0088275691777338298 0 -0.048607701039452333 -0.012616355571620351 0 -0.050212015317477231 -0.012594775759093738 0 -0.04935865743200267 -0.013128449102652168 0 -0.046453357515913875 -0.013293150916417253 0 -0.046083490400416961 -0.0048331550931680692 0 -0.051084331313222382 -0.011479928739046725 0 -0.050212015317477231 -0.012594775759093738 0 -0.051409974776299383 -0.013279054401333109 0 -0.052334264078061778 -0.012137674907904999 0 -0.051084331313222382 -0.011479928739046725 0 -0.051409974776299383 -0.013279054401333109 0 -0.051743862426963959 -0.0040331522385078965 0 -0.052307818123045496 -0.0064607534905972543 0 -0.055437847942472022 -0.0059720593941400861 0 -0.048064257442109369 -0.0037331645849735958 0 -0.051743862426963959 -0.0040331522385078965 0 -0.052307818123045496 -0.0064607534905972543 0 -0.046083490400416961 -0.0048331550931680692 0 -0.049257450450658956 -0.00010727345508833389 0 -0.04500518403439157 0.0040051006582442657 0 -0.046871100970939612 0.0043836786763506008 0 -0.044583956768047862 0.0052724189691593856 0 -0.043413933197725997 0.0060603111517853218 0 -0.046871100970939612 0.0043836786763506008 0 -0.044583956768047862 0.0052724189691593856 0 -0.042162846596617023 0.0052146122199906919 0 -0.043413933197725997 0.0060603111517853218 0 -0.044583956768047862 0.0052724189691593856 0 -0.042276840249020911 0.0051608180224975223 0 -0.04424574790651381 0.0052284932378608628 0 -0.042368955397228972 0.0054037710935382621 0 -0.044583956768047862 0.0052724189691593856 0 -0.043379214393844484 0.0038315781147050354 0 -0.04500518403439157 0.0040051006582442657 0 -0.044583956768047862 0.0052724189691593856 0 -0.043379214393844484 0.0038315781147050354 0 -0.043977571051638839 0.00018366528563471847 0 -0.039576429431318186 0.0040199799065959935 0 -0.0453531933345106 0.0026370926849847826 0 -0.04500518403439157 0.0040051006582442657 0 -0.043379214393844484 0.0038315781147050354 0 -0.0453531933345106 0.0026370926849847826 0 -0.040783667595724118 0.0032093541251472829 0 -0.045016211212737259 0.0027229048375912519 0 -0.041928894790157378 0.0024371953057663203 0 -0.043379214393844484 0.0038315781147050354 0 -0.0453531933345106 0.0026370926849847826 0 -0.04500518403439157 0.0040051006582442657 0 -0.046871100970939612 0.0043836786763506008 0 -0.0453531933345106 0.0026370926849847826 0 -0.049257450450658956 -0.00010727345508833389 0 -0.053721523622059578 -0.0031333153823230619 0 -0.047790296102328572 -0.00038483507915414037 0 -0.0453531933345106 0.0026370926849847826 0 -0.051263496588579399 0.0016852019999212349 0 -0.046871100970939612 0.0043836786763506008 0 -0.0453531933345106 0.0026370926849847826 0 -0.051263496588579399 0.0016852019999212349 0 -0.056170029317395745 -0.0077353437232983305 0 -0.056912301604677952 -0.0069176460498506787 0 -0.057501053484638319 -0.0072173344007224107 0 -0.057917129953389081 -0.0073029345120490044 0 -0.056170029317395745 -0.0077353437232983305 0 -0.057501053484638319 -0.0072173344007224107 0 -0.056170029317395745 -0.0077353437232983305 0 -0.056912301604677952 -0.0069176460498506787 0 -0.055437847942472022 -0.0059720593941400861 0 -0.056912301604677952 -0.0069176460498506787 0 -0.05655740223697435 -0.0065179917129043075 0 -0.055437847942472022 -0.0059720593941400861 0 -0.056912301604677952 -0.0069176460498506787 0 -0.057542363222964167 -0.007152422002662473 0 -0.057727845523197145 -0.007037113373728956 0 -0.056912301604677952 -0.0069176460498506787 0 -0.057542363222964167 -0.007152422002662473 0 -0.05655740223697435 -0.0065179917129043075 0 -0.055402253785778129 -0.0078145720462426804 0 -0.058130692428327545 -0.0069788894244395818 0 -0.055598303065631259 -0.0054370760159358116 0 -0.057542363222964167 -0.007152422002662473 0 -0.05655740223697435 -0.0065179917129043075 0 -0.055598303065631259 -0.0054370760159358116 0 -0.05655740223697435 -0.0065179917129043075 0 -0.055437847942472022 -0.0059720593941400861 0 -0.052307818123045496 -0.0064607534905972543 0 -0.056170029317395745 -0.0077353437232983305 0 -0.055437847942472022 -0.0059720593941400861 0 -0.055480646562877982 -0.0046762743293041285 0 -0.051743862426963959 -0.0040331522385078965 0 -0.055437847942472022 -0.0059720593941400861 0 -0.055402253785778129 -0.0078145720462426804 0 -0.055444136429162461 -0.0062229606448339601 0 -0.063064650105993686 -0.013728763466639845 0 -0.062607348044646155 -0.01553185417585301 0 -0.064404854255548358 -0.015480329976903654 0 -0.064473150672679502 -0.013707291203594924 0 -0.063064650105993686 -0.013728763466639845 0 -0.064404854255548358 -0.015480329976903654 0 -0.062665619779794429 -0.012026336873196807 0 -0.060995711255611228 -0.010339620835360218 0 -0.065766592412592223 -0.015665901575521606 0 -0.064473150672679502 -0.013707291203594924 0 -0.064404854255548358 -0.015480329976903654 0 -0.05749071516358252 -0.0081228213430379007 0 -0.057542363222964167 -0.007152422002662473 0 -0.057727845523197145 -0.007037113373728956 0 -0.058672383921173368 -0.0067407379569708057 0 -0.057727845523197145 -0.007037113373728956 0 -0.057501053484638319 -0.0072173344007224107 0 -0.056912301604677952 -0.0069176460498506787 0 -0.057727845523197145 -0.007037113373728956 0 -0.057501053484638319 -0.0072173344007224107 0 -0.063680707967108466 -0.011734424730494145 0 -0.064473150672679502 -0.013707291203594924 0 -0.063064650105993686 -0.013728763466639845 0 -0.06121265426055722 -0.0092553923303086896 0 -0.060995711255611228 -0.010339620835360218 0 -0.0610786956430679 -0.012285681213658939 0 -0.063064650105993686 -0.013728763466639845 0 -0.060989251891940696 -0.014175768024010438 0 -0.0610786956430679 -0.012285681213658939 0 -0.063680707967108466 -0.011734424730494145 0 -0.063064650105993686 -0.013728763466639845 0 -0.059639911706831819 -0.012936573651472702 0 -0.0610786956430679 -0.012285681213658939 0 -0.060989251891940696 -0.014175768024010438 0 -0.060989251891940696 -0.014175768024010438 0 -0.06105024991208087 -0.016562413851573976 0 -0.059763398667586738 -0.015228472022735313 0 -0.063064650105993686 -0.013728763466639845 0 -0.060989251891940696 -0.014175768024010438 0 -0.062607348044646155 -0.01553185417585301 0 -0.060989251891940696 -0.014175768024010438 0 -0.062607348044646155 -0.01553185417585301 0 -0.06105024991208087 -0.016562413851573976 0 -0.062607348044646155 -0.01553185417585301 0 -0.06105024991208087 -0.016562413851573976 0 -0.063136145803814672 -0.017497025301480881 0 -0.06105024991208087 -0.016562413851573976 0 -0.060990393197531481 -0.018765129339184543 0 -0.058939013777584481 -0.018066784782597937 0 -0.06105024991208087 -0.016562413851573976 0 -0.060990393197531481 -0.018765129339184543 0 -0.063136145803814672 -0.017497025301480881 0 -0.060990393197531481 -0.018765129339184543 0 -0.063136145803814672 -0.017497025301480881 0 -0.062032115550109332 -0.020375732091144377 0 -0.063136145803814672 -0.017497025301480881 0 -0.064515801979946233 -0.017215318331471295 0 -0.064531516709367243 -0.018801789792880393 0 -0.063136145803814672 -0.017497025301480881 0 -0.064531516709367243 -0.018801789792880393 0 -0.063434161542099105 -0.019455956348516167 0 -0.063136145803814672 -0.017497025301480881 0 -0.064404854255548358 -0.015480329976903654 0 -0.064515801979946233 -0.017215318331471295 0 -0.062607348044646155 -0.01553185417585301 0 -0.063136145803814672 -0.017497025301480881 0 -0.064404854255548358 -0.015480329976903654 0 -0.065766592412592223 -0.015665901575521606 0 -0.064404854255548358 -0.015480329976903654 0 -0.065153500477504248 -0.016571913728569979 0 -0.064404854255548358 -0.015480329976903654 0 -0.065153500477504248 -0.016571913728569979 0 -0.064515801979946233 -0.017215318331471295 0 -0.065690539768831047 -0.017239745962949849 0 -0.065153500477504248 -0.016571913728569979 0 -0.065189101682326736 -0.017838165064013013 0 -0.065153500477504248 -0.016571913728569979 0 -0.064515801979946233 -0.017215318331471295 0 -0.065189101682326736 -0.017838165064013013 0 -0.065766685776148387 -0.017986314898275374 0 -0.065690539768831047 -0.017239745962949849 0 -0.065189101682326736 -0.017838165064013013 0 -0.064515801979946233 -0.017215318331471295 0 -0.065189101682326736 -0.017838165064013013 0 -0.064531516709367243 -0.018801789792880393 0 -0.065757937374326031 -0.018812812911996376 0 -0.065766685776148387 -0.017986314898275374 0 -0.065189101682326736 -0.017838165064013013 0 -0.065757937374326031 -0.018812812911996376 0 -0.065189101682326736 -0.017838165064013013 0 -0.064531516709367243 -0.018801789792880393 0 -0.064531516709367243 -0.018801789792880393 0 -0.06548292555549512 -0.019677674200856445 0 -0.063777176945137792 -0.021083643714706491 0 -0.061397357654777406 -0.022180192232073511 0 -0.06217447970523695 -0.022354031040125014 0 -0.065757937374326031 -0.018812812911996376 0 -0.064531516709367243 -0.018801789792880393 0 -0.06548292555549512 -0.019677674200856445 0 -0.06456669216270125 -0.018578881367550024 0 -0.061397357654777406 -0.022180192232073511 0 -0.064531516709367243 -0.018801789792880393 0 -0.063434161542099105 -0.019455956348516167 0 -0.063777176945137792 -0.021083643714706491 0 -0.063434161542099105 -0.019455956348516167 0 -0.063777176945137792 -0.021083643714706491 0 -0.062032115550109332 -0.020375732091144377 0 -0.059950596499061946 -0.02386792921471912 0 -0.060229258773534619 -0.024314155833645303 0 -0.059710341126156287 -0.024456666854944381 0 -0.054431609999434277 -0.024448889826378405 0 -0.054071565480068515 -0.023063919407976897 0 -0.053213709264217188 -0.024938554505533117 0 -0.061397357654777406 -0.022180192232073511 0 -0.055988157842025328 -0.024919023650019856 0 -0.060654061906749691 -0.023496648000501497 0 -0.059950596499061946 -0.02386792921471912 0 -0.060229258773534619 -0.024314155833645303 0 -0.054431609999434277 -0.024448889826378405 0 -0.053213709264217188 -0.024938554505533117 0 -0.053946997809102511 -0.025959076059512264 0 -0.053213709264217188 -0.024938554505533117 0 -0.052470997325519478 -0.026599471885898174 0 -0.053946997809102511 -0.025959076059512264 0 -0.055988157842025328 -0.024919023650019856 0 -0.057419442921771882 -0.026416365452860368 0 -0.060229258773534619 -0.024314155833645303 0 -0.059710341126156287 -0.024456666854944381 0 -0.059832308886276796 -0.025060579920499301 0 -0.057419442921771882 -0.026416365452860368 0 -0.054292424757318256 -0.027587849424086174 0 -0.052470997325519478 -0.026599471885898174 0 -0.053946997809102511 -0.025959076059512264 0 -0.05362710208620361 -0.027084558443442958 0 -0.054579550981910391 -0.02672709461442958 0 -0.053946997809102511 -0.025959076059512264 0 -0.05362710208620361 -0.027084558443442958 0 -0.05927762421909228 -0.025945439796209155 0 -0.059193117185113241 -0.026095485556382959 0 -0.059458744446308796 -0.025302399623240046 0 -0.05927762421909228 -0.025945439796209155 0 -0.059159523300224906 -0.026231717721146471 0 -0.059193117185113241 -0.026095485556382959 0 -0.05927762421909228 -0.025945439796209155 0 -0.059159523300224906 -0.026231717721146471 0 -0.059168595765939004 -0.026290590789727248 0 -0.05927762421909228 -0.025945439796209155 0 -0.059158307025266595 -0.026112970397906016 0 -0.059168595765939004 -0.026290590789727248 0 -0.059710341126156287 -0.024456666854944381 0 -0.059832308886276796 -0.025060579920499301 0 -0.059256060477500885 -0.024791189401426519 0 -0.059159523300224906 -0.026231717721146471 0 -0.059193117185113241 -0.026095485556382959 0 -0.059003202550048026 -0.026416926135032059 0 -0.059324521504040266 -0.026294692801197651 0 -0.059193117185113241 -0.026095485556382959 0 -0.059003202550048026 -0.026416926135032059 0 -0.057419442921771882 -0.026416365452860368 0 -0.059506087045812235 -0.025441843373969181 0 -0.059710341126156287 -0.024456666854944381 0 -0.059256060477500885 -0.024791189401426519 0 -0.059305105838127974 -0.024222767451244569 0 -0.059506087045812235 -0.025441843373969181 0 -0.059357976328301379 -0.024650265107850795 0 -0.060577700371416389 -0.023490267365475978 0 -0.059357976328301379 -0.024650265107850795 0 -0.059256060477500885 -0.024791189401426519 0 -0.059305105838127974 -0.024222767451244569 0 -0.058688341771616664 -0.024541959233502664 0 -0.060768134950396659 -0.022135154665422447 0 -0.06205621964931856 -0.022679981808383105 0 -0.060041896334829842 -0.024483385365309168 0 -0.060768134950396659 -0.022135154665422447 0 -0.06205621964931856 -0.022679981808383105 0 -0.062032115550109332 -0.020375732091144377 0 -0.06217447970523695 -0.022354031040125014 0 -0.060577700371416389 -0.023490267365475978 0 -0.063777176945137792 -0.021083643714706491 0 -0.06205621964931856 -0.022679981808383105 0 -0.062032115550109332 -0.020375732091144377 0 -0.059950596499061946 -0.02386792921471912 0 -0.059710341126156287 -0.024456666854944381 0 -0.059305105838127974 -0.024222767451244569 0 -0.063136145803814672 -0.017497025301480881 0 -0.063434161542099105 -0.019455956348516167 0 -0.062032115550109332 -0.020375732091144377 0 -0.060768134950396659 -0.022135154665422447 0 -0.062032115550109332 -0.020375732091144377 0 -0.060034279860658575 -0.020788268903990211 0 -0.060990393197531481 -0.018765129339184543 0 -0.062032115550109332 -0.020375732091144377 0 -0.060034279860658575 -0.020788268903990211 0 -0.060034279860658575 -0.020788268903990211 0 -0.058310836467587411 -0.020116685187106045 0 -0.058721305060215577 -0.021720101744744012 0 -0.058310836467587411 -0.020116685187106045 0 -0.058721305060215577 -0.021720101744744012 0 -0.057543188466175212 -0.021751346702774951 0 -0.058388170202072293 -0.023129884389121405 0 -0.057502105917779656 -0.023184770432220114 0 -0.057543188466175212 -0.021751346702774951 0 -0.058721305060215577 -0.021720101744744012 0 -0.058388170202072293 -0.023129884389121405 0 -0.057543188466175212 -0.021751346702774951 0 -0.058388170202072293 -0.023129884389121405 0 -0.058224631365195213 -0.024453727814331014 0 -0.057502105917779656 -0.023184770432220114 0 -0.060768134950396659 -0.022135154665422447 0 -0.060034279860658575 -0.020788268903990211 0 -0.059481948378388078 -0.023077329523174518 0 -0.060768134950396659 -0.022135154665422447 0 -0.059481948378388078 -0.023077329523174518 0 -0.060041896334829842 -0.024483385365309168 0 -0.060034279860658575 -0.020788268903990211 0 -0.058721305060215577 -0.021720101744744012 0 -0.059481948378388078 -0.023077329523174518 0 -0.058388170202072293 -0.023129884389121405 0 -0.059481948378388078 -0.023077329523174518 0 -0.058880872959846987 -0.024283527675002095 0 -0.058721305060215577 -0.021720101744744012 0 -0.058388170202072293 -0.023129884389121405 0 -0.059481948378388078 -0.023077329523174518 0 -0.059481948378388078 -0.023077329523174518 0 -0.059495389112691519 -0.024422677122032412 0 -0.060041896334829842 -0.024483385365309168 0 -0.059458744446308796 -0.025302399623240046 0 -0.059517508005474541 -0.025169830520170241 0 -0.05930205729329021 -0.025617691207027879 0 -0.059357976328301379 -0.024650265107850795 0 -0.059366906725876432 -0.024700911769664061 0 -0.059495389112691519 -0.024422677122032412 0 -0.059517508005474541 -0.025169830520170241 0 -0.059149098138119742 -0.024958186825999637 0 -0.059447583424396322 -0.024634895745538253 0 -0.059357976328301379 -0.024650265107850795 0 -0.059495389112691519 -0.024422677122032412 0 -0.060033384827323004 -0.024914322363227312 0 -0.059517508005474541 -0.025169830520170241 0 -0.059517508005474541 -0.025169830520170241 0 -0.059158218676507876 -0.0253687779570866 0 -0.05930205729329021 -0.025617691207027879 0 -0.059517508005474541 -0.025169830520170241 0 -0.059158218676507876 -0.0253687779570866 0 -0.059149098138119742 -0.024958186825999637 0 -0.058793655457936009 -0.025210909564039815 0 -0.059149098138119742 -0.024958186825999637 0 -0.058880872959846987 -0.024283527675002095 0 -0.058793655457936009 -0.025210909564039815 0 -0.059158218676507876 -0.0253687779570866 0 -0.059149098138119742 -0.024958186825999637 0 -0.059495389112691519 -0.024422677122032412 0 -0.059149098138119742 -0.024958186825999637 0 -0.058880872959846987 -0.024283527675002095 0 -0.059481948378388078 -0.023077329523174518 0 -0.059495389112691519 -0.024422677122032412 0 -0.058880872959846987 -0.024283527675002095 0 -0.058388170202072293 -0.023129884389121405 0 -0.058880872959846987 -0.024283527675002095 0 -0.058224631365195213 -0.024453727814331014 0 -0.058224631365195213 -0.024453727814331014 0 -0.05744718008274427 -0.024904680337798087 0 -0.057502105917779656 -0.023184770432220114 0 -0.058224631365195213 -0.024453727814331014 0 -0.058353160340076281 -0.025802575901161837 0 -0.05744718008274427 -0.024904680337798087 0 -0.058793655457936009 -0.025210909564039815 0 -0.058880872959846987 -0.024283527675002095 0 -0.058224631365195213 -0.024453727814331014 0 -0.058793655457936009 -0.025210909564039815 0 -0.058224631365195213 -0.024453727814331014 0 -0.058353160340076281 -0.025802575901161837 0 -0.058353160340076281 -0.025802575901161837 0 -0.057824341073757529 -0.026732177279608107 0 -0.05744718008274427 -0.024904680337798087 0 -0.058353160340076281 -0.025802575901161837 0 -0.058798655295786713 -0.026301224297664023 0 -0.057824341073757529 -0.026732177279608107 0 -0.058793655457936009 -0.025210909564039815 0 -0.058353160340076281 -0.025802575901161837 0 -0.058977819841455607 -0.025830078879703542 0 -0.058353160340076281 -0.025802575901161837 0 -0.058798655295786713 -0.026301224297664023 0 -0.058977819841455607 -0.025830078879703542 0 -0.058798655295786713 -0.026301224297664023 0 -0.059158307025266595 -0.026112970397906016 0 -0.058977819841455607 -0.025830078879703542 0 -0.059158307025266595 -0.026112970397906016 0 -0.059114739702755305 -0.026435887849479256 0 -0.059168595765939004 -0.026290590789727248 0 -0.058798655295786713 -0.026301224297664023 0 -0.059158307025266595 -0.026112970397906016 0 -0.059114739702755305 -0.026435887849479256 0 -0.059158307025266595 -0.026112970397906016 0 -0.05930205729329021 -0.025617691207027879 0 -0.058977819841455607 -0.025830078879703542 0 -0.05927762421909228 -0.025945439796209155 0 -0.059458744446308796 -0.025302399623240046 0 -0.05930205729329021 -0.025617691207027879 0 -0.05927762421909228 -0.025945439796209155 0 -0.059158307025266595 -0.026112970397906016 0 -0.05930205729329021 -0.025617691207027879 0 -0.059158218676507876 -0.0253687779570866 0 -0.05930205729329021 -0.025617691207027879 0 -0.058977819841455607 -0.025830078879703542 0 -0.058793655457936009 -0.025210909564039815 0 -0.059158218676507876 -0.0253687779570866 0 -0.058977819841455607 -0.025830078879703542 0 -0.054999749424558174 -0.026705776103595064 0 -0.056082638900034683 -0.025219612637967667 0 -0.056299103158131428 -0.027827399303454573 0 -0.057824341073757529 -0.026732177279608107 0 -0.05744718008274427 -0.024904680337798087 0 -0.056082638900034683 -0.025219612637967667 0 -0.057824341073757529 -0.026732177279608107 0 -0.056082638900034683 -0.025219612637967667 0 -0.056299103158131428 -0.027827399303454573 0 -0.05744718008274427 -0.024904680337798087 0 -0.056082638900034683 -0.025219612637967667 0 -0.05653764902380233 -0.02339020493380118 0 -0.05744718008274427 -0.024904680337798087 0 -0.057502105917779656 -0.023184770432220114 0 -0.05653764902380233 -0.02339020493380118 0 -0.056082638900034683 -0.025219612637967667 0 -0.054999670881447041 -0.02380788206524399 0 -0.05653764902380233 -0.02339020493380118 0 -0.054999749424558174 -0.026705776103595064 0 -0.056082638900034683 -0.025219612637967667 0 -0.054999670881447041 -0.02380788206524399 0 -0.054999670881447041 -0.02380788206524399 0 -0.05653764902380233 -0.02339020493380118 0 -0.05619972153635016 -0.021856537418136503 0 -0.05653764902380233 -0.02339020493380118 0 -0.057543188466175212 -0.021751346702774951 0 -0.05619972153635016 -0.021856537418136503 0 -0.057502105917779656 -0.023184770432220114 0 -0.05653764902380233 -0.02339020493380118 0 -0.057543188466175212 -0.021751346702774951 0 -0.058310836467587411 -0.020116685187106045 0 -0.057543188466175212 -0.021751346702774951 0 -0.05690550658639279 -0.019416171053388349 0 -0.057543188466175212 -0.021751346702774951 0 -0.05619972153635016 -0.021856537418136503 0 -0.05690550658639279 -0.019416171053388349 0 -0.054999670881447041 -0.02380788206524399 0 -0.05619972153635016 -0.021856537418136503 0 -0.054999613022182446 -0.020909963392852202 0 -0.05619972153635016 -0.021856537418136503 0 -0.054999613022182446 -0.020909963392852202 0 -0.05690550658639279 -0.019416171053388349 0 -0.054999613022182446 -0.020909963392852202 0 -0.054999826941329828 -0.01801241845639636 0 -0.05690550658639279 -0.019416171053388349 0 -0.054999826941329828 -0.01801241845639636 0 -0.05690550658639279 -0.019416171053388349 0 -0.0571778251495874 -0.017086561859627002 0 -0.058310836467587411 -0.020116685187106045 0 -0.05690550658639279 -0.019416171053388349 0 -0.058939013777584481 -0.018066784782597937 0 -0.060034279860658575 -0.020788268903990211 0 -0.058310836467587411 -0.020116685187106045 0 -0.058939013777584481 -0.018066784782597937 0 -0.060990393197531481 -0.018765129339184543 0 -0.060034279860658575 -0.020788268903990211 0 -0.058939013777584481 -0.018066784782597937 0 -0.06105024991208087 -0.016562413851573976 0 -0.058939013777584481 -0.018066784782597937 0 -0.059763398667586738 -0.015228472022735313 0 -0.058894815449318488 -0.018012690088796472 0 -0.057009425745900212 -0.016579192904767021 0 -0.05690550658639279 -0.019416171053388349 0 -0.058939013777584481 -0.018066784782597937 0 -0.0571778251495874 -0.017086561859627002 0 -0.058939013777584481 -0.018066784782597937 0 -0.058195971723665745 -0.014738972511165438 0 -0.056827758269652674 -0.016041598299738457 0 -0.058939013777584481 -0.018066784782597937 0 -0.058195971723665745 -0.014738972511165438 0 -0.059763398667586738 -0.015228472022735313 0 -0.059639911706831819 -0.012936573651472702 0 -0.060989251891940696 -0.014175768024010438 0 -0.059763398667586738 -0.015228472022735313 0 -0.059639911706831819 -0.012936573651472702 0 -0.058195971723665745 -0.014738972511165438 0 -0.059763398667586738 -0.015228472022735313 0 -0.057926705265237952 -0.012949423843550828 0 -0.059639911706831819 -0.012936573651472702 0 -0.058195971723665745 -0.014738972511165438 0 -0.057926705265237952 -0.012949423843550828 0 -0.058195971723665745 -0.014738972511165438 0 -0.05679865723137139 -0.014303187411979256 0 -0.056650137567795175 -0.012465264595461949 0 -0.05679865723137139 -0.014303187411979256 0 -0.054999701851446092 -0.01511279843079919 0 -0.054999826941329828 -0.01801241845639636 0 -0.054999944560773582 -0.015115090884070885 0 -0.0571778251495874 -0.017086561859627002 0 -0.05679865723137139 -0.014303187411979256 0 -0.054999701851446092 -0.01511279843079919 0 -0.056827758269652674 -0.016041598299738457 0 -0.055000182777325157 -0.015114768190358528 0 -0.057009425745900212 -0.016579192904767021 0 -0.058195971723665745 -0.014738972511165438 0 -0.05679865723137139 -0.014303187411979256 0 -0.056827758269652674 -0.016041598299738457 0 -0.05833567773176581 -0.039112200478054707 0 -0.057072821215315726 -0.037900648190865804 0 -0.056530543949545528 -0.039222590095890464 0 -0.05833567773176581 -0.039112200478054707 0 -0.057072821215315726 -0.037900648190865804 0 -0.058229409230751449 -0.036675474407484525 0 -0.054845086144496291 -0.038745863038833053 0 -0.056259311212816049 -0.035499913100764897 0 -0.056007782839646372 -0.03789701049035625 0 -0.056530543949545528 -0.039222590095890464 0 -0.054999916629993782 -0.039945205298557759 0 -0.057072821215315726 -0.037900648190865804 0 -0.056007782839646372 -0.03789701049035625 0 -0.056530543949545528 -0.039222590095890464 0 -0.056007782839646372 -0.03789701049035625 0 -0.054999916629993782 -0.039945205298557759 0 -0.054999993682203811 -0.037048556707104975 0 -0.056530543949545528 -0.039222590095890464 0 -0.055873267671065999 -0.040620605426738898 0 -0.057002261228900057 -0.040415464096874174 0 -0.054999916629993782 -0.039945205298557759 0 -0.055873267671065999 -0.040620605426738898 0 -0.055562259564545059 -0.041776009193767748 0 -0.056530543949545528 -0.039222590095890464 0 -0.054999916629993782 -0.039945205298557759 0 -0.055873267671065999 -0.040620605426738898 0 -0.055873267671065999 -0.040620605426738898 0 -0.057002261228900057 -0.040415464096874174 0 -0.055562259564545059 -0.041776009193767748 0 -0.055692480722203466 -0.042267368680491538 0 -0.055681724905930312 -0.041872239475608114 0 -0.055562259564545059 -0.041776009193767748 0 -0.056192368178211834 -0.041429080490450444 0 -0.055694556488697901 -0.041753767699525324 0 -0.05833567773176581 -0.039112200478054707 0 -0.056530543949545528 -0.039222590095890464 0 -0.057002261228900057 -0.040415464096874174 0 -0.055692480722203466 -0.042267368680491538 0 -0.05505358020444226 -0.042240502283911713 0 -0.055420198475288639 -0.041518781229145658 0 -0.054684132560116429 -0.043417247304693415 0 -0.05505358020444226 -0.042240502283911713 0 -0.054287015389013933 -0.041807504450521768 0 -0.054845086144496291 -0.038745863038833053 0 -0.053193953613396447 -0.039866659962473815 0 -0.055692480722203466 -0.042267368680491538 0 -0.055420198475288639 -0.041518781229145658 0 -0.055681724905930312 -0.041872239475608114 0 -0.054684132560116429 -0.043417247304693415 0 -0.055692480722203466 -0.042267368680491538 0 -0.05505358020444226 -0.042240502283911713 0 -0.054845086144496291 -0.038745863038833053 0 -0.056192368178211834 -0.041429080490450444 0 -0.05505358020444226 -0.042240502283911713 0 -0.054287015389013933 -0.041807504450521768 0 -0.055420198475288639 -0.041518781229145658 0 -0.052288900022727527 -0.037360664591379759 0 -0.052449683810725525 -0.037548344010933481 0 -0.052479309149564494 -0.037450313880902905 0 -0.052288900022727527 -0.037360664591379759 0 -0.052329352700257466 -0.037598360554476712 0 -0.052449683810725525 -0.037548344010933481 0 -0.052479309149564494 -0.037450313880902905 0 -0.052543459071664626 -0.037303694410161584 0 -0.052518706708146796 -0.037519586013832908 0 -0.052449683810725525 -0.037548344010933481 0 -0.052479309149564494 -0.037450313880902905 0 -0.052508859882810864 -0.037561969834427437 0 -0.052479309149564494 -0.037450313880902905 0 -0.052518706708146796 -0.037519586013832908 0 -0.052508859882810864 -0.037561969834427437 0 -0.052479309149564494 -0.037450313880902905 0 -0.052543459071664626 -0.037303694410161584 0 -0.052386800460840495 -0.037161115491002636 0 -0.052288900022727527 -0.037360664591379759 0 -0.052479309149564494 -0.037450313880902905 0 -0.052386800460840495 -0.037161115491002636 0 -0.054845086144496291 -0.038745863038833053 0 -0.053608894036325815 -0.03609769669414082 0 -0.054033306407466862 -0.036187918935019492 0 -0.054914519949171868 -0.03531685012087922 0 -0.053991936390936308 -0.034806705014681749 0 -0.054914519949171868 -0.03531685012087922 0 -0.054827543641344123 -0.034500399157653842 0 -0.053991936390936308 -0.034806705014681749 0 -0.052543459071664626 -0.037303694410161584 0 -0.052386800460840495 -0.037161115491002636 0 -0.052557189130177068 -0.036861673558036795 0 -0.054914519949171868 -0.03531685012087922 0 -0.054827543641344123 -0.034500399157653842 0 -0.055732789695778606 -0.034463940929223079 0 -0.053608894036325815 -0.03609769669414082 0 -0.054077636632413918 -0.03589688771853014 0 -0.054827543641344123 -0.034500399157653842 0 -0.055732789695778606 -0.034463940929223079 0 -0.055092082633917579 -0.033961468742482417 0 -0.055732789695778606 -0.034463940929223079 0 -0.055092082633917579 -0.033961468742482417 0 -0.055523030763834323 -0.033724083754170846 0 -0.055092082633917579 -0.033961468742482417 0 -0.055523030763834323 -0.033724083754170846 0 -0.054837722450007807 -0.033509817958775119 0 -0.054494027280818098 -0.034025264077162103 0 -0.053991936390936308 -0.034806705014681749 0 -0.053958777572127095 -0.033469019123828131 0 -0.054827543641344123 -0.034500399157653842 0 -0.054494027280818098 -0.034025264077162103 0 -0.053991936390936308 -0.034806705014681749 0 -0.054827543641344123 -0.034500399157653842 0 -0.055092082633917579 -0.033961468742482417 0 -0.054494027280818098 -0.034025264077162103 0 -0.055092082633917579 -0.033961468742482417 0 -0.054494027280818098 -0.034025264077162103 0 -0.054837722450007807 -0.033509817958775119 0 -0.054494027280818098 -0.034025264077162103 0 -0.053958777572127095 -0.033469019123828131 0 -0.054837722450007807 -0.033509817958775119 0 -0.056259311212816049 -0.035499913100764897 0 -0.055349377500588867 -0.034071338972472325 0 -0.05717501973959048 -0.035717343642010173 0 -0.058229409230751449 -0.036675474407484525 0 -0.058117944703583349 -0.034285396929195321 0 -0.05717501973959048 -0.035717343642010173 0 -0.058117944703583349 -0.034285396929195321 0 -0.057151205443855387 -0.034237565596130698 0 -0.05717501973959048 -0.035717343642010173 0 -0.058229409230751449 -0.036675474407484525 0 -0.056801699372478316 -0.036823777648528844 0 -0.057072821215315726 -0.037900648190865804 0 -0.058229409230751449 -0.036675474407484525 0 -0.056801699372478316 -0.036823777648528844 0 -0.056007782839646372 -0.03789701049035625 0 -0.054999993682203811 -0.037048556707104975 0 -0.05563686203000371 -0.036451422069220453 0 -0.056007782839646372 -0.03789701049035625 0 -0.056801699372478316 -0.036823777648528844 0 -0.05563686203000371 -0.036451422069220453 0 -0.057072821215315726 -0.037900648190865804 0 -0.056007782839646372 -0.03789701049035625 0 -0.056801699372478316 -0.036823777648528844 0 -0.05717501973959048 -0.035717343642010173 0 -0.056801699372478316 -0.036823777648528844 0 -0.05563686203000371 -0.036451422069220453 0 -0.054999993682203811 -0.037048556707104975 0 -0.05563686203000371 -0.036451422069220453 0 -0.054999977974114871 -0.034152241717849197 0 -0.05563686203000371 -0.036451422069220453 0 -0.055539308302653037 -0.034087780479919394 0 -0.057201062128669058 -0.034170664859372833 0 -0.05563686203000371 -0.036451422069220453 0 -0.054999977974114871 -0.034152241717849197 0 -0.055539308302653037 -0.034087780479919394 0 -0.05717501973959048 -0.035717343642010173 0 -0.05563686203000371 -0.036451422069220453 0 -0.057151205443855387 -0.034237565596130698 0 -0.055960256668583182 -0.036519941178977597 0 -0.056020014583007281 -0.033330896728573096 0 -0.055758378372175732 -0.033682043739759616 0 -0.055660025381103366 -0.031509486948043279 0 -0.05500062883646268 -0.0341514285167362 0 -0.055758378372175732 -0.033682043739759616 0 -0.055534032378444953 -0.034071050170592788 0 -0.056337929414722585 -0.032787651195927615 0 -0.05738017503332489 -0.033803024461327096 0 -0.054999989006742571 -0.034152111663478986 0 -0.055534032378444953 -0.034071050170592788 0 -0.056337929414722585 -0.032787651195927615 0 -0.054999989006742571 -0.034152111663478986 0 -0.056337929414722585 -0.032787651195927615 0 -0.05499997973200868 -0.031831270146080982 0 -0.055758378372175732 -0.033682043739759616 0 -0.056020014583007281 -0.033330896728573096 0 -0.056337929414722585 -0.032787651195927615 0 -0.05738017503332489 -0.033803024461327096 0 -0.058650408645224153 -0.031920862669464548 0 -0.055777666776936539 -0.032831779622243019 0 -0.055715424573809284 -0.032820405755161382 0 -0.05572268047572828 -0.032813166509487873 0 -0.055660025381103366 -0.031509486948043279 0 -0.057179368819012463 -0.029247808516275734 0 -0.055349377500588867 -0.034071338972472325 0 -0.056020014583007281 -0.033330896728573096 0 -0.054217675118692917 -0.033461853078656609 0 -0.053906408387059408 -0.03332100446026677 0 -0.053825677795446454 -0.033443573096705682 0 -0.055349377500588867 -0.034071338972472325 0 -0.055313816679984085 -0.033994425154741326 0 -0.054217675118692917 -0.033461853078656609 0 -0.054214348843788819 -0.033385770586304181 0 -0.053906408387059408 -0.03332100446026677 0 -0.055660025381103366 -0.031509486948043279 0 -0.056020014583007281 -0.033330896728573096 0 -0.056337929414722585 -0.032787651195927615 0 -0.05645155162432125 -0.031115781587911753 0 -0.058650408645224153 -0.031920862669464548 0 -0.05645155162432125 -0.031115781587911753 0 -0.057474596772463096 -0.029861379683157649 0 -0.058650408645224153 -0.031920862669464548 0 -0.056337929414722585 -0.032787651195927615 0 -0.05499997973200868 -0.031831270146080982 0 -0.05645155162432125 -0.031115781587911753 0 -0.05499997973200868 -0.031831270146080982 0 -0.05645155162432125 -0.031115781587911753 0 -0.054999998542371205 -0.029604023117161586 0 -0.054999841548594969 -0.029603825683913083 0 -0.057714973858401554 -0.029765083197147966 0 -0.05645155162432125 -0.031115781587911753 0 -0.054999998542371205 -0.029604023117161586 0 -0.057474596772463096 -0.029861379683157649 0 -0.057824341073757529 -0.026732177279608107 0 -0.056299103158131428 -0.027827399303454573 0 -0.058356656821565739 -0.028411614525709453 0 -0.057137902943692809 -0.029386054089770339 0 -0.056299103158131428 -0.027827399303454573 0 -0.058356656821565739 -0.028411614525709453 0 -0.054999749424558174 -0.026705776103595064 0 -0.054999736616532749 -0.029603015752920122 0 -0.056299103158131428 -0.027827399303454573 0 -0.054999736616532749 -0.029603015752920122 0 -0.057137902943692809 -0.029386054089770339 0 -0.056299103158131428 -0.027827399303454573 0 -0.059103857495779386 -0.026441762592907935 0 -0.059114739702755305 -0.026435887849479256 0 -0.059097462071994712 -0.026449034738493474 0 -0.058196473256254044 -0.027422946045249339 0 -0.058847965082563916 -0.02660571145158646 0 -0.058798655295786713 -0.026301224297664023 0 -0.059048142777748391 -0.026668226164606706 0 -0.059114739702755305 -0.026435887849479256 0 -0.058512671078383323 -0.026824667437981595 0 -0.058196473256254044 -0.027422946045249339 0 -0.057824341073757529 -0.026732177279608107 0 -0.060511231256331656 -0.028137113296770801 0 -0.058356656821565739 -0.028411614525709453 0 -0.060511231256331656 -0.028137113296770801 0 -0.058356656821565739 -0.028411614525709453 0 -0.059483941912900531 -0.029553564354400617 0 -0.058798655295786713 -0.026301224297664023 0 -0.057824341073757529 -0.026732177279608107 0 -0.059048142777748391 -0.026668226164606706 0 -0.057714973858401554 -0.029765083197147966 0 -0.057622387735802368 -0.028618074052549809 0 -0.057137902943692809 -0.029386054089770339 0 -0.058356656821565739 -0.028411614525709453 0 -0.059483941912900531 -0.029553564354400617 0 -0.057474596772463096 -0.029861379683157649 0 -0.059895063311118164 -0.030076093735730124 0 -0.058650408645224153 -0.031920862669464548 0 -0.055337336304846961 -0.027123975604830236 0 -0.055211755692754855 -0.027031278078808084 0 -0.055169624930266295 -0.027110944082279802 0 -0.055518213415104184 -0.027532634093857946 0 -0.055794362981088468 -0.027161619049336203 0 -0.055169624930266295 -0.027110944082279802 0 -0.057622387735802368 -0.028618074052549809 0 -0.054385073183977381 -0.026886672159632408 0 -0.058196473256254044 -0.027422946045249339 0 -0.057622387735802368 -0.028618074052549809 0 -0.055211755692754855 -0.027031278078808084 0 -0.055292688511881419 -0.02699512732372308 0 -0.055144275479365852 -0.026926517569054783 0 -0.055292688511881419 -0.02699512732372308 0 -0.055313463154361246 -0.026885359747643355 0 -0.055144275479365852 -0.026926517569054783 0 -0.055337336304846961 -0.027123975604830236 0 -0.055211755692754855 -0.027031278078808084 0 -0.055292688511881419 -0.02699512732372308 0 -0.055337336304846961 -0.027123975604830236 0 -0.055292688511881419 -0.02699512732372308 0 -0.055412399416462324 -0.027002370276738585 0 -0.055292688511881419 -0.02699512732372308 0 -0.055412399416462324 -0.027002370276738585 0 -0.055313463154361246 -0.026885359747643355 0 -0.057622387735802368 -0.028618074052549809 0 -0.057179368819012463 -0.029247808516275734 0 -0.054214348843788819 -0.033385770586304181 0 -0.054837722450007807 -0.033509817958775119 0 -0.055076323399186888 -0.033142354483330284 0 -0.055473945003113964 -0.026948990788695566 0 -0.055412399416462324 -0.027002370276738585 0 -0.055313463154361246 -0.026885359747643355 0 -0.054214348843788819 -0.033385770586304181 0 -0.053906408387059408 -0.03332100446026677 0 -0.055076323399186888 -0.033142354483330284 0 -0.055660025381103366 -0.031509486948043279 0 -0.055118623290843841 -0.029966980571403543 0 -0.054217379664436162 -0.033461044720961473 0 -0.054214348843788819 -0.033385770586304181 0 -0.054837722450007807 -0.033509817958775119 0 -0.055349377500588867 -0.034071338972472325 0 -0.05436978391105398 -0.033548406200299662 0 -0.055118623290843841 -0.029966980571403543 0 -0.055177161609920013 -0.028895973029383449 0 -0.055523030763834323 -0.033724083754170846 0 -0.055076323399186888 -0.033142354483330284 0 -0.056545281113641731 -0.032920041470698519 0 -0.055523030763834323 -0.033724083754170846 0 -0.054837722450007807 -0.033509817958775119 0 -0.055076323399186888 -0.033142354483330284 0 -0.055313463154361246 -0.026885359747643355 0 -0.055004042666224717 -0.026808047275033844 0 -0.055144275479365852 -0.026926517569054783 0 -0.055523030763834323 -0.033724083754170846 0 -0.056545281113641731 -0.032920041470698519 0 -0.056527451616365708 -0.033657350212239652 0 -0.052830902637655899 -0.027455655210279317 0 -0.053279082152343643 -0.028199573384091774 0 -0.052845658889507777 -0.02824009924497993 0 -0.055177161609920013 -0.028895973029383449 0 -0.053850153494319895 -0.032609174099145322 0 -0.054982257331343057 -0.026799082116761793 0 -0.054995630007643952 -0.026838979069653573 0 -0.054919351078288353 -0.026894196798000963 0 -0.055004042666224717 -0.026808047275033844 0 -0.054995630007643952 -0.026838979069653573 0 -0.055144275479365852 -0.026926517569054783 0 -0.055177161609920013 -0.028895973029383449 0 -0.055175693839921998 -0.028292762737504997 0 -0.054982257331343057 -0.026799082116761793 0 -0.054826225154489844 -0.026878574724244406 0 -0.054683970658526093 -0.026895056436300809 0 -0.052830902637655899 -0.027455655210279317 0 -0.053720089662906353 -0.027897232605660884 0 -0.054683970658526093 -0.026895056436300809 0 -0.055177161609920013 -0.028895973029383449 0 -0.054153850647474008 -0.026428584668954938 0 -0.052830902637655899 -0.027455655210279317 0 -0.053720089662906353 -0.027897232605660884 0 -0.053279082152343643 -0.028199573384091774 0 -0.054826225154489844 -0.026878574724244406 0 -0.054863700169719837 -0.026946384145692018 0 -0.054732085269106119 -0.026874092893786127 0 -0.054982257331343057 -0.026799082116761793 0 -0.054826225154489844 -0.026878574724244406 0 -0.054919351078288353 -0.026894196798000963 0 -0.054826225154489844 -0.026878574724244406 0 -0.054919351078288353 -0.026894196798000963 0 -0.054863700169719837 -0.026946384145692018 0 -0.054863700169719837 -0.026946384145692018 0 -0.054976093763860791 -0.026961394667433903 0 -0.055014814899728114 -0.027042578373505877 0 -0.054919351078288353 -0.026894196798000963 0 -0.054863700169719837 -0.026946384145692018 0 -0.054976093763860791 -0.026961394667433903 0 -0.054863700169719837 -0.026946384145692018 0 -0.054719811581982934 -0.026911066239225637 0 -0.054732085269106119 -0.026874092893786127 0 -0.055144275479365852 -0.026926517569054783 0 -0.055025343824927034 -0.026924140122060045 0 -0.055094417319131575 -0.027002038910829241 0 -0.054995630007643952 -0.026838979069653573 0 -0.055144275479365852 -0.026926517569054783 0 -0.055025343824927034 -0.026924140122060045 0 -0.054995630007643952 -0.026838979069653573 0 -0.054919351078288353 -0.026894196798000963 0 -0.055025343824927034 -0.026924140122060045 0 -0.054919351078288353 -0.026894196798000963 0 -0.055025343824927034 -0.026924140122060045 0 -0.054976093763860791 -0.026961394667433903 0 -0.055025343824927034 -0.026924140122060045 0 -0.054976093763860791 -0.026961394667433903 0 -0.055094417319131575 -0.027002038910829241 0 -0.054976093763860791 -0.026961394667433903 0 -0.055094417319131575 -0.027002038910829241 0 -0.055014814899728114 -0.027042578373505877 0 -0.055211755692754855 -0.027031278078808084 0 -0.055144275479365852 -0.026926517569054783 0 -0.055094417319131575 -0.027002038910829241 0 -0.055518213415104184 -0.027532634093857946 0 -0.055169624930266295 -0.027110944082279802 0 -0.054982054939185579 -0.027213870222088488 0 -0.055211755692754855 -0.027031278078808084 0 -0.055094417319131575 -0.027002038910829241 0 -0.055169624930266295 -0.027110944082279802 0 -0.055169624930266295 -0.027110944082279802 0 -0.054982054939185579 -0.027213870222088488 0 -0.055014814899728114 -0.027042578373505877 0 -0.055094417319131575 -0.027002038910829241 0 -0.055169624930266295 -0.027110944082279802 0 -0.055014814899728114 -0.027042578373505877 0 -0.054863700169719837 -0.026946384145692018 0 -0.054982054939185579 -0.027213870222088488 0 -0.055014814899728114 -0.027042578373505877 0 -0.059083501426830852 -0.026468289008659499 0 -0.058375910199926412 -0.026709098560831937 0 -0.057262808870276877 -0.026128059257935973 0 -0.054863700169719837 -0.026946384145692018 0 -0.054982054939185579 -0.027213870222088488 0 -0.054719811581982934 -0.026911066239225637 0 -0.056829079439387579 -0.026759419604769474 0 -0.056083356371036751 -0.026608953995282909 0 -0.059083501426830852 -0.026468289008659499 0 -0.058375910199926412 -0.026709098560831937 0 -0.058874676459559037 -0.026571336933836391 0 -0.057419442921771882 -0.026416365452860368 0 -0.058541727827295512 -0.027187683822778998 0 -0.059324521504040266 -0.026294692801197651 0 -0.058375910199926412 -0.026709098560831937 0 -0.059003202550048026 -0.026416926135032059 0 -0.058375910199926412 -0.026709098560831937 0 -0.058874676459559037 -0.026571336933836391 0 -0.059003202550048026 -0.026416926135032059 0 -0.058874676459559037 -0.026571336933836391 0 -0.059003202550048026 -0.026416926135032059 0 -0.059060880558249595 -0.026425188704009891 0 -0.059103857495779386 -0.026441762592907935 0 -0.059083501426830852 -0.026468289008659499 0 -0.059097462071994712 -0.026449034738493474 0 -0.059159523300224906 -0.026231717721146471 0 -0.059060880558249595 -0.026425188704009891 0 -0.059168595765939004 -0.026290590789727248 0 -0.059159523300224906 -0.026231717721146471 0 -0.059003202550048026 -0.026416926135032059 0 -0.059060880558249595 -0.026425188704009891 0 -0.058196473256254044 -0.027422946045249339 0 -0.056829079439387579 -0.026759419604769474 0 -0.059060880558249595 -0.026425188704009891 0 -0.059168595765939004 -0.026290590789727248 0 -0.059097462071994712 -0.026449034738493474 0 -0.059114739702755305 -0.026435887849479256 0 -0.059168595765939004 -0.026290590789727248 0 -0.059097462071994712 -0.026449034738493474 0 -0.059083501426830852 -0.026468289008659499 0 -0.059097462071994712 -0.026449034738493474 0 -0.059034581022804594 -0.026498773610483223 0 -0.059083501426830852 -0.026468289008659499 0 -0.058874676459559037 -0.026571336933836391 0 -0.059034581022804594 -0.026498773610483223 0 -0.058874676459559037 -0.026571336933836391 0 -0.059060880558249595 -0.026425188704009891 0 -0.059034581022804594 -0.026498773610483223 0 -0.059060880558249595 -0.026425188704009891 0 -0.059097462071994712 -0.026449034738493474 0 -0.059034581022804594 -0.026498773610483223 0 -0.055275671667631206 -0.027477255748521109 0 -0.055565711443888596 -0.028300855808380859 0 -0.054767981863562937 -0.027455926965308308 0 -0.054292424757318256 -0.027587849424086174 0 -0.054863454936146638 -0.027589620793401395 0 -0.055869741330739846 -0.02755746348700781 0 -0.055275671667631206 -0.027477255748521109 0 -0.055565711443888596 -0.028300855808380859 0 -0.055869741330739846 -0.02755746348700781 0 -0.055275671667631206 -0.027477255748521109 0 -0.0554507502766097 -0.027072447267873018 0 -0.055869741330739846 -0.02755746348700781 0 -0.055565711443888596 -0.028300855808380859 0 -0.056570132882043524 -0.027769037118342159 0 -0.056990450730012118 -0.029142329032689509 0 -0.055565711443888596 -0.028300855808380859 0 -0.056570132882043524 -0.027769037118342159 0 -0.056990450730012118 -0.029142329032689509 0 -0.058375910199926412 -0.026709098560831937 0 -0.056570132882043524 -0.027769037118342159 0 -0.055869741330739846 -0.02755746348700781 0 -0.056570132882043524 -0.027769037118342159 0 -0.056481228041891381 -0.02702887336336315 0 -0.058375910199926412 -0.026709098560831937 0 -0.056481228041891381 -0.02702887336336315 0 -0.057262808870276877 -0.026128059257935973 0 -0.058375910199926412 -0.026709098560831937 0 -0.056570132882043524 -0.027769037118342159 0 -0.056481228041891381 -0.02702887336336315 0 -0.056481228041891381 -0.02702887336336315 0 -0.057262808870276877 -0.026128059257935973 0 -0.055710450677330402 -0.026732887475364463 0 -0.056481228041891381 -0.02702887336336315 0 -0.055710450677330402 -0.026732887475364463 0 -0.0554507502766097 -0.027072447267873018 0 -0.055869741330739846 -0.02755746348700781 0 -0.056481228041891381 -0.02702887336336315 0 -0.0554507502766097 -0.027072447267873018 0 -0.055275671667631206 -0.027477255748521109 0 -0.0554507502766097 -0.027072447267873018 0 -0.054942523438566981 -0.02713894162695947 0 -0.0554507502766097 -0.027072447267873018 0 -0.0549804469983525 -0.02680902481747036 0 -0.054942523438566981 -0.02713894162695947 0 -0.055710450677330402 -0.026732887475364463 0 -0.0554507502766097 -0.027072447267873018 0 -0.0549804469983525 -0.02680902481747036 0 -0.055710450677330402 -0.026732887475364463 0 -0.055127087238797681 -0.026603029066305586 0 -0.0549804469983525 -0.02680902481747036 0 -0.054719811581982934 -0.026911066239225637 0 -0.055127087238797681 -0.026603029066305586 0 -0.054732085269106119 -0.026874092893786127 0 -0.057262808870276877 -0.026128059257935973 0 -0.055710450677330402 -0.026732887475364463 0 -0.055127087238797681 -0.026603029066305586 0 -0.056083356371036751 -0.026608953995282909 0 -0.05530138552380498 -0.026567987811426257 0 -0.055127087238797681 -0.026603029066305586 0 -0.054732085269106119 -0.026874092893786127 0 -0.054683970658526093 -0.026895056436300809 0 -0.054826225154489844 -0.026878574724244406 0 -0.054732085269106119 -0.026874092893786127 0 -0.054683970658526093 -0.026895056436300809 0 -0.053725016231601919 -0.027864434239804729 0 -0.054893859289002131 -0.027729701574896102 0 -0.053720089662906353 -0.027897232605660884 0 -0.054683970658526093 -0.026895056436300809 0 -0.055133238067008088 -0.027033439108815026 0 -0.055127087238797681 -0.026603029066305586 0 -0.054683970658526093 -0.026895056436300809 0 -0.055133238067008088 -0.027033439108815026 0 -0.055127087238797681 -0.026603029066305586 0 -0.055133238067008088 -0.027033439108815026 0 -0.05488078583269284 -0.02688379458215772 0 -0.05480941641379327 -0.028360444412201646 0 -0.05492126783144112 -0.028907709350997058 0 -0.05429185173869111 -0.028661805598340705 0 -0.05492126783144112 -0.028907709350997058 0 -0.054180843176437767 -0.02933550765632258 0 -0.05429185173869111 -0.028661805598340705 0 -0.05492126783144112 -0.028907709350997058 0 -0.054784098121646828 -0.029466282000141768 0 -0.054180843176437767 -0.02933550765632258 0 -0.054180843176437767 -0.02933550765632258 0 -0.05429185173869111 -0.028661805598340705 0 -0.053527024987909191 -0.028938836364986838 0 -0.053720089662906353 -0.027897232605660884 0 -0.05480941641379327 -0.028360444412201646 0 -0.05429185173869111 -0.028661805598340705 0 -0.053720089662906353 -0.027897232605660884 0 -0.05429185173869111 -0.028661805598340705 0 -0.053527024987909191 -0.028938836364986838 0 -0.053720089662906353 -0.027897232605660884 0 -0.053279082152343643 -0.028199573384091774 0 -0.053527024987909191 -0.028938836364986838 0 -0.053279082152343643 -0.028199573384091774 0 -0.053157934161376277 -0.028606116002357997 0 -0.052845658889507777 -0.02824009924497993 0 -0.053279082152343643 -0.028199573384091774 0 -0.053157934161376277 -0.028606116002357997 0 -0.053527024987909191 -0.028938836364986838 0 -0.053157934161376277 -0.028606116002357997 0 -0.052845658889507777 -0.02824009924497993 0 -0.052821827268388501 -0.029689620224587876 0 -0.055732789695778606 -0.034463940929223079 0 -0.055523030763834323 -0.033724083754170846 0 -0.056527451616365708 -0.033657350212239652 0 -0.054077636632413918 -0.03589688771853014 0 -0.053850153494319895 -0.032609174099145322 0 -0.052557189130177068 -0.036861673558036795 0 -0.052875715687713258 -0.036516828341203539 0 -0.052778373184239377 -0.037136976996654102 0 -0.052543459071664626 -0.037303694410161584 0 -0.052557189130177068 -0.036861673558036795 0 -0.052778373184239377 -0.037136976996654102 0 -0.053850153494319895 -0.032609174099145322 0 -0.052697456738152376 -0.033301705783649681 0 -0.053157934161376277 -0.028606116002357997 0 -0.053527024987909191 -0.028938836364986838 0 -0.052821827268388501 -0.029689620224587876 0 -0.054180843176437767 -0.02933550765632258 0 -0.053527024987909191 -0.028938836364986838 0 -0.052821827268388501 -0.029689620224587876 0 -0.052821827268388501 -0.029689620224587876 0 -0.052744957445640783 -0.031118787363459167 0 -0.053885300720711994 -0.030292886742990115 0 -0.054180843176437767 -0.02933550765632258 0 -0.052821827268388501 -0.029689620224587876 0 -0.053885300720711994 -0.030292886742990115 0 -0.052543459071664626 -0.037303694410161584 0 -0.052778373184239377 -0.037136976996654102 0 -0.052518706708146796 -0.037519586013832908 0 -0.052697456738152376 -0.033301705783649681 0 -0.052373963330591237 -0.034556196651480589 0 -0.051618043462757286 -0.03436802811529769 0 -0.052920880264285278 -0.032907911604721458 0 -0.053114934533808743 -0.034956129866894149 0 -0.052373963330591237 -0.034556196651480589 0 -0.053458014471248802 -0.031301802747854997 0 -0.054384306255108483 -0.033998231799017793 0 -0.052920880264285278 -0.032907911604721458 0 -0.053114934533808743 -0.034956129866894149 0 -0.054134786572937306 -0.031149406640276628 0 -0.054384306255108483 -0.033998231799017793 0 -0.052920880264285278 -0.032907911604721458 0 -0.054134786572937306 -0.031149406640276628 0 -0.054384306255108483 -0.033998231799017793 0 -0.055194501764970927 -0.032495830580618279 0 -0.054468378970435445 -0.030310596472947 0 -0.053458014471248802 -0.031301802747854997 0 -0.054784098121646828 -0.029466282000141768 0 -0.054180843176437767 -0.02933550765632258 0 -0.053885300720711994 -0.030292886742990115 0 -0.056494085666085103 -0.032168219356885755 0 -0.055194501764970927 -0.032495830580618279 0 -0.055396714080545424 -0.030685428164563738 0 -0.054134786572937306 -0.031149406640276628 0 -0.055194501764970927 -0.032495830580618279 0 -0.055396714080545424 -0.030685428164563738 0 -0.054384306255108483 -0.033998231799017793 0 -0.055194501764970927 -0.032495830580618279 0 -0.056173522239708826 -0.034903484135189622 0 -0.056494085666085103 -0.032168219356885755 0 -0.055194501764970927 -0.032495830580618279 0 -0.056173522239708826 -0.034903484135189622 0 -0.054767136260450884 -0.027672243182448809 0 -0.053720387312602487 -0.027086391513145916 0 -0.054339610712720463 -0.026366360588173068 0 -0.055592828633515681 -0.029910856317713477 0 -0.055149776627350884 -0.030894110880291082 0 -0.05217477167011518 -0.026958591955231391 0 -0.05214462868730925 -0.026538573482816484 0 -0.052943248760182408 -0.026494216960964521 0 -0.053720387312602487 -0.027086391513145916 0 -0.05217477167011518 -0.026958591955231391 0 -0.052943248760182408 -0.026494216960964521 0 -0.053720387312602487 -0.027086391513145916 0 -0.05217477167011518 -0.026958591955231391 0 -0.052414456509834229 -0.027311841024948807 0 -0.05217477167011518 -0.026958591955231391 0 -0.052414456509834229 -0.027311841024948807 0 -0.051609438695128698 -0.027019494352189234 0 -0.053792049219613683 -0.027036752816882011 0 -0.053550557204866775 -0.027589005065524651 0 -0.053720387312602487 -0.027086391513145916 0 -0.054598641054781849 -0.028102669397537069 0 -0.054703188135311921 -0.028043320921569321 0 -0.054767136260450884 -0.027672243182448809 0 -0.053720387312602487 -0.027086391513145916 0 -0.054703188135311921 -0.028043320921569321 0 -0.054703188135311921 -0.028043320921569321 0 -0.054997634263745092 -0.028416832301521786 0 -0.055584916237593845 -0.028785244395741847 0 -0.054598641054781849 -0.028102669397537069 0 -0.054703188135311921 -0.028043320921569321 0 -0.054997634263745092 -0.028416832301521786 0 -0.052414456509834229 -0.027311841024948807 0 -0.051729475871670622 -0.027219151461484917 0 -0.05152921667890268 -0.027116137438143395 0 -0.053550557204866775 -0.027589005065524651 0 -0.053644750746985791 -0.027818860674736084 0 -0.054598641054781849 -0.028102669397537069 0 -0.054997634263745092 -0.028416832301521786 0 -0.055268496752944374 -0.028407734604655985 0 -0.054997634263745092 -0.028416832301521786 0 -0.055268496752944374 -0.028407734604655985 0 -0.055187196196967256 -0.028326245892040428 0 -0.055268496752944374 -0.028407734604655985 0 -0.055187196196967256 -0.028326245892040428 0 -0.055305442392338658 -0.027910698088579732 0 -0.055268496752944374 -0.028407734604655985 0 -0.055305442392338658 -0.027910698088579732 0 -0.055552454268057931 -0.027935108543743887 0 -0.055187196196967256 -0.028326245892040428 0 -0.055337605962503936 -0.028537407106772831 0 -0.055305442392338658 -0.027910698088579732 0 -0.054997634263745092 -0.028416832301521786 0 -0.055337605962503936 -0.028537407106772831 0 -0.055584916237593845 -0.028785244395741847 0 -0.054997634263745092 -0.028416832301521786 0 -0.055187196196967256 -0.028326245892040428 0 -0.055337605962503936 -0.028537407106772831 0 -0.055337605962503936 -0.028537407106772831 0 -0.055313476959731836 -0.028744605018551757 0 -0.055584916237593845 -0.028785244395741847 0 -0.055337605962503936 -0.028537407106772831 0 -0.055313476959731836 -0.028744605018551757 0 -0.055360118682978472 -0.028550131018953873 0 -0.055313476959731836 -0.028744605018551757 0 -0.055320276752615881 -0.029031641377635718 0 -0.055584916237593845 -0.028785244395741847 0 -0.056494085666085103 -0.032168219356885755 0 -0.055584916237593845 -0.028785244395741847 0 -0.055396714080545424 -0.030685428164563738 0 -0.054767136260450884 -0.027672243182448809 0 -0.054703188135311921 -0.028043320921569321 0 -0.055584916237593845 -0.028785244395741847 0 -0.055592828633515681 -0.029910856317713477 0 -0.055593000498558448 -0.029004604974383653 0 -0.055320276752615881 -0.029031641377635718 0 -0.055584916237593845 -0.028785244395741847 0 -0.055396714080545424 -0.030685428164563738 0 -0.054468378970435445 -0.030310596472947 0 -0.055372946569241341 -0.029115424041814185 0 -0.054134786572937306 -0.031149406640276628 0 -0.055320276752615881 -0.029031641377635718 0 -0.055396714080545424 -0.030685428164563738 0 -0.05492126783144112 -0.028907709350997058 0 -0.054784098121646828 -0.029466282000141768 0 -0.055320276752615881 -0.029031641377635718 0 -0.05492126783144112 -0.028907709350997058 0 -0.055313476959731836 -0.028744605018551757 0 -0.055320276752615881 -0.029031641377635718 0 -0.05480941641379327 -0.028360444412201646 0 -0.05492126783144112 -0.028907709350997058 0 -0.055313476959731836 -0.028744605018551757 0 -0.05480941641379327 -0.028360444412201646 0 -0.055313476959731836 -0.028744605018551757 0 -0.055360118682978472 -0.028550131018953873 0 -0.054893859289002131 -0.027729701574896102 0 -0.055097858980019052 -0.027850272079607222 0 -0.055133238067008088 -0.027033439108815026 0 -0.054737548957990358 -0.027177185034421417 0 -0.05488078583269284 -0.02688379458215772 0 -0.054737548957990358 -0.027177185034421417 0 -0.054709522547529393 -0.027026287637950841 0 -0.05488078583269284 -0.02688379458215772 0 -0.054709522547529393 -0.027026287637950841 0 -0.054454652533987749 -0.026904998100642469 0 -0.054894486144540809 -0.027084357009913122 0 -0.054737548957990358 -0.027177185034421417 0 -0.054709522547529393 -0.027026287637950841 0 -0.054894486144540809 -0.027084357009913122 0 -0.054709522547529393 -0.027026287637950841 0 -0.05488078583269284 -0.02688379458215772 0 -0.054454652533987749 -0.026904998100642469 0 -0.055127087238797681 -0.026603029066305586 0 -0.05488078583269284 -0.02688379458215772 0 -0.0549804469983525 -0.02680902481747036 0 -0.05488078583269284 -0.02688379458215772 0 -0.0549804469983525 -0.02680902481747036 0 -0.054454652533987749 -0.026904998100642469 0 -0.0549804469983525 -0.02680902481747036 0 -0.054942523438566981 -0.02713894162695947 0 -0.054454652533987749 -0.026904998100642469 0 -0.054942523438566981 -0.02713894162695947 0 -0.054454652533987749 -0.026904998100642469 0 -0.054767981863562937 -0.027455926965308308 0 -0.054454652533987749 -0.026904998100642469 0 -0.054775277018763231 -0.026367394189178613 0 -0.054894486144540809 -0.027084357009913122 0 -0.054398282387578954 -0.026781962721859454 0 -0.054236262423633108 -0.02637156957850938 0 -0.054454652533987749 -0.026904998100642469 0 -0.054259136776373999 -0.026062254678375751 0 -0.054775277018763231 -0.026367394189178613 0 -0.05454354492809247 -0.025149949960460459 0 -0.054259136776373999 -0.026062254678375751 0 -0.053442867818313831 -0.02555293340353007 0 -0.054454652533987749 -0.026904998100642469 0 -0.054259136776373999 -0.026062254678375751 0 -0.053442867818313831 -0.02555293340353007 0 -0.054454652533987749 -0.026904998100642469 0 -0.05499084696976457 -0.027348783612107661 0 -0.054767981863562937 -0.027455926965308308 0 -0.054579550981910391 -0.02672709461442958 0 -0.05362710208620361 -0.027084558443442958 0 -0.054767981863562937 -0.027455926965308308 0 -0.054579550981910391 -0.02672709461442958 0 -0.05499084696976457 -0.027348783612107661 0 -0.054767981863562937 -0.027455926965308308 0 -0.055275671667631206 -0.027477255748521109 0 -0.054942523438566981 -0.02713894162695947 0 -0.054767981863562937 -0.027455926965308308 0 -0.05454354492809247 -0.025149949960460459 0 -0.054259136776373999 -0.026062254678375751 0 -0.054775277018763231 -0.026367394189178613 0 -0.05454354492809247 -0.025149949960460459 0 -0.055759415598634975 -0.025933444271276231 0 -0.054775277018763231 -0.026367394189178613 0 -0.054775277018763231 -0.026367394189178613 0 -0.055301040718558653 -0.026714196991480071 0 -0.054894486144540809 -0.027084357009913122 0 -0.055759415598634975 -0.025933444271276231 0 -0.054775277018763231 -0.026367394189178613 0 -0.055301040718558653 -0.026714196991480071 0 -0.055759415598634975 -0.025933444271276231 0 -0.055301040718558653 -0.026714196991480071 0 -0.055807493232955981 -0.026999070273327114 0 -0.052938342466923617 -0.022686375967462712 0 -0.053463644843243181 -0.024169786874212461 0 -0.055372316102225594 -0.027245373885900852 0 -0.054894486144540809 -0.027084357009913122 0 -0.055305442392338658 -0.027910698088579732 0 -0.055301040718558653 -0.026714196991480071 0 -0.055372316102225594 -0.027245373885900852 0 -0.055807493232955981 -0.026999070273327114 0 -0.055372316102225594 -0.027245373885900852 0 -0.055594126657386535 -0.027590952616129604 0 -0.055807493232955981 -0.026999070273327114 0 -0.055301040718558653 -0.026714196991480071 0 -0.055372316102225594 -0.027245373885900852 0 -0.054894486144540809 -0.027084357009913122 0 -0.055097858980019052 -0.027850272079607222 0 -0.055357401407370881 -0.027904748719821196 0 -0.055337605962503936 -0.028537407106772831 0 -0.055360118682978472 -0.028550131018953873 0 -0.055305442392338658 -0.027910698088579732 0 -0.054737548957990358 -0.027177185034421417 0 -0.054894486144540809 -0.027084357009913122 0 -0.055305442392338658 -0.027910698088579732 0 -0.055372316102225594 -0.027245373885900852 0 -0.055594126657386535 -0.027590952616129604 0 -0.055305442392338658 -0.027910698088579732 0 -0.055594126657386535 -0.027590952616129604 0 -0.055305442392338658 -0.027910698088579732 0 -0.055552454268057931 -0.027935108543743887 0 -0.055594126657386535 -0.027590952616129604 0 -0.055919489736860971 -0.027884638461454905 0 -0.055807493232955981 -0.026999070273327114 0 -0.051773013490875631 -0.024173775231328895 0 -0.051879464598750598 -0.023733668533041846 0 -0.050854840796247233 -0.021780545900175762 0 -0.055594126657386535 -0.027590952616129604 0 -0.055552454268057931 -0.027935108543743887 0 -0.055919489736860971 -0.027884638461454905 0 -0.052120380186028693 -0.029165247827289201 0 -0.051189629016108538 -0.029383353753976528 0 -0.051564343134737602 -0.030480737105991074 0 -0.051879464598750598 -0.023733668533041846 0 -0.05219298628932284 -0.023480793094502878 0 -0.052113075625558059 -0.022458143829361246 0 -0.052432085938358304 -0.02732181335869982 0 -0.052184454737403282 -0.025543756441391077 0 -0.051773013490875631 -0.024173775231328895 0 -0.051879464598750598 -0.023733668533041846 0 -0.052203981772712432 -0.02348552556336499 0 -0.052395573572206047 -0.025084329727389963 0 -0.052184454737403282 -0.025543756441391077 0 -0.049690765385075365 -0.030326383414480011 0 -0.049310348585630583 -0.028263978100074701 0 -0.050706863751515299 -0.028303313713001127 0 -0.049690765385075365 -0.030326383414480011 0 -0.047476377972890428 -0.029384027127765874 0 -0.049310348585630583 -0.028263978100074701 0 -0.051189629016108538 -0.029383353753976528 0 -0.049690765385075365 -0.030326383414480011 0 -0.050706863751515299 -0.028303313713001127 0 -0.052120380186028693 -0.029165247827289201 0 -0.051189629016108538 -0.029383353753976528 0 -0.050706863751515299 -0.028303313713001127 0 -0.051189629016108538 -0.029383353753976528 0 -0.050637570693589241 -0.030318812361204452 0 -0.049690765385075365 -0.030326383414480011 0 -0.051564343134737602 -0.030480737105991074 0 -0.050637570693589241 -0.030318812361204452 0 -0.049105231332843328 -0.032442760627704667 0 -0.051189629016108538 -0.029383353753976528 0 -0.051564343134737602 -0.030480737105991074 0 -0.050637570693589241 -0.030318812361204452 0 -0.052184454737403282 -0.025543756441391077 0 -0.052783639936182868 -0.023905419009011108 0 -0.050637570693589241 -0.030318812361204452 0 -0.049690765385075365 -0.030326383414480011 0 -0.049105231332843328 -0.032442760627704667 0 -0.049126034816673221 -0.032052170831591432 0 -0.049493942660825616 -0.028352847839479337 0 -0.052513585323100749 -0.022926348536700138 0 -0.052862417648784223 -0.0218360676090383 0 -0.05362665218078283 -0.022295998744220908 0 -0.052184454737403282 -0.025543756441391077 0 -0.049493942660825616 -0.028352847839479337 0 -0.05219298628932284 -0.023480793094502878 0 -0.052513585323100749 -0.022926348536700138 0 -0.052113075625558059 -0.022458143829361246 0 -0.052198541137345671 -0.023467158785239074 0 -0.052513585323100749 -0.022926348536700138 0 -0.05362665218078283 -0.022295998744220908 0 -0.052513585323100749 -0.022926348536700138 0 -0.052862417648784223 -0.0218360676090383 0 -0.052113075625558059 -0.022458143829361246 0 -0.052862417648784223 -0.0218360676090383 0 -0.052113075625558059 -0.022458143829361246 0 -0.052359249356953047 -0.021031838817088439 0 -0.052862417648784223 -0.0218360676090383 0 -0.05362665218078283 -0.022295998744220908 0 -0.053995170184556872 -0.020768971427845145 0 -0.052113075625558059 -0.022458143829361246 0 -0.050854840796247233 -0.021780545900175762 0 -0.052359249356953047 -0.021031838817088439 0 -0.052432085938358304 -0.02732181335869982 0 -0.053463644843243181 -0.024169786874212461 0 -0.051879464598750598 -0.023733668533041846 0 -0.052113075625558059 -0.022458143829361246 0 -0.050854840796247233 -0.021780545900175762 0 -0.050095500672560966 -0.019387960812774073 0 -0.050854840796247233 -0.021780545900175762 0 -0.051574359034704247 -0.019747693249607182 0 -0.050854840796247233 -0.021780545900175762 0 -0.052359249356953047 -0.021031838817088439 0 -0.051574359034704247 -0.019747693249607182 0 -0.052359249356953047 -0.021031838817088439 0 -0.052954090687971543 -0.019860656526909163 0 -0.053995170184556872 -0.020768971427845145 0 -0.052862417648784223 -0.0218360676090383 0 -0.052359249356953047 -0.021031838817088439 0 -0.053995170184556872 -0.020768971427845145 0 -0.052359249356953047 -0.021031838817088439 0 -0.052954090687971543 -0.019860656526909163 0 -0.051574359034704247 -0.019747693249607182 0 -0.052497508215165571 -0.018500248718563338 0 -0.052954090687971543 -0.019860656526909163 0 -0.054347306000460227 -0.019296166587075197 0 -0.050718055994821584 -0.017638309649979905 0 -0.050751020567696807 -0.017650455840296887 0 -0.050680838766536895 -0.017619180065774155 0 -0.052497508215165571 -0.018500248718563338 0 -0.052954090687971543 -0.019860656526909163 0 -0.051574359034704247 -0.019747693249607182 0 -0.052258404829517845 -0.018013887244709797 0 -0.048204292880730394 -0.021594035967484663 0 -0.050661482877911328 -0.017757263506380457 0 -0.050095500672560966 -0.019387960812774073 0 -0.051574359034704247 -0.019747693249607182 0 -0.052497508215165571 -0.018500248718563338 0 -0.050661482877911328 -0.017757263506380457 0 -0.051574359034704247 -0.019747693249607182 0 -0.042110326578417311 -0.021809931247122313 0 -0.043153707330731338 -0.021348431134347902 0 -0.042004280801891121 -0.020920142112943668 0 -0.048204292880730394 -0.021594035967484663 0 -0.040251414236573795 -0.032549834198390991 0 -0.046332707244488722 -0.028877295134017052 0 -0.045865166768341306 -0.027983322008115027 0 -0.044488532099124026 -0.02818900889793555 0 -0.048204292880730394 -0.021594035967484663 0 -0.050381368434416748 -0.023796405746515908 0 -0.052954090687971543 -0.019860656526909163 0 -0.054347306000460227 -0.019296166587075197 0 -0.053995170184556872 -0.020768971427845145 0 -0.046332707244488722 -0.028877295134017052 0 -0.045865166768341306 -0.027983322008115027 0 -0.046702235672812953 -0.027543461887583803 0 -0.045865166768341306 -0.027983322008115027 0 -0.046702235672812953 -0.027543461887583803 0 -0.045795782736760049 -0.027184511354308792 0 -0.047092149346912436 -0.026222771260412135 0 -0.046702235672812953 -0.027543461887583803 0 -0.045795782736760049 -0.027184511354308792 0 -0.049493942660825616 -0.028352847839479337 0 -0.050381368434416748 -0.023796405746515908 0 -0.04437835626241797 -0.037427774257806773 0 -0.04000244469184723 -0.04057893025534267 0 -0.039354721022247054 -0.035823419702278307 0 -0.045865166768341306 -0.027983322008115027 0 -0.045795782736760049 -0.027184511354308792 0 -0.044488532099124026 -0.02818900889793555 0 -0.044856773613955014 -0.032554747076505651 0 -0.040251414236573795 -0.032549834198390991 0 -0.04437835626241797 -0.037427774257806773 0 -0.039354721022247054 -0.035823419702278307 0 -0.044056104954884052 -0.033284941931553486 0 -0.040370186267236034 -0.032788181799233339 0 -0.044056104954884052 -0.033284941931553486 0 -0.041933956864979138 -0.030211299081966195 0 -0.039354721022247054 -0.035823419702278307 0 -0.040370186267236034 -0.032788181799233339 0 -0.044056104954884052 -0.033284941931553486 0 -0.048680031465773557 -0.034266870158808541 0 -0.044056104954884052 -0.033284941931553486 0 -0.047232810355199648 -0.031620499737975739 0 -0.048680031465773557 -0.034266870158808541 0 -0.04437835626241797 -0.037427774257806773 0 -0.044056104954884052 -0.033284941931553486 0 -0.049493942660825616 -0.028352847839479337 0 -0.044856773613955014 -0.032554747076505651 0 -0.049690765385075365 -0.030326383414480011 0 -0.048680031465773557 -0.034266870158808541 0 -0.047232810355199648 -0.031620499737975739 0 -0.047232810355199648 -0.031620499737975739 0 -0.045338847415702752 -0.030510429193010221 0 -0.047476377972890428 -0.029384027127765874 0 -0.049690765385075365 -0.030326383414480011 0 -0.047232810355199648 -0.031620499737975739 0 -0.047476377972890428 -0.029384027127765874 0 -0.044056104954884052 -0.033284941931553486 0 -0.047232810355199648 -0.031620499737975739 0 -0.045338847415702752 -0.030510429193010221 0 -0.045338847415702752 -0.030510429193010221 0 -0.044553915718322241 -0.02821824488795625 0 -0.047476377972890428 -0.029384027127765874 0 -0.044553915718322241 -0.02821824488795625 0 -0.047476377972890428 -0.029384027127765874 0 -0.047664549034916938 -0.027182204113841021 0 -0.047476377972890428 -0.029384027127765874 0 -0.047664549034916938 -0.027182204113841021 0 -0.049310348585630583 -0.028263978100074701 0 -0.040370186267236034 -0.032788181799233339 0 -0.041933956864979138 -0.030211299081966195 0 -0.038519199149396811 -0.031180087087206453 0 -0.041933956864979138 -0.030211299081966195 0 -0.038736785717056681 -0.028396671005080837 0 -0.038519199149396811 -0.031180087087206453 0 -0.044056104954884052 -0.033284941931553486 0 -0.045338847415702752 -0.030510429193010221 0 -0.041933956864979138 -0.030211299081966195 0 -0.045338847415702752 -0.030510429193010221 0 -0.044553915718322241 -0.02821824488795625 0 -0.041933956864979138 -0.030211299081966195 0 -0.044553915718322241 -0.02821824488795625 0 -0.041933956864979138 -0.030211299081966195 0 -0.041475734076264356 -0.028043928588238357 0 -0.041933956864979138 -0.030211299081966195 0 -0.041475734076264356 -0.028043928588238357 0 -0.038736785717056681 -0.028396671005080837 0 -0.041913679448143115 -0.024815567919147005 0 -0.039678135576762891 -0.022371161909420716 0 -0.045983463081648822 -0.023784636410829351 0 -0.037826636713997837 -0.029007152460100081 0 -0.046714058259787583 -0.026996865667293514 0 -0.041475734076264356 -0.028043928588238357 0 -0.040113661901757663 -0.026310310337636068 0 -0.038736785717056681 -0.028396671005080837 0 -0.041475734076264356 -0.028043928588238357 0 -0.040113661901757663 -0.026310310337636068 0 -0.042506584663872068 -0.026438472568686457 0 -0.040113661901757663 -0.026310310337636068 0 -0.042506584663872068 -0.026438472568686457 0 -0.041913679448143115 -0.024815567919147005 0 -0.042506584663872068 -0.026438472568686457 0 -0.041913679448143115 -0.024815567919147005 0 -0.044479615322513114 -0.026100998934208357 0 -0.044553915718322241 -0.02821824488795625 0 -0.041475734076264356 -0.028043928588238357 0 -0.042506584663872068 -0.026438472568686457 0 -0.044553915718322241 -0.02821824488795625 0 -0.042506584663872068 -0.026438472568686457 0 -0.044479615322513114 -0.026100998934208357 0 -0.041913679448143115 -0.024815567919147005 0 -0.045983463081648822 -0.023784636410829351 0 -0.044479615322513114 -0.026100998934208357 0 -0.041913679448143115 -0.024815567919147005 0 -0.039678135576762891 -0.022371161909420716 0 -0.038722992232594199 -0.024357481419254392 0 -0.040113661901757663 -0.026310310337636068 0 -0.041913679448143115 -0.024815567919147005 0 -0.038722992232594199 -0.024357481419254392 0 -0.04019698955670744 -0.028849749121637087 0 -0.042697203950237399 -0.026953674544432281 0 -0.044228239856802541 -0.029670247404968899 0 -0.035948223934194452 -0.033916711311147686 0 -0.037425659539886642 -0.032793578690338297 0 -0.035044165800201497 -0.032418521339059155 0 -0.037826636713997837 -0.029007152460100081 0 -0.042636203486766326 -0.029983545160079547 0 -0.050852956215540521 -0.027024962452738988 0 -0.050812913452141187 -0.027022118400894142 0 -0.050803541146885234 -0.027006759064570895 0 -0.050852956215540521 -0.027024962452738988 0 -0.050803541146885234 -0.027006759064570895 0 -0.050982460405213911 -0.027000444392136724 0 -0.050850203195854517 -0.027049385852917038 0 -0.050823254262317839 -0.027041192040693864 0 -0.050812913452141187 -0.027022118400894142 0 -0.050852956215540521 -0.027024962452738988 0 -0.050823254262317839 -0.027041192040693864 0 -0.050812913452141187 -0.027022118400894142 0 -0.042636203486766326 -0.029983545160079547 0 -0.047309040500741396 -0.028741391364159558 0 -0.050850203195854517 -0.027049385852917038 0 -0.050812913452141187 -0.027022118400894142 0 -0.050869685679375616 -0.026875931916740769 0 -0.042636203486766326 -0.029983545160079547 0 -0.046714058259787583 -0.026996865667293514 0 -0.050812913452141187 -0.027022118400894142 0 -0.050679676460976375 -0.026981108230298135 0 -0.050803541146885234 -0.027006759064570895 0 -0.050812913452141187 -0.027022118400894142 0 -0.050679676460976375 -0.026981108230298135 0 -0.050869685679375616 -0.026875931916740769 0 -0.050679676460976375 -0.026981108230298135 0 -0.050869685679375616 -0.026875931916740769 0 -0.05023547831464379 -0.026860974040056582 0 -0.046714058259787583 -0.026996865667293514 0 -0.050486943714098335 -0.026860088764917901 0 -0.046655658412347145 -0.025374500501044495 0 -0.047664549034916938 -0.027182204113841021 0 -0.05023547831464379 -0.026860974040056582 0 -0.045983463081648822 -0.023784636410829351 0 -0.044479615322513114 -0.026100998934208357 0 -0.047664549034916938 -0.027182204113841021 0 -0.046714058259787583 -0.026996865667293514 0 -0.046925166212897468 -0.026407450537632653 0 -0.044553915718322241 -0.02821824488795625 0 -0.044479615322513114 -0.026100998934208357 0 -0.047664549034916938 -0.027182204113841021 0 -0.052432085938358304 -0.02732181335869982 0 -0.050991194781914294 -0.027373203641632191 0 -0.047664549034916938 -0.027182204113841021 0 -0.049310348585630583 -0.028263978100074701 0 -0.05023547831464379 -0.026860974040056582 0 -0.049310348585630583 -0.028263978100074701 0 -0.050706863751515299 -0.028303313713001127 0 -0.05023547831464379 -0.026860974040056582 0 -0.052120380186028693 -0.029165247827289201 0 -0.050706863751515299 -0.028303313713001127 0 -0.050929423192102162 -0.026887425235182859 0 -0.050706863751515299 -0.028303313713001127 0 -0.050929423192102162 -0.026887425235182859 0 -0.05023547831464379 -0.026860974040056582 0 -0.050679676460976375 -0.026981108230298135 0 -0.05023547831464379 -0.026860974040056582 0 -0.050732445771686979 -0.026934024123331061 0 -0.050929423192102162 -0.026887425235182859 0 -0.05023547831464379 -0.026860974040056582 0 -0.050732445771686979 -0.026934024123331061 0 -0.055268496752944374 -0.028407734604655985 0 -0.055552454268057931 -0.027935108543743887 0 -0.055919489736860971 -0.027884638461454905 0 -0.053644750746985791 -0.027818860674736084 0 -0.052432085938358304 -0.02732181335869982 0 -0.051729475871670622 -0.027219151461484917 0 -0.051334567374839379 -0.027862334001866197 0 -0.051388077969443717 -0.027204948153015541 0 -0.051334567374839379 -0.027862334001866197 0 -0.050929423192102162 -0.026887425235182859 0 -0.051388077969443717 -0.027204948153015541 0 -0.051729475871670622 -0.027219151461484917 0 -0.051388077969443717 -0.027204948153015541 0 -0.05152921667890268 -0.027116137438143395 0 -0.050929423192102162 -0.026887425235182859 0 -0.051388077969443717 -0.027204948153015541 0 -0.05152921667890268 -0.027116137438143395 0 -0.05152921667890268 -0.027116137438143395 0 -0.051137767675265837 -0.027015550175501495 0 -0.051609438695128698 -0.027019494352189234 0 -0.050679676460976375 -0.026981108230298135 0 -0.050732445771686979 -0.026934024123331061 0 -0.050803541146885234 -0.027006759064570895 0 -0.050929423192102162 -0.026887425235182859 0 -0.050732445771686979 -0.026934024123331061 0 -0.051137767675265837 -0.027015550175501495 0 -0.050929423192102162 -0.026887425235182859 0 -0.05152921667890268 -0.027116137438143395 0 -0.051137767675265837 -0.027015550175501495 0 -0.050732445771686979 -0.026934024123331061 0 -0.051137767675265837 -0.027015550175501495 0 -0.050803541146885234 -0.027006759064570895 0 -0.051137767675265837 -0.027015550175501495 0 -0.050803541146885234 -0.027006759064570895 0 -0.050982460405213911 -0.027000444392136724 0 -0.050982460405213911 -0.027000444392136724 0 -0.051158695512195158 -0.026946088943387105 0 -0.050898772142298161 -0.02699001412555636 0 -0.051158695512195158 -0.026946088943387105 0 -0.051609438695128698 -0.027019494352189234 0 -0.051459330699179684 -0.026714166935942821 0 -0.051137767675265837 -0.027015550175501495 0 -0.050982460405213911 -0.027000444392136724 0 -0.051158695512195158 -0.026946088943387105 0 -0.051137767675265837 -0.027015550175501495 0 -0.051158695512195158 -0.026946088943387105 0 -0.051609438695128698 -0.027019494352189234 0 -0.052414456509834229 -0.027311841024948807 0 -0.05152921667890268 -0.027116137438143395 0 -0.051609438695128698 -0.027019494352189234 0 -0.05217477167011518 -0.026958591955231391 0 -0.051459330699179684 -0.026714166935942821 0 -0.05214462868730925 -0.026538573482816484 0 -0.05217477167011518 -0.026958591955231391 0 -0.051609438695128698 -0.027019494352189234 0 -0.051459330699179684 -0.026714166935942821 0 -0.051158695512195158 -0.026946088943387105 0 -0.051459330699179684 -0.026714166935942821 0 -0.050927147843198899 -0.026775238960018256 0 -0.051459330699179684 -0.026714166935942821 0 -0.050927147843198899 -0.026775238960018256 0 -0.051199622183982767 -0.026313611406920064 0 -0.041900347904731301 -0.030919154236428572 0 -0.041665791006756984 -0.030854917987231542 0 -0.041838147720639353 -0.030713867737133967 0 -0.046260407500307708 -0.029089351788339414 0 -0.046866009896715584 -0.027851651980002955 0 -0.041900347904731301 -0.030919154236428572 0 -0.041838147720639353 -0.030713867737133967 0 -0.042033007548834371 -0.03065628279826153 0 -0.041900347904731301 -0.030919154236428572 0 -0.041665791006756984 -0.030854917987231542 0 -0.041575997103119766 -0.031041639649872822 0 -0.03884853727699606 -0.033704431828146982 0 -0.034835653117261084 -0.033432254226471475 0 -0.041665791006756984 -0.030854917987231542 0 -0.041638242060870315 -0.030690930990056133 0 -0.041415543788313393 -0.03085360392408602 0 -0.038907788992459488 -0.030893120999196912 0 -0.034835653117261084 -0.033432254226471475 0 -0.041665791006756984 -0.030854917987231542 0 -0.041575997103119766 -0.031041639649872822 0 -0.041415543788313393 -0.03085360392408602 0 -0.037425659539886642 -0.032793578690338297 0 -0.036394864541141735 -0.031019597247593272 0 -0.035044165800201497 -0.032418521339059155 0 -0.042636203486766326 -0.029983545160079547 0 -0.038907788992459488 -0.030893120999196912 0 -0.041719014394367322 -0.031216403493082186 0 -0.041791585064521269 -0.03116755059303913 0 -0.041575997103119766 -0.031041639649872822 0 -0.041791585064521269 -0.03116755059303913 0 -0.041900347904731301 -0.030919154236428572 0 -0.041575997103119766 -0.031041639649872822 0 -0.050693186401887594 -0.027116208640961214 0 -0.050927147843198899 -0.026775238960018256 0 -0.050898772142298161 -0.02699001412555636 0 -0.047309040500741396 -0.028741391364159558 0 -0.051115569237622442 -0.026467489304403451 0 -0.047309040500741396 -0.028741391364159558 0 -0.046260407500307708 -0.029089351788339414 0 -0.050852956215540521 -0.027024962452738988 0 -0.050982460405213911 -0.027000444392136724 0 -0.050898772142298161 -0.02699001412555636 0 -0.050852956215540521 -0.027024962452738988 0 -0.050823254262317839 -0.027041192040693864 0 -0.050898772142298161 -0.02699001412555636 0 -0.051158695512195158 -0.026946088943387105 0 -0.050927147843198899 -0.026775238960018256 0 -0.050898772142298161 -0.02699001412555636 0 -0.03195626518292774 -0.04359713807565109 0 -0.03041031801161681 -0.044329585463180159 0 -0.031612930754829092 -0.042302935349006823 0 -0.036275498120032869 -0.038884891073743107 0 -0.032435465869697339 -0.040751915242507424 0 -0.036275498120032869 -0.038884891073743107 0 -0.035833869423687367 -0.041212926227108954 0 -0.039493495281401933 -0.038485492412964853 0 -0.039773996612715141 -0.038344465209741427 0 -0.039172237153561454 -0.039614936109061714 0 -0.03644066856041675 -0.036425514962938929 0 -0.036571560697315528 -0.036185838591480696 0 -0.035050889106123591 -0.036846248908212718 0 -0.03758876112643126 -0.037252142958971543 0 -0.039158956349414242 -0.036016546671823309 0 -0.037957971461962746 -0.03655952820143845 0 -0.038667830497430902 -0.035380655567622876 0 -0.036275498120032869 -0.038884891073743107 0 -0.038667830497430902 -0.035380655567622876 0 -0.040177679696622427 -0.035613328967941199 0 -0.041862984098020486 -0.030533262281478145 0 -0.041977532129884004 -0.03045569845958004 0 -0.041956641928101925 -0.030548673568843963 0 -0.040177679696622427 -0.035613328967941199 0 -0.036275498120032869 -0.038884891073743107 0 -0.03041031801161681 -0.044329585463180159 0 -0.030221364315186492 -0.04190409378715497 0 -0.029105267168966133 -0.042785530458095467 0 -0.03041031801161681 -0.044329585463180159 0 -0.031612930754829092 -0.042302935349006823 0 -0.030221364315186492 -0.04190409378715497 0 -0.032435465869697339 -0.040751915242507424 0 -0.030563039535569873 -0.040822726772633669 0 -0.035050889106123591 -0.036846248908212718 0 -0.03521375511781271 -0.037358176167152639 0 -0.033552668057613012 -0.037527983937314574 0 -0.03644066856041675 -0.036425514962938929 0 -0.035050889106123591 -0.036846248908212718 0 -0.03521375511781271 -0.037358176167152639 0 -0.041665791006756984 -0.030854917987231542 0 -0.041638242060870315 -0.030690930990056133 0 -0.041838147720639353 -0.030713867737133967 0 -0.041862984098020486 -0.030533262281478145 0 -0.041638242060870315 -0.030690930990056133 0 -0.041838147720639353 -0.030713867737133967 0 -0.038667830497430902 -0.035380655567622876 0 -0.03884853727699606 -0.033704431828146982 0 -0.041838147720639353 -0.030713867737133967 0 -0.041956641928101925 -0.030548673568843963 0 -0.042033007548834371 -0.03065628279826153 0 -0.041862984098020486 -0.030533262281478145 0 -0.041838147720639353 -0.030713867737133967 0 -0.041956641928101925 -0.030548673568843963 0 -0.051459330699179684 -0.026714166935942821 0 -0.051199622183982767 -0.026313611406920064 0 -0.051878113633967111 -0.026136251523378732 0 -0.051459330699179684 -0.026714166935942821 0 -0.05214462868730925 -0.026538573482816484 0 -0.051878113633967111 -0.026136251523378732 0 -0.05214462868730925 -0.026538573482816484 0 -0.051878113633967111 -0.026136251523378732 0 -0.052734178855449163 -0.026005612893211114 0 -0.051878113633967111 -0.026136251523378732 0 -0.051491440043215334 -0.025702594273013125 0 -0.05235547358190068 -0.025405242263659193 0 -0.041956641928101925 -0.030548673568843963 0 -0.042033007548834371 -0.03065628279826153 0 -0.042193737004478607 -0.030376416697896189 0 -0.046866009896715584 -0.027851651980002955 0 -0.045706325499391298 -0.031080136727104007 0 -0.051199622183982767 -0.026313611406920064 0 -0.051878113633967111 -0.026136251523378732 0 -0.051491440043215334 -0.025702594273013125 0 -0.041977532129884004 -0.03045569845958004 0 -0.041956641928101925 -0.030548673568843963 0 -0.042193737004478607 -0.030376416697896189 0 -0.041524290205955057 -0.035550832523371712 0 -0.043056550630517103 -0.034870340432597582 0 -0.043368308223773508 -0.034123053732671167 0 -0.045706325499391298 -0.031080136727104007 0 -0.042232431624626705 -0.03737301423347112 0 -0.040177679696622427 -0.035613328967941199 0 -0.045706325499391298 -0.031080136727104007 0 -0.040177679696622427 -0.035613328967941199 0 -0.042232431624626705 -0.03737301423347112 0 -0.039172237153561454 -0.039614936109061714 0 -0.038667047839018059 -0.039185462193408828 0 -0.038048294422634917 -0.040773368052142107 0 -0.039493495281401933 -0.038485492412964853 0 -0.039172237153561454 -0.039614936109061714 0 -0.038667047839018059 -0.039185462193408828 0 -0.043462724582040521 -0.037231960824460938 0 -0.043740390551678984 -0.03709440190893374 0 -0.04364240438638757 -0.037089801311169138 0 -0.045706325499391298 -0.031080136727104007 0 -0.048546403189727153 -0.031158631611842274 0 -0.042232431624626705 -0.03737301423347112 0 -0.040322487473698349 -0.041126487356456208 0 -0.04352824840119135 -0.037163610304236622 0 -0.042679722748466029 -0.037873297863677824 0 -0.043462724582040521 -0.037231960824460938 0 -0.04364240438638757 -0.037089801311169138 0 -0.04409448651935343 -0.036956709701921851 0 -0.044499997678160222 -0.037029171730891153 0 -0.043260032764611461 -0.038019622564344512 0 -0.042767832672454667 -0.041131084286044534 0 -0.04364240438638757 -0.037089801311169138 0 -0.04409448651935343 -0.036956709701921851 0 -0.044239141483404666 -0.036565043825371818 0 -0.04364240438638757 -0.037089801311169138 0 -0.043260032764611461 -0.038019622564344512 0 -0.040946094475163425 -0.039221807552299766 0 -0.042232431624626705 -0.03737301423347112 0 -0.043243188073976473 -0.037341259463067066 0 -0.043740390551678984 -0.03709440190893374 0 -0.04364240438638757 -0.037089801311169138 0 -0.043260032764611461 -0.038019622564344512 0 -0.043260032764611461 -0.038019622564344512 0 -0.042050338104721877 -0.039863101187817322 0 -0.040946094475163425 -0.039221807552299766 0 -0.043260032764611461 -0.038019622564344512 0 -0.042050338104721877 -0.039863101187817322 0 -0.042767832672454667 -0.041131084286044534 0 -0.042767832672454667 -0.041131084286044534 0 -0.041372532543346795 -0.042453871000068706 0 -0.041240313754949277 -0.04106267784105478 0 -0.042050338104721877 -0.039863101187817322 0 -0.042767832672454667 -0.041131084286044534 0 -0.041240313754949277 -0.04106267784105478 0 -0.035833869423687367 -0.041212926227108954 0 -0.03624905913609644 -0.039933044309483495 0 -0.039172237153561454 -0.039614936109061714 0 -0.038530628566560615 -0.040927483234093794 0 -0.038048294422634917 -0.040773368052142107 0 -0.033769680308912128 -0.040094190631426579 0 -0.031604320832623586 -0.040777472889199293 0 -0.032235593566091889 -0.039130306128409433 0 -0.032861525258145646 -0.041816737454713641 0 -0.033769680308912128 -0.040094190631426579 0 -0.031604320832623586 -0.040777472889199293 0 -0.031604320832623586 -0.040777472889199293 0 -0.029674696174023275 -0.039853615672078679 0 -0.032235593566091889 -0.039130306128409433 0 -0.031604320832623586 -0.040777472889199293 0 -0.031612930754829092 -0.042302935349006823 0 -0.030221364315186492 -0.04190409378715497 0 -0.032861525258145646 -0.041816737454713641 0 -0.031604320832623586 -0.040777472889199293 0 -0.031612930754829092 -0.042302935349006823 0 -0.03195626518292774 -0.04359713807565109 0 -0.032861525258145646 -0.041816737454713641 0 -0.031612930754829092 -0.042302935349006823 0 -0.030221364315186492 -0.04190409378715497 0 -0.029674696174023275 -0.039853615672078679 0 -0.02895436820613087 -0.041473362010614474 0 -0.031604320832623586 -0.040777472889199293 0 -0.030221364315186492 -0.04190409378715497 0 -0.029674696174023275 -0.039853615672078679 0 -0.030630414515318793 -0.045149474611443106 0 -0.033316680392693511 -0.044299573646704532 0 -0.031203620268247009 -0.050463975960320928 0 -0.034761677517333535 -0.049412754999188568 0 -0.032046450018440684 -0.048571057222127172 0 -0.034761677517333535 -0.049412754999188568 0 -0.033628210965372871 -0.047204796922010732 0 -0.032046450018440684 -0.048571057222127172 0 -0.034761677517333535 -0.049412754999188568 0 -0.033628210965372871 -0.047204796922010732 0 -0.036509418171215467 -0.047583174670137202 0 -0.033628210965372871 -0.047204796922010732 0 -0.032046450018440684 -0.048571057222127172 0 -0.030694140077036119 -0.046925065618274295 0 -0.03352389082805228 -0.047491030804379157 0 -0.030280475795080555 -0.047341394314912126 0 -0.029054392439667575 -0.050979196874103481 0 -0.032571177371692829 -0.051107063804750989 0 -0.033373408835505131 -0.047790316972923554 0 -0.030539957884739528 -0.045249951833212926 0 -0.029979120201956932 -0.047769680085809917 0 -0.033373408835505131 -0.047790316972923554 0 -0.034510946253685011 -0.045312573918129255 0 -0.03524635390777623 -0.046770466620129694 0 -0.033373408835505131 -0.047790316972923554 0 -0.030539957884739528 -0.045249951833212926 0 -0.034510946253685011 -0.045312573918129255 0 -0.027552995985757167 -0.056706870113010961 0 -0.030617878016944333 -0.056892000962818531 0 -0.030359418993989817 -0.054999964066965827 0 -0.027552995985757167 -0.056706870113010961 0 -0.030359418993989817 -0.054999964066965827 0 -0.027320148770366235 -0.054999964735618335 0 -0.033398747000173187 -0.054999955282119282 0 -0.03368265729230116 -0.057067916922741095 0 -0.03506495509054882 -0.056070714708797056 0 -0.030617878016944333 -0.056892000962818531 0 -0.030359418993989817 -0.054999964066965827 0 -0.033398747000173187 -0.054999955282119282 0 -0.030617878016944333 -0.056892000962818531 0 -0.033398747000173187 -0.054999955282119282 0 -0.03368265729230116 -0.057067916922741095 0 -0.032571177371692829 -0.051107063804750989 0 -0.03588734320390851 -0.051369171863795332 0 -0.034510946253685011 -0.045312573918129255 0 -0.036473336346753621 -0.046438540188556539 0 -0.038177133552444807 -0.045597725239228816 0 -0.034510946253685011 -0.045312573918129255 0 -0.03524635390777623 -0.046770466620129694 0 -0.036473336346753621 -0.046438540188556539 0 -0.03524635390777623 -0.046770466620129694 0 -0.036473336346753621 -0.046438540188556539 0 -0.036509418171215467 -0.047583174670137202 0 -0.036473336346753621 -0.046438540188556539 0 -0.037781087976791028 -0.046776232113997056 0 -0.038177133552444807 -0.045597725239228816 0 -0.037781087976791028 -0.046776232113997056 0 -0.038177133552444807 -0.045597725239228816 0 -0.039052073082407567 -0.046160573552765136 0 -0.037059399099468919 -0.043330334379581559 0 -0.03899163250383704 -0.047095421079836011 0 -0.037781087976791028 -0.046776232113997056 0 -0.038169593568406116 -0.048345395282568107 0 -0.039052073082407567 -0.046160573552765136 0 -0.037781087976791028 -0.046776232113997056 0 -0.038169593568406116 -0.048345395282568107 0 -0.036509418171215467 -0.047583174670137202 0 -0.037059399099468919 -0.043330334379581559 0 -0.039035671510172572 -0.043548033637324499 0 -0.03352389082805228 -0.047491030804379157 0 -0.03626290621643638 -0.047595225575449637 0 -0.033373408835505131 -0.047790316972923554 0 -0.03524635390777623 -0.046770466620129694 0 -0.036509418171215467 -0.047583174670137202 0 -0.034761677517333535 -0.049412754999188568 0 -0.038169593568406116 -0.048345395282568107 0 -0.036509418171215467 -0.047583174670137202 0 -0.036473336346753621 -0.046438540188556539 0 -0.037781087976791028 -0.046776232113997056 0 -0.036509418171215467 -0.047583174670137202 0 -0.033769680308912128 -0.040094190631426579 0 -0.032235593566091889 -0.039130306128409433 0 -0.034681410482850873 -0.038434949551279227 0 -0.033316680392693511 -0.044299573646704532 0 -0.037059399099468919 -0.043330334379581559 0 -0.03624905913609644 -0.039933044309483495 0 -0.037059399099468919 -0.043330334379581559 0 -0.042767832672454667 -0.041131084286044534 0 -0.041372532543346795 -0.042453871000068706 0 -0.041034278237157433 -0.044923147595490598 0 -0.038048294422634917 -0.040773368052142107 0 -0.037861612374588828 -0.042293942563950145 0 -0.037414194173129196 -0.042444868811437969 0 -0.040322487473698349 -0.041126487356456208 0 -0.039035671510172572 -0.043548033637324499 0 -0.038530628566560615 -0.040927483234093794 0 -0.038048294422634917 -0.040773368052142107 0 -0.037861612374588828 -0.042293942563950145 0 -0.040446365854725275 -0.042708712001179157 0 -0.041372532543346795 -0.042453871000068706 0 -0.041240313754949277 -0.04106267784105478 0 -0.040446365854725275 -0.042708712001179157 0 -0.041372532543346795 -0.042453871000068706 0 -0.041034278237157433 -0.044923147595490598 0 -0.040446365854725275 -0.042708712001179157 0 -0.038824758501641896 -0.043240906691969463 0 -0.039978011725164783 -0.041588737425110357 0 -0.040446365854725275 -0.042708712001179157 0 -0.039645069983430294 -0.044095323758937516 0 -0.038824758501641896 -0.043240906691969463 0 -0.040446365854725275 -0.042708712001179157 0 -0.039645069983430294 -0.044095323758937516 0 -0.041034278237157433 -0.044923147595490598 0 -0.038824758501641896 -0.043240906691969463 0 -0.03653179857886029 -0.043471830037196638 0 -0.038487642640618665 -0.041506822402868647 0 -0.038824758501641896 -0.043240906691969463 0 -0.038386792704993893 -0.044694150912771478 0 -0.03653179857886029 -0.043471830037196638 0 -0.044881655800980781 -0.042028629087834862 0 -0.041454738891437026 -0.038659377163536443 0 -0.038824758501641896 -0.043240906691969463 0 -0.038487642640618665 -0.041506822402868647 0 -0.039978011725164783 -0.041588737425110357 0 -0.039645069983430294 -0.044095323758937516 0 -0.038824758501641896 -0.043240906691969463 0 -0.038386792704993893 -0.044694150912771478 0 -0.038386792704993893 -0.044694150912771478 0 -0.037355254686987749 -0.045300706726017097 0 -0.03653179857886029 -0.043471830037196638 0 -0.038386792704993893 -0.044694150912771478 0 -0.038442705722897097 -0.045764423350297366 0 -0.039183973187649476 -0.045361698740299494 0 -0.038442705722897097 -0.045764423350297366 0 -0.039183973187649476 -0.045361698740299494 0 -0.039000999989960657 -0.045958842498935067 0 -0.038386792704993893 -0.044694150912771478 0 -0.038442705722897097 -0.045764423350297366 0 -0.037355254686987749 -0.045300706726017097 0 -0.039386433019865587 -0.045309683526602793 0 -0.039183973187649476 -0.045361698740299494 0 -0.039052073082407567 -0.046160573552765136 0 -0.039799603069961421 -0.045187184537550745 0 -0.039386433019865587 -0.045309683526602793 0 -0.039052073082407567 -0.046160573552765136 0 -0.039035671510172572 -0.043548033637324499 0 -0.039366896081367495 -0.04476460776714835 0 -0.039645069983430294 -0.044095323758937516 0 -0.038386792704993893 -0.044694150912771478 0 -0.039183973187649476 -0.045361698740299494 0 -0.039645069983430294 -0.044095323758937516 0 -0.041034278237157433 -0.044923147595490598 0 -0.039183973187649476 -0.045361698740299494 0 -0.038177133552444807 -0.045597725239228816 0 -0.039052073082407567 -0.046160573552765136 0 -0.039177707855054991 -0.046237720088029045 0 -0.03588734320390851 -0.051369171863795332 0 -0.037399873370528199 -0.051477921838996181 0 -0.03368265729230116 -0.057067916922741095 0 -0.035810017212221573 -0.057158911422147705 0 -0.03506495509054882 -0.056070714708797056 0 -0.035810017212221573 -0.057158911422147705 0 -0.036707915741081516 -0.057193707300346716 0 -0.03506495509054882 -0.056070714708797056 0 -0.039183973187649476 -0.045361698740299494 0 -0.039052073082407567 -0.046160573552765136 0 -0.039000999989960657 -0.045958842498935067 0 -0.039052073082407567 -0.046160573552765136 0 -0.039177707855054991 -0.046237720088029045 0 -0.039000999989960657 -0.045958842498935067 0 -0.038442705722897097 -0.045764423350297366 0 -0.038106025387986776 -0.046521025456777741 0 -0.038494647585685084 -0.0464718804662832 0 -0.038442705722897097 -0.045764423350297366 0 -0.039000999989960657 -0.045958842498935067 0 -0.038494647585685084 -0.0464718804662832 0 -0.042319932919154923 -0.043082695033266089 0 -0.041065609220462415 -0.050441680088808269 0 -0.038442705722897097 -0.045764423350297366 0 -0.037355254686987749 -0.045300706726017097 0 -0.038106025387986776 -0.046521025456777741 0 -0.041065609220462415 -0.050441680088808269 0 -0.038362532214492248 -0.051038009657980984 0 -0.039177707855054991 -0.046237720088029045 0 -0.039000999989960657 -0.045958842498935067 0 -0.038494647585685084 -0.0464718804662832 0 -0.037399873370528199 -0.051477921838996181 0 -0.038362532214492248 -0.051038009657980984 0 -0.037198673805232715 -0.057213857223824514 0 -0.036707915741081516 -0.057193707300346716 0 -0.03643786924001069 -0.054999912630428957 0 -0.037272089227143111 -0.057283053273080739 0 -0.036438049055140496 -0.054999944678472606 0 -0.038931987468358333 -0.054999982814918601 0 -0.041065609220462415 -0.050441680088808269 0 -0.036438569336771122 -0.055007396762714864 0 -0.033398747000173187 -0.054999955282119282 0 -0.03643786924001069 -0.054999912630428957 0 -0.03506495509054882 -0.056070714708797056 0 -0.036707915741081516 -0.057193707300346716 0 -0.03643786924001069 -0.054999912630428957 0 -0.03506495509054882 -0.056070714708797056 0 -0.038931987468358333 -0.054999982814918601 0 -0.039737428350042563 -0.057302668427717196 0 -0.041426022539063835 -0.054999969568354977 0 -0.039737428350042563 -0.057302668427717196 0 -0.042232394489650903 -0.057336117080928423 0 -0.041426022539063835 -0.054999969568354977 0 -0.037272089227143111 -0.057283053273080739 0 -0.038931987468358333 -0.054999982814918601 0 -0.039737428350042563 -0.057302668427717196 0 -0.041065609220462415 -0.050441680088808269 0 -0.041180008431599462 -0.053910572610102313 0 -0.041065609220462415 -0.050441680088808269 0 -0.046614190834880401 -0.045730144481661773 0 -0.047807703268491673 -0.042455790466199621 0 -0.047857257176368712 -0.042418109034466932 0 -0.047865281488405721 -0.04243251510063889 0 -0.041599194336686247 -0.049976906844609974 0 -0.043295064661018984 -0.049979555501484585 0 -0.043696214934490628 -0.050107310095011889 0 -0.047835742979690045 -0.042416302421573016 0 -0.047807703268491673 -0.042455790466199621 0 -0.047857257176368712 -0.042418109034466932 0 -0.043295064661018984 -0.049979555501484585 0 -0.043696214934490628 -0.050107310095011889 0 -0.04497905514703212 -0.050005056351645746 0 -0.041180008431599462 -0.053910572610102313 0 -0.043685727669888791 -0.053633644117655761 0 -0.047865281488405721 -0.04243251510063889 0 -0.0479218929835101 -0.04238154846643355 0 -0.047886456727716187 -0.04244438181123545 0 -0.0479218929835101 -0.04238154846643355 0 -0.047808593031831478 -0.042100732185033102 0 -0.047886456727716187 -0.04244438181123545 0 -0.047857257176368712 -0.042418109034466932 0 -0.047865281488405721 -0.04243251510063889 0 -0.0479218929835101 -0.04238154846643355 0 -0.047835742979690045 -0.042416302421573016 0 -0.0479218929835101 -0.04238154846643355 0 -0.047853449028910137 -0.042437099107277686 0 -0.047835742979690045 -0.042416302421573016 0 -0.047857257176368712 -0.042418109034466932 0 -0.0479218929835101 -0.04238154846643355 0 -0.042319932919154923 -0.043082695033266089 0 -0.044881655800980781 -0.042028629087834862 0 -0.044881655800980781 -0.042028629087834862 0 -0.050864627163678969 -0.032353154829271862 0 -0.045888858394843988 -0.035359483977488886 0 -0.046180269538186602 -0.03610209088775837 0 -0.045092387428554613 -0.035944486894358772 0 -0.048147644708518622 -0.042222203056312406 0 -0.047976743854459311 -0.042142296190981532 0 -0.048067032416647323 -0.041882894054850364 0 -0.048149144346476103 -0.041741435817943547 0 -0.044881655800980781 -0.042028629087834862 0 -0.0479218929835101 -0.04238154846643355 0 -0.048147644708518622 -0.042222203056312406 0 -0.047976743854459311 -0.042142296190981532 0 -0.050602758250663057 -0.037739319733804275 0 -0.046992296216941308 -0.04446762606476265 0 -0.0479218929835101 -0.04238154846643355 0 -0.047976743854459311 -0.042142296190981532 0 -0.047808593031831478 -0.042100732185033102 0 -0.047976743854459311 -0.042142296190981532 0 -0.047808593031831478 -0.042100732185033102 0 -0.048067032416647323 -0.041882894054850364 0 -0.050602758250663057 -0.037739319733804275 0 -0.055332396922440047 -0.030368159285981734 0 -0.052978841708117154 -0.028533121233746211 0 -0.054073064902653963 -0.025759912445513455 0 -0.054700147630528585 -0.027728061928156404 0 -0.050602758250663057 -0.037739319733804275 0 -0.050864627163678969 -0.032353154829271862 0 -0.055096661680514386 -0.038520061953820968 0 -0.055634388045435607 -0.03698266394677608 0 -0.054682711904414469 -0.037637458905742278 0 -0.052978841708117154 -0.028533121233746211 0 -0.053908816972119328 -0.025683852558725493 0 -0.054073064902653963 -0.025759912445513455 0 -0.054073064902653963 -0.025759912445513455 0 -0.053694369499495666 -0.025429004913265853 0 -0.053894545937740665 -0.025072870991255887 0 -0.053868061944775336 -0.025737804238035778 0 -0.053694369499495666 -0.025429004913265853 0 -0.05320813725647984 -0.025239568646202078 0 -0.053908816972119328 -0.025683852558725493 0 -0.054073064902653963 -0.025759912445513455 0 -0.053868061944775336 -0.025737804238035778 0 -0.054073064902653963 -0.025759912445513455 0 -0.053868061944775336 -0.025737804238035778 0 -0.053694369499495666 -0.025429004913265853 0 -0.050864627163678969 -0.032353154829271862 0 -0.04904265979016649 -0.030768073518199157 0 -0.053694369499495666 -0.025429004913265853 0 -0.053894545937740665 -0.025072870991255887 0 -0.05320813725647984 -0.025239568646202078 0 -0.05395346273991336 -0.024094042807200344 0 -0.050864627163678969 -0.032353154829271862 0 -0.046180269538186602 -0.03610209088775837 0 -0.045092387428554613 -0.035944486894358772 0 -0.045159079881868777 -0.036558825972162062 0 -0.045092387428554613 -0.035944486894358772 0 -0.044239141483404666 -0.036565043825371818 0 -0.045159079881868777 -0.036558825972162062 0 -0.038487642640618665 -0.041506822402868647 0 -0.039978011725164783 -0.041588737425110357 0 -0.040946094475163425 -0.039221807552299766 0 -0.041454738891437026 -0.038659377163536443 0 -0.042679722748466029 -0.037873297863677824 0 -0.041240313754949277 -0.04106267784105478 0 -0.039978011725164783 -0.041588737425110357 0 -0.040946094475163425 -0.039221807552299766 0 -0.040446365854725275 -0.042708712001179157 0 -0.041240313754949277 -0.04106267784105478 0 -0.039978011725164783 -0.041588737425110357 0 -0.042050338104721877 -0.039863101187817322 0 -0.041240313754949277 -0.04106267784105478 0 -0.040946094475163425 -0.039221807552299766 0 -0.048546403189727153 -0.031158631611842274 0 -0.04904265979016649 -0.030768073518199157 0 -0.04409448651935343 -0.036956709701921851 0 -0.044239141483404666 -0.036565043825371818 0 -0.045159079881868777 -0.036558825972162062 0 -0.05235547358190068 -0.025405242263659193 0 -0.05320813725647984 -0.025239568646202078 0 -0.052734178855449163 -0.026005612893211114 0 -0.053868061944775336 -0.025737804238035778 0 -0.05320813725647984 -0.025239568646202078 0 -0.053570894342419038 -0.025954302659069912 0 -0.053570894342419038 -0.025954302659069912 0 -0.052734178855449163 -0.026005612893211114 0 -0.053553086162040311 -0.026366743612689199 0 -0.05320813725647984 -0.025239568646202078 0 -0.053570894342419038 -0.025954302659069912 0 -0.052734178855449163 -0.026005612893211114 0 -0.051878113633967111 -0.026136251523378732 0 -0.05235547358190068 -0.025405242263659193 0 -0.052734178855449163 -0.026005612893211114 0 -0.05214462868730925 -0.026538573482816484 0 -0.052734178855449163 -0.026005612893211114 0 -0.052943248760182408 -0.026494216960964521 0 -0.053720387312602487 -0.027086391513145916 0 -0.052943248760182408 -0.026494216960964521 0 -0.053553086162040311 -0.026366743612689199 0 -0.052734178855449163 -0.026005612893211114 0 -0.052943248760182408 -0.026494216960964521 0 -0.053553086162040311 -0.026366743612689199 0 -0.053720387312602487 -0.027086391513145916 0 -0.053553086162040311 -0.026366743612689199 0 -0.054339610712720463 -0.026366360588173068 0 -0.053570894342419038 -0.025954302659069912 0 -0.053553086162040311 -0.026366743612689199 0 -0.054339610712720463 -0.026366360588173068 0 -0.054384306255108483 -0.033998231799017793 0 -0.056173522239708826 -0.034903484135189622 0 -0.055120212189348997 -0.035757659998332733 0 -0.055332396922440047 -0.030368159285981734 0 -0.055149776627350884 -0.030894110880291082 0 -0.055634388045435607 -0.03698266394677608 0 -0.056173522239708826 -0.034903484135189622 0 -0.055120212189348997 -0.035757659998332733 0 -0.055634388045435607 -0.03698266394677608 0 -0.055120212189348997 -0.035757659998332733 0 -0.054646692181350189 -0.036757244599934735 0 -0.053868061944775336 -0.025737804238035778 0 -0.053570894342419038 -0.025954302659069912 0 -0.054339610712720463 -0.026366360588173068 0 -0.053908816972119328 -0.025683852558725493 0 -0.053868061944775336 -0.025737804238035778 0 -0.054339610712720463 -0.026366360588173068 0 -0.053246582334854672 -0.036632100815209089 0 -0.054152903647324946 -0.035584735883546832 0 -0.054646692181350189 -0.036757244599934735 0 -0.055120212189348997 -0.035757659998332733 0 -0.054152903647324946 -0.035584735883546832 0 -0.054646692181350189 -0.036757244599934735 0 -0.054384306255108483 -0.033998231799017793 0 -0.055120212189348997 -0.035757659998332733 0 -0.054152903647324946 -0.035584735883546832 0 -0.054384306255108483 -0.033998231799017793 0 -0.054152903647324946 -0.035584735883546832 0 -0.053114934533808743 -0.034956129866894149 0 -0.053246582334854672 -0.036632100815209089 0 -0.054152903647324946 -0.035584735883546832 0 -0.053114934533808743 -0.034956129866894149 0 -0.051618043462757286 -0.03436802811529769 0 -0.053114934533808743 -0.034956129866894149 0 -0.052283335898715998 -0.037034685181908125 0 -0.052518706708146796 -0.037519586013832908 0 -0.052283335898715998 -0.037034685181908125 0 -0.052508859882810864 -0.037561969834427437 0 -0.052373963330591237 -0.034556196651480589 0 -0.052159135001512126 -0.037526334618121604 0 -0.053246582334854672 -0.036632100815209089 0 -0.052283335898715998 -0.037034685181908125 0 -0.053035540529564572 -0.037578078101193971 0 -0.053246582334854672 -0.036632100815209089 0 -0.053114934533808743 -0.034956129866894149 0 -0.052283335898715998 -0.037034685181908125 0 -0.052283335898715998 -0.037034685181908125 0 -0.053035540529564572 -0.037578078101193971 0 -0.052435129089769716 -0.037734716365469885 0 -0.052996835562460584 -0.038414283738005782 0 -0.052487620776740594 -0.038398494934918544 0 -0.052435129089769716 -0.037734716365469885 0 -0.053035540529564572 -0.037578078101193971 0 -0.052996835562460584 -0.038414283738005782 0 -0.052435129089769716 -0.037734716365469885 0 -0.053035540529564572 -0.037578078101193971 0 -0.053599902699499165 -0.038155153389204832 0 -0.052996835562460584 -0.038414283738005782 0 -0.053035540529564572 -0.037578078101193971 0 -0.053599902699499165 -0.038155153389204832 0 -0.053911518540114119 -0.037533856189333359 0 -0.053599902699499165 -0.038155153389204832 0 -0.053911518540114119 -0.037533856189333359 0 -0.054217883328237237 -0.038199352537583643 0 -0.053246582334854672 -0.036632100815209089 0 -0.053911518540114119 -0.037533856189333359 0 -0.054646692181350189 -0.036757244599934735 0 -0.053246582334854672 -0.036632100815209089 0 -0.053035540529564572 -0.037578078101193971 0 -0.053911518540114119 -0.037533856189333359 0 -0.055634388045435607 -0.03698266394677608 0 -0.054646692181350189 -0.036757244599934735 0 -0.054682711904414469 -0.037637458905742278 0 -0.053911518540114119 -0.037533856189333359 0 -0.054646692181350189 -0.036757244599934735 0 -0.054682711904414469 -0.037637458905742278 0 -0.055096661680514386 -0.038520061953820968 0 -0.054682711904414469 -0.037637458905742278 0 -0.054217883328237237 -0.038199352537583643 0 -0.053911518540114119 -0.037533856189333359 0 -0.054682711904414469 -0.037637458905742278 0 -0.054217883328237237 -0.038199352537583643 0 -0.047830210241185632 -0.042594918789979105 0 -0.048026867129857369 -0.042524856734409713 0 -0.047948347046676387 -0.042489417046858449 0 -0.055096661680514386 -0.038520061953820968 0 -0.054217883328237237 -0.038199352537583643 0 -0.053930792921314696 -0.038925848126237526 0 -0.050602758250663057 -0.037739319733804275 0 -0.051074282904482085 -0.04114952177417007 0 -0.047830210241185632 -0.042594918789979105 0 -0.048026867129857369 -0.042524856734409713 0 -0.048157465522322015 -0.042549457995250235 0 -0.053599902699499165 -0.038155153389204832 0 -0.053930792921314696 -0.038925848126237526 0 -0.052996835562460584 -0.038414283738005782 0 -0.053599902699499165 -0.038155153389204832 0 -0.054217883328237237 -0.038199352537583643 0 -0.053930792921314696 -0.038925848126237526 0 -0.048157465522322015 -0.042549457995250235 0 -0.04851698771217805 -0.042266182918532416 0 -0.048946876683929615 -0.04233055208194407 0 -0.047918476118701037 -0.042619032392381392 0 -0.048508474050955257 -0.042011732867519649 0 -0.048026867129857369 -0.042524856734409713 0 -0.047981737691296898 -0.042483561406309121 0 -0.047993143740521549 -0.042495233950662854 0 -0.048026867129857369 -0.042524856734409713 0 -0.048157465522322015 -0.042549457995250235 0 -0.04851698771217805 -0.042266182918532416 0 -0.051074282904482085 -0.04114952177417007 0 -0.051223307105715501 -0.040207068478648834 0 -0.047981737691296898 -0.042483561406309121 0 -0.047993143740521549 -0.042495233950662854 0 -0.047970831314654003 -0.04246615585020995 0 -0.047830210241185632 -0.042594918789979105 0 -0.047948347046676387 -0.042489417046858449 0 -0.047886456727716187 -0.04244438181123545 0 -0.048026867129857369 -0.042524856734409713 0 -0.047981737691296898 -0.042483561406309121 0 -0.047948347046676387 -0.042489417046858449 0 -0.047981737691296898 -0.042483561406309121 0 -0.047948347046676387 -0.042489417046858449 0 -0.047937696217546677 -0.042458253018912297 0 -0.047981737691296898 -0.042483561406309121 0 -0.047937696217546677 -0.042458253018912297 0 -0.047970831314654003 -0.04246615585020995 0 -0.047948347046676387 -0.042489417046858449 0 -0.047937696217546677 -0.042458253018912297 0 -0.047886456727716187 -0.04244438181123545 0 -0.047865281488405721 -0.04243251510063889 0 -0.047937696217546677 -0.042458253018912297 0 -0.047970831314654003 -0.04246615585020995 0 -0.046614190834880401 -0.045730144481661773 0 -0.04653196111712226 -0.046457154840404989 0 -0.043696214934490628 -0.050107310095011889 0 -0.04497905514703212 -0.050005056351645746 0 -0.045765825165635259 -0.050240845270352115 0 -0.047865281488405721 -0.04243251510063889 0 -0.047937696217546677 -0.042458253018912297 0 -0.047886456727716187 -0.04244438181123545 0 -0.043685727669888791 -0.053633644117655761 0 -0.045617412618474774 -0.053873606381096104 0 -0.04497905514703212 -0.050005056351645746 0 -0.045765825165635259 -0.050240845270352115 0 -0.046652392917601669 -0.050029674421251523 0 -0.042232394489650903 -0.057336117080928423 0 -0.043920074417662908 -0.054999982900208494 0 -0.044728017025011862 -0.057353863129316819 0 -0.042232394489650903 -0.057336117080928423 0 -0.043920074417662908 -0.054999982900208494 0 -0.041426022539063835 -0.054999969568354977 0 -0.046414598819625792 -0.055000863852973474 0 -0.049402328319545004 -0.055034030981808604 0 -0.046414074340170641 -0.054999998912961902 0 -0.049161352609711495 -0.05615695648455922 0 -0.048671861023869667 -0.054999991897066135 0 -0.046414012505733133 -0.054999925870598251 0 -0.047197713358360503 -0.057351721251790631 0 -0.049090520360432481 -0.056100610781951249 0 -0.046414012505733133 -0.054999925870598251 0 -0.044728017025011862 -0.057353863129316819 0 -0.047197713358360503 -0.057351721251790631 0 -0.043920074417662908 -0.054999982900208494 0 -0.046414012505733133 -0.054999925870598251 0 -0.044728017025011862 -0.057353863129316819 0 -0.045765825165635259 -0.050240845270352115 0 -0.046652392917601669 -0.050029674421251523 0 -0.047822604642805827 -0.050373242599252237 0 -0.045617412618474774 -0.053873606381096104 0 -0.048046791902254589 -0.051475369615578109 0 -0.046652392917601669 -0.050029674421251523 0 -0.047822604642805827 -0.050373242599252237 0 -0.048319645193207882 -0.050054463665930173 0 -0.04653196111712226 -0.046457154840404989 0 -0.048649452660348438 -0.04613966662022647 0 -0.047993143740521549 -0.042495233950662854 0 -0.047970831314654003 -0.04246615585020995 0 -0.04801206973175233 -0.042530637139007788 0 -0.048649452660348438 -0.04613966662022647 0 -0.051223394495048376 -0.045086254769573092 0 -0.049629849195113554 -0.050024993634185735 0 -0.049676772665126663 -0.050026653329144813 0 -0.049839179983009241 -0.049928156642567605 0 -0.049548608675316463 -0.050048354407319223 0 -0.049676772665126663 -0.050026653329144813 0 -0.049774261223501683 -0.050089015241101334 0 -0.04911326070078495 -0.041953045038098651 0 -0.048946876683929615 -0.04233055208194407 0 -0.049782701130906611 -0.04203791996105144 0 -0.049548608675316463 -0.050048354407319223 0 -0.04962881694022038 -0.050017294490296495 0 -0.049676772665126663 -0.050026653329144813 0 -0.048649452660348438 -0.04613966662022647 0 -0.048046791902254589 -0.051475369615578109 0 -0.048046791902254589 -0.051475369615578109 0 -0.04876017558316955 -0.051272872595282383 0 -0.051223307105715501 -0.040207068478648834 0 -0.051223394495048376 -0.045086254769573092 0 -0.053164642169727876 -0.039269950915056744 0 -0.052684515235650854 -0.039013637225540826 0 -0.052581207897012441 -0.039717404934582166 0 -0.048508474050955257 -0.042011732867519649 0 -0.048649452660348438 -0.04613966662022647 0 -0.04851698771217805 -0.042266182918532416 0 -0.04911326070078495 -0.041953045038098651 0 -0.048946876683929615 -0.04233055208194407 0 -0.053930792921314696 -0.038925848126237526 0 -0.053164642169727876 -0.039269950915056744 0 -0.052996835562460584 -0.038414283738005782 0 -0.052996835562460584 -0.038414283738005782 0 -0.052684515235650854 -0.039013637225540826 0 -0.052487620776740594 -0.038398494934918544 0 -0.053164642169727876 -0.039269950915056744 0 -0.052996835562460584 -0.038414283738005782 0 -0.052684515235650854 -0.039013637225540826 0 -0.052684515235650854 -0.039013637225540826 0 -0.052144923353918411 -0.039120836453038335 0 -0.052487620776740594 -0.038398494934918544 0 -0.052144923353918411 -0.039120836453038335 0 -0.052250158087441406 -0.038255758032688977 0 -0.052487620776740594 -0.038398494934918544 0 -0.052144923353918411 -0.039120836453038335 0 -0.051443959024663984 -0.039095810080157486 0 -0.052250158087441406 -0.038255758032688977 0 -0.052144923353918411 -0.039120836453038335 0 -0.052041690964025146 -0.039895220697744919 0 -0.051323128905817181 -0.04021178409343084 0 -0.052144923353918411 -0.039120836453038335 0 -0.052581207897012441 -0.039717404934582166 0 -0.052041690964025146 -0.039895220697744919 0 -0.052684515235650854 -0.039013637225540826 0 -0.052144923353918411 -0.039120836453038335 0 -0.052581207897012441 -0.039717404934582166 0 -0.051223394495048376 -0.045086254769573092 0 -0.050999385042628131 -0.051162981442376541 0 -0.049774261223501683 -0.050089015241101334 0 -0.050031371744537576 -0.050005759702799232 0 -0.049839179983009241 -0.049928156642567605 0 -0.049676772665126663 -0.050026653329144813 0 -0.049774261223501683 -0.050089015241101334 0 -0.049839179983009241 -0.049928156642567605 0 -0.048046791902254589 -0.051475369615578109 0 -0.049402328319545004 -0.055034030981808604 0 -0.051223394495048376 -0.045086254769573092 0 -0.051762133170624509 -0.044148850114087278 0 -0.052351310034003416 -0.048753799333521572 0 -0.05201221038726455 -0.048780523981720135 0 -0.05196832486024542 -0.049011552846096609 0 -0.05201221038726455 -0.048780523981720135 0 -0.05196832486024542 -0.049011552846096609 0 -0.051817757780120786 -0.048885019304002866 0 -0.050999385042628131 -0.051162981442376541 0 -0.049402328319545004 -0.055034030981808604 0 -0.050928603991198328 -0.055000800613433043 0 -0.049402328319545004 -0.055034030981808604 0 -0.050969383432066376 -0.056832895240124269 0 -0.05092980563446569 -0.054999953108157029 0 -0.049251983186423764 -0.056095345095475362 0 -0.0509296439183686 -0.054999997453284023 0 -0.049161352609711495 -0.05615695648455922 0 -0.048671861023869667 -0.054999991897066135 0 -0.054999982423565331 -0.054967964233450697 0 -0.056882424745369156 -0.054037565411132096 0 -0.054999978801750518 -0.053249296094385973 0 -0.056882424745369156 -0.054037565411132096 0 -0.05597402358279522 -0.052551747279542274 0 -0.054999978801750518 -0.053249296094385973 0 -0.055000965845324705 -0.054967835458329069 0 -0.053298727554269572 -0.053629827642955791 0 -0.054999979659481668 -0.054968107903604735 0 -0.053125026173840975 -0.054999875808429355 0 -0.053066513978210446 -0.055925679989129284 0 -0.050969383432066376 -0.056832895240124269 0 -0.05092980563446569 -0.054999953108157029 0 -0.053052538712970637 -0.055907149603012012 0 -0.05092980563446569 -0.054999953108157029 0 -0.053124860898097183 -0.054999966637101931 0 -0.053052538712970637 -0.055907149603012012 0 -0.053125046228856866 -0.055000501716500262 0 -0.053298727554269572 -0.053629827642955791 0 -0.050999385042628131 -0.051162981442376541 0 -0.053298727554269572 -0.053629827642955791 0 -0.05196832486024542 -0.049011552846096609 0 -0.051817757780120786 -0.048885019304002866 0 -0.051613095319915446 -0.048946918165906642 0 -0.052208788228410408 -0.049224960540506339 0 -0.051507460223140705 -0.049541629688979807 0 -0.051613095319915446 -0.048946918165906642 0 -0.050999385042628131 -0.051162981442376541 0 -0.051734898352492439 -0.048951693826470716 0 -0.05201221038726455 -0.048780523981720135 0 -0.051817757780120786 -0.048885019304002866 0 -0.05157343380161386 -0.048737939212365293 0 -0.053298727554269572 -0.053629827642955791 0 -0.05377239076292141 -0.047664084683411802 0 -0.051507460223140705 -0.049541629688979807 0 -0.051613095319915446 -0.048946918165906642 0 -0.05157343380161386 -0.048737939212365293 0 -0.051762133170624509 -0.044148850114087278 0 -0.05377239076292141 -0.047664084683411802 0 -0.051817757780120786 -0.048885019304002866 0 -0.051613095319915446 -0.048946918165906642 0 -0.05157343380161386 -0.048737939212365293 0 -0.056882424745369156 -0.054037565411132096 0 -0.05702290097744598 -0.051655504059053559 0 -0.05597402358279522 -0.052551747279542274 0 -0.05702290097744598 -0.051655504059053559 0 -0.05597402358279522 -0.052551747279542274 0 -0.054999969944719666 -0.051530665473134306 0 -0.05377239076292141 -0.047664084683411802 0 -0.055003828771934375 -0.051531128233152319 0 -0.05597402358279522 -0.052551747279542274 0 -0.054999978801750518 -0.053249296094385973 0 -0.054999969944719666 -0.051530665473134306 0 -0.05695640374869404 -0.051177583851292077 0 -0.054999940393918208 -0.051529829258094142 0 -0.056041362734216234 -0.050067806809978938 0 -0.054999940393918208 -0.051529829258094142 0 -0.056041362734216234 -0.050067806809978938 0 -0.055000057454632975 -0.048634049935666716 0 -0.052144923353918411 -0.039120836453038335 0 -0.051323128905817181 -0.04021178409343084 0 -0.051443959024663984 -0.039095810080157486 0 -0.05695640374869404 -0.051177583851292077 0 -0.056041362734216234 -0.050067806809978938 0 -0.057105115851907765 -0.048888349365273608 0 -0.05377239076292141 -0.047664084683411802 0 -0.054335245477380376 -0.043586613057588486 0 -0.056041362734216234 -0.050067806809978938 0 -0.057105115851907765 -0.048888349365273608 0 -0.055000057454632975 -0.048634049935666716 0 -0.055000057454632975 -0.048634049935666716 0 -0.054999602653944366 -0.045737439648488441 0 -0.057209356232768516 -0.046443578807815286 0 -0.057105115851907765 -0.048888349365273608 0 -0.055000057454632975 -0.048634049935666716 0 -0.057209356232768516 -0.046443578807815286 0 -0.054999602653944366 -0.045737439648488441 0 -0.057209356232768516 -0.046443578807815286 0 -0.055795871966430724 -0.043950431382651589 0 -0.051920108138357575 -0.037925724990031169 0 -0.052572102031851906 -0.037583210771107219 0 -0.053174953736426236 -0.037482900486607532 0 -0.057209356232768516 -0.046443578807815286 0 -0.055795871966430724 -0.043950431382651589 0 -0.057039889036385683 -0.043724936717556021 0 -0.054583531438219396 -0.042302059826364979 0 -0.055088849306611821 -0.040847766296844272 0 -0.054335245477380376 -0.043586613057588486 0 -0.054583531438219396 -0.042302059826364979 0 -0.051443959024663984 -0.039095810080157486 0 -0.051920108138357575 -0.037925724990031169 0 -0.052250158087441406 -0.038255758032688977 0 -0.051920108138357575 -0.037925724990031169 0 -0.052250158087441406 -0.038255758032688977 0 -0.052415243135101805 -0.037705118276288759 0 -0.052250158087441406 -0.038255758032688977 0 -0.052487620776740594 -0.038398494934918544 0 -0.052435129089769716 -0.037734716365469885 0 -0.052435129089769716 -0.037734716365469885 0 -0.052415243135101805 -0.037705118276288759 0 -0.052413701455534867 -0.037591571217344799 0 -0.052250158087441406 -0.038255758032688977 0 -0.052435129089769716 -0.037734716365469885 0 -0.052415243135101805 -0.037705118276288759 0 -0.051920108138357575 -0.037925724990031169 0 -0.052415243135101805 -0.037705118276288759 0 -0.052572102031851906 -0.037583210771107219 0 -0.052415243135101805 -0.037705118276288759 0 -0.052572102031851906 -0.037583210771107219 0 -0.052413701455534867 -0.037591571217344799 0 -0.052572102031851906 -0.037583210771107219 0 -0.052616983734968113 -0.038125109927007794 0 -0.052413701455534867 -0.037591571217344799 0 -0.052616983734968113 -0.038125109927007794 0 -0.052413701455534867 -0.037591571217344799 0 -0.052522937827098638 -0.037756808243599609 0 -0.052283335898715998 -0.037034685181908125 0 -0.052413701455534867 -0.037591571217344799 0 -0.052508859882810864 -0.037561969834427437 0 -0.052283335898715998 -0.037034685181908125 0 -0.052435129089769716 -0.037734716365469885 0 -0.052413701455534867 -0.037591571217344799 0 -0.052413701455534867 -0.037591571217344799 0 -0.052508859882810864 -0.037561969834427437 0 -0.052522937827098638 -0.037756808243599609 0 -0.052329352700257466 -0.037598360554476712 0 -0.052616983734968113 -0.038125109927007794 0 -0.052522937827098638 -0.037756808243599609 0 -0.053193953613396447 -0.039866659962473815 0 -0.052806868747532182 -0.038049692021231742 0 -0.052449683810725525 -0.037548344010933481 0 -0.052508859882810864 -0.037561969834427437 0 -0.052522937827098638 -0.037756808243599609 0 -0.052329352700257466 -0.037598360554476712 0 -0.052449683810725525 -0.037548344010933481 0 -0.052522937827098638 -0.037756808243599609 0 -0.054287015389013933 -0.041807504450521768 0 -0.052616983734968113 -0.038125109927007794 0 -0.055420198475288639 -0.041518781229145658 0 -0.052616983734968113 -0.038125109927007794 0 -0.055420198475288639 -0.041518781229145658 0 -0.053174953736426236 -0.037482900486607532 0 -0.055420198475288639 -0.041518781229145658 0 -0.055910758555571684 -0.042489729935634823 0 -0.057039889036385683 -0.043724936717556021 0 -0.055329927326908973 -0.041677905661553181 0 -0.055088849306611821 -0.040847766296844272 0 -0.055420198475288639 -0.041518781229145658 0 -0.055681724905930312 -0.041872239475608114 0 -0.055910758555571684 -0.042489729935634823 0 -0.054999916629993782 -0.039945205298557759 0 -0.055562259564545059 -0.041776009193767748 0 -0.054999713955395754 -0.042841306940589179 0 -0.055681724905930312 -0.041872239475608114 0 -0.055562259564545059 -0.041776009193767748 0 -0.055910758555571684 -0.042489729935634823 0 -0.055562259564545059 -0.041776009193767748 0 -0.054999713955395754 -0.042841306940589179 0 -0.055910758555571684 -0.042489729935634823 0 -0.054999713955395754 -0.042841306940589179 0 -0.055910758555571684 -0.042489729935634823 0 -0.055795871966430724 -0.043950431382651589 0 -0.054999602653944366 -0.045737439648488441 0 -0.054999713955395754 -0.042841306940589179 0 -0.055795871966430724 -0.043950431382651589 0 -0.052572102031851906 -0.037583210771107219 0 -0.052616983734968113 -0.038125109927007794 0 -0.053174953736426236 -0.037482900486607532 0 -0.055910758555571684 -0.042489729935634823 0 -0.055795871966430724 -0.043950431382651589 0 -0.057039889036385683 -0.043724936717556021 0 -0.0057042451825605918 -0.045478397518189766 0 -0.0085094030450451313 -0.04450037101163222 0 -0.0040605305774823611 -0.046245473163068103 0 -0.0052502131883612512 -0.04604283616431587 0 -0.0053178733803492962 -0.04691583051229585 0 -0.0048068832243556413 -0.047206902586859424 0 -0.0049829549997900064 -0.047703843817657174 0 -0.0054899407099885727 -0.047458999901572416 0 -0.0057042451825605918 -0.045478397518189766 0 -0.0052627023247646303 -0.047274162933771853 0 -0.0075413783043433175 -0.04488267552904069 0 -0.0069189028725889969 -0.045181943369877582 0 -0.0071691501959551601 -0.045398855753290113 0 -0.0057042451825605918 -0.045478397518189766 0 -0.0061499120493733843 -0.045631807174202947 0 -0.0071691501959551601 -0.045398855753290113 0 -0.0067593939487746255 -0.045504823935492898 0 -0.0068642503887475738 -0.045519889437970994 0 -0.0069189028725889969 -0.045181943369877582 0 -0.0071691501959551601 -0.045398855753290113 0 -0.0067593939487746255 -0.045504823935492898 0 -0.0071691501959551601 -0.045398855753290113 0 -0.0068642503887475738 -0.045519889437970994 0 -0.0070033499204541251 -0.045568359475556208 0 -0.0071691501959551601 -0.045398855753290113 0 -0.007502837224157257 -0.04556946805016359 0 -0.0076469020726374981 -0.04529701629394485 0 -0.0076469020726374981 -0.04529701629394485 0 -0.0080949666042275797 -0.045037183860211341 0 -0.0079143777127301685 -0.045663680235801661 0 -0.0075413783043433175 -0.04488267552904069 0 -0.0071691501959551601 -0.045398855753290113 0 -0.0076469020726374981 -0.04529701629394485 0 -0.0075413783043433175 -0.04488267552904069 0 -0.0076469020726374981 -0.04529701629394485 0 -0.0080949666042275797 -0.045037183860211341 0 -0.007502837224157257 -0.04556946805016359 0 -0.0076469020726374981 -0.04529701629394485 0 -0.0079143777127301685 -0.045663680235801661 0 -0.012593783768921715 -0.037299217615511519 0 -0.014143900420171759 -0.036522171161192551 0 -0.0080949666042275797 -0.045037183860211341 0 -0.0086960888019879563 -0.045301525256146724 0 -0.0079143777127301685 -0.045663680235801661 0 -0.0085094030450451313 -0.04450037101163222 0 -0.012340718958831275 -0.039621731496104526 0 -0.0080949666042275797 -0.045037183860211341 0 -0.0086960888019879563 -0.045301525256146724 0 -0.0086839736182620173 -0.045240174344713238 0 -0.013246612791484945 -0.041332238779349717 0 -0.012828025963841166 -0.04146713329768683 0 -0.01335455404770926 -0.042049529692220942 0 -0.013441382629208224 -0.035533119108133344 0 -0.013327041674875393 -0.035483015855627825 0 -0.013510419856114363 -0.035398805159351295 0 -0.013274563043623271 -0.030560358588358424 0 -0.013159915688022843 -0.036132447300007788 0 -0.013274563043623271 -0.030560358588358424 0 -0.012752362934245554 -0.037391224339997052 0 -0.012007261793784963 -0.032631717762061425 0 -0.014878844095179223 -0.033514102764331012 0 -0.014021534116093606 -0.02841747000235504 0 -0.012007261793784963 -0.032631717762061425 0 -0.014287509291593869 -0.033790240409403829 0 -0.014878844095179223 -0.033514102764331012 0 -0.012752362934245554 -0.037391224339997052 0 -0.012340718958831275 -0.039621731496104526 0 -0.012593783768921715 -0.037299217615511519 0 -0.012340718958831275 -0.039621731496104526 0 -0.012819791795689232 -0.038191143548319553 0 -0.011022342113298739 -0.039033313908235931 0 -0.010696585681205486 -0.037124518627502136 0 -0.012752362934245554 -0.037391224339997052 0 -0.012593783768921715 -0.037299217615511519 0 -0.013179045674611947 -0.04129583226873098 0 -0.013246612791484945 -0.041332238779349717 0 -0.012828025963841166 -0.04146713329768683 0 -0.012752362934245554 -0.037391224339997052 0 -0.013159915688022843 -0.036132447300007788 0 -0.0093815363274154517 -0.045643918147233169 0 -0.015697508843385537 -0.044114254866094472 0 -0.012828025963841166 -0.04146713329768683 0 -0.01335455404770926 -0.042049529692220942 0 -0.012509117730659531 -0.042192190965298956 0 -0.012340718958831275 -0.039621731496104526 0 -0.0093815363274154517 -0.045643918147233169 0 -0.007583723755622193 -0.043536384624823191 0 -0.0086418755362060798 -0.044043694679081098 0 -0.009452091815390723 -0.043213212360627862 0 -0.0086418755362060798 -0.044043694679081098 0 -0.0096918948993922199 -0.044533952328229882 0 -0.009452091815390723 -0.043213212360627862 0 -0.0057042451825605918 -0.045478397518189766 0 -0.0093815363274154517 -0.045643918147233169 0 -0.0048068832243556413 -0.047206902586859424 0 -0.0040355462596208128 -0.047360235657709651 0 -0.0045695982806332669 -0.047769448732443126 0 -0.0040355462596208128 -0.047360235657709651 0 -0.0041174665793717998 -0.04803082759089046 0 -0.0045695982806332669 -0.047769448732443126 0 -0.0093815363274154517 -0.045643918147233169 0 -0.0075350217371014929 -0.047319094915271122 0 -0.0041174665793717998 -0.04803082759089046 0 -0.0045832528680552183 -0.048228698707435576 0 -0.0045695982806332669 -0.047769448732443126 0 -0.011428933897018679 -0.047812403103058294 0 -0.012409358659011504 -0.046618665736091504 0 -0.013419635005560588 -0.047486039807915596 0 -0.011428933897018679 -0.047812403103058294 0 -0.012409358659011504 -0.046618665736091504 0 -0.011146819140795803 -0.046188254497961108 0 -0.012409358659011504 -0.046618665736091504 0 -0.012479397612309677 -0.045308448429150848 0 -0.011146819140795803 -0.046188254497961108 0 -0.01293459951829159 -0.046799046490173982 0 -0.008172498994863683 -0.047167517170209901 0 -0.012479397612309677 -0.045308448429150848 0 -0.011146819140795803 -0.046188254497961108 0 -0.010850127849948004 -0.044567961367719754 0 -0.0041174665793717998 -0.04803082759089046 0 -0.0044395248849645793 -0.04848781318217546 0 -0.0042429618434457724 -0.048701747924144237 0 -0.0075350217371014929 -0.047319094915271122 0 -0.008172498994863683 -0.047167517170209901 0 -0.0041174665793717998 -0.04803082759089046 0 -0.0044395248849645793 -0.04848781318217546 0 -0.0045832528680552183 -0.048228698707435576 0 -0.0049285746254044581 -0.048522851194770053 0 -0.0045832528680552183 -0.048228698707435576 0 -0.0046593494531546346 -0.048594231483351534 0 -0.0044395248849645793 -0.04848781318217546 0 -0.0045832528680552183 -0.048228698707435576 0 -0.0046593494531546346 -0.048594231483351534 0 -0.0049285746254044581 -0.048522851194770053 0 -0.0049048203727029855 -0.04812525777255406 0 -0.0045832528680552183 -0.048228698707435576 0 -0.0049048203727029855 -0.04812525777255406 0 -0.0045832528680552183 -0.048228698707435576 0 -0.0045695982806332669 -0.047769448732443126 0 -0.0048068832243556413 -0.047206902586859424 0 -0.0045695982806332669 -0.047769448732443126 0 -0.0049829549997900064 -0.047703843817657174 0 -0.0049048203727029855 -0.04812525777255406 0 -0.0045695982806332669 -0.047769448732443126 0 -0.0049829549997900064 -0.047703843817657174 0 -0.0049829549997900064 -0.047703843817657174 0 -0.0054899407099885727 -0.047458999901572416 0 -0.0053097549560876889 -0.048168640361598472 0 -0.0049048203727029855 -0.04812525777255406 0 -0.0049829549997900064 -0.047703843817657174 0 -0.0053097549560876889 -0.048168640361598472 0 -0.005542721927940043 -0.047993216151374488 0 -0.0028589915298753437 -0.05101358955215838 0 -0.0053097549560876889 -0.048168640361598472 0 -0.0052708025202696128 -0.048840634528323296 0 -0.0056874294234851843 -0.048913780378394375 0 -0.0049285746254044581 -0.048522851194770053 0 -0.0049048203727029855 -0.04812525777255406 0 -0.0053097549560876889 -0.048168640361598472 0 -0.0049285746254044581 -0.048522851194770053 0 -0.0053097549560876889 -0.048168640361598472 0 -0.0052708025202696128 -0.048840634528323296 0 -0.0053097549560876889 -0.048168640361598472 0 -0.0058288586274435764 -0.048446767225490496 0 -0.0057362301312947781 -0.049037088021347056 0 -0.0053097549560876889 -0.048168640361598472 0 -0.0058288586274435764 -0.048446767225490496 0 -0.0058903870494552077 -0.048036297313125031 0 -0.0058288586274435764 -0.048446767225490496 0 -0.0058903870494552077 -0.048036297313125031 0 -0.0064191017352383424 -0.048550598158858607 0 -0.0058903870494552077 -0.048036297313125031 0 -0.0064191017352383424 -0.048550598158858607 0 -0.0065274371334332112 -0.047690218224547359 0 -0.0058288586274435764 -0.048446767225490496 0 -0.0064191017352383424 -0.048550598158858607 0 -0.0057362301312947781 -0.049037088021347056 0 0.00022134810339040156 -0.051775545520214489 0 -0.0028589915298753437 -0.05101358955215838 0 0.0068841828891472749 -0.055050485896438468 0 0.0074561237981739638 -0.054940897746859979 0 0.0070588883216272371 -0.054471483809151303 0 0.0068841828891472749 -0.055050485896438468 0 0.0074561237981739638 -0.054940897746859979 0 0.0076277431440526624 -0.055516024271679891 0 0.00022134810339040156 -0.051775545520214489 0 0.0037441563901850837 -0.052105960169703272 0 -0.0064191017352383424 -0.048550598158858607 0 -0.0072361115959896629 -0.047966457056459674 0 -0.0065274371334332112 -0.047690218224547359 0 -0.0072361115959896629 -0.047966457056459674 0 -0.0065274371334332112 -0.047690218224547359 0 -0.0072714317080860864 -0.046075090792351545 0 -0.0054899407099885727 -0.047458999901572416 0 -0.0058903870494552077 -0.048036297313125031 0 -0.0065274371334332112 -0.047690218224547359 0 -0.0054899407099885727 -0.047458999901572416 0 -0.0053097549560876889 -0.048168640361598472 0 -0.0058903870494552077 -0.048036297313125031 0 -0.0052627023247646303 -0.047274162933771853 0 -0.0065192653320747893 -0.047673061818664438 0 -0.0053178733803492962 -0.04691583051229585 0 -0.0065274371334332112 -0.047690218224547359 0 -0.0062405460278795672 -0.046624019133021256 0 0.0087410053967625616 -0.055264382957982749 0 0.0083846066748081687 -0.054663548806447602 0 0.00930942532005705 -0.05493271546020205 0 0.0087410053967625616 -0.055264382957982749 0 0.0080119932227851187 -0.055206566214030542 0 0.0085831218964871961 -0.055927663571371897 0 0.0087410053967625616 -0.055264382957982749 0 0.0080119932227851187 -0.055206566214030542 0 0.0083846066748081687 -0.054663548806447602 0 0.0074561237981739638 -0.054940897746859979 0 0.0080119932227851187 -0.055206566214030542 0 0.0077107493090180276 -0.054587410643528997 0 0.0074561237981739638 -0.054940897746859979 0 0.0076277431440526624 -0.055516024271679891 0 0.0080119932227851187 -0.055206566214030542 0 0.0092450102835173829 -0.055790593177287018 0 0.009457739716565227 -0.055970813575109066 0 0.0093805086159989177 -0.056057404306447393 0 0.0076277431440526624 -0.055516024271679891 0 0.0080119932227851187 -0.055206566214030542 0 0.0085831218964871961 -0.055927663571371897 0 0.0037441563901850837 -0.052105960169703272 0 0.00062376472937617834 -0.050599091957893721 0 0.0037441563901850837 -0.052105960169703272 0 0.0099207516166221806 -0.056628716791687572 0 0.0085831218964871961 -0.055927663571371897 0 0.0094715292928118124 -0.056124429435322025 0 0.0094709533967737153 -0.055603766836067561 0 0.0087410053967625616 -0.055264382957982749 0 0.0085831218964871961 -0.055927663571371897 0 0.0094709533967737153 -0.055603766836067561 0 0.009457739716565227 -0.055970813575109066 0 0.0094715292928118124 -0.056124429435322025 0 0.0095517170774862947 -0.056150102555954817 0 0.0099207516166221806 -0.056628716791687572 0 0.0090522840886399433 -0.055853106480723391 0 0.009457739716565227 -0.055970813575109066 0 0.0093805086159989177 -0.056057404306447393 0 0.0095517170774862947 -0.056150102555954817 0 0.00062376472937617834 -0.050599091957893721 0 0.0019514758062208991 -0.052597305749596812 0 0.0093805086159989177 -0.056057404306447393 0 0.0095517170774862947 -0.056150102555954817 0 0.009574188534728743 -0.05608142620056835 0 -0.0061499120493733843 -0.045631807174202947 0 -0.0065930349460826699 -0.04571341886108362 0 -0.0052502131883612512 -0.04604283616431587 0 -0.0062405460278795672 -0.046624019133021256 0 -0.0066221050443273843 -0.045783584964456031 0 -0.0052502131883612512 -0.04604283616431587 0 -0.0053178733803492962 -0.04691583051229585 0 -0.0062405460278795672 -0.046624019133021256 0 -0.0072714317080860864 -0.046075090792351545 0 -0.0062405460278795672 -0.046624019133021256 0 -0.0066221050443273843 -0.045783584964456031 0 -0.0065274371334332112 -0.047690218224547359 0 -0.0072714317080860864 -0.046075090792351545 0 -0.0062405460278795672 -0.046624019133021256 0 -0.0072714317080860864 -0.046075090792351545 0 -0.0066221050443273843 -0.045783584964456031 0 -0.0067293840605060877 -0.045412615453397497 0 -0.0072714317080860864 -0.046075090792351545 0 -0.0067293840605060877 -0.045412615453397497 0 -0.0071778848013638154 -0.045266022053365766 0 -0.0069189028725889969 -0.045181943369877582 0 -0.0066221050443273843 -0.045783584964456031 0 -0.0067593939487746255 -0.045504823935492898 0 -0.0067593939487746255 -0.045504823935492898 0 -0.0068642503887475738 -0.045519889437970994 0 -0.0067293840605060877 -0.045412615453397497 0 -0.0066221050443273843 -0.045783584964456031 0 -0.0067593939487746255 -0.045504823935492898 0 -0.0067293840605060877 -0.045412615453397497 0 -0.0063761002088684876 -0.047025386320129751 0 -0.0084749389751125094 -0.039426530207340403 0 -0.0068642503887475738 -0.045519889437970994 0 -0.0067293840605060877 -0.045412615453397497 0 -0.0069979172978250175 -0.045676061555558055 0 -0.0067293840605060877 -0.045412615453397497 0 -0.0066223518883238974 -0.044661149506690263 0 -0.0060420453080371386 -0.044914696950948942 0 -0.0067293840605060877 -0.045412615453397497 0 -0.0066223518883238974 -0.044661149506690263 0 -0.0071778848013638154 -0.045266022053365766 0 -0.011569414498947807 -0.037057700454004368 0 -0.0042600562976566917 -0.041697813691411602 0 -0.0066223518883238974 -0.044661149506690263 0 -0.0071778848013638154 -0.045266022053365766 0 -0.0072133759270657958 -0.044366067960497607 0 -0.013432461733661288 -0.031197110499092091 0 -0.0084492902807521159 -0.030421849329772301 0 -0.0076172292282349306 -0.033907377019260949 0 -0.013432461733661288 -0.031197110499092091 0 -0.011684650315815287 -0.027004629711430111 0 -0.0084492902807521159 -0.030421849329772301 0 -0.011569414498947807 -0.037057700454004368 0 -0.0084749389751125094 -0.039426530207340403 0 0.0095517170774862947 -0.056150102555954817 0 0.0097664197036843991 -0.056094294447249553 0 0.0097875724778720835 -0.056272601259859389 0 0.0095517170774862947 -0.056150102555954817 0 0.009574188534728743 -0.05608142620056835 0 0.0097664197036843991 -0.056094294447249553 0 0.0019514758062208991 -0.052597305749596812 0 -0.0042600562976566917 -0.041697813691411602 0 0.009574188534728743 -0.05608142620056835 0 0.0097664197036843991 -0.056094294447249553 0 0.0096813315989349134 -0.055986359281966686 0 0.0097664197036843991 -0.056094294447249553 0 0.0098927861271132997 -0.055931931328544023 0 0.0099155606107827268 -0.056096408177405653 0 0.0097664197036843991 -0.056094294447249553 0 0.0098927861271132997 -0.055931931328544023 0 0.0096813315989349134 -0.055986359281966686 0 0.0020968094451121297 -0.035998258380043967 0 -0.00069649877279006006 -0.034753639128695939 0 0.00069725458827614483 -0.036760425931409407 0 -0.00069649877279006006 -0.034753639128695939 0 -0.00057128292502698469 -0.037835912203598096 0 0.00069725458827614483 -0.036760425931409407 0 0.0082606270959437022 -0.04728801980671337 0 -0.0042600562976566917 -0.041697813691411602 0 -0.0042600562976566917 -0.041697813691411602 0 -0.0074127103853739431 -0.023351024526541128 0 0.0015696959691456291 -0.017388973355646483 0 0.0035732034130369038 -0.019757752583091252 0 -3.2530879195565765e-05 -0.019833135540865004 0 -0.0074127103853739431 -0.023351024526541128 0 0.0022255212084628232 -0.028270437406899395 0 -0.00057128292502698469 -0.037835912203598096 0 0.00069725458827614483 -0.036760425931409407 0 0.0021609895476675865 -0.037609500345759411 0 0.0020968094451121297 -0.035998258380043967 0 0.0021609895476675865 -0.037609500345759411 0 0.0049637408715238951 -0.037334922704046987 0 0.0020968094451121297 -0.035998258380043967 0 0.00069725458827614483 -0.036760425931409407 0 0.0021609895476675865 -0.037609500345759411 0 -0.011684650315815287 -0.027004629711430111 0 -0.0086462318498736999 -0.025824180538833258 0 -0.0084492902807521159 -0.030421849329772301 0 -0.013432461733661288 -0.031197110499092091 0 -0.011684650315815287 -0.027004629711430111 0 -0.015519056993273996 -0.025331565571330216 0 -0.011684650315815287 -0.027004629711430111 0 -0.015519056993273996 -0.025331565571330216 0 -0.011671268984671119 -0.023518045031803259 0 -0.011684650315815287 -0.027004629711430111 0 -0.011671268984671119 -0.023518045031803259 0 -0.0086462318498736999 -0.025824180538833258 0 -0.013432461733661288 -0.031197110499092091 0 -0.01926052026203974 -0.028487177083617986 0 -0.015519056993273996 -0.025331565571330216 0 -0.01926052026203974 -0.028487177083617986 0 -0.01962130447373878 -0.021662345888217513 0 -0.015519056993273996 -0.025331565571330216 0 -0.015519056993273996 -0.025331565571330216 0 -0.016058528736872378 -0.021154016490403868 0 -0.011671268984671119 -0.023518045031803259 0 -0.01962130447373878 -0.021662345888217513 0 -0.015519056993273996 -0.025331565571330216 0 -0.016058528736872378 -0.021154016490403868 0 -0.017474978007579273 -0.019052104331257695 0 -0.019978524278510153 -0.021425545563406489 0 -0.016058528736872378 -0.021154016490403868 0 -0.0074127103853739431 -0.023351024526541128 0 -0.019308688369366337 -0.022216926788630426 0 -0.012514579293917284 -0.01909577879929529 0 -0.011671268984671119 -0.023518045031803259 0 -0.0057421811256831564 -0.022642775975354509 0 -0.012514579293917284 -0.01909577879929529 0 -0.016058528736872378 -0.021154016490403868 0 -0.011671268984671119 -0.023518045031803259 0 -0.013570077976077939 -0.018006986181654749 0 -0.012473046389605185 -0.021532922683292759 0 -0.011671268984671119 -0.023518045031803259 0 -0.0057421811256831564 -0.022642775975354509 0 -0.0086462318498736999 -0.025824180538833258 0 -0.014433215470005915 -0.018132992443964664 0 -0.017129092965824298 -0.021234574890986086 0 -0.012467042059534299 -0.017535905390149233 0 -0.013749279121711056 -0.01978015899930495 0 -0.012475966919465812 -0.020424832255417667 0 -0.020183463337949684 -0.021851081327575291 0 -0.018406068542133162 -0.02272913359621476 0 -0.018684238807438823 -0.021455457134047097 0 -0.01898553883156991 -0.019780143126192622 0 -0.020183463337949684 -0.021851081327575291 0 -0.018684238807438823 -0.021455457134047097 0 -0.019542745524216476 -0.022213189634671025 0 -0.019171967741307919 -0.022399547989799234 0 -0.019450751906058272 -0.022795254632817862 0 -0.012473046389605185 -0.021532922683292759 0 -0.017129092965824298 -0.021234574890986086 0 -0.019251147294791628 -0.022433336971911359 0 -0.019127851432910303 -0.023052064147593639 0 -0.018406068542133162 -0.02272913359621476 0 -0.017129092965824298 -0.021234574890986086 0 -0.019206267424458773 -0.02250666551869342 0 -0.019251147294791628 -0.022433336971911359 0 -0.019127851432910303 -0.023052064147593639 0 -0.019450751906058272 -0.022795254632817862 0 -0.017129092965824298 -0.021234574890986086 0 -0.018856365214428603 -0.022948098768526309 0 -0.019127851432910303 -0.023052064147593639 0 -0.01962264071418782 -0.023193681347695116 0 -0.019244840748415436 -0.023485254620862768 0 -0.019127851432910303 -0.023052064147593639 0 -0.019450751906058272 -0.022795254632817862 0 -0.01962264071418782 -0.023193681347695116 0 -0.019127851432910303 -0.023052064147593639 0 -0.019244840748415436 -0.023485254620862768 0 -0.018595989134268187 -0.02354812255860134 0 -0.019127851432910303 -0.023052064147593639 0 -0.018595989134268187 -0.02354812255860134 0 -0.018406068542133162 -0.02272913359621476 0 -0.0086462318498736999 -0.025824180538833258 0 -0.0059077963221341066 -0.027871693880631206 0 -0.0084492902807521159 -0.030421849329772301 0 -0.012473046389605185 -0.021532922683292759 0 -0.012733270075042012 -0.025279562036607309 0 -0.0057421811256831564 -0.022642775975354509 0 -0.0086462318498736999 -0.025824180538833258 0 -0.0059077963221341066 -0.027871693880631206 0 -0.019542745524216476 -0.022213189634671025 0 -0.019450751906058272 -0.022795254632817862 0 -0.01962264071418782 -0.023193681347695116 0 -0.012733270075042012 -0.025279562036607309 0 -0.014345236540249695 -0.030918981339608988 0 -0.01962264071418782 -0.023193681347695116 0 -0.019622742340281312 -0.02413256854773151 0 -0.019244840748415436 -0.023485254620862768 0 -0.0059077963221341066 -0.027871693880631206 0 -0.0084492902807521159 -0.030421849329772301 0 -0.0060753860904722923 -0.033081264453177474 0 -0.0084492902807521159 -0.030421849329772301 0 -0.0060753860904722923 -0.033081264453177474 0 -0.0076172292282349306 -0.033907377019260949 0 -0.014345236540249695 -0.030918981339608988 0 -0.0084749389751125094 -0.039426530207340403 0 -0.019622742340281312 -0.02413256854773151 0 -0.019244840748415436 -0.023485254620862768 0 -0.018595989134268187 -0.02354812255860134 0 -0.014345236540249695 -0.030918981339608988 0 -0.01979790664765551 -0.023569042982656704 0 -0.021703530888220721 -0.026165152460280946 0 -0.020004541502674833 -0.026193075995142073 0 -0.019128651704497551 -0.024587870838467467 0 -0.021703530888220721 -0.026165152460280946 0 -0.020004541502674833 -0.026193075995142073 0 -0.021717066001000766 -0.026806447827435045 0 -0.012387874366218282 -0.038169944227406077 0 -0.014143900420171759 -0.036522171161192551 0 -0.020004541502674833 -0.026193075995142073 0 -0.021717066001000766 -0.026806447827435045 0 -0.019410671506913609 -0.027941289598012689 0 -0.007502837224157257 -0.04556946805016359 0 -0.0072996294470636797 -0.045883428584208234 0 -0.0079143777127301685 -0.045663680235801661 0 -0.006794194342525174 -0.048169757483004859 0 -0.012387874366218282 -0.038169944227406077 0 -0.0071691501959551601 -0.045398855753290113 0 -0.007502837224157257 -0.04556946805016359 0 -0.0072996294470636797 -0.045883428584208234 0 -0.0071691501959551601 -0.045398855753290113 0 -0.0070033499204541251 -0.045568359475556208 0 -0.0070876909834349973 -0.045638324068161852 0 -0.0068642503887475738 -0.045519889437970994 0 -0.0070033499204541251 -0.045568359475556208 0 -0.0069979172978250175 -0.045676061555558055 0 -0.0070033499204541251 -0.045568359475556208 0 -0.0069979172978250175 -0.045676061555558055 0 -0.0070876909834349973 -0.045638324068161852 0 -0.0084749389751125094 -0.039426530207340403 0 -0.012387874366218282 -0.038169944227406077 0 -0.013112844153471009 -0.036803573727477765 0 -0.012384057450486194 -0.03643656353228307 0 -0.01309169386243985 -0.036107118246463371 0 -0.014345236540249695 -0.030918981339608988 0 -0.012387874366218282 -0.038169944227406077 0 -0.016849598669603349 -0.025576837305556925 0 -0.016628868657430556 -0.024216837860227294 0 -0.015710058324371938 -0.025069501531527379 0 -0.015786264425669438 -0.026738628245816024 0 -0.016565430293256276 -0.024622347505894926 0 -0.016851552812650713 -0.029247110912505012 0 -0.016561226670854069 -0.027397235690881639 0 -0.018202157017187259 -0.026889774624069173 0 -0.016393534744668332 -0.026516291661994179 0 -0.016849598669603349 -0.025576837305556925 0 -0.015710058324371938 -0.025069501531527379 0 -0.015786264425669438 -0.026738628245816024 0 -0.01756099820494799 -0.025523053725538633 0 -0.013274563043623271 -0.030560358588358424 0 -0.015786264425669438 -0.026738628245816024 0 -0.012593783768921715 -0.037299217615511519 0 -0.015786264425669438 -0.026738628245816024 0 -0.016851552812650713 -0.029247110912505012 0 -0.019410671506913609 -0.027941289598012689 0 -0.018202157017187259 -0.026889774624069173 0 -0.020004541502674833 -0.026193075995142073 0 -0.019410671506913609 -0.027941289598012689 0 -0.018202157017187259 -0.026889774624069173 0 -0.016561226670854069 -0.027397235690881639 0 -0.018202157017187259 -0.026889774624069173 0 -0.017702981510792429 -0.025291357414783989 0 -0.018202157017187259 -0.026889774624069173 0 -0.017702981510792429 -0.025291357414783989 0 -0.018761699671104113 -0.025732317980622779 0 -0.019128651704497551 -0.024587870838467467 0 -0.017528397738760561 -0.024610064102993601 0 -0.01726693896036452 -0.024016214757364086 0 -0.020004541502674833 -0.026193075995142073 0 -0.018202157017187259 -0.026889774624069173 0 -0.018761699671104113 -0.025732317980622779 0 -0.020004541502674833 -0.026193075995142073 0 -0.018761699671104113 -0.025732317980622779 0 -0.019128651704497551 -0.024587870838467467 0 -0.017702981510792429 -0.025291357414783989 0 -0.018761699671104113 -0.025732317980622779 0 -0.019128651704497551 -0.024587870838467467 0 -0.017702981510792429 -0.025291357414783989 0 -0.019128651704497551 -0.024587870838467467 0 -0.017528397738760561 -0.024610064102993601 0 -0.016838057506816509 -0.027056577197355242 0 -0.017702981510792429 -0.025291357414783989 0 -0.016525682918992871 -0.025175599103069247 0 -0.017702981510792429 -0.025291357414783989 0 -0.017528397738760561 -0.024610064102993601 0 -0.016525682918992871 -0.025175599103069247 0 -0.017528397738760561 -0.024610064102993601 0 -0.016525682918992871 -0.025175599103069247 0 -0.01726693896036452 -0.024016214757364086 0 -0.016628868657430556 -0.024216837860227294 0 -0.016047534783752159 -0.023637120043495101 0 -0.015906551093724828 -0.024226589215415543 0 -0.019128651704497551 -0.024587870838467467 0 -0.01726693896036452 -0.024016214757364086 0 -0.016721470720191867 -0.022806294448886825 0 -0.016628868657430556 -0.024216837860227294 0 -0.016397996283746857 -0.022930290667011261 0 -0.016047534783752159 -0.023637120043495101 0 -0.01726693896036452 -0.024016214757364086 0 -0.016397996283746857 -0.022930290667011261 0 -0.016721470720191867 -0.022806294448886825 0 -0.016525682918992871 -0.025175599103069247 0 -0.01726693896036452 -0.024016214757364086 0 -0.016397996283746857 -0.022930290667011261 0 -0.016565430293256276 -0.024622347505894926 0 -0.016400394517991947 -0.023198064292246537 0 -0.017101193877043827 -0.022496354771121718 0 -0.016721470720191867 -0.022806294448886825 0 -0.017598263874599469 -0.022761113867997593 0 -0.017101193877043827 -0.022496354771121718 0 -0.017598263874599469 -0.022761113867997593 0 -0.017284034018509087 -0.022073627530966942 0 -0.017101193877043827 -0.022496354771121718 0 -0.016784846809392094 -0.022343155770641648 0 -0.017284034018509087 -0.022073627530966942 0 -0.017101193877043827 -0.022496354771121718 0 -0.016784846809392094 -0.022343155770641648 0 -0.016721470720191867 -0.022806294448886825 0 -0.016784846809392094 -0.022343155770641648 0 -0.01644052213913107 -0.022575957962408012 0 -0.016721470720191867 -0.022806294448886825 0 -0.016784846809392094 -0.022343155770641648 0 -0.01644052213913107 -0.022575957962408012 0 -0.01630269566972609 -0.022193016982467617 0 -0.01644052213913107 -0.022575957962408012 0 -0.01630269566972609 -0.022193016982467617 0 -0.016051388178668798 -0.022631173195674831 0 -0.01644052213913107 -0.022575957962408012 0 -0.016397996283746857 -0.022930290667011261 0 -0.016051388178668798 -0.022631173195674831 0 -0.01644052213913107 -0.022575957962408012 0 -0.016397996283746857 -0.022930290667011261 0 -0.016721470720191867 -0.022806294448886825 0 -0.018595989134268187 -0.02354812255860134 0 -0.016721470720191867 -0.022806294448886825 0 -0.017598263874599469 -0.022761113867997593 0 -0.01979790664765551 -0.023569042982656704 0 -0.016486313882821055 -0.022918361018866028 0 -0.018595989134268187 -0.02354812255860134 0 -0.017598263874599469 -0.022761113867997593 0 -0.018406068542133162 -0.02272913359621476 0 -0.017598263874599469 -0.022761113867997593 0 -0.018406068542133162 -0.02272913359621476 0 -0.017954686586452846 -0.022115070781355481 0 -0.017598263874599469 -0.022761113867997593 0 -0.017954686586452846 -0.022115070781355481 0 -0.017284034018509087 -0.022073627530966942 0 -0.01898553883156991 -0.019780143126192622 0 -0.018684238807438823 -0.021455457134047097 0 -0.017516346242662077 -0.021011556753684536 0 -0.018406068542133162 -0.02272913359621476 0 -0.018684238807438823 -0.021455457134047097 0 -0.017954686586452846 -0.022115070781355481 0 -0.018684238807438823 -0.021455457134047097 0 -0.017954686586452846 -0.022115070781355481 0 -0.017516346242662077 -0.021011556753684536 0 -0.01674622531606685 -0.021733384585971884 0 -0.016520955556121805 -0.021104993677492492 0 -0.016134043905707097 -0.02164168874997921 0 -0.01674622531606685 -0.021733384585971884 0 -0.01630269566972609 -0.022193016982467617 0 -0.016134043905707097 -0.02164168874997921 0 -0.016784846809392094 -0.022343155770641648 0 -0.01674622531606685 -0.021733384585971884 0 -0.01630269566972609 -0.022193016982467617 0 -0.01674622531606685 -0.021733384585971884 0 -0.017284034018509087 -0.022073627530966942 0 -0.017516346242662077 -0.021011556753684536 0 -0.016784846809392094 -0.022343155770641648 0 -0.01674622531606685 -0.021733384585971884 0 -0.017284034018509087 -0.022073627530966942 0 -0.017954686586452846 -0.022115070781355481 0 -0.017284034018509087 -0.022073627530966942 0 -0.017516346242662077 -0.021011556753684536 0 -0.01674622531606685 -0.021733384585971884 0 -0.017516346242662077 -0.021011556753684536 0 -0.016520955556121805 -0.021104993677492492 0 -0.016409217607680552 -0.020280371978895061 0 -0.016520955556121805 -0.021104993677492492 0 -0.015807533177917284 -0.020854067853223968 0 -0.016409217607680552 -0.020280371978895061 0 -0.017516346242662077 -0.021011556753684536 0 -0.016520955556121805 -0.021104993677492492 0 -0.015807533177917284 -0.020854067853223968 0 -0.015429806752938906 -0.021682016281564655 0 -0.016134043905707097 -0.02164168874997921 0 -0.016520955556121805 -0.021104993677492492 0 -0.015807533177917284 -0.020854067853223968 0 -0.016134043905707097 -0.02164168874997921 0 -0.015192065687566708 -0.021047686381555783 0 -0.015429806752938906 -0.021682016281564655 0 -0.014658702840960783 -0.021488727508338044 0 -0.014894182705538885 -0.02033095940472723 0 -0.015807533177917284 -0.020854067853223968 0 -0.015192065687566708 -0.021047686381555783 0 -0.015807533177917284 -0.020854067853223968 0 -0.015192065687566708 -0.021047686381555783 0 -0.015429806752938906 -0.021682016281564655 0 -0.014894182705538885 -0.02033095940472723 0 -0.015192065687566708 -0.021047686381555783 0 -0.014658702840960783 -0.021488727508338044 0 -0.015429806752938906 -0.021682016281564655 0 -0.015365061038515688 -0.022661437992860814 0 -0.014658702840960783 -0.021488727508338044 0 -0.015429806752938906 -0.021682016281564655 0 -0.016134043905707097 -0.02164168874997921 0 -0.015819843028215666 -0.022160232853920228 0 -0.015429806752938906 -0.021682016281564655 0 -0.015819843028215666 -0.022160232853920228 0 -0.015365061038515688 -0.022661437992860814 0 -0.01630269566972609 -0.022193016982467617 0 -0.016134043905707097 -0.02164168874997921 0 -0.015819843028215666 -0.022160232853920228 0 -0.016051388178668798 -0.022631173195674831 0 -0.015365061038515688 -0.022661437992860814 0 -0.015825295758230412 -0.023125738705510875 0 -0.01630269566972609 -0.022193016982467617 0 -0.015819843028215666 -0.022160232853920228 0 -0.016051388178668798 -0.022631173195674831 0 -0.015819843028215666 -0.022160232853920228 0 -0.016051388178668798 -0.022631173195674831 0 -0.015365061038515688 -0.022661437992860814 0 -0.016397996283746857 -0.022930290667011261 0 -0.016051388178668798 -0.022631173195674831 0 -0.015825295758230412 -0.023125738705510875 0 -0.015365061038515688 -0.022661437992860814 0 -0.015825295758230412 -0.023125738705510875 0 -0.015224439116995742 -0.023773701204685405 0 -0.015365061038515688 -0.022661437992860814 0 -0.014131835007224177 -0.022769259691212233 0 -0.015224439116995742 -0.023773701204685405 0 -0.015825295758230412 -0.023125738705510875 0 -0.016047534783752159 -0.023637120043495101 0 -0.015224439116995742 -0.023773701204685405 0 -0.016397996283746857 -0.022930290667011261 0 -0.015825295758230412 -0.023125738705510875 0 -0.016047534783752159 -0.023637120043495101 0 -0.014131835007224177 -0.022769259691212233 0 -0.013159097587262447 -0.023352536755008473 0 -0.013987880610136724 -0.024028337889252724 0 -0.014131835007224177 -0.022769259691212233 0 -0.015224439116995742 -0.023773701204685405 0 -0.013987880610136724 -0.024028337889252724 0 -0.015365061038515688 -0.022661437992860814 0 -0.014131835007224177 -0.022769259691212233 0 -0.014658702840960783 -0.021488727508338044 0 -0.014131835007224177 -0.022769259691212233 0 -0.013764164381195258 -0.021757582350869203 0 -0.012833163567395499 -0.022075298992248221 0 -0.014894182705538885 -0.02033095940472723 0 -0.014658702840960783 -0.021488727508338044 0 -0.013397231244733169 -0.020765658564535199 0 -0.014131835007224177 -0.022769259691212233 0 -0.013764164381195258 -0.021757582350869203 0 -0.014658702840960783 -0.021488727508338044 0 -0.013764164381195258 -0.021757582350869203 0 -0.014658702840960783 -0.021488727508338044 0 -0.013397231244733169 -0.020765658564535199 0 -0.012455792996148542 -0.020711691564815515 0 -0.012833163567395499 -0.022075298992248221 0 -0.011388762473259737 -0.021650612156829997 0 -0.013397231244733169 -0.020765658564535199 0 -0.012455792996148542 -0.020711691564815515 0 -0.012833163567395499 -0.022075298992248221 0 -0.013764164381195258 -0.021757582350869203 0 -0.013397231244733169 -0.020765658564535199 0 -0.012833163567395499 -0.022075298992248221 0 -0.02341191250813298 -0.020380987216233805 0 -0.0235172103163486 -0.020894828535568982 0 -0.023198128839696842 -0.020868960674720393 0 -0.017496570523622308 -0.020163930273982791 0 -0.019074388851621729 -0.0280812314061104 0 -0.012833163567395499 -0.022075298992248221 0 -0.011388762473259737 -0.021650612156829997 0 -0.012142710986078359 -0.023143385150135785 0 -0.0235172103163486 -0.020894828535568982 0 -0.023198128839696842 -0.020868960674720393 0 -0.023254397217452989 -0.021742424529928767 0 -0.011388762473259737 -0.021650612156829997 0 -0.012142710986078359 -0.023143385150135785 0 -0.011073939491350382 -0.023765659863509959 0 -0.014131835007224177 -0.022769259691212233 0 -0.012833163567395499 -0.022075298992248221 0 -0.013159097587262447 -0.023352536755008473 0 -0.012833163567395499 -0.022075298992248221 0 -0.012142710986078359 -0.023143385150135785 0 -0.013159097587262447 -0.023352536755008473 0 -0.012142710986078359 -0.023143385150135785 0 -0.013159097587262447 -0.023352536755008473 0 -0.01284957047792604 -0.024650019588446936 0 -0.013159097587262447 -0.023352536755008473 0 -0.01284957047792604 -0.024650019588446936 0 -0.013987880610136724 -0.024028337889252724 0 -0.014267610930457735 -0.028404679384266739 0 -0.019074388851621729 -0.0280812314061104 0 -0.012142710986078359 -0.023143385150135785 0 -0.01284957047792604 -0.024650019588446936 0 -0.011073939491350382 -0.023765659863509959 0 -0.016738515132827994 -0.032087509724839668 0 -0.019419208238593472 -0.031915349403046141 0 -0.020623408408015818 -0.034111020635745178 0 -0.016738515132827994 -0.032087509724839668 0 -0.019756049068435751 -0.029640797505869974 0 -0.017594685994223806 -0.02803153697849858 0 -0.016738515132827994 -0.032087509724839668 0 -0.019419208238593472 -0.031915349403046141 0 -0.019756049068435751 -0.029640797505869974 0 -0.019419208238593472 -0.031915349403046141 0 -0.019756049068435751 -0.029640797505869974 0 -0.021631942860805747 -0.03203660052250186 0 -0.019756049068435751 -0.029640797505869974 0 -0.02158782980342263 -0.029326413670253664 0 -0.02023099750672841 -0.027705765553227311 0 -0.016738515132827994 -0.032087509724839668 0 -0.015015454472100849 -0.028825028685941077 0 -0.017594685994223806 -0.02803153697849858 0 -0.014267610930457735 -0.028404679384266739 0 -0.013680940862966971 -0.027406128352661038 0 -0.016738515132827994 -0.032087509724839668 0 -0.013008321088468413 -0.030062934571919733 0 -0.015015454472100849 -0.028825028685941077 0 -0.016393534744668332 -0.026516291661994179 0 -0.014568849857453107 -0.025545419823787847 0 -0.015710058324371938 -0.025069501531527379 0 -0.013274563043623271 -0.030560358588358424 0 -0.013680940862966971 -0.027406128352661038 0 -0.014568849857453107 -0.025545419823787847 0 -0.015710058324371938 -0.025069501531527379 0 -0.015224439116995742 -0.023773701204685405 0 -0.015710058324371938 -0.025069501531527379 0 -0.015906551093724828 -0.024226589215415543 0 -0.015224439116995742 -0.023773701204685405 0 -0.016628868657430556 -0.024216837860227294 0 -0.015710058324371938 -0.025069501531527379 0 -0.015906551093724828 -0.024226589215415543 0 -0.016047534783752159 -0.023637120043495101 0 -0.015906551093724828 -0.024226589215415543 0 -0.015224439116995742 -0.023773701204685405 0 -0.014568849857453107 -0.025545419823787847 0 -0.015224439116995742 -0.023773701204685405 0 -0.013987880610136724 -0.024028337889252724 0 -0.01284957047792604 -0.024650019588446936 0 -0.014568849857453107 -0.025545419823787847 0 -0.013987880610136724 -0.024028337889252724 0 -0.039354721022247054 -0.035823419702278307 0 -0.034365662913399424 -0.037841502563205349 0 -0.035810263308742825 -0.03508449732509767 0 -0.040251414236573795 -0.032549834198390991 0 -0.034940349435031208 -0.038808595314768532 0 -0.04000244469184723 -0.04057893025534267 0 -0.039354721022247054 -0.035823419702278307 0 -0.034365662913399424 -0.037841502563205349 0 -0.037201524632332922 -0.038968053668860012 0 -0.035143905804780433 -0.040558843629264776 0 -0.034365662913399424 -0.037841502563205349 0 -0.040251414236573795 -0.032549834198390991 0 -0.038029658114945346 -0.020144899890514725 0 -0.042110326578417311 -0.021809931247122313 0 -0.042004280801891121 -0.020920142112943668 0 -0.041292218854290311 -0.021434649495334638 0 -0.041623878067678415 -0.016679531690149348 0 -0.038029658114945346 -0.020144899890514725 0 -0.037117556891603148 -0.012301102936171704 0 -0.035585882230964712 -0.012032960182740308 0 -0.034905664129625265 -0.012695724077073893 0 -0.037117556891603148 -0.012301102936171704 0 -0.035585882230964712 -0.012032960182740308 0 -0.034151674794752285 -0.010620592267528525 0 -0.035143905804780433 -0.040558843629264776 0 -0.032636180030004139 -0.038268687764618954 0 -0.030267275854070484 -0.038470442526950088 0 -0.038029658114945346 -0.020144899890514725 0 -0.031182681363426609 -0.024299857032912792 0 -0.034905664129625265 -0.012695724077073893 0 -0.034897248923989092 -0.012218937150991054 0 -0.034463156280208497 -0.012400757160845417 0 -0.033980799352045385 -0.012780691483017116 0 -0.034905664129625265 -0.012695724077073893 0 -0.034463156280208497 -0.012400757160845417 0 -0.035585882230964712 -0.012032960182740308 0 -0.034905664129625265 -0.012695724077073893 0 -0.034897248923989092 -0.012218937150991054 0 -0.035585882230964712 -0.012032960182740308 0 -0.034897248923989092 -0.012218937150991054 0 -0.034820601283988908 -0.011725142848906137 0 -0.034897248923989092 -0.012218937150991054 0 -0.034507674222028967 -0.012001584371117207 0 -0.034463156280208497 -0.012400757160845417 0 -0.034897248923989092 -0.012218937150991054 0 -0.034820601283988908 -0.011725142848906137 0 -0.034507674222028967 -0.012001584371117207 0 -0.034820601283988908 -0.011725142848906137 0 -0.034439231648408959 -0.01150486236313188 0 -0.034507674222028967 -0.012001584371117207 0 -0.035585882230964712 -0.012032960182740308 0 -0.034820601283988908 -0.011725142848906137 0 -0.034151674794752285 -0.010620592267528525 0 -0.035143905804780433 -0.040558843629264776 0 -0.032636180030004139 -0.038268687764618954 0 -0.034365662913399424 -0.037841502563205349 0 -0.032636180030004139 -0.038268687764618954 0 -0.030267275854070484 -0.038470442526950088 0 -0.030512037826228997 -0.038200336304197627 0 -0.032636180030004139 -0.038268687764618954 0 -0.034365662913399424 -0.037841502563205349 0 -0.032661109169245653 -0.035642473108457223 0 -0.034365662913399424 -0.037841502563205349 0 -0.032661109169245653 -0.035642473108457223 0 -0.035810263308742825 -0.03508449732509767 0 -0.032636180030004139 -0.038268687764618954 0 -0.030512037826228997 -0.038200336304197627 0 -0.032661109169245653 -0.035642473108457223 0 -0.028506770666014761 -0.032890999879931562 0 -0.032345552162503788 -0.035807304589982554 0 -0.02662691229975692 -0.036734651606510599 0 -0.027976603783607494 -0.039157631731684982 0 -0.028708654903644742 -0.034367888633456717 0 -0.02662691229975692 -0.036734651606510599 0 -0.027602570787495648 -0.039570209087510508 0 -0.023961033548549664 -0.03514344036670345 0 -0.02662691229975692 -0.036734651606510599 0 -0.027602570787495648 -0.039570209087510508 0 -0.027976603783607494 -0.039157631731684982 0 -0.031182681363426609 -0.024299857032912792 0 -0.028506770666014761 -0.032890999879931562 0 -0.033739994707898485 -0.008399604492442609 0 -0.031182681363426609 -0.024299857032912792 0 -0.03226050382404623 -0.01327684896320467 0 -0.034151674794752285 -0.010620592267528525 0 -0.033488235583233897 -0.012115510360210049 0 -0.025314568682597901 -0.016525857546789639 0 -0.031182681363426609 -0.024299857032912792 0 -0.034820601283988908 -0.011725142848906137 0 -0.034151674794752285 -0.010620592267528525 0 -0.034439231648408959 -0.01150486236313188 0 -0.034151674794752285 -0.010620592267528525 0 -0.033937288335529857 -0.01163111376791947 0 -0.033488235583233897 -0.012115510360210049 0 -0.034151674794752285 -0.010620592267528525 0 -0.034193289469488151 -0.011369069254028938 0 -0.033937288335529857 -0.01163111376791947 0 -0.02300456597424301 -0.020521878996605417 0 -0.022454414890373638 -0.021273769443839675 0 -0.022858673274998381 -0.020840240559279993 0 -0.034151674794752285 -0.010620592267528525 0 -0.034193289469488151 -0.011369069254028938 0 -0.034439231648408959 -0.01150486236313188 0 -0.032086335555668151 -0.013241341038493991 0 -0.03226050382404623 -0.01327684896320467 0 -0.032072133523287645 -0.013667418213082122 0 -0.033937288335529857 -0.01163111376791947 0 -0.034196019351978642 -0.011689640029033031 0 -0.0339387847062552 -0.011997791413131441 0 -0.034196019351978642 -0.011689640029033031 0 -0.034507674222028967 -0.012001584371117207 0 -0.0339387847062552 -0.011997791413131441 0 -0.034439231648408959 -0.01150486236313188 0 -0.034196019351978642 -0.011689640029033031 0 -0.034507674222028967 -0.012001584371117207 0 -0.034193289469488151 -0.011369069254028938 0 -0.033937288335529857 -0.01163111376791947 0 -0.034196019351978642 -0.011689640029033031 0 -0.034193289469488151 -0.011369069254028938 0 -0.034439231648408959 -0.01150486236313188 0 -0.034196019351978642 -0.011689640029033031 0 -0.034507674222028967 -0.012001584371117207 0 -0.034019192430432943 -0.012298581546387863 0 -0.0339387847062552 -0.011997791413131441 0 -0.034507674222028967 -0.012001584371117207 0 -0.034019192430432943 -0.012298581546387863 0 -0.034463156280208497 -0.012400757160845417 0 -0.033937288335529857 -0.01163111376791947 0 -0.033488235583233897 -0.012115510360210049 0 -0.0339387847062552 -0.011997791413131441 0 -0.034019192430432943 -0.012298581546387863 0 -0.033488235583233897 -0.012115510360210049 0 -0.0339387847062552 -0.011997791413131441 0 -0.033980799352045385 -0.012780691483017116 0 -0.034019192430432943 -0.012298581546387863 0 -0.033294834127339967 -0.012632527610745788 0 -0.034019192430432943 -0.012298581546387863 0 -0.033488235583233897 -0.012115510360210049 0 -0.033294834127339967 -0.012632527610745788 0 -0.033980799352045385 -0.012780691483017116 0 -0.034019192430432943 -0.012298581546387863 0 -0.034463156280208497 -0.012400757160845417 0 -0.03226050382404623 -0.01327684896320467 0 -0.033488235583233897 -0.012115510360210049 0 -0.033294834127339967 -0.012632527610745788 0 -0.025314568682597901 -0.016525857546789639 0 -0.022781897844766037 -0.021055237380854248 0 -0.022981364133815501 -0.020528734290569253 0 -0.022858673274998381 -0.020840240559279993 0 -0.023198128839696842 -0.020868960674720393 0 -0.022981364133815501 -0.020528734290569253 0 -0.02341191250813298 -0.020380987216233805 0 -0.023198128839696842 -0.020868960674720393 0 -0.031182681363426609 -0.024299857032912792 0 -0.019074388851621729 -0.0280812314061104 0 -0.027602570787495648 -0.039570209087510508 0 -0.020159270521397214 -0.035724982153362214 0 -0.023961033548549664 -0.03514344036670345 0 -0.022858673274998381 -0.020840240559279993 0 -0.023198128839696842 -0.020868960674720393 0 -0.023254397217452989 -0.021742424529928767 0 -0.022454414890373638 -0.021273769443839675 0 -0.022858673274998381 -0.020840240559279993 0 -0.023254397217452989 -0.021742424529928767 0 -0.020159270521397214 -0.035724982153362214 0 -0.023961033548549664 -0.03514344036670345 0 -0.021631942860805747 -0.03203660052250186 0 -0.019074388851621729 -0.0280812314061104 0 -0.020359063579965208 -0.033758708144775641 0 -0.023961033548549664 -0.03514344036670345 0 -0.021631942860805747 -0.03203660052250186 0 -0.024781721760591936 -0.032110705122569139 0 -0.019419208238593472 -0.031915349403046141 0 -0.020623408408015818 -0.034111020635745178 0 -0.021631942860805747 -0.03203660052250186 0 -0.019756049068435751 -0.029640797505869974 0 -0.021631942860805747 -0.03203660052250186 0 -0.02158782980342263 -0.029326413670253664 0 -0.02158782980342263 -0.029326413670253664 0 -0.023419355565448437 -0.030458827136953665 0 -0.022988024534155761 -0.028054713134425244 0 -0.021631942860805747 -0.03203660052250186 0 -0.023419355565448437 -0.030458827136953665 0 -0.024781721760591936 -0.032110705122569139 0 -0.021631942860805747 -0.03203660052250186 0 -0.02158782980342263 -0.029326413670253664 0 -0.023419355565448437 -0.030458827136953665 0 -0.023419355565448437 -0.030458827136953665 0 -0.025939369072078763 -0.031012751137465811 0 -0.024781721760591936 -0.032110705122569139 0 -0.027362111472797088 -0.030793497407000568 0 -0.025412082254646726 -0.031918926608324134 0 -0.023419355565448437 -0.030458827136953665 0 -0.025939369072078763 -0.031012751137465811 0 -0.022988024534155761 -0.028054713134425244 0 -0.02662691229975692 -0.036734651606510599 0 -0.027677031319730237 -0.030623771697548444 0 -0.028708654903644742 -0.034367888633456717 0 -0.02662691229975692 -0.036734651606510599 0 -0.026782774225285154 -0.030548237953572737 0 -0.024781721760591936 -0.032110705122569139 0 -0.027677031319730237 -0.030623771697548444 0 -0.028708654903644742 -0.034367888633456717 0 -0.029790024698484352 -0.032215504450367055 0 -0.026647496900561608 -0.03628024744920913 0 -0.027362111472797088 -0.030793497407000568 0 -0.02662691229975692 -0.036734651606510599 0 -0.023961033548549664 -0.03514344036670345 0 -0.024781721760591936 -0.032110705122569139 0 -0.0298482287422965 -0.038602543612582453 0 -0.032620112189631248 -0.035514938283559859 0 -0.032634899080831954 -0.033245061880839422 0 -0.028506770666014761 -0.032890999879931562 0 -0.031891345581327175 -0.034231273276766457 0 -0.027976603783607494 -0.039157631731684982 0 -0.028708654903644742 -0.034367888633456717 0 -0.031518996594163039 -0.033162526511549384 0 -0.032661109169245653 -0.035642473108457223 0 -0.035589852203485553 -0.032303879035824219 0 -0.035810263308742825 -0.03508449732509767 0 -0.032345552162503788 -0.035807304589982554 0 -0.03530434655529642 -0.03259478613588504 0 -0.032620112189631248 -0.035514938283559859 0 -0.032634899080831954 -0.033245061880839422 0 -0.035589852203485553 -0.032303879035824219 0 -0.028708654903644742 -0.034367888633456717 0 -0.031518996594163039 -0.033162526511549384 0 -0.029790024698484352 -0.032215504450367055 0 -0.031518996594163039 -0.033162526511549384 0 -0.029790024698484352 -0.032215504450367055 0 -0.030930778841464588 -0.030180969972184224 0 -0.031891345581327175 -0.034231273276766457 0 -0.035345266667621743 -0.027090822451256415 0 -0.027677031319730237 -0.030623771697548444 0 -0.029790024698484352 -0.032215504450367055 0 -0.030930778841464588 -0.030180969972184224 0 -0.031518996594163039 -0.033162526511549384 0 -0.030930778841464588 -0.030180969972184224 0 -0.035412907142592952 -0.027194606598271033 0 -0.027677031319730237 -0.030623771697548444 0 -0.030930778841464588 -0.030180969972184224 0 -0.032457726180809103 -0.027364138455414255 0 -0.027362111472797088 -0.030793497407000568 0 -0.031879009243327719 -0.028513903051973221 0 -0.030930778841464588 -0.030180969972184224 0 -0.032457726180809103 -0.027364138455414255 0 -0.035412907142592952 -0.027194606598271033 0 -0.036103444608811236 -0.030280947911021431 0 -0.038519199149396811 -0.031180087087206453 0 -0.035589852203485553 -0.032303879035824219 0 -0.032634899080831954 -0.033245061880839422 0 -0.036103444608811236 -0.030280947911021431 0 -0.035412907142592952 -0.027194606598271033 0 -0.036103444608811236 -0.030280947911021431 0 -0.038736785717056681 -0.028396671005080837 0 -0.035412907142592952 -0.027194606598271033 0 -0.036103444608811236 -0.030280947911021431 0 -0.038736785717056681 -0.028396671005080837 0 -0.038519199149396811 -0.031180087087206453 0 -0.040370186267236034 -0.032788181799233339 0 -0.038519199149396811 -0.031180087087206453 0 -0.037916775199845688 -0.033436526781565168 0 -0.038519199149396811 -0.031180087087206453 0 -0.037916775199845688 -0.033436526781565168 0 -0.035589852203485553 -0.032303879035824219 0 -0.039354721022247054 -0.035823419702278307 0 -0.040370186267236034 -0.032788181799233339 0 -0.037916775199845688 -0.033436526781565168 0 -0.032634899080831954 -0.033245061880839422 0 -0.036103444608811236 -0.030280947911021431 0 -0.035589852203485553 -0.032303879035824219 0 -0.037916775199845688 -0.033436526781565168 0 -0.035589852203485553 -0.032303879035824219 0 -0.035810263308742825 -0.03508449732509767 0 -0.039354721022247054 -0.035823419702278307 0 -0.037916775199845688 -0.033436526781565168 0 -0.035810263308742825 -0.03508449732509767 0 -0.035948223934194452 -0.033916711311147686 0 -0.035044165800201497 -0.032418521339059155 0 -0.033868096783394377 -0.033514710339541176 0 -0.037826636713997837 -0.029007152460100081 0 -0.033499971357896535 -0.031212505582492334 0 -0.037053539621002073 -0.029699024593826836 0 -0.035255739407731378 -0.031068811807886017 0 -0.033006047213069725 -0.028880747567540454 0 -0.035044165800201497 -0.032418521339059155 0 -0.033868096783394377 -0.033514710339541176 0 -0.033250644732358399 -0.032330826391642406 0 -0.037826636713997837 -0.029007152460100081 0 -0.036057018564253744 -0.027155667449953267 0 -0.039678135576762891 -0.022371161909420716 0 -0.037365431080084617 -0.024142835180425874 0 -0.038722992232594199 -0.024357481419254392 0 -0.037380912969371731 -0.024076635728060063 0 -0.038722992232594199 -0.024357481419254392 0 -0.037701422104756611 -0.026206125834966894 0 -0.036057018564253744 -0.027155667449953267 0 -0.037033481156529144 -0.026736174407153392 0 -0.038736785717056681 -0.028396671005080837 0 -0.037701422104756611 -0.026206125834966894 0 -0.035412907142592952 -0.027194606598271033 0 -0.040113661901757663 -0.026310310337636068 0 -0.038722992232594199 -0.024357481419254392 0 -0.037701422104756611 -0.026206125834966894 0 -0.040113661901757663 -0.026310310337636068 0 -0.038736785717056681 -0.028396671005080837 0 -0.037701422104756611 -0.026206125834966894 0 -0.031879009243327719 -0.028513903051973221 0 -0.036057018564253744 -0.027155667449953267 0 -0.037380912969371731 -0.024076635728060063 0 -0.037701422104756611 -0.026206125834966894 0 -0.035412907142592952 -0.027194606598271033 0 -0.032457726180809103 -0.027364138455414255 0 -0.037380912969371731 -0.024076635728060063 0 -0.035412907142592952 -0.027194606598271033 0 -0.036057018564253744 -0.027155667449953267 0 -0.026993367203751235 -0.029096956522763371 0 -0.031152987852473106 -0.029800537581607365 0 -0.033937413671733245 -0.027687094477616053 0 -0.028887462030820744 -0.026876821152019257 0 -0.028383201687848209 -0.031901215184283134 0 -0.031152987852473106 -0.029800537581607365 0 -0.028887462030820744 -0.026876821152019257 0 -0.033868096783394377 -0.033514710339541176 0 -0.033250644732358399 -0.032330826391642406 0 -0.031780710726034708 -0.033101699682776979 0 -0.035255739407731378 -0.031068811807886017 0 -0.033006047213069725 -0.028880747567540454 0 -0.028759441291711731 -0.030031785849677233 0 -0.033499971357896535 -0.031212505582492334 0 -0.028817355480925348 -0.032580875038797606 0 -0.033006047213069725 -0.028880747567540454 0 -0.028960172908311922 -0.028066594362451947 0 -0.028759441291711731 -0.030031785849677233 0 -0.033250644732358399 -0.032330826391642406 0 -0.031780710726034708 -0.033101699682776979 0 -0.031895657320440425 -0.032007517416651379 0 -0.024325499433956635 -0.034873954488448579 0 -0.024762126865776148 -0.035253454125682392 0 -0.022766117366338427 -0.035024022930255937 0 -0.024819761963419194 -0.034712382764138405 0 -0.024259345712227369 -0.034619909871457598 0 -0.024325499433956635 -0.034873954488448579 0 -0.024892788907756969 -0.034118026498733252 0 -0.028719909837164596 -0.033384758687739199 0 -0.027912444296729979 -0.033798154630232148 0 -0.026945467874022196 -0.033600464754421674 0 -0.028022198857440717 -0.032735946716221924 0 -0.028817355480925348 -0.032580875038797606 0 -0.024892788907756969 -0.034118026498733252 0 -0.028817355480925348 -0.032580875038797606 0 -0.028719909837164596 -0.033384758687739199 0 -0.024819761963419194 -0.034712382764138405 0 -0.024325499433956635 -0.034873954488448579 0 -0.024762126865776148 -0.035253454125682392 0 -0.028817355480925348 -0.032580875038797606 0 -0.026993367203751235 -0.029096956522763371 0 -0.027362111472797088 -0.030793497407000568 0 -0.026993367203751235 -0.029096956522763371 0 -0.025939369072078763 -0.031012751137465811 0 -0.026258581403101292 -0.025734355686848565 0 -0.022988024534155761 -0.028054713134425244 0 -0.026258581403101292 -0.025734355686848565 0 -0.022988024534155761 -0.028054713134425244 0 -0.020536895714890188 -0.024977480919807251 0 -0.022988024534155761 -0.028054713134425244 0 -0.02023099750672841 -0.027705765553227311 0 -0.020536895714890188 -0.024977480919807251 0 -0.02158782980342263 -0.029326413670253664 0 -0.022988024534155761 -0.028054713134425244 0 -0.02023099750672841 -0.027705765553227311 0 -0.026993367203751235 -0.029096956522763371 0 -0.021327752269624693 -0.029679777127781148 0 -0.02392907639797779 -0.034848131636056087 0 -0.023101900429070558 -0.03466898272924436 0 -0.023850092474131411 -0.034255047207492138 0 -0.024259345712227369 -0.034619909871457598 0 -0.023183955055072567 -0.034468713520458709 0 -0.022766117366338427 -0.035024022930255937 0 -0.024259345712227369 -0.034619909871457598 0 -0.024325499433956635 -0.034873954488448579 0 -0.022766117366338427 -0.035024022930255937 0 -0.024892788907756969 -0.034118026498733252 0 -0.023034717616774534 -0.034524741183756411 0 -0.023101900429070558 -0.03466898272924436 0 -0.023294882717324866 -0.033896276712702636 0 -0.022198980152743766 -0.034390196124537621 0 -0.023101900429070558 -0.03466898272924436 0 -0.023294882717324866 -0.033896276712702636 0 -0.023850092474131411 -0.034255047207492138 0 -0.023706357951449531 -0.040068357593812574 0 -0.022405796581210582 -0.03925910158789131 0 -0.024670710938994176 -0.046240280969709321 0 -0.023631244914417673 -0.046737265831040042 0 -0.023568147663458199 -0.045990744401579221 0 -0.024670710938994176 -0.046240280969709321 0 -0.024985818097817261 -0.045151114621344149 0 -0.023849656593602161 -0.045261712931405108 0 -0.024670710938994176 -0.046240280969709321 0 -0.023568147663458199 -0.045990744401579221 0 -0.023849656593602161 -0.045261712931405108 0 -0.024985818097817261 -0.045151114621344149 0 -0.026622344460846929 -0.045328164853272505 0 -0.025832105802954954 -0.044765304339081595 0 -0.023706357951449531 -0.040068357593812574 0 -0.026535579660424878 -0.039190428636085989 0 -0.024670710938994176 -0.046240280969709321 0 -0.024985818097817261 -0.045151114621344149 0 -0.026622344460846929 -0.045328164853272505 0 -0.026622344460846929 -0.045328164853272505 0 -0.026711747280954205 -0.044497688670077605 0 -0.025832105802954954 -0.044765304339081595 0 -0.023850092474131411 -0.034255047207492138 0 -0.024383293412123253 -0.034479001348086916 0 -0.024502496839913568 -0.033437263305844137 0 -0.023294882717324866 -0.033896276712702636 0 -0.023850092474131411 -0.034255047207492138 0 -0.024502496839913568 -0.033437263305844137 0 -0.02392907639797779 -0.034848131636056087 0 -0.023850092474131411 -0.034255047207492138 0 -0.024383293412123253 -0.034479001348086916 0 -0.028719909837164596 -0.033384758687739199 0 -0.026535579660424878 -0.039190428636085989 0 -0.030101124220542841 -0.035987961155800725 0 -0.030191012390264244 -0.035951447480941368 0 -0.030111905475865289 -0.035911073062259699 0 -0.033250644732358399 -0.032330826391642406 0 -0.031895657320440425 -0.032007517416651379 0 -0.033652657118633959 -0.030620523045033949 0 -0.028719909837164596 -0.033384758687739199 0 -0.031972460375598588 -0.033244451655531755 0 -0.030111905475865289 -0.035911073062259699 0 -0.030215141949715817 -0.035903755375055586 0 -0.030259953330062681 -0.035856803258682804 0 -0.026535579660424878 -0.039190428636085989 0 -0.030563039535569873 -0.040822726772633669 0 -0.026535579660424878 -0.039190428636085989 0 -0.026360128004044737 -0.045325573602946888 0 -0.030191012390264244 -0.035951447480941368 0 -0.030111905475865289 -0.035911073062259699 0 -0.030215141949715817 -0.035903755375055586 0 -0.030191012390264244 -0.035951447480941368 0 -0.030215141949715817 -0.035903755375055586 0 -0.030303755209682738 -0.03589723733190462 0 -0.036394864541141735 -0.031019597247593272 0 -0.033652657118633959 -0.030620523045033949 0 -0.035378170492892963 -0.029255934968932459 0 -0.031972460375598588 -0.033244451655531755 0 -0.034835653117261084 -0.033432254226471475 0 -0.030215141949715817 -0.035903755375055586 0 -0.030303755209682738 -0.03589723733190462 0 -0.030259953330062681 -0.035856803258682804 0 -0.034835653117261084 -0.033432254226471475 0 -0.030563039535569873 -0.040822726772633669 0 -0.036394864541141735 -0.031019597247593272 0 -0.035044165800201497 -0.032418521339059155 0 -0.033652657118633959 -0.030620523045033949 0 -0.035044165800201497 -0.032418521339059155 0 -0.033250644732358399 -0.032330826391642406 0 -0.033652657118633959 -0.030620523045033949 0 -0.017665287493412687 -0.038736241913798597 0 -0.0160289724765953 -0.037849136846006173 0 -0.01881765707020977 -0.03738558599497456 0 -0.013842308402666023 -0.024983887292936026 0 -0.015289640853448971 -0.026566628377853226 0 -0.015205968648638673 -0.02428837836081876 0 -0.017665287493412687 -0.038736241913798597 0 -0.018588504609805948 -0.038326484720322733 0 -0.01881765707020977 -0.03738558599497456 0 -0.015908313789453878 -0.031830917253210578 0 -0.018080258898982335 -0.03279119475737223 0 -0.013159915688022843 -0.036132447300007788 0 -0.015908313789453878 -0.031830917253210578 0 -0.014988798776024782 -0.039928245834358354 0 -0.017665287493412687 -0.038736241913798597 0 -0.0160289724765953 -0.037849136846006173 0 -0.013159915688022843 -0.036132447300007788 0 -0.015697508843385537 -0.044114254866094472 0 -0.0098962827062168551 -0.026944608501966529 0 -0.013842308402666023 -0.024983887292936026 0 -0.012528347712844674 -0.027403053159721729 0 -0.0092980690080617674 -0.028202680781132101 0 -0.0098962827062168551 -0.026944608501966529 0 -0.012528347712844674 -0.027403053159721729 0 -0.0092980690080617674 -0.028202680781132101 0 -0.013008321088468413 -0.030062934571919733 0 -0.012528347712844674 -0.027403053159721729 0 -0.013008321088468413 -0.030062934571919733 0 -0.015015454472100849 -0.028825028685941077 0 -0.012528347712844674 -0.027403053159721729 0 -0.013842308402666023 -0.024983887292936026 0 -0.012528347712844674 -0.027403053159721729 0 -0.015289640853448971 -0.026566628377853226 0 -0.015015454472100849 -0.028825028685941077 0 -0.012528347712844674 -0.027403053159721729 0 -0.015289640853448971 -0.026566628377853226 0 -0.015015454472100849 -0.028825028685941077 0 -0.017594685994223806 -0.02803153697849858 0 -0.015289640853448971 -0.026566628377853226 0 -0.017594685994223806 -0.02803153697849858 0 -0.015289640853448971 -0.026566628377853226 0 -0.017534454579420069 -0.025873429544596094 0 -0.017594685994223806 -0.02803153697849858 0 -0.02023099750672841 -0.027705765553227311 0 -0.018969194243696016 -0.026649245806593461 0 -0.019756049068435751 -0.029640797505869974 0 -0.017594685994223806 -0.02803153697849858 0 -0.02023099750672841 -0.027705765553227311 0 -0.017594685994223806 -0.02803153697849858 0 -0.018969194243696016 -0.026649245806593461 0 -0.017534454579420069 -0.025873429544596094 0 -0.02023099750672841 -0.027705765553227311 0 -0.018969194243696016 -0.026649245806593461 0 -0.020536895714890188 -0.024977480919807251 0 -0.023183955055072567 -0.034468713520458709 0 -0.022766117366338427 -0.035024022930255937 0 -0.022198980152743766 -0.034390196124537621 0 -0.022766117366338427 -0.035024022930255937 0 -0.020980310655289665 -0.034739322392985647 0 -0.021931748174890426 -0.03431901659200938 0 -0.018969194243696016 -0.026649245806593461 0 -0.020536895714890188 -0.024977480919807251 0 -0.017534454579420069 -0.025873429544596094 0 -0.023034717616774534 -0.034524741183756411 0 -0.022374907964353079 -0.034419325214211177 0 -0.022766117366338427 -0.035024022930255937 0 -0.022198980152743766 -0.034390196124537621 0 -0.021931748174890426 -0.03431901659200938 0 -0.020536895714890188 -0.024977480919807251 0 -0.017534454579420069 -0.025873429544596094 0 -0.015205968648638673 -0.02428837836081876 0 -0.021327752269624693 -0.029679777127781148 0 -0.018080258898982335 -0.03279119475737223 0 -0.018080258898982335 -0.03279119475737223 0 -0.021461832246212384 -0.036294571980396262 0 -0.015289640853448971 -0.026566628377853226 0 -0.017534454579420069 -0.025873429544596094 0 -0.015205968648638673 -0.02428837836081876 0 -0.020508124437536274 -0.042324039310519555 0 -0.022405796581210582 -0.03925910158789131 0 -0.018588504609805948 -0.038326484720322733 0 -0.01881765707020977 -0.03738558599497456 0 -0.020426150442940598 -0.037535477286859943 0 -0.01881765707020977 -0.03738558599497456 0 -0.02170585803304919 -0.036971384093445712 0 -0.020426150442940598 -0.037535477286859943 0 -0.021422535302422479 -0.047064643915855207 0 -0.02197796138592523 -0.04682645739359878 0 -0.023631244914417673 -0.046737265831040042 0 -0.02197796138592523 -0.04682645739359878 0 -0.022806375119943559 -0.046242448645714813 0 -0.022291709350120176 -0.045936012223233666 0 -0.02197796138592523 -0.04682645739359878 0 -0.021717491378088448 -0.045853889864022133 0 -0.022291709350120176 -0.045936012223233666 0 -0.02197796138592523 -0.04682645739359878 0 -0.021717491378088448 -0.045853889864022133 0 -0.021130023741018258 -0.045815933527654722 0 -0.023294882717324866 -0.033896276712702636 0 -0.022562699476897125 -0.034119721515325024 0 -0.022198980152743766 -0.034390196124537621 0 -0.02197796138592523 -0.04682645739359878 0 -0.023631244914417673 -0.046737265831040042 0 -0.022806375119943559 -0.046242448645714813 0 -0.022562699476897125 -0.034119721515325024 0 -0.022198980152743766 -0.034390196124537621 0 -0.021931748174890426 -0.03431901659200938 0 -0.022405796581210582 -0.03925910158789131 0 -0.021461832246212384 -0.036294571980396262 0 -0.023631244914417673 -0.046737265831040042 0 -0.022806375119943559 -0.046242448645714813 0 -0.023568147663458199 -0.045990744401579221 0 -0.023568147663458199 -0.045990744401579221 0 -0.02285340953409451 -0.045491817316674434 0 -0.023849656593602161 -0.045261712931405108 0 -0.022806375119943559 -0.046242448645714813 0 -0.023568147663458199 -0.045990744401579221 0 -0.02285340953409451 -0.045491817316674434 0 -0.022806375119943559 -0.046242448645714813 0 -0.02285340953409451 -0.045491817316674434 0 -0.022291709350120176 -0.045936012223233666 0 -0.02285340953409451 -0.045491817316674434 0 -0.023849656593602161 -0.045261712931405108 0 -0.023095968074190416 -0.044303846442651992 0 -0.021717491378088448 -0.045853889864022133 0 -0.02132551426564978 -0.045246699197699566 0 -0.021130023741018258 -0.045815933527654722 0 -0.021717491378088448 -0.045853889864022133 0 -0.022291709350120176 -0.045936012223233666 0 -0.022086987453327649 -0.045313837388552498 0 -0.02285340953409451 -0.045491817316674434 0 -0.022291709350120176 -0.045936012223233666 0 -0.022086987453327649 -0.045313837388552498 0 -0.022086987453327649 -0.045313837388552498 0 -0.021850812373285441 -0.044606321688301039 0 -0.022451182455789462 -0.044737903511845645 0 -0.02285340953409451 -0.045491817316674434 0 -0.022086987453327649 -0.045313837388552498 0 -0.022451182455789462 -0.044737903511845645 0 -0.022086987453327649 -0.045313837388552498 0 -0.02132551426564978 -0.045246699197699566 0 -0.021850812373285441 -0.044606321688301039 0 -0.021717491378088448 -0.045853889864022133 0 -0.022086987453327649 -0.045313837388552498 0 -0.02132551426564978 -0.045246699197699566 0 -0.017220671626897693 -0.046979617069322126 0 -0.01972036992208577 -0.045528780146812518 0 -0.015739633533901964 -0.049469048998515626 0 -0.015090074035315456 -0.047753697077923679 0 -0.016774830625307831 -0.047313229033991107 0 -0.020546869259503733 -0.045019792015793716 0 -0.01972036992208577 -0.045528780146812518 0 -0.020594686660628681 -0.045504806775584578 0 -0.020270115596855421 -0.045993305354709614 0 -0.020906850599034021 -0.044650134265546468 0 -0.02132551426564978 -0.045246699197699566 0 -0.020594686660628681 -0.045504806775584578 0 -0.02092981271483588 -0.044585768743762397 0 -0.020594686660628681 -0.045504806775584578 0 -0.020270115596855421 -0.045993305354709614 0 -0.021130023741018258 -0.045815933527654722 0 -0.02132551426564978 -0.045246699197699566 0 -0.020594686660628681 -0.045504806775584578 0 -0.021130023741018258 -0.045815933527654722 0 -0.018833429951656343 -0.047466783366635804 0 -0.021422535302422479 -0.047064643915855207 0 -0.019736263513716892 -0.045669827922899593 0 -0.022806048470919504 -0.046711793785288107 0 -0.017220671626897693 -0.046979617069322126 0 -0.02197796138592523 -0.04682645739359878 0 -0.020270115596855421 -0.045993305354709614 0 -0.021130023741018258 -0.045815933527654722 0 -0.015697508843385537 -0.044114254866094472 0 -0.020508124437536274 -0.042324039310519555 0 -0.021422535302422479 -0.047064643915855207 0 -0.02197796138592523 -0.04682645739359878 0 -0.019736263513716892 -0.045669827922899593 0 -0.015697508843385537 -0.044114254866094472 0 -0.017220671626897693 -0.046979617069322126 0 -0.012409358659011504 -0.046618665736091504 0 -0.013419635005560588 -0.047486039807915596 0 -0.014119004078610359 -0.046064506646678077 0 -0.012409358659011504 -0.046618665736091504 0 -0.012479397612309677 -0.045308448429150848 0 -0.014119004078610359 -0.046064506646678077 0 -0.013307098077392016 -0.048344045205159197 0 -0.015739633533901964 -0.049469048998515626 0 -0.015090074035315456 -0.047753697077923679 0 -0.01293459951829159 -0.046799046490173982 0 -0.017220671626897693 -0.046979617069322126 0 -0.015378579261721936 -0.046231143629985108 0 -0.013773914948013222 -0.046741606014720216 0 -0.013060626330222791 -0.045231153388586909 0 -0.013307098077392016 -0.048344045205159197 0 -0.015090074035315456 -0.047753697077923679 0 -0.013773914948013222 -0.046741606014720216 0 -0.015090074035315456 -0.047753697077923679 0 -0.015378579261721936 -0.046231143629985108 0 -0.013773914948013222 -0.046741606014720216 0 -0.01309716348671567 -0.049949733752189751 0 -0.012298021315883065 -0.049139688507475007 0 -0.012179062233237829 -0.050234164689766513 0 -0.015896460737147393 -0.048695732485362568 0 -0.012898987981266669 -0.047559201257557353 0 -0.015378579261721936 -0.046231143629985108 0 -0.015455622581755805 -0.044477482670939039 0 -0.013060626330222791 -0.045231153388586909 0 -0.018346637551839781 -0.046939797618492853 0 -0.018616781405830986 -0.047204742366406253 0 -0.018774375415310591 -0.046806128462519282 0 -0.015896460737147393 -0.048695732485362568 0 -0.020192146478252227 -0.047623394833115187 0 -0.015378579261721936 -0.046231143629985108 0 -0.015455622581755805 -0.044477482670939039 0 -0.017154677753736657 -0.046297901346303051 0 -0.015896460737147393 -0.048695732485362568 0 -0.019658050495526665 -0.044790619975202693 0 -0.015378579261721936 -0.046231143629985108 0 -0.017154677753736657 -0.046297901346303051 0 -0.016774830625307831 -0.047313229033991107 0 -0.015090074035315456 -0.047753697077923679 0 -0.015378579261721936 -0.046231143629985108 0 -0.016774830625307831 -0.047313229033991107 0 -0.019658050495526665 -0.044790619975202693 0 -0.01972036992208577 -0.045528780146812518 0 -0.021081975155269016 -0.044266156530847083 0 -0.02092981271483588 -0.044585768743762397 0 -0.021850812373285441 -0.044606321688301039 0 -0.021182838695196975 -0.043895705817457206 0 -0.021081975155269016 -0.044266156530847083 0 -0.020925884393736306 -0.044592907051173872 0 -0.020172321158815152 -0.044849716466700801 0 -0.01972036992208577 -0.045528780146812518 0 -0.02132551426564978 -0.045246699197699566 0 -0.02092981271483588 -0.044585768743762397 0 -0.021850812373285441 -0.044606321688301039 0 -0.021182838695196975 -0.043895705817457206 0 -0.021081975155269016 -0.044266156530847083 0 -0.021850812373285441 -0.044606321688301039 0 -0.019658050495526665 -0.044790619975202693 0 -0.021402071549750445 -0.044846351421990678 0 -0.022451182455789462 -0.044737903511845645 0 -0.022027206424117273 -0.043891667882248797 0 -0.023095968074190416 -0.044303846442651992 0 -0.021850812373285441 -0.044606321688301039 0 -0.022451182455789462 -0.044737903511845645 0 -0.022027206424117273 -0.043891667882248797 0 -0.022027206424117273 -0.043891667882248797 0 -0.023095968074190416 -0.044303846442651992 0 -0.022626160766897777 -0.043429302452070509 0 -0.021239238211511868 -0.043942565604387696 0 -0.021850812373285441 -0.044606321688301039 0 -0.022027206424117273 -0.043891667882248797 0 -0.023849656593602161 -0.045261712931405108 0 -0.023095968074190416 -0.044303846442651992 0 -0.024279681879102358 -0.04412092485236177 0 -0.02285340953409451 -0.045491817316674434 0 -0.022451182455789462 -0.044737903511845645 0 -0.023095968074190416 -0.044303846442651992 0 -0.023095968074190416 -0.044303846442651992 0 -0.023549415782229889 -0.043129831683557558 0 -0.024279681879102358 -0.04412092485236177 0 -0.023549415782229889 -0.043129831683557558 0 -0.023511680950700515 -0.041671982561101807 0 -0.02449402491950306 -0.042636607052442765 0 -0.023549415782229889 -0.043129831683557558 0 -0.022626160766897777 -0.043429302452070509 0 -0.02189049859117519 -0.042203222720741417 0 -0.023095968074190416 -0.044303846442651992 0 -0.023549415782229889 -0.043129831683557558 0 -0.022626160766897777 -0.043429302452070509 0 -0.021239238211511868 -0.043942565604387696 0 -0.022027206424117273 -0.043891667882248797 0 -0.02189049859117519 -0.042203222720741417 0 -0.019658050495526665 -0.044790619975202693 0 -0.020192146478252227 -0.047623394833115187 0 -0.022027206424117273 -0.043891667882248797 0 -0.022626160766897777 -0.043429302452070509 0 -0.02189049859117519 -0.042203222720741417 0 -0.019106880262411866 -0.051615770839078583 0 -0.019566656512335016 -0.050431057975854704 0 -0.017860503489914518 -0.050789288854196146 0 -0.019435976267750833 -0.051084935689293239 0 -0.020698390171769946 -0.050729694911539835 0 -0.019773224576844311 -0.050154373903387825 0 -0.020192146478252227 -0.047623394833115187 0 -0.019448318517212057 -0.050853420754448417 0 -0.023549415782229889 -0.043129831683557558 0 -0.02189049859117519 -0.042203222720741417 0 -0.023511680950700515 -0.041671982561101807 0 -0.020192146478252227 -0.047623394833115187 0 -0.022280874922126208 -0.046100448323912122 0 -0.020789008842739275 -0.049932925337274579 0 -0.019773224576844311 -0.050154373903387825 0 -0.020058514307149802 -0.049179416310667197 0 -0.020698390171769946 -0.050729694911539835 0 -0.020789008842739275 -0.049932925337274579 0 -0.019773224576844311 -0.050154373903387825 0 -0.020789008842739275 -0.049932925337274579 0 -0.021404191647439161 -0.049245740851348474 0 -0.020058514307149802 -0.049179416310667197 0 -0.019566656512335016 -0.050431057975854704 0 -0.019073853466996058 -0.048940172981366971 0 -0.020058514307149802 -0.049179416310667197 0 -0.019566656512335016 -0.050431057975854704 0 -0.018090039504646535 -0.049495937431335985 0 -0.019073853466996058 -0.048940172981366971 0 -0.019448318517212057 -0.050853420754448417 0 -0.020084978769653764 -0.049129539458088144 0 -0.019566656512335016 -0.050431057975854704 0 -0.018090039504646535 -0.049495937431335985 0 -0.017860503489914518 -0.050789288854196146 0 -0.018090039504646535 -0.049495937431335985 0 -0.016554991793303709 -0.049608106344202076 0 -0.017860503489914518 -0.050789288854196146 0 -0.016554991793303709 -0.049608106344202076 0 -0.017860503489914518 -0.050789288854196146 0 -0.016041020657115473 -0.050781448069512632 0 -0.015896460737147393 -0.048695732485362568 0 -0.014149467880653879 -0.050305119995463908 0 -0.017361149799865496 -0.052166629382598868 0 -0.017860503489914518 -0.050789288854196146 0 -0.016041020657115473 -0.050781448069512632 0 -0.017361149799865496 -0.052166629382598868 0 -0.019106880262411866 -0.051615770839078583 0 -0.017860503489914518 -0.050789288854196146 0 -0.03041031801161681 -0.044329585463180159 0 -0.029105267168966133 -0.042785530458095467 0 -0.029083765440027099 -0.043938055261498299 0 -0.029105267168966133 -0.042785530458095467 0 -0.027962840720613603 -0.043568766671434715 0 -0.0278575953379985 -0.042080319043785758 0 -0.029105267168966133 -0.042785530458095467 0 -0.029083765440027099 -0.043938055261498299 0 -0.027962840720613603 -0.043568766671434715 0 -0.03521375511781271 -0.037358176167152639 0 -0.034005359757715063 -0.038303863951910308 0 -0.033552668057613012 -0.037527983937314574 0 -0.029083765440027099 -0.043938055261498299 0 -0.028859513705749601 -0.045049720863653518 0 -0.027962840720613603 -0.043568766671434715 0 -0.03041031801161681 -0.044329585463180159 0 -0.029083765440027099 -0.043938055261498299 0 -0.028859513705749601 -0.045049720863653518 0 -0.030563039535569873 -0.040822726772633669 0 -0.027835947081111395 -0.043861528631017326 0 -0.026640049469118802 -0.045209948504313376 0 -0.028218970976316978 -0.044487803134005077 0 -0.026711747280954205 -0.044497688670077605 0 -0.028218970976316978 -0.044487803134005077 0 -0.027234066135501982 -0.043943055769596805 0 -0.026711747280954205 -0.044497688670077605 0 -0.028218970976316978 -0.044487803134005077 0 -0.027234066135501982 -0.043943055769596805 0 -0.027528086091829752 -0.043246205407365915 0 -0.027234066135501982 -0.043943055769596805 0 -0.026711747280954205 -0.044497688670077605 0 -0.02650930752003677 -0.043690918520398428 0 -0.027234066135501982 -0.043943055769596805 0 -0.027528086091829752 -0.043246205407365915 0 -0.02650930752003677 -0.043690918520398428 0 -0.027835947081111395 -0.043861528631017326 0 -0.026921100098092472 -0.041919301135638153 0 -0.027528086091829752 -0.043246205407365915 0 -0.026552453867590014 -0.042885365984884405 0 -0.026924167812931957 -0.041954421112168371 0 -0.027528086091829752 -0.043246205407365915 0 -0.026552453867590014 -0.042885365984884405 0 -0.02650930752003677 -0.043690918520398428 0 -0.026552453867590014 -0.042885365984884405 0 -0.0257781676370199 -0.043201000486587642 0 -0.025780192072974165 -0.042375275004068402 0 -0.0257781676370199 -0.043201000486587642 0 -0.02449402491950306 -0.042636607052442765 0 -0.025780192072974165 -0.042375275004068402 0 -0.026552453867590014 -0.042885365984884405 0 -0.0257781676370199 -0.043201000486587642 0 -0.02650930752003677 -0.043690918520398428 0 -0.0257781676370199 -0.043201000486587642 0 -0.02650930752003677 -0.043690918520398428 0 -0.025877522252847635 -0.044056234172214985 0 -0.026711747280954205 -0.044497688670077605 0 -0.02650930752003677 -0.043690918520398428 0 -0.025877522252847635 -0.044056234172214985 0 -0.026711747280954205 -0.044497688670077605 0 -0.025832105802954954 -0.044765304339081595 0 -0.025877522252847635 -0.044056234172214985 0 -0.025832105802954954 -0.044765304339081595 0 -0.025877522252847635 -0.044056234172214985 0 -0.025198234345611831 -0.044519085627198279 0 -0.024985818097817261 -0.045151114621344149 0 -0.025832105802954954 -0.044765304339081595 0 -0.025198234345611831 -0.044519085627198279 0 -0.025877522252847635 -0.044056234172214985 0 -0.025089771042701197 -0.043666419576656103 0 -0.025198234345611831 -0.044519085627198279 0 -0.0257781676370199 -0.043201000486587642 0 -0.025877522252847635 -0.044056234172214985 0 -0.025089771042701197 -0.043666419576656103 0 -0.025089771042701197 -0.043666419576656103 0 -0.025198234345611831 -0.044519085627198279 0 -0.024279681879102358 -0.04412092485236177 0 -0.024985818097817261 -0.045151114621344149 0 -0.025198234345611831 -0.044519085627198279 0 -0.024279681879102358 -0.04412092485236177 0 -0.024985818097817261 -0.045151114621344149 0 -0.023849656593602161 -0.045261712931405108 0 -0.024279681879102358 -0.04412092485236177 0 -0.025089771042701197 -0.043666419576656103 0 -0.024279681879102358 -0.04412092485236177 0 -0.02449402491950306 -0.042636607052442765 0 -0.023549415782229889 -0.043129831683557558 0 -0.024279681879102358 -0.04412092485236177 0 -0.02449402491950306 -0.042636607052442765 0 -0.0257781676370199 -0.043201000486587642 0 -0.025089771042701197 -0.043666419576656103 0 -0.02449402491950306 -0.042636607052442765 0 -0.02449402491950306 -0.042636607052442765 0 -0.025148780102783815 -0.041139542479574541 0 -0.025780192072974165 -0.042375275004068402 0 -0.020698390171769946 -0.050729694911539835 0 -0.020789008842739275 -0.049932925337274579 0 -0.022106389296085091 -0.050334857853149589 0 -0.022280874922126208 -0.046100448323912122 0 -0.02337103874727018 -0.045742142339053861 0 -0.023511680950700515 -0.041671982561101807 0 -0.02449402491950306 -0.042636607052442765 0 -0.025148780102783815 -0.041139542479574541 0 -0.022106389296085091 -0.050334857853149589 0 -0.02273653142083374 -0.048447717498326236 0 -0.021404191647439161 -0.049245740851348474 0 -0.020789008842739275 -0.049932925337274579 0 -0.022106389296085091 -0.050334857853149589 0 -0.021404191647439161 -0.049245740851348474 0 -0.02337103874727018 -0.045742142339053861 0 -0.02666317726012089 -0.046018869631066321 0 -0.022106389296085091 -0.050334857853149589 0 -0.023546056714728186 -0.049870238038360666 0 -0.02273653142083374 -0.048447717498326236 0 -0.025148780102783815 -0.041139542479574541 0 -0.025780192072974165 -0.042375275004068402 0 -0.026924167812931957 -0.041954421112168371 0 -0.025148780102783815 -0.041139542479574541 0 -0.026924167812931957 -0.041954421112168371 0 -0.026897520210746585 -0.040551390292027749 0 -0.026552453867590014 -0.042885365984884405 0 -0.025780192072974165 -0.042375275004068402 0 -0.026924167812931957 -0.041954421112168371 0 -0.027962840720613603 -0.043568766671434715 0 -0.026924167812931957 -0.041954421112168371 0 -0.0278575953379985 -0.042080319043785758 0 -0.027139027905359488 -0.040415386265868158 0 -0.02666317726012089 -0.046018869631066321 0 -0.026924167812931957 -0.041954421112168371 0 -0.0278575953379985 -0.042080319043785758 0 -0.026897520210746585 -0.040551390292027749 0 -0.0278575953379985 -0.042080319043785758 0 -0.027084260399326755 -0.040654027098574283 0 -0.02895436820613087 -0.041473362010614474 0 -0.030630414515318793 -0.045149474611443106 0 -0.02666317726012089 -0.046018869631066321 0 -0.029674696174023275 -0.039853615672078679 0 -0.027084260399326755 -0.040654027098574283 0 -0.02895436820613087 -0.041473362010614474 0 -0.029105267168966133 -0.042785530458095467 0 -0.0278575953379985 -0.042080319043785758 0 -0.02895436820613087 -0.041473362010614474 0 -0.030221364315186492 -0.04190409378715497 0 -0.029105267168966133 -0.042785530458095467 0 -0.02895436820613087 -0.041473362010614474 0 -0.030280475795080555 -0.047341394314912126 0 -0.027360789927601305 -0.047205107043649087 0 -0.032046450018440684 -0.048571057222127172 0 -0.030694140077036119 -0.046925065618274295 0 -0.029077930635898652 -0.048954302867122053 0 -0.031203620268247009 -0.050463975960320928 0 -0.032046450018440684 -0.048571057222127172 0 -0.029077930635898652 -0.048954302867122053 0 -0.031203620268247009 -0.050463975960320928 0 -0.02767747440351619 -0.0515429436241285 0 -0.029077930635898652 -0.048954302867122053 0 -0.02767747440351619 -0.0515429436241285 0 -0.029077930635898652 -0.048954302867122053 0 -0.026280987866433216 -0.049032709867781722 0 -0.030694140077036119 -0.046925065618274295 0 -0.029077930635898652 -0.048954302867122053 0 -0.027778979412539026 -0.046695584978641465 0 -0.029077930635898652 -0.048954302867122053 0 -0.027778979412539026 -0.046695584978641465 0 -0.026280987866433216 -0.049032709867781722 0 -0.027778979412539026 -0.046695584978641465 0 -0.026280987866433216 -0.049032709867781722 0 -0.024866170587067624 -0.046481190326466304 0 -0.024616372424617759 -0.049513694593269507 0 -0.023302230386896161 -0.046767538520804709 0 -0.02666317726012089 -0.046018869631066321 0 -0.024616372424617759 -0.049513694593269507 0 -0.02273653142083374 -0.048447717498326236 0 -0.021404191647439161 -0.049245740851348474 0 -0.020953672914595968 -0.04802337722855126 0 -0.02273653142083374 -0.048447717498326236 0 -0.021935111041431435 -0.046956465403226233 0 -0.020953672914595968 -0.04802337722855126 0 -0.02241921920062221 -0.045787358441846109 0 -0.022701553880460877 -0.045263586116854916 0 -0.020973383236944202 -0.046074699022396158 0 -0.02241921920062221 -0.045787358441846109 0 -0.022701553880460877 -0.045263586116854916 0 -0.024063327492759853 -0.046065416349332526 0 -0.023378897324673721 -0.047487793588057763 0 -0.02241921920062221 -0.045787358441846109 0 -0.024063327492759853 -0.046065416349332526 0 -0.023302230386896161 -0.046767538520804709 0 -0.022642226351137624 -0.046135163073327407 0 -0.023231696819573995 -0.047304783169905225 0 -0.02241921920062221 -0.045787358441846109 0 -0.021752871095949821 -0.046560997477080007 0 -0.021241587291748295 -0.054999966362375446 0 -0.021427712404856053 -0.056332546584579347 0 -0.024280865205095394 -0.054999965551427402 0 -0.022085240901629461 -0.050799003615432534 0 -0.025517535014406102 -0.050871523337772839 0 -0.021427712404856053 -0.056332546584579347 0 -0.024280865205095394 -0.054999965551427402 0 -0.024489590537617522 -0.056519801008123829 0 -0.022701553880460877 -0.045263586116854916 0 -0.024063327492759853 -0.046065416349332526 0 -0.026521747822185179 -0.045216200908165305 0 -0.026595659822822748 -0.047668981555747031 0 -0.023378897324673721 -0.047487793588057763 0 -0.025293400823943057 -0.046556620877537987 0 -0.025293400823943057 -0.046556620877537987 0 -0.024063327492759853 -0.046065416349332526 0 -0.026521747822185179 -0.045216200908165305 0 -0.027360789927601305 -0.047205107043649087 0 -0.023302230386896161 -0.046767538520804709 0 -0.023378897324673721 -0.047487793588057763 0 -0.025293400823943057 -0.046556620877537987 0 -0.024063327492759853 -0.046065416349332526 0 -0.026595659822822748 -0.047668981555747031 0 -0.025293400823943057 -0.046556620877537987 0 -0.026521747822185179 -0.045216200908165305 0 -0.026595659822822748 -0.047668981555747031 0 -0.026521747822185179 -0.045216200908165305 0 -0.028406142743986746 -0.046476494985411551 0 -0.024280865205095394 -0.054999965551427402 0 -0.024489590537617522 -0.056519801008123829 0 -0.027320148770366235 -0.054999964735618335 0 -0.029054392439667575 -0.050979196874103481 0 -0.025517535014406102 -0.050871523337772839 0 -0.027552995985757167 -0.056706870113010961 0 -0.024489590537617522 -0.056519801008123829 0 -0.027320148770366235 -0.054999964735618335 0 -0.030539957884739528 -0.045249951833212926 0 -0.029979120201956932 -0.047769680085809917 0 -0.028406142743986746 -0.046476494985411551 0 -0.030539957884739528 -0.045249951833212926 0 -0.026521747822185179 -0.045216200908165305 0 -0.028406142743986746 -0.046476494985411551 0 -0.029979120201956932 -0.047769680085809917 0 -0.026595659822822748 -0.047668981555747031 0 -0.028406142743986746 -0.046476494985411551 0 -0.017834260042449451 -0.047784126619511466 0 -0.018494981860698017 -0.047444306410514524 0 -0.018896645531290834 -0.047971710434726075 0 -0.017834260042449451 -0.047784126619511466 0 -0.018184131453482969 -0.048526300536218488 0 -0.018896645531290834 -0.047971710434726075 0 -0.018494981860698017 -0.047444306410514524 0 -0.01915189278410603 -0.047317608660993701 0 -0.01809834374838834 -0.046713171007288327 0 -0.017834260042449451 -0.047784126619511466 0 -0.018494981860698017 -0.047444306410514524 0 -0.01809834374838834 -0.046713171007288327 0 -0.017834260042449451 -0.047784126619511466 0 -0.016970130000693695 -0.047241989581671723 0 -0.01809834374838834 -0.046713171007288327 0 -0.01701546694432611 -0.048449957876215526 0 -0.015889899673560883 -0.047635305523334219 0 -0.015666638011487686 -0.048643106327047297 0 -0.017834260042449451 -0.047784126619511466 0 -0.016970130000693695 -0.047241989581671723 0 -0.01701546694432611 -0.048449957876215526 0 -0.016970130000693695 -0.047241989581671723 0 -0.01701546694432611 -0.048449957876215526 0 -0.015889899673560883 -0.047635305523334219 0 -0.016970130000693695 -0.047241989581671723 0 -0.016063276605494513 -0.046874863408435316 0 -0.015889899673560883 -0.047635305523334219 0 -0.016554991793303709 -0.049608106344202076 0 -0.01701546694432611 -0.048449957876215526 0 -0.015666638011487686 -0.048643106327047297 0 -0.018090039504646535 -0.049495937431335985 0 -0.016554991793303709 -0.049608106344202076 0 -0.01701546694432611 -0.048449957876215526 0 -0.018090039504646535 -0.049495937431335985 0 -0.01701546694432611 -0.048449957876215526 0 -0.018184131453482969 -0.048526300536218488 0 -0.017834260042449451 -0.047784126619511466 0 -0.01701546694432611 -0.048449957876215526 0 -0.018184131453482969 -0.048526300536218488 0 -0.018090039504646535 -0.049495937431335985 0 -0.018184131453482969 -0.048526300536218488 0 -0.019073853466996058 -0.048940172981366971 0 -0.019073853466996058 -0.048940172981366971 0 -0.020058514307149802 -0.049179416310667197 0 -0.019845929632976433 -0.047907146192979741 0 -0.019073853466996058 -0.048940172981366971 0 -0.018896645531290834 -0.047971710434726075 0 -0.019845929632976433 -0.047907146192979741 0 -0.018184131453482969 -0.048526300536218488 0 -0.019073853466996058 -0.048940172981366971 0 -0.018896645531290834 -0.047971710434726075 0 -0.021404191647439161 -0.049245740851348474 0 -0.020058514307149802 -0.049179416310667197 0 -0.020953672914595968 -0.04802337722855126 0 -0.020058514307149802 -0.049179416310667197 0 -0.020953672914595968 -0.04802337722855126 0 -0.019845929632976433 -0.047907146192979741 0 -0.021935111041431435 -0.046956465403226233 0 -0.020953672914595968 -0.04802337722855126 0 -0.020050583740687643 -0.046803239231530479 0 -0.020953672914595968 -0.04802337722855126 0 -0.019845929632976433 -0.047907146192979741 0 -0.020050583740687643 -0.046803239231530479 0 -0.018896645531290834 -0.047971710434726075 0 -0.019845929632976433 -0.047907146192979741 0 -0.01915189278410603 -0.047317608660993701 0 -0.019845929632976433 -0.047907146192979741 0 -0.01915189278410603 -0.047317608660993701 0 -0.020050583740687643 -0.046803239231530479 0 -0.018494981860698017 -0.047444306410514524 0 -0.018896645531290834 -0.047971710434726075 0 -0.01915189278410603 -0.047317608660993701 0 -0.020057479327292564 -0.046970475425080038 0 -0.018305511770462742 -0.046734287302581522 0 -0.019383872827904988 -0.046424322493538714 0 -0.02041478080227483 -0.04708624979149021 0 -0.01809834374838834 -0.046713171007288327 0 -0.01915189278410603 -0.047317608660993701 0 -0.020050583740687643 -0.046803239231530479 0 -0.01809834374838834 -0.046713171007288327 0 -0.019383872827904988 -0.046424322493538714 0 -0.020973383236944202 -0.046074699022396158 0 -0.019695346690096135 -0.045344657312549518 0 -0.019383872827904988 -0.046424322493538714 0 -0.019695346690096135 -0.045344657312549518 0 -0.018153124793634637 -0.045989389395533924 0 -0.023302230386896161 -0.046767538520804709 0 -0.020057479327292564 -0.046970475425080038 0 -0.023231696819573995 -0.047304783169905225 0 -0.02041478080227483 -0.04708624979149021 0 -0.021752871095949821 -0.046560997477080007 0 -0.019383872827904988 -0.046424322493538714 0 -0.02041478080227483 -0.04708624979149021 0 -0.020973383236944202 -0.046074699022396158 0 -0.02041478080227483 -0.04708624979149021 0 -0.020973383236944202 -0.046074699022396158 0 -0.021752871095949821 -0.046560997477080007 0 -0.02241921920062221 -0.045787358441846109 0 -0.020973383236944202 -0.046074699022396158 0 -0.021752871095949821 -0.046560997477080007 0 -0.022701553880460877 -0.045263586116854916 0 -0.020973383236944202 -0.046074699022396158 0 -0.019695346690096135 -0.045344657312549518 0 -0.021241587291748295 -0.054999966362375446 0 -0.021427712404856053 -0.056332546584579347 0 -0.018367550624482587 -0.056145420939644072 0 -0.022085240901629461 -0.050799003615432534 0 -0.019048903969787697 -0.050740657951783681 0 -0.021241587291748295 -0.054999966362375446 0 -0.018202311981444442 -0.054999967334533689 0 -0.018367550624482587 -0.056145420939644072 0 -0.018202311981444442 -0.054999967334533689 0 -0.018367550624482587 -0.056145420939644072 0 -0.015307911382063409 -0.055958083564926327 0 -0.019695346690096135 -0.045344657312549518 0 -0.018153124793634637 -0.045989389395533924 0 -0.016895220912002275 -0.045405823901598093 0 -0.018202311981444442 -0.054999967334533689 0 -0.015163038845890469 -0.054999967863746835 0 -0.015307911382063409 -0.055958083564926327 0 -0.019048903969787697 -0.050740657951783681 0 -0.016084192437682544 -0.050713396012445289 0 -0.018153124793634637 -0.045989389395533924 0 -0.016753111921629735 -0.046691490125924363 0 -0.016895220912002275 -0.045405823901598093 0 -0.019383872827904988 -0.046424322493538714 0 -0.018153124793634637 -0.045989389395533924 0 -0.016753111921629735 -0.046691490125924363 0 -0.019254474036295346 -0.046422309973533006 0 -0.016883712452856067 -0.046532616413248171 0 -0.019383872827904988 -0.046424322493538714 0 -0.01809834374838834 -0.046713171007288327 0 -0.017158114502813397 -0.046259558407329558 0 -0.016970130000693695 -0.047241989581671723 0 -0.01809834374838834 -0.046713171007288327 0 -0.017158114502813397 -0.046259558407329558 0 -0.016970130000693695 -0.047241989581671723 0 -0.017158114502813397 -0.046259558407329558 0 -0.016063276605494513 -0.046874863408435316 0 -0.015429213381581772 -0.046089212780130985 0 -0.016895220912002275 -0.045405823901598093 0 -0.01399546543079323 -0.045403546229078662 0 -0.015163038845890469 -0.054999967863746835 0 -0.015307911382063409 -0.055958083564926327 0 -0.0122480579340729 -0.055770865152893187 0 -0.016084192437682544 -0.050713396012445289 0 -0.013247314499744232 -0.05032961376422708 0 -0.016753111921629735 -0.046691490125924363 0 -0.015429213381581772 -0.046089212780130985 0 -0.016895220912002275 -0.045405823901598093 0 -0.015163038845890469 -0.054999967863746835 0 -0.012123763114613148 -0.054999969047534916 0 -0.0122480579340729 -0.055770865152893187 0 -0.015429213381581772 -0.046089212780130985 0 -0.01399546543079323 -0.045403546229078662 0 -0.014070524895522331 -0.046853847507396018 0 -0.013247314499744232 -0.05032961376422708 0 -0.0095798719069419436 -0.052436538626064309 0 -0.012123763114613148 -0.054999969047534916 0 -0.0122480579340729 -0.055770865152893187 0 -0.0091880310943890757 -0.055583798103281422 0 -0.01399546543079323 -0.045403546229078662 0 -0.01271224732280604 -0.046210975402683485 0 -0.011117492494658205 -0.045337976645326288 0 -0.01399546543079323 -0.045403546229078662 0 -0.01271224732280604 -0.046210975402683485 0 -0.014070524895522331 -0.046853847507396018 0 -0.014975304536596292 -0.046057966670055281 0 -0.010240403846510447 -0.050939506901505421 0 -0.013733516901698162 -0.046639674566522314 0 -0.014496479993886082 -0.046629903096580098 0 -0.012879723449125247 -0.047384219912769934 0 -0.015497046275754192 -0.046110412732822299 0 -0.010572117797267409 -0.050829131886235702 0 -0.01271224732280604 -0.046210975402683485 0 -0.014070524895522331 -0.046853847507396018 0 -0.011399006176823013 -0.046940994688494206 0 -0.013733516901698162 -0.046639674566522314 0 -0.015118483200108347 -0.046244874620057629 0 -0.01270632144013973 -0.046279198634251138 0 -0.013733516901698162 -0.046639674566522314 0 -0.014496479993886082 -0.046629903096580098 0 -0.015118483200108347 -0.046244874620057629 0 -0.015184086353864484 -0.047015844090079362 0 -0.016063276605494513 -0.046874863408435316 0 -0.015118483200108347 -0.046244874620057629 0 -0.014496479993886082 -0.046629903096580098 0 -0.015184086353864484 -0.047015844090079362 0 -0.015118483200108347 -0.046244874620057629 0 -0.017158114502813397 -0.046259558407329558 0 -0.016063276605494513 -0.046874863408435316 0 -0.015118483200108347 -0.046244874620057629 0 -0.016753111921629735 -0.046691490125924363 0 -0.015429213381581772 -0.046089212780130985 0 -0.014070524895522331 -0.046853847507396018 0 -0.016883712452856067 -0.046532616413248171 0 -0.014975304536596292 -0.046057966670055281 0 -0.0090844803927633295 -0.054999963890070905 0 -0.0091856686236503303 -0.055586886335510427 0 -0.0060245851817421325 -0.05539506616062452 0 -0.0095798719069419436 -0.052436538626064309 0 -0.0050313962389726581 -0.055618498761582577 0 -0.0073139636035997081 -0.055116729267971877 0 -0.005306035510587166 -0.056355236824703031 0 -0.0045999860086106291 -0.055048000447951752 0 -0.0073139636035997081 -0.055116729267971877 0 -0.0066234692546560756 -0.056601329901016705 0 -0.005306035510587166 -0.056355236824703031 0 -0.0090844803927633295 -0.054999963890070905 0 -0.0060245851817421325 -0.05539506616062452 0 -0.0059576616217939943 -0.055000001077696231 0 -0.0095798719069419436 -0.052436538626064309 0 -0.010240403846510447 -0.050939506901505421 0 -0.01271224732280604 -0.046210975402683485 0 -0.011117492494658205 -0.045337976645326288 0 -0.011399006176823013 -0.046940994688494206 0 -0.012123763114613148 -0.054999969047534916 0 -0.0090844940546023698 -0.054999971667823493 0 -0.0091880310943890757 -0.055583798103281422 0 -0.0090857746851036592 -0.054998648066025252 0 -0.0095798719069419436 -0.052436538626064309 0 -0.0073139636035997081 -0.055116729267971877 0 -0.0075695166291645938 -0.056583859394594788 0 -0.0066234692546560756 -0.056601329901016705 0 -0.010240403846510447 -0.050939506901505421 0 -0.010572117797267409 -0.050829131886235702 0 -0.0075595206601727161 -0.056570975620089461 0 -0.007293998081240604 -0.05735236633763606 0 -0.007739472390124652 -0.057638098578774818 0 -0.013733516901698162 -0.046639674566522314 0 -0.01270632144013973 -0.046279198634251138 0 -0.012879723449125247 -0.047384219912769934 0 -0.0075595206601727161 -0.056570975620089461 0 -0.007293998081240604 -0.05735236633763606 0 -0.00699998423664858 -0.057068638573330346 0 -0.00699998423664858 -0.057068638573330346 0 -0.0066051075135382682 -0.05715843265398151 0 -0.0069546716729595379 -0.057603873827008593 0 -0.007293998081240604 -0.05735236633763606 0 -0.00699998423664858 -0.057068638573330346 0 -0.0069546716729595379 -0.057603873827008593 0 -0.010240403846510447 -0.050939506901505421 0 -0.0066549064572489292 -0.054316607706217448 0 -0.0075595206601727161 -0.056570975620089461 0 -0.00699998423664858 -0.057068638573330346 0 -0.0066234692546560756 -0.056601329901016705 0 -0.0066234692546560756 -0.056601329901016705 0 -0.0066051075135382682 -0.05715843265398151 0 -0.0058418316117068271 -0.057361069776266968 0 -0.0066051075135382682 -0.05715843265398151 0 -0.0058418316117068271 -0.057361069776266968 0 -0.0069546716729595379 -0.057603873827008593 0 -0.00699998423664858 -0.057068638573330346 0 -0.0066234692546560756 -0.056601329901016705 0 -0.0066051075135382682 -0.05715843265398151 0 -0.0066234692546560756 -0.056601329901016705 0 -0.0058418316117068271 -0.057361069776266968 0 -0.005306035510587166 -0.056355236824703031 0 -0.0049173784941262339 -0.050002969714751058 0 -0.0048345121349058651 -0.049992099303891743 0 -0.0048220739283700636 -0.050070214306727201 0 -0.0053629514131030911 -0.058731699034196568 0 -0.0069546716729595379 -0.057603873827008593 0 -0.0072212616430514468 -0.057886124258832779 0 -0.0048280852852359253 -0.054513430681025106 0 -0.006885929720257475 -0.053164821700457943 0 -0.0058418316117068271 -0.057361069776266968 0 -0.0053629514131030911 -0.058731699034196568 0 -0.0069546716729595379 -0.057603873827008593 0 -0.0048345121349058651 -0.049992099303891743 0 -0.0048220739283700636 -0.050070214306727201 0 -0.0047728011389269066 -0.050011019553556732 0 -0.007293998081240604 -0.05735236633763606 0 -0.0069546716729595379 -0.057603873827008593 0 -0.0072183784498126508 -0.057868915822243079 0 -0.0076539713413026605 -0.054680954816524421 0 -0.006885929720257475 -0.053164821700457943 0 -0.007293998081240604 -0.05735236633763606 0 -0.0072183784498126508 -0.057868915822243079 0 -0.007739472390124652 -0.057638098578774818 0 -0.006885929720257475 -0.053164821700457943 0 -0.010572117797267409 -0.050829131886235702 0 -0.0098065345986429551 -0.051566911239939839 0 -0.0089515797802546086 -0.051934634015211492 0 -0.0086780685033110445 -0.050323051273950328 0 -0.010572117797267409 -0.050829131886235702 0 -0.0094321979892306711 -0.049056876781531963 0 -0.013204976145674377 -0.047205542479728906 0 -0.013337524602471069 -0.048001532710182981 0 -0.013779425822263236 -0.047510031390186003 0 -0.006885929720257475 -0.053164821700457943 0 -0.0094321979892306711 -0.049056876781531963 0 -0.0047728011389269066 -0.050011019553556732 0 -0.0048425770815954308 -0.049915796375470931 0 -0.0047233603955406179 -0.049852905962934804 0 -0.0094321979892306711 -0.049056876781531963 0 -0.0076867044716840425 -0.049068907478238159 0 -0.0048345121349058651 -0.049992099303891743 0 -0.0047728011389269066 -0.050011019553556732 0 -0.0048425770815954308 -0.049915796375470931 0 -0.0049173784941262339 -0.050002969714751058 0 -0.0048345121349058651 -0.049992099303891743 0 -0.0048425770815954308 -0.049915796375470931 0 -0.0049173784941262339 -0.050002969714751058 0 -0.0048425770815954308 -0.049915796375470931 0 -0.0049509396397762577 -0.04987519829533503 0 -0.015889899673560883 -0.047635305523334219 0 -0.014420405563128916 -0.047710461654720523 0 -0.015666638011487686 -0.048643106327047297 0 -0.015184086353864484 -0.047015844090079362 0 -0.015889899673560883 -0.047635305523334219 0 -0.014420405563128916 -0.047710461654720523 0 -0.015184086353864484 -0.047015844090079362 0 -0.016063276605494513 -0.046874863408435316 0 -0.015889899673560883 -0.047635305523334219 0 -0.014496479993886082 -0.046629903096580098 0 -0.015184086353864484 -0.047015844090079362 0 -0.014420405563128916 -0.047710461654720523 0 -0.014496479993886082 -0.046629903096580098 0 -0.013204976145674377 -0.047205542479728906 0 -0.013779425822263236 -0.047510031390186003 0 -0.014496479993886082 -0.046629903096580098 0 -0.013779425822263236 -0.047510031390186003 0 -0.014420405563128916 -0.047710461654720523 0 -0.013337524602471069 -0.048001532710182981 0 -0.013779425822263236 -0.047510031390186003 0 -0.014420405563128916 -0.047710461654720523 0 -0.010782606635853087 -0.047623307718492484 0 -0.011520872589797409 -0.04836546618307086 0 -0.01095785093457523 -0.04854584574784538 0 -0.0094321979892306711 -0.049056876781531963 0 -0.013423321797799502 -0.048766079782186215 0 -0.013337524602471069 -0.048001532710182981 0 -0.014420405563128916 -0.047710461654720523 0 -0.014694238062203619 -0.049398596627104482 0 -0.016554991793303709 -0.049608106344202076 0 -0.014694238062203619 -0.049398596627104482 0 -0.015666638011487686 -0.048643106327047297 0 -0.014420405563128916 -0.047710461654720523 0 -0.014694238062203619 -0.049398596627104482 0 -0.015666638011487686 -0.048643106327047297 0 -0.011520872589797409 -0.04836546618307086 0 -0.012298021315883065 -0.049139688507475007 0 -0.011431358823169048 -0.048935447965361749 0 -0.013423321797799502 -0.048766079782186215 0 -0.014149467880653879 -0.050305119995463908 0 -0.016554991793303709 -0.049608106344202076 0 -0.014694238062203619 -0.049398596627104482 0 -0.016041020657115473 -0.050781448069512632 0 -0.012298021315883065 -0.049139688507475007 0 -0.011111889622642963 -0.049512597897839905 0 -0.012179062233237829 -0.050234164689766513 0 -0.012298021315883065 -0.049139688507475007 0 -0.011111889622642963 -0.049512597897839905 0 -0.011431358823169048 -0.048935447965361749 0 -0.011111889622642963 -0.049512597897839905 0 -0.011431358823169048 -0.048935447965361749 0 -0.01095785093457523 -0.04854584574784538 0 -0.0078959565011568356 -0.04983559924782436 0 -0.0076867044716840425 -0.049068907478238159 0 -0.011520872589797409 -0.04836546618307086 0 -0.011431358823169048 -0.048935447965361749 0 -0.01095785093457523 -0.04854584574784538 0 -0.0046499009989119334 -0.049661294113131513 0 -0.0047233603955406179 -0.049852905962934804 0 -0.0048115970617533645 -0.04974415246601048 0 -0.0048425770815954308 -0.049915796375470931 0 -0.0047233603955406179 -0.049852905962934804 0 -0.0048115970617533645 -0.04974415246601048 0 -0.0048425770815954308 -0.049915796375470931 0 -0.0049145040201301199 -0.049777098931404438 0 -0.0049509396397762577 -0.04987519829533503 0 -0.0048425770815954308 -0.049915796375470931 0 -0.0049145040201301199 -0.049777098931404438 0 -0.0048115970617533645 -0.04974415246601048 0 -0.0048115970617533645 -0.04974415246601048 0 -0.0047888361014382279 -0.049584483150526555 0 -0.0049481460171678995 -0.049602709387769207 0 -0.0049145040201301199 -0.049777098931404438 0 -0.0048115970617533645 -0.04974415246601048 0 -0.0049481460171678995 -0.049602709387769207 0 -0.0046499009989119334 -0.049661294113131513 0 -0.0048115970617533645 -0.04974415246601048 0 -0.0047888361014382279 -0.049584483150526555 0 -0.0046499009989119334 -0.049661294113131513 0 -0.0047888361014382279 -0.049584483150526555 0 -0.0046933688295645046 -0.049462913523655679 0 -0.0047888361014382279 -0.049584483150526555 0 -0.0048461651559680002 -0.049478205656727905 0 -0.0046933688295645046 -0.049462913523655679 0 -0.0048461651559680002 -0.049478205656727905 0 -0.0046933688295645046 -0.049462913523655679 0 -0.0047100090127984188 -0.04926073215579635 0 -0.0047888361014382279 -0.049584483150526555 0 -0.0048461651559680002 -0.049478205656727905 0 -0.0049481460171678995 -0.049602709387769207 0 -0.0048461651559680002 -0.049478205656727905 0 -0.0049481460171678995 -0.049602709387769207 0 -0.0050280297638078215 -0.049415178229709367 0 -0.0049481460171678995 -0.049602709387769207 0 -0.0050280297638078215 -0.049415178229709367 0 -0.0050006119272341673 -0.049500385373790222 0 -0.0049285746254044581 -0.048522851194770053 0 -0.0052708025202696128 -0.048840634528323296 0 -0.0047693179924219514 -0.048843507177189403 0 -0.005455305197012923 -0.048794088877152565 0 -0.004146112446986816 -0.049231909609299532 0 -0.0050280297638078215 -0.049415178229709367 0 -0.0052708025202696128 -0.048840634528323296 0 -0.0047100090127984188 -0.04926073215579635 0 -0.0058395593664639367 -0.048800878391390044 0 -0.0028589915298753437 -0.05101358955215838 0 -0.0050280297638078215 -0.049415178229709367 0 -0.004994539278685174 -0.049472011796176225 0 -0.0050006119272341673 -0.049500385373790222 0 -0.0050280297638078215 -0.049415178229709367 0 -0.0052708025202696128 -0.048840634528323296 0 -0.0056874294234851843 -0.048913780378394375 0 -0.0046933688295645046 -0.049462913523655679 0 -0.0047100090127984188 -0.04926073215579635 0 -0.0045696549176617116 -0.049389578354185268 0 -0.004146112446986816 -0.049231909609299532 0 -0.0081989466884375244 -0.04878413582230539 0 -0.004600876441721127 -0.048849912303423143 0 -0.0047693179924219514 -0.048843507177189403 0 -0.0044383335328447345 -0.048932997209361256 0 -0.0048461651559680002 -0.049478205656727905 0 -0.0050280297638078215 -0.049415178229709367 0 -0.0047100090127984188 -0.04926073215579635 0 -0.0049285746254044581 -0.048522851194770053 0 -0.0047693179924219514 -0.048843507177189403 0 -0.0046593494531546346 -0.048594231483351534 0 -0.004600876441721127 -0.048849912303423143 0 -0.0047693179924219514 -0.048843507177189403 0 -0.0046593494531546346 -0.048594231483351534 0 -0.0044395248849645793 -0.04848781318217546 0 -0.004600876441721127 -0.048849912303423143 0 -0.0046593494531546346 -0.048594231483351534 0 -0.0044646617552459005 -0.047826716963978298 0 -0.008172498994863683 -0.047167517170209901 0 -0.0044395248849645793 -0.04848781318217546 0 -0.004600876441721127 -0.048849912303423143 0 -0.0042429618434457724 -0.048701747924144237 0 -0.004600876441721127 -0.048849912303423143 0 -0.0044383335328447345 -0.048932997209361256 0 -0.0044275612435761176 -0.048750995641598106 0 -0.010637427959477395 -0.046004433783234933 0 -0.010847493059406079 -0.047208459489787455 0 -0.012326956088694599 -0.046706840023394126 0 -0.0081989466884375244 -0.04878413582230539 0 -0.008172498994863683 -0.047167517170209901 0 -0.010637427959477395 -0.046004433783234933 0 -0.012326956088694599 -0.046706840023394126 0 -0.013060626330222791 -0.045231153388586909 0 -0.013307098077392016 -0.048344045205159197 0 -0.010847493059406079 -0.047208459489787455 0 -0.012326956088694599 -0.046706840023394126 0 -0.013307098077392016 -0.048344045205159197 0 -0.013773914948013222 -0.046741606014720216 0 -0.012326956088694599 -0.046706840023394126 0 -0.013773914948013222 -0.046741606014720216 0 -0.012326956088694599 -0.046706840023394126 0 -0.013060626330222791 -0.045231153388586909 0 -0.0081989466884375244 -0.04878413582230539 0 -0.012898987981266669 -0.047559201257557353 0 -0.0078959565011568356 -0.04983559924782436 0 -0.0081989466884375244 -0.04878413582230539 0 -0.0046499009989119334 -0.049661294113131513 0 -0.0046933688295645046 -0.049462913523655679 0 -0.0045696549176617116 -0.049389578354185268 0 -0.011111889622642963 -0.049512597897839905 0 -0.011275216521815245 -0.05051102092125842 0 -0.012179062233237829 -0.050234164689766513 0 0.0074967912320430393 -0.05377878931743818 0 0.008267816409235091 -0.054347361343406786 0 0.0078865168900594754 -0.053426042231521774 0 0.0075748822643657383 -0.053815288721424034 0 0.008585168235095697 -0.054279333813898552 0 0.008267816409235091 -0.054347361343406786 0 0.0078865168900594754 -0.053426042231521774 0 0.0086379756840698294 -0.053481366951946288 0 0.0089261569957380261 -0.054201674918987836 0 0.0083846066748081687 -0.054663548806447602 0 0.00930942532005705 -0.05493271546020205 0 0.0074967912320430393 -0.05377878931743818 0 0.0083846066748081687 -0.054663548806447602 0 0.0077107493090180276 -0.054587410643528997 0 0.0074967912320430393 -0.05377878931743818 0 0.0077107493090180276 -0.054587410643528997 0 0.0073060992478463883 -0.054149995106563167 0 0.0074967912320430393 -0.05377878931743818 0 0.0089261569957380261 -0.054201674918987836 0 0.0083846066748081687 -0.054663548806447602 0 0.0080119932227851187 -0.055206566214030542 0 0.0083846066748081687 -0.054663548806447602 0 0.0077107493090180276 -0.054587410643528997 0 0.0074561237981739638 -0.054940897746859979 0 0.0077107493090180276 -0.054587410643528997 0 0.0070588883216272371 -0.054471483809151303 0 0.0077107493090180276 -0.054587410643528997 0 0.0070588883216272371 -0.054471483809151303 0 0.0073060992478463883 -0.054149995106563167 0 -0.0028589915298753437 -0.05101358955215838 0 0.0012107197357031439 -0.051754447788158742 0 0.0070588883216272371 -0.054471483809151303 0 0.0062439704940348006 -0.054571693061939437 0 0.0068492389443833551 -0.053766593430105897 0 0.0068841828891472749 -0.055050485896438468 0 0.0070588883216272371 -0.054471483809151303 0 0.0062439704940348006 -0.054571693061939437 0 -0.004994539278685174 -0.049472011796176225 0 -0.0050006119272341673 -0.049500385373790222 0 -0.005024693752114404 -0.049574658298544037 0 -0.0049481460171678995 -0.049602709387769207 0 -0.0050006119272341673 -0.049500385373790222 0 -0.005024693752114404 -0.049574658298544037 0 0.0074967912320430393 -0.05377878931743818 0 0.0073060992478463883 -0.054149995106563167 0 0.0068492389443833551 -0.053766593430105897 0 0.0070588883216272371 -0.054471483809151303 0 0.0073060992478463883 -0.054149995106563167 0 0.0068492389443833551 -0.053766593430105897 0 0.0012107197357031439 -0.051754447788158742 0 0.0012875000413199705 -0.051041174859921386 0 0.0074967912320430393 -0.05377878931743818 0 0.0068492389443833551 -0.053766593430105897 0 0.0072592408794356494 -0.053192844395079729 0 -0.005024693752114404 -0.049574658298544037 0 -0.0050235253814321767 -0.049774931215105747 0 -0.0049795002978604164 -0.049753382305649713 0 -0.0049481460171678995 -0.049602709387769207 0 -0.005024693752114404 -0.049574658298544037 0 -0.0049795002978604164 -0.049753382305649713 0 -0.0049145040201301199 -0.049777098931404438 0 -0.0049481460171678995 -0.049602709387769207 0 -0.0049795002978604164 -0.049753382305649713 0 -0.0049795002978604164 -0.049753382305649713 0 -0.0049912798748425911 -0.049882164777659041 0 -0.0049509396397762577 -0.04987519829533503 0 -0.0049145040201301199 -0.049777098931404438 0 -0.0049795002978604164 -0.049753382305649713 0 -0.0049509396397762577 -0.04987519829533503 0 -0.0050235253814321767 -0.049774931215105747 0 -0.0049795002978604164 -0.049753382305649713 0 -0.0049912798748425911 -0.049882164777659041 0 0.0072592408794356494 -0.053192844395079729 0 0.0076924385532644284 -0.05302536969703113 0 0.0075602369975134465 -0.052642658825691552 0 -0.0057662978948471227 -0.050948453325458123 0 0.00056858304494548624 -0.053577666081579003 0 0.0012875000413199705 -0.051041174859921386 0 0.00056858304494548624 -0.053577666081579003 0 -0.0050235253814321767 -0.049774931215105747 0 -0.0049912798748425911 -0.049882164777659041 0 -0.0049975401446007905 -0.049930088643841478 0 0.0072592408794356494 -0.053192844395079729 0 0.0076924385532644284 -0.05302536969703113 0 0.0078865168900594754 -0.053426042231521774 0 0.0074967912320430393 -0.05377878931743818 0 0.0072592408794356494 -0.053192844395079729 0 0.0078865168900594754 -0.053426042231521774 0 0.0078865168900594754 -0.053426042231521774 0 0.0080806959703022055 -0.052843292607798492 0 0.0086379756840698294 -0.053481366951946288 0 0.0076924385532644284 -0.05302536969703113 0 0.0078865168900594754 -0.053426042231521774 0 0.0080806959703022055 -0.052843292607798492 0 0.0076924385532644284 -0.05302536969703113 0 0.0080806959703022055 -0.052843292607798492 0 0.0075602369975134465 -0.052642658825691552 0 0.009949284035023688 -0.053426686092138714 0 0.00056858304494548624 -0.053577666081579003 0 0.0080806959703022055 -0.052843292607798492 0 0.0082729878556632754 -0.052038153910852744 0 0.0068127340189519823 -0.0524356311158065 0 0.00050400835493041906 -0.059694746457960676 0 -0.00084276886744212673 -0.059195669453973219 0 -0.001340707464454682 -0.060105731881641061 0 0.0047071643077395758 -0.056098981555276428 0 0.00056858304494548624 -0.053577666081579003 0 -0.0015683023985902348 -0.060321869005944148 0 -0.0019700648765047968 -0.059315425845181458 0 -0.0035132210109984963 -0.05954363256247993 0 -0.0020452216690569204 -0.060832943528829238 0 0.00056858304494548624 -0.053577666081579003 0 -0.00084276886744212673 -0.059195669453973219 0 -0.0015683023985902348 -0.060321869005944148 0 -0.0019700648765047968 -0.059315425845181458 0 -0.00084276886744212673 -0.059195669453973219 0 -0.0019700648765047968 -0.059315425845181458 0 -0.0013614875082924676 -0.05742257206052908 0 -0.0019700648765047968 -0.059315425845181458 0 -0.0031488067947650997 -0.05710871880876079 0 -0.0013614875082924676 -0.05742257206052908 0 -0.00084276886744212673 -0.059195669453973219 0 4.2574368374841714e-05 -0.05841112876718807 0 -0.0013614875082924676 -0.05742257206052908 0 0.00050400835493041906 -0.059694746457960676 0 -0.00084276886744212673 -0.059195669453973219 0 4.2574368374841714e-05 -0.05841112876718807 0 -0.0048280852852359253 -0.054513430681025106 0 -0.0049166869425897484 -0.054667671423127735 0 -0.0049173784941262339 -0.050002969714751058 0 -0.0049509396397762577 -0.04987519829533503 0 -0.0049856928569469031 -0.04992908962199491 0 0.00056858304494548624 -0.053577666081579003 0 -0.0049166869425897484 -0.054667671423127735 0 -0.0049912798748425911 -0.049882164777659041 0 -0.0049509396397762577 -0.04987519829533503 0 -0.0049856928569469031 -0.04992908962199491 0 -0.0049912798748425911 -0.049882164777659041 0 -0.0049584875907883776 -0.049911007135633442 0 -0.0049856928569469031 -0.04992908962199491 0 -0.0019700648765047968 -0.059315425845181458 0 -0.0035132210109984963 -0.05954363256247993 0 -0.0031488067947650997 -0.05710871880876079 0 -0.0035132210109984963 -0.05954363256247993 0 -0.0044738778303913488 -0.057831065099864916 0 -0.0031488067947650997 -0.05710871880876079 0 -0.0053629514131030911 -0.058731699034196568 0 -0.0035132210109984963 -0.05954363256247993 0 -0.0044738778303913488 -0.057831065099864916 0 -0.0058418316117068271 -0.057361069776266968 0 -0.0053629514131030911 -0.058731699034196568 0 -0.0044738778303913488 -0.057831065099864916 0 -0.0058418316117068271 -0.057361069776266968 0 -0.0044738778303913488 -0.057831065099864916 0 -0.005306035510587166 -0.056355236824703031 0 -0.005306035510587166 -0.056355236824703031 0 -0.0031488067947650997 -0.05710871880876079 0 -0.0045999860086106291 -0.055048000447951752 0 -0.0044738778303913488 -0.057831065099864916 0 -0.005306035510587166 -0.056355236824703031 0 -0.0031488067947650997 -0.05710871880876079 0 -0.0050313962389726581 -0.055618498761582577 0 -0.002475164553953268 -0.055062588209551296 0 -0.0031488067947650997 -0.05710871880876079 0 -0.0045999860086106291 -0.055048000447951752 0 -0.0019433210674150937 -0.055033944737314239 0 -0.0059576616217939943 -0.055000001077696231 0 -0.0028644083989128144 -0.055197907449425911 0 -0.0028308550723892688 -0.054999995696804811 0 -0.0060245851817421325 -0.05539506616062452 0 -0.0059576616217939943 -0.055000001077696231 0 -0.0028644083989128144 -0.055197907449425911 0 4.2574368374841714e-05 -0.05841112876718807 0 0.00038678065082502786 -0.057193022761759332 0 -0.0013614875082924676 -0.05742257206052908 0 0.00038678065082502786 -0.057193022761759332 0 -0.0013614875082924676 -0.05742257206052908 0 -0.00070030193383476761 -0.056057915618578327 0 -0.0031488067947650997 -0.05710871880876079 0 -0.0013614875082924676 -0.05742257206052908 0 -0.0019433210674150937 -0.055033944737314239 0 -0.0028644083989128144 -0.055197907449425911 0 -0.0028308550723892688 -0.054999995696804811 0 0.00029594901248004634 -0.054999997595104114 0 -0.0013614875082924676 -0.05742257206052908 0 -0.0019433210674150937 -0.055033944737314239 0 -0.00070030193383476761 -0.056057915618578327 0 -0.002475164553953268 -0.055062588209551296 0 0.00029557842182822031 -0.055000039922747872 0 0.00038678065082502786 -0.057193022761759332 0 -0.00070030193383476761 -0.056057915618578327 0 0.00029739312616372217 -0.05499974179083144 0 -0.0019433210674150937 -0.055033944737314239 0 -0.00070030193383476761 -0.056057915618578327 0 0.00029739312616372217 -0.05499974179083144 0 0.00038678065082502786 -0.057193022761759332 0 0.00029739312616372217 -0.05499974179083144 0 0.0022268195999600661 -0.05660218603704744 0 0.00038678065082502786 -0.057193022761759332 0 0.0022268195999600661 -0.05660218603704744 0 0.0015131310926590055 -0.058199874328210735 0 0.0022268195999600661 -0.05660218603704744 0 0.0015131310926590055 -0.058199874328210735 0 0.0033769277377229683 -0.05791285045492129 0 0.0022268195999600661 -0.05660218603704744 0 0.0050383833178686381 -0.05673458794989867 0 0.0033769277377229683 -0.05791285045492129 0 0.0022268195999600661 -0.05660218603704744 0 0.0030112050889387616 -0.05499954366031852 0 0.0050383833178686381 -0.05673458794989867 0 0.00029739312616372217 -0.05499974179083144 0 0.0022268195999600661 -0.05660218603704744 0 0.0030112050889387616 -0.05499954366031852 0 0.0030112050889387616 -0.05499954366031852 0 0.0057275522056128899 -0.054999558783367722 0 0.0050383833178686381 -0.05673458794989867 0 0.0057275522056128899 -0.054999558783367722 0 0.0065849026242087759 -0.056917986233473869 0 0.0076147134097550705 -0.056126628754842159 0 0.0057275522056128899 -0.054999558783367722 0 0.0065849026242087759 -0.056917986233473869 0 0.0050383833178686381 -0.05673458794989867 0 0.0065849026242087759 -0.056917986233473869 0 0.0079754478751632336 -0.057100453204800859 0 0.0076147134097550705 -0.056126628754842159 0 0.0050383833178686381 -0.05673458794989867 0 0.0055797390328164434 -0.058554887020450003 0 0.0033769277377229683 -0.05791285045492129 0 0.0065849026242087759 -0.056917986233473869 0 0.0050383833178686381 -0.05673458794989867 0 0.0068372892316067024 -0.057470070401346135 0 0.0055116629836795888 -0.057072878414068759 0 0.0074285917792653059 -0.056086619878280591 0 0.010298597092736117 -0.051476276995817964 0 0.010030824235690185 -0.052141261807089057 0 0.0093310992452490266 -0.051749581392232478 0 0.0074285917792653059 -0.056086619878280591 0 0.0061734552772830017 -0.055348497662574853 0 0.0055797390328164434 -0.058554887020450003 0 0.0033769277377229683 -0.05791285045492129 0 0.0028169663831852029 -0.059262746727696179 0 0.0065849026242087759 -0.056917986233473869 0 0.0068372892316067024 -0.057470070401346135 0 0.0079754478751632336 -0.057100453204800859 0 0.0068372892316067024 -0.057470070401346135 0 0.0079754478751632336 -0.057100453204800859 0 0.0085819975987127921 -0.057677295689713866 0 0.0074285917792653059 -0.056086619878280591 0 0.0099715958215607029 -0.054928020845357493 0 0.0068372892316067024 -0.057470070401346135 0 0.0090963778867836822 -0.058170101701306341 0 0.0085819975987127921 -0.057677295689713866 0 0.010298597092736117 -0.051476276995817964 0 0.01072957597289273 -0.052488109187582774 0 0.010030824235690185 -0.052141261807089057 0 0.010030824235690185 -0.052141261807089057 0 0.0093310992452490266 -0.051749581392232478 0 0.0091409434511912427 -0.052695500483357999 0 0.0047071643077395758 -0.056098981555276428 0 0.0061734552772830017 -0.055348497662574853 0 0.0082729878556632754 -0.052038153910852744 0 0.0093310992452490266 -0.051749581392232478 0 0.0091409434511912427 -0.052695500483357999 0 0.00050400835493041906 -0.059694746457960676 0 0.0015131310926590055 -0.058199874328210735 0 0.0028169663831852029 -0.059262746727696179 0 0.00050400835493041906 -0.059694746457960676 0 4.2574368374841714e-05 -0.05841112876718807 0 0.0015131310926590055 -0.058199874328210735 0 4.2574368374841714e-05 -0.05841112876718807 0 0.00038678065082502786 -0.057193022761759332 0 0.0015131310926590055 -0.058199874328210735 0 0.0015131310926590055 -0.058199874328210735 0 0.0033769277377229683 -0.05791285045492129 0 0.0028169663831852029 -0.059262746727696179 0 0.013305915534664212 -0.056781245958103285 0 0.01259152699223443 -0.058207630894414046 0 0.014535791815157852 -0.058066988195937815 0 0.013305915534664212 -0.056781245958103285 0 0.011326362309922282 -0.054999723442371223 0 0.014210637723598873 -0.054999857141970247 0 0.013305915534664212 -0.056781245958103285 0 0.011326362309922282 -0.054999723442371223 0 0.010446219207531488 -0.056740538232193188 0 0.010465735836195967 -0.055787520014205678 0 0.01055941948145475 -0.056762131814172563 0 0.012101974413484366 -0.056501221576743692 0 0.013305915534664212 -0.056781245958103285 0 0.010446219207531488 -0.056740538232193188 0 0.01259152699223443 -0.058207630894414046 0 0.010473139172039955 -0.056281923330768889 0 0.012353813343649173 -0.057330467241776636 0 0.010465735836195967 -0.055787520014205678 0 0.0092379536366882335 -0.056401272855286337 0 0.01055941948145475 -0.056762131814172563 0 0.011326362309922282 -0.054999723442371223 0 0.010446219207531488 -0.056740538232193188 0 0.0084415729043756885 -0.055000042321481597 0 0.010465735836195967 -0.055787520014205678 0 0.0084421536596496708 -0.054998980173299586 0 0.0092379536366882335 -0.056401272855286337 0 0.010473139172039955 -0.056281923330768889 0 0.008442057573955589 -0.055000267335016548 0 0.0057275522056128899 -0.054999558783367722 0 0.0084421536596496708 -0.054998980173299586 0 0.0076147134097550705 -0.056126628754842159 0 0.0084421536596496708 -0.054998980173299586 0 0.0092379536366882335 -0.056401272855286337 0 0.0076147134097550705 -0.056126628754842159 0 0.0079754478751632336 -0.057100453204800859 0 0.0092379536366882335 -0.056401272855286337 0 0.0076147134097550705 -0.056126628754842159 0 0.0079754478751632336 -0.057100453204800859 0 0.0092379536366882335 -0.056401272855286337 0 0.0097191057042564383 -0.057365128945348356 0 0.0079754478751632336 -0.057100453204800859 0 0.0085819975987127921 -0.057677295689713866 0 0.0097191057042564383 -0.057365128945348356 0 0.0090963778867836822 -0.058170101701306341 0 0.0085819975987127921 -0.057677295689713866 0 0.010553628223280294 -0.058184968442017052 0 0.0085819975987127921 -0.057677295689713866 0 0.0097191057042564383 -0.057365128945348356 0 0.010553628223280294 -0.058184968442017052 0 0.0097191057042564383 -0.057365128945348356 0 0.011161943293377323 -0.05758862841435524 0 0.010553628223280294 -0.058184968442017052 0 0.0092379536366882335 -0.056401272855286337 0 0.0097191057042564383 -0.057365128945348356 0 0.01055941948145475 -0.056762131814172563 0 0.0097191057042564383 -0.057365128945348356 0 0.011161943293377323 -0.05758862841435524 0 0.01055941948145475 -0.056762131814172563 0 0.011161943293377323 -0.05758862841435524 0 0.01055941948145475 -0.056762131814172563 0 0.012101974413484366 -0.056501221576743692 0 0.011161943293377323 -0.05758862841435524 0 0.012101974413484366 -0.056501221576743692 0 0.012480648126892622 -0.057816477760095769 0 0.012101974413484366 -0.056501221576743692 0 0.012480648126892622 -0.057816477760095769 0 0.013734692186456076 -0.057142623101841081 0 0.012353813343649173 -0.057330467241776636 0 0.014188947473153224 -0.058097727270929773 0 0.01259152699223443 -0.058207630894414046 0 0.014535791815157852 -0.058066988195937815 0 0.014667452398956287 -0.059063760623014147 0 0.014178036561182394 -0.059051445593252941 0 0.013582430820603801 -0.05832316298915495 0 0.012430621685682422 -0.058503822736626597 0 0.014178036561182394 -0.059051445593252941 0 0.013582430820603801 -0.05832316298915495 0 0.014885844280738981 -0.05875702070151035 0 0.013582430820603801 -0.05832316298915495 0 0.012480648126892622 -0.057816477760095769 0 0.013734692186456076 -0.057142623101841081 0 0.013582430820603801 -0.05832316298915495 0 0.012480648126892622 -0.057816477760095769 0 0.012430621685682422 -0.058503822736626597 0 0.012480648126892622 -0.057816477760095769 0 0.012430621685682422 -0.058503822736626597 0 0.011630282366132203 -0.058185586260808157 0 0.011161943293377323 -0.05758862841435524 0 0.012480648126892622 -0.057816477760095769 0 0.011630282366132203 -0.058185586260808157 0 0.012430621685682422 -0.058503822736626597 0 0.011630282366132203 -0.058185586260808157 0 0.01188183462518419 -0.058186460721937144 0 0.011630282366132203 -0.058185586260808157 0 0.010553628223280294 -0.058184968442017052 0 0.01188183462518419 -0.058186460721937144 0 0.011161943293377323 -0.05758862841435524 0 0.011630282366132203 -0.058185586260808157 0 0.010553628223280294 -0.058184968442017052 0 0.0090963778867836822 -0.058170101701306341 0 0.010553628223280294 -0.058184968442017052 0 0.01101699276102748 -0.058353551416310677 0 0.010553628223280294 -0.058184968442017052 0 0.01101699276102748 -0.058353551416310677 0 0.01188183462518419 -0.058186460721937144 0 0.01101699276102748 -0.058353551416310677 0 0.01240659020318107 -0.057502153181513922 0 0.01188183462518419 -0.058186460721937144 0 0.011080879113670998 -0.055912980875695857 0 0.011998249726438568 -0.055976794962781115 0 0.01240659020318107 -0.057502153181513922 0 0.012299760070273223 -0.056938561468112533 0 0.012326925258875951 -0.055874461787759566 0 0.01240659020318107 -0.057502153181513922 0 0.012299760070273223 -0.056938561468112533 0 0.01188183462518419 -0.058186460721937144 0 0.012299760070273223 -0.056938561468112533 0 0.01188183462518419 -0.058186460721937144 0 0.012301566858345259 -0.057447662235151943 0 0.012430621685682422 -0.058503822736626597 0 0.01188183462518419 -0.058186460721937144 0 0.012301566858345259 -0.057447662235151943 0 0.012299760070273223 -0.056938561468112533 0 0.012301566858345259 -0.057447662235151943 0 0.012533201343100183 -0.05638927650552629 0 0.012461216065167615 -0.057380761502129972 0 0.013353394366417758 -0.057031406421526341 0 0.012301566858345259 -0.057447662235151943 0 0.012940445981590252 -0.057382403590493361 0 0.013710299600860391 -0.058184394004393521 0 0.012301566858345259 -0.057447662235151943 0 0.012886895406049205 -0.055845354368226525 0 0.012533201343100183 -0.05638927650552629 0 0.012430621685682422 -0.058503822736626597 0 0.012301566858345259 -0.057447662235151943 0 0.012940445981590252 -0.057382403590493361 0 0.014178036561182394 -0.059051445593252941 0 0.014854178224540122 -0.06009862274597446 0 0.015056976360634881 -0.059581712727311324 0 0.012620139780249581 -0.058439226625242174 0 0.013893724812199944 -0.058718567982567672 0 0.014178036561182394 -0.059051445593252941 0 0.012430621685682422 -0.058503822736626597 0 0.014854178224540122 -0.06009862274597446 0 0.0095512970737941308 -0.053474665823729201 0 0.0086379756840698294 -0.053481366951946288 0 0.0091409434511912427 -0.052695500483357999 0 0.0095512970737941308 -0.053474665823729201 0 0.0086379756840698294 -0.053481366951946288 0 0.0091850832333539769 -0.05408253892193475 0 0.0080806959703022055 -0.052843292607798492 0 0.0086379756840698294 -0.053481366951946288 0 0.0091409434511912427 -0.052695500483357999 0 0.0080806959703022055 -0.052843292607798492 0 0.0082729878556632754 -0.052038153910852744 0 0.0091409434511912427 -0.052695500483357999 0 0.0095512970737941308 -0.053474665823729201 0 0.0091409434511912427 -0.052695500483357999 0 0.010225896453698176 -0.053104979207256674 0 0.01072957597289273 -0.052488109187582774 0 0.010030824235690185 -0.052141261807089057 0 0.010225896453698176 -0.053104979207256674 0 0.010030824235690185 -0.052141261807089057 0 0.0091409434511912427 -0.052695500483357999 0 0.010225896453698176 -0.053104979207256674 0 0.01072957597289273 -0.052488109187582774 0 0.011208327044884682 -0.053508680298561921 0 0.010225896453698176 -0.053104979207256674 0 0.0099715958215607029 -0.054928020845357493 0 0.011080879113670998 -0.055912980875695857 0 0.011208327044884682 -0.053508680298561921 0 0.010225896453698176 -0.053104979207256674 0 0.010306687546814554 -0.054140621966666136 0 0.0095512970737941308 -0.053474665823729201 0 0.010225896453698176 -0.053104979207256674 0 0.010306687546814554 -0.054140621966666136 0 0.011208327044884682 -0.053508680298561921 0 0.01171244968569894 -0.054553000758797807 0 0.010306687546814554 -0.054140621966666136 0 0.01171244968569894 -0.054553000758797807 0 0.010306687546814554 -0.054140621966666136 0 0.010649294987811997 -0.055332371808285694 0 0.010306687546814554 -0.054140621966666136 0 0.0093843275378211102 -0.054907931003703621 0 0.010649294987811997 -0.055332371808285694 0 0.010306687546814554 -0.054140621966666136 0 0.0093843275378211102 -0.054907931003703621 0 0.0091850832333539769 -0.05408253892193475 0 0.0095512970737941308 -0.053474665823729201 0 0.010306687546814554 -0.054140621966666136 0 0.0091850832333539769 -0.05408253892193475 0 0.008267816409235091 -0.054347361343406786 0 0.0086379756840698294 -0.053481366951946288 0 0.0091850832333539769 -0.05408253892193475 0 0.008585168235095697 -0.054279333813898552 0 0.0096733300354960514 -0.054863355907549802 0 0.008267816409235091 -0.054347361343406786 0 0.0093843275378211102 -0.054907931003703621 0 0.0091850832333539769 -0.05408253892193475 0 0.0089261569957380261 -0.054201674918987836 0 0.0099541919032974397 -0.054831679193243839 0 0.00930942532005705 -0.05493271546020205 0 0.0087410053967625616 -0.055264382957982749 0 0.00930942532005705 -0.05493271546020205 0 0.0094709533967737153 -0.055603766836067561 0 0.0099541919032974397 -0.054831679193243839 0 0.00930942532005705 -0.05493271546020205 0 0.0094709533967737153 -0.055603766836067561 0 0.0099541919032974397 -0.054831679193243839 0 0.010130352368066109 -0.05574929468743034 0 0.0094709533967737153 -0.055603766836067561 0 0.010130352368066109 -0.05574929468743034 0 0.0094709533967737153 -0.055603766836067561 0 0.0097947170395697222 -0.056069048555730951 0 0.0094715292928118124 -0.056124429435322025 0 0.0097947170395697222 -0.056069048555730951 0 0.0098083733686729225 -0.056296132641351838 0 0.0094715292928118124 -0.056124429435322025 0 0.0094709533967737153 -0.055603766836067561 0 0.0097947170395697222 -0.056069048555730951 0 0.010130352368066109 -0.05574929468743034 0 0.0097947170395697222 -0.056069048555730951 0 0.010223486896393876 -0.056337884172178332 0 0.0098083733686729225 -0.056296132641351838 0 0.010223486896393876 -0.056337884172178332 0 0.0099052159083402296 -0.056509467663160992 0 0.0097947170395697222 -0.056069048555730951 0 0.0098083733686729225 -0.056296132641351838 0 0.010223486896393876 -0.056337884172178332 0 0.0094715292928118124 -0.056124429435322025 0 0.0095517170774862947 -0.056150102555954817 0 0.0098083733686729225 -0.056296132641351838 0 0.0095517170774862947 -0.056150102555954817 0 0.0098083733686729225 -0.056296132641351838 0 0.0097875724778720835 -0.056272601259859389 0 0.010918982822888942 -0.05655964422456311 0 0.010223486896393876 -0.056337884172178332 0 0.010559203358174306 -0.056808789610360448 0 0.010918982822888942 -0.05655964422456311 0 0.010223486896393876 -0.056337884172178332 0 0.010740800246103811 -0.056023646248619059 0 0.010130352368066109 -0.05574929468743034 0 0.010223486896393876 -0.056337884172178332 0 0.010740800246103811 -0.056023646248619059 0 0.010918982822888942 -0.05655964422456311 0 0.010740800246103811 -0.056023646248619059 0 0.011621843805407355 -0.056231149020381503 0 0.010740800246103811 -0.056023646248619059 0 0.011405635924297585 -0.055732454167673896 0 0.011621843805407355 -0.056231149020381503 0 0.010740800246103811 -0.056023646248619059 0 0.010649294987811997 -0.055332371808285694 0 0.011405635924297585 -0.055732454167673896 0 0.010130352368066109 -0.05574929468743034 0 0.010740800246103811 -0.056023646248619059 0 0.010649294987811997 -0.055332371808285694 0 0.0096733300354960514 -0.054863355907549802 0 0.01058670026039747 -0.055299139420745262 0 0.0099541919032974397 -0.054831679193243839 0 0.010130352368066109 -0.05574929468743034 0 0.010649294987811997 -0.055332371808285694 0 0.01171244968569894 -0.054553000758797807 0 0.010649294987811997 -0.055332371808285694 0 0.011405635924297585 -0.055732454167673896 0 0.011998249726438568 -0.055976794962781115 0 0.012289042089098843 -0.055897222225873545 0 0.01171244968569894 -0.054553000758797807 0 0.011405635924297585 -0.055732454167673896 0 0.012326925258875951 -0.055874461787759566 0 0.012299760070273223 -0.056938561468112533 0 0.012326925258875951 -0.055874461787759566 0 0.012481690715192013 -0.056082141095632886 0 0.012326925258875951 -0.055874461787759566 0 0.012481690715192013 -0.056082141095632886 0 0.012564076555146766 -0.056077856446538191 0 0.012326925258875951 -0.055874461787759566 0 0.012564076555146766 -0.056077856446538191 0 0.011621843805407355 -0.056231149020381503 0 0.011405635924297585 -0.055732454167673896 0 0.012326925258875951 -0.055874461787759566 0 0.011621843805407355 -0.056231149020381503 0 0.012886895406049205 -0.055845354368226525 0 0.012830148536494277 -0.055967165621692204 0 0.013513389008911799 -0.055890647598604098 0 0.012886895406049205 -0.055845354368226525 0 0.012533201343100183 -0.05638927650552629 0 0.012830148536494277 -0.055967165621692204 0 0.012299760070273223 -0.056938561468112533 0 0.012533201343100183 -0.05638927650552629 0 0.012481690715192013 -0.056082141095632886 0 0.012533201343100183 -0.05638927650552629 0 0.012481690715192013 -0.056082141095632886 0 0.012830148536494277 -0.055967165621692204 0 0.012564076555146766 -0.056077856446538191 0 0.012830148536494277 -0.055967165621692204 0 0.013259300480370641 -0.056128931760839343 0 0.012481690715192013 -0.056082141095632886 0 0.012564076555146766 -0.056077856446538191 0 0.012830148536494277 -0.055967165621692204 0 0.013513389008911799 -0.055890647598604098 0 0.013259300480370641 -0.056128931760839343 0 0.014226315650410149 -0.056197533940675511 0 0.012830148536494277 -0.055967165621692204 0 0.013513389008911799 -0.055890647598604098 0 0.013259300480370641 -0.056128931760839343 0 0.013926311270709292 -0.05650045414071956 0 0.013259300480370641 -0.056128931760839343 0 0.014226315650410149 -0.056197533940675511 0 0.013926311270709292 -0.05650045414071956 0 0.013259300480370641 -0.056128931760839343 0 0.013171039494161627 -0.056535456968357711 0 0.012564076555146766 -0.056077856446538191 0 0.013171039494161627 -0.056535456968357711 0 0.012319142565729992 -0.056654365806798876 0 0.012564076555146766 -0.056077856446538191 0 0.013259300480370641 -0.056128931760839343 0 0.013171039494161627 -0.056535456968357711 0 0.013171039494161627 -0.056535456968357711 0 0.012319142565729992 -0.056654365806798876 0 0.012959744269623029 -0.057193691295562406 0 0.013171039494161627 -0.056535456968357711 0 0.014073137238012488 -0.057013971836210577 0 0.012959744269623029 -0.057193691295562406 0 0.013926311270709292 -0.05650045414071956 0 0.013171039494161627 -0.056535456968357711 0 0.014073137238012488 -0.057013971836210577 0 0.012564076555146766 -0.056077856446538191 0 0.011621843805407355 -0.056231149020381503 0 0.012319142565729992 -0.056654365806798876 0 0.011621843805407355 -0.056231149020381503 0 0.012319142565729992 -0.056654365806798876 0 0.011553712747250757 -0.0567301293676718 0 0.012319142565729992 -0.056654365806798876 0 0.011553712747250757 -0.0567301293676718 0 0.012035102410636831 -0.057116907943367462 0 0.012319142565729992 -0.056654365806798876 0 0.012035102410636831 -0.057116907943367462 0 0.012959744269623029 -0.057193691295562406 0 0.010918982822888942 -0.05655964422456311 0 0.011621843805407355 -0.056231149020381503 0 0.011553712747250757 -0.0567301293676718 0 0.010918982822888942 -0.05655964422456311 0 0.011553712747250757 -0.0567301293676718 0 0.01114154865414351 -0.057110054769419008 0 0.011553712747250757 -0.0567301293676718 0 0.01114154865414351 -0.057110054769419008 0 0.012035102410636831 -0.057116907943367462 0 0.012035102410636831 -0.057116907943367462 0 0.012331199413170024 -0.058109083042310161 0 0.012959744269623029 -0.057193691295562406 0 0.01114154865414351 -0.057110054769419008 0 0.012035102410636831 -0.057116907943367462 0 0.012331199413170024 -0.058109083042310161 0 0.011251651323556381 -0.057196724869370316 0 0.011575150212441798 -0.057650407064152198 0 0.01114154865414351 -0.057110054769419008 0 0.01106710457288243 -0.05720089403534203 0 0.010559203358174306 -0.056808789610360448 0 0.01114154865414351 -0.057110054769419008 0 0.011166503326558459 -0.057162182551053306 0 0.01106710457288243 -0.05720089403534203 0 0.01409137145041256 -0.056959727442545412 0 0.013852352384044054 -0.058047598972987093 0 0.014073137238012488 -0.057013971836210577 0 0.014149952138405418 -0.057741051888766354 0 0.015219796016800725 -0.057406016823291856 0 0.014073137238012488 -0.057013971836210577 0 0.013680650542896732 -0.057818720443965861 0 0.012959744269623029 -0.057193691295562406 0 0.012331199413170024 -0.058109083042310161 0 0.013680650542896732 -0.057818720443965861 0 0.012959744269623029 -0.057193691295562406 0 0.011575150212441798 -0.057650407064152198 0 0.013505770841514051 -0.057080570333829621 0 0.011166503326558459 -0.057162182551053306 0 0.011243247041155598 -0.057208649041183113 0 0.011185958465711446 -0.057239525483128426 0 0.012331199413170024 -0.058109083042310161 0 0.013680650542896732 -0.057818720443965861 0 0.013449944076903803 -0.058696720556845015 0 0.013852352384044054 -0.058047598972987093 0 0.013505770841514051 -0.057080570333829621 0 0.014149952138405418 -0.057741051888766354 0 0.013852664702331662 -0.058761407613568017 0 0.015003898214661152 -0.058245095126362459 0 0.013852664702331662 -0.058761407613568017 0 0.015366774486354942 -0.059577832431918672 0 0.015003898214661152 -0.058245095126362459 0 0.01498390950027745 -0.054866504691352715 0 0.013204328159080177 -0.049501088661064341 0 0.01018874646375669 -0.052516243415857776 0 0.013505770841514051 -0.057080570333829621 0 0.014617540022414834 -0.056660594993139329 0 0.011243247041155598 -0.057208649041183113 0 0.011185958465711446 -0.057239525483128426 0 0.011198559249270311 -0.057248097288758029 0 0.013505770841514051 -0.057080570333829621 0 0.010129999730873919 -0.052309132096752989 0 0.01498390950027745 -0.054866504691352715 0 0.016178162632716667 -0.049541185008394495 0 0.01532414457419142 -0.049210774798726348 0 0.011185958465711446 -0.057239525483128426 0 0.011198559249270311 -0.057248097288758029 0 0.011116199479720921 -0.057300848661185032 0 0.010129999730873919 -0.052309132096752989 0 0.012237735035943159 -0.052298618458939655 0 0.01498390950027745 -0.054866504691352715 0 0.01532414457419142 -0.049210774798726348 0 0.013204328159080177 -0.049501088661064341 0 0.016675761604513891 -0.047971034946635169 0 0.017471347195123405 -0.047925295880778089 0 0.0035759835740983852 -0.054010013032877772 0 0.0057463560997104441 -0.053612419897388734 0 0.0068728739309962591 -0.055568071585462168 0 0.0065800354243473521 -0.055901904684546269 0 0.0089697235416118706 -0.056380126476958906 0 0.01106710457288243 -0.05720089403534203 0 0.011116199479720921 -0.057300848661185032 0 0.010705858858433811 -0.057278921959191764 0 0.011166503326558459 -0.057162182551053306 0 0.011185958465711446 -0.057239525483128426 0 0.011116199479720921 -0.057300848661185032 0 0.011166503326558459 -0.057162182551053306 0 0.01106710457288243 -0.05720089403534203 0 0.011116199479720921 -0.057300848661185032 0 0.00089278955917326732 -0.052773258083016271 0 0.0035759835740983852 -0.054010013032877772 0 0.0024389674952659587 -0.051948131780924958 0 0.010129999730873919 -0.052309132096752989 0 0.0065800354243473521 -0.055901904684546269 0 0.0035759835740983852 -0.054010013032877772 0 0.004332573490846591 -0.052488847373285831 0 0.0024389674952659587 -0.051948131780924958 0 0.0035759835740983852 -0.054010013032877772 0 0.004332573490846591 -0.052488847373285831 0 0.0057463560997104441 -0.053612419897388734 0 0.004332573490846591 -0.052488847373285831 0 0.0057463560997104441 -0.053612419897388734 0 0.0058757447826760668 -0.051739247043535122 0 0.0082622570299378771 -0.054249961583310247 0 0.0058757447826760668 -0.051739247043535122 0 0.0091539254026640222 -0.051599210852177897 0 0.0057463560997104441 -0.053612419897388734 0 0.0082622570299378771 -0.054249961583310247 0 0.0058757447826760668 -0.051739247043535122 0 0.0057463560997104441 -0.053612419897388734 0 0.0068728739309962591 -0.055568071585462168 0 0.0082622570299378771 -0.054249961583310247 0 0.0068728739309962591 -0.055568071585462168 0 0.0082622570299378771 -0.054249961583310247 0 0.0097926634218881772 -0.056577649482463972 0 0.0089697235416118706 -0.056380126476958906 0 0.0096794859950920832 -0.056600475604297228 0 0.0082622570299378771 -0.054249961583310247 0 0.0095273476521250417 -0.054862473837083314 0 0.0097926634218881772 -0.056577649482463972 0 0.0082622570299378771 -0.054249961583310247 0 0.010552118070577269 -0.053656900674473741 0 0.0091539254026640222 -0.051599210852177897 0 0.008208012067232243 -0.054325793356431451 0 0.01055071498928244 -0.053934891687755393 0 0.0095273476521250417 -0.054862473837083314 0 0.0099613221853896063 -0.055453392047695831 0 0.0098906351453263482 -0.055712371761690166 0 0.010552118070577269 -0.053656900674473741 0 0.012625031621632752 -0.053328471228741146 0 0.0091539254026640222 -0.051599210852177897 0 0.0055126575277072102 -0.041270673918044495 0 0.0036831319941255988 -0.034272761274703682 0 0.01055071498928244 -0.053934891687755393 0 0.0055126575277072102 -0.041270673918044495 0 0.0082606270959437022 -0.04728801980671337 0 0.0055126575277072102 -0.041270673918044495 0 0.0022255212084628232 -0.028270437406899395 0 0.0055126575277072102 -0.041270673918044495 0 -3.2530879195565765e-05 -0.019833135540865004 0 -0.0015055809461382542 -0.019214718416943163 0 -0.0012798045512173669 -0.018564135384002717 0 0.0098927861271132997 -0.055931931328544023 0 0.0099613221853896063 -0.055453392047695831 0 0.0099155606107827268 -0.056096408177405653 0 0.0099613221853896063 -0.055453392047695831 0 0.0099155606107827268 -0.056096408177405653 0 0.0098906351453263482 -0.055712371761690166 0 0.0099155606107827268 -0.056096408177405653 0 0.0098906351453263482 -0.055712371761690166 0 0.0097926634218881772 -0.056577649482463972 0 0.0095273476521250417 -0.054862473837083314 0 0.0098906351453263482 -0.055712371761690166 0 0.0097926634218881772 -0.056577649482463972 0 0.0099155606107827268 -0.056096408177405653 0 0.0097926634218881772 -0.056577649482463972 0 0.0099052159083402296 -0.056509467663160992 0 0.0097664197036843991 -0.056094294447249553 0 0.0099155606107827268 -0.056096408177405653 0 0.0097875724778720835 -0.056272601259859389 0 0.0099155606107827268 -0.056096408177405653 0 0.0097875724778720835 -0.056272601259859389 0 0.0099052159083402296 -0.056509467663160992 0 0.0098083733686729225 -0.056296132641351838 0 0.0097875724778720835 -0.056272601259859389 0 0.0099052159083402296 -0.056509467663160992 0 0.010223486896393876 -0.056337884172178332 0 0.0099052159083402296 -0.056509467663160992 0 0.010559203358174306 -0.056808789610360448 0 0.010918982822888942 -0.05655964422456311 0 0.01114154865414351 -0.057110054769419008 0 0.010559203358174306 -0.056808789610360448 0 0.01106710457288243 -0.05720089403534203 0 0.010705858858433811 -0.057278921959191764 0 0.010559203358174306 -0.056808789610360448 0 0.010705858858433811 -0.057278921959191764 0 0.0097926634218881772 -0.056577649482463972 0 0.010559203358174306 -0.056808789610360448 0 0.0097926634218881772 -0.056577649482463972 0 0.0099052159083402296 -0.056509467663160992 0 0.010559203358174306 -0.056808789610360448 0 0.019160615007550477 -0.056755568737481069 0 0.019489495582902801 -0.056453833399498984 0 0.019761499667795532 -0.056680258203922168 0 0.019160615007550477 -0.056755568737481069 0 0.019428821250109155 -0.056903143530773928 0 0.019761499667795532 -0.056680258203922168 0 0.019160615007550477 -0.056755568737481069 0 0.019428821250109155 -0.056903143530773928 0 0.018746855938445064 -0.056907707887115438 0 0.019428821250109155 -0.056903143530773928 0 0.018746855938445064 -0.056907707887115438 0 0.019246122017718154 -0.056931044036573328 0 0.018746855938445064 -0.056907707887115438 0 0.018550209428801961 -0.056655801523536921 0 0.017961070614274162 -0.056871988251100201 0 0.019160615007550477 -0.056755568737481069 0 0.018746855938445064 -0.056907707887115438 0 0.018550209428801961 -0.056655801523536921 0 0.019160615007550477 -0.056755568737481069 0 0.018550209428801961 -0.056655801523536921 0 0.019489495582902801 -0.056453833399498984 0 0.018550209428801961 -0.056655801523536921 0 0.019489495582902801 -0.056453833399498984 0 0.019090185772299508 -0.056183915174820631 0 0.019489495582902801 -0.056453833399498984 0 0.020318454492556991 -0.056282252149143799 0 0.020028818668646593 -0.055999991883653087 0 0.019489495582902801 -0.056453833399498984 0 0.020318454492556991 -0.056282252149143799 0 0.019761499667795532 -0.056680258203922168 0 0.020318454492556991 -0.056282252149143799 0 0.020710662044929412 -0.055801976880397848 0 0.020896192426085911 -0.056068991518730987 0 0.020318454492556991 -0.056282252149143799 0 0.020425623439925593 -0.056576402617927068 0 0.020896192426085911 -0.056068991518730987 0 0.020318454492556991 -0.056282252149143799 0 0.020425623439925593 -0.056576402617927068 0 0.019761499667795532 -0.056680258203922168 0 0.020425623439925593 -0.056576402617927068 0 0.019761499667795532 -0.056680258203922168 0 0.019839741015988777 -0.056993100051726746 0 0.020511533864754659 -0.056462451289591445 0 0.019643467949802287 -0.057126893404216991 0 0.019643467949802287 -0.057126893404216991 0 0.02030609054183681 -0.051917449592405122 0 0.020425623439925593 -0.056576402617927068 0 0.020344564323540835 -0.056574560706903101 0 0.020640153837034284 -0.056565672064675103 0 0.020425623439925593 -0.056576402617927068 0 0.020640153837034284 -0.056565672064675103 0 0.020993197915850532 -0.056328763653134252 0 0.020344564323540835 -0.056574560706903101 0 0.020640153837034284 -0.056565672064675103 0 0.020495729464857681 -0.056703980931479679 0 0.020344564323540835 -0.056574560706903101 0 0.020495729464857681 -0.056703980931479679 0 0.020220906344814014 -0.056628675892906113 0 0.016533889048175467 -0.044852908206843352 0 0.02030609054183681 -0.051917449592405122 0 0.013344564182759156 -0.034401378908015291 0 0.017064540295113312 -0.035795636352928199 0 0.016910080486734508 -0.033317480433269625 0 0.02030609054183681 -0.051917449592405122 0 0.021782760535714912 -0.056040658844073242 0 0.026218640939812569 -0.054581556231234847 0 0.020267027631273749 -0.056569516950506785 0 0.021932643122145754 -0.058080474506727778 0 0.019618170893291438 -0.05680312109089055 0 0.019660837606287049 -0.056934775986212861 0 0.020267027631273749 -0.056569516950506785 0 0.017781505674789113 -0.034175366334316282 0 0.017064540295113312 -0.035795636352928199 0 0.016910080486734508 -0.033317480433269625 0 0.02030609054183681 -0.051917449592405122 0 0.021307990300189896 -0.040708391375727244 0 0.017781505674789113 -0.034175366334316282 0 0.017064540295113312 -0.035795636352928199 0 0.01918388227197336 -0.03424370509132095 0 0.017781505674789113 -0.034175366334316282 0 0.01918388227197336 -0.03424370509132095 0 0.018090647339662747 -0.033416393683883071 0 0.019428821250109155 -0.056903143530773928 0 0.019839741015988777 -0.056993100051726746 0 0.019660837606287049 -0.056934775986212861 0 0.019839741015988777 -0.056993100051726746 0 0.019618170893291438 -0.05680312109089055 0 0.019660837606287049 -0.056934775986212861 0 0.019428821250109155 -0.056903143530773928 0 0.019761499667795532 -0.056680258203922168 0 0.019839741015988777 -0.056993100051726746 0 0.019246122017718154 -0.056931044036573328 0 0.020267027631273749 -0.056569516950506785 0 0.018489356937406356 -0.05717505274175412 0 0.019428821250109155 -0.056903143530773928 0 0.019660837606287049 -0.056934775986212861 0 0.019246122017718154 -0.056931044036573328 0 0.019660837606287049 -0.056934775986212861 0 0.019246122017718154 -0.056931044036573328 0 0.020267027631273749 -0.056569516950506785 0 0.021307990300189896 -0.040708391375727244 0 0.01968421645900064 -0.047844088826741175 0 0.020267027631273749 -0.056569516950506785 0 0.021932643122145754 -0.058080474506727778 0 0.017973380798930415 -0.057980362365158924 0 0.017973380798930415 -0.057980362365158924 0 0.017539171883610486 -0.057567430041742994 0 0.018489356937406356 -0.05717505274175412 0 0.020267027631273749 -0.056569516950506785 0 0.017973380798930415 -0.057980362365158924 0 0.018489356937406356 -0.05717505274175412 0 0.017973380798930415 -0.057980362365158924 0 0.017539171883610486 -0.057567430041742994 0 0.017205454711463748 -0.057621178497813168 0 0.01968421645900064 -0.047844088826741175 0 0.018496420279283995 -0.046546097884040356 0 0.017539171883610486 -0.057567430041742994 0 0.017965402668721535 -0.057172099471679443 0 0.017203960256894201 -0.057464890991111635 0 0.019246122017718154 -0.056931044036573328 0 0.018489356937406356 -0.05717505274175412 0 0.017965402668721535 -0.057172099471679443 0 0.017539171883610486 -0.057567430041742994 0 0.018489356937406356 -0.05717505274175412 0 0.017965402668721535 -0.057172099471679443 0 0.016897646543345725 -0.057432987819286373 0 0.017187396092824211 -0.057487764699702612 0 0.0170303601418243 -0.057351531270105192 0 0.017471347195123405 -0.047925295880778089 0 0.018496420279283995 -0.046546097884040356 0 0.016897646543345725 -0.057432987819286373 0 0.017205454711463748 -0.057621178497813168 0 0.017187396092824211 -0.057487764699702612 0 0.013204328159080177 -0.049501088661064341 0 0.012717918715544571 -0.0494766558168757 0 0.01018874646375669 -0.052516243415857776 0 0.017471347195123405 -0.047925295880778089 0 0.014617540022414834 -0.056660594993139329 0 0.017539171883610486 -0.057567430041742994 0 0.017205454711463748 -0.057621178497813168 0 0.017187396092824211 -0.057487764699702612 0 0.014617540022414834 -0.056660594993139329 0 0.017318682846748756 -0.05818636368240046 0 0.017187396092824211 -0.057487764699702612 0 0.017203960256894201 -0.057464890991111635 0 0.017216233398181624 -0.05746373158660862 0 0.017539171883610486 -0.057567430041742994 0 0.017187396092824211 -0.057487764699702612 0 0.017203960256894201 -0.057464890991111635 0 0.017203960256894201 -0.057464890991111635 0 0.017216233398181624 -0.05746373158660862 0 0.016901691998774445 -0.057583180959143394 0 0.017794746455663941 -0.057818740594141924 0 0.014617540022414834 -0.056660594993139329 0 0.015366774486354942 -0.059577832431918672 0 0.015003898214661152 -0.058245095126362459 0 0.016901691998774445 -0.057583180959143394 0 0.015003898214661152 -0.058245095126362459 0 0.016901691998774445 -0.057583180959143394 0 0.015219796016800725 -0.057406016823291856 0 0.016901691998774445 -0.057583180959143394 0 0.015219796016800725 -0.057406016823291856 0 0.016255766412127309 -0.057061685506304513 0 0.016901691998774445 -0.057583180959143394 0 0.017150296548195245 -0.056793296593525021 0 0.016255766412127309 -0.057061685506304513 0 0.014149952138405418 -0.057741051888766354 0 0.015003898214661152 -0.058245095126362459 0 0.015219796016800725 -0.057406016823291856 0 0.018746855938445064 -0.056907707887115438 0 0.017965402668721535 -0.057172099471679443 0 0.017961070614274162 -0.056871988251100201 0 0.018746855938445064 -0.056907707887115438 0 0.019246122017718154 -0.056931044036573328 0 0.017965402668721535 -0.057172099471679443 0 0.017965402668721535 -0.057172099471679443 0 0.017203960256894201 -0.057464890991111635 0 0.016901691998774445 -0.057583180959143394 0 0.017965402668721535 -0.057172099471679443 0 0.016901691998774445 -0.057583180959143394 0 0.017961070614274162 -0.056871988251100201 0 0.016901691998774445 -0.057583180959143394 0 0.017961070614274162 -0.056871988251100201 0 0.017150296548195245 -0.056793296593525021 0 0.018550209428801961 -0.056655801523536921 0 0.017961070614274162 -0.056871988251100201 0 0.017419067257049975 -0.056513805682196716 0 0.017961070614274162 -0.056871988251100201 0 0.017419067257049975 -0.056513805682196716 0 0.017150296548195245 -0.056793296593525021 0 0.017419067257049975 -0.056513805682196716 0 0.017150296548195245 -0.056793296593525021 0 0.016859303390321156 -0.057262778460238348 0 0.017150296548195245 -0.056793296593525021 0 0.016829034568462239 -0.056961889873325372 0 0.016255766412127309 -0.057061685506304513 0 0.017150296548195245 -0.056793296593525021 0 0.016829034568462239 -0.056961889873325372 0 0.016859303390321156 -0.057262778460238348 0 0.016829034568462239 -0.056961889873325372 0 0.016726181431271917 -0.057801162589347289 0 0.016859303390321156 -0.057262778460238348 0 0.017283692290543121 -0.056708158441488139 0 0.017130111528871936 -0.056153927893184429 0 0.017419067257049975 -0.056513805682196716 0 0.016859303390321156 -0.057262778460238348 0 0.016172809322906892 -0.057731535485627108 0 0.013926311270709292 -0.05650045414071956 0 0.014073137238012488 -0.057013971836210577 0 0.015072779885794777 -0.056766011129001363 0 0.014073137238012488 -0.057013971836210577 0 0.015219796016800725 -0.057406016823291856 0 0.015072779885794777 -0.056766011129001363 0 0.015219796016800725 -0.057406016823291856 0 0.015072779885794777 -0.056766011129001363 0 0.016255766412127309 -0.057061685506304513 0 0.016829034568462239 -0.056961889873325372 0 0.015072779885794777 -0.056766011129001363 0 0.016255766412127309 -0.057061685506304513 0 0.016829034568462239 -0.056961889873325372 0 0.016726181431271917 -0.057801162589347289 0 0.016567877167165488 -0.05816892077838056 0 0.016829034568462239 -0.056961889873325372 0 0.01519123323809571 -0.0563970753227684 0 0.014766768320689558 -0.055625479911650046 0 0.016647211361735696 -0.057016399108559448 0 0.015400804360483461 -0.057010727869131403 0 0.016829034568462239 -0.056961889873325372 0 0.016122260126299127 -0.058416648799257453 0 0.016567877167165488 -0.05816892077838056 0 0.016829034568462239 -0.056961889873325372 0 0.015072779885794777 -0.056766011129001363 0 0.01519123323809571 -0.0563970753227684 0 0.015072779885794777 -0.056766011129001363 0 0.01519123323809571 -0.0563970753227684 0 0.014226315650410149 -0.056197533940675511 0 0.01519123323809571 -0.0563970753227684 0 0.014226315650410149 -0.056197533940675511 0 0.014766768320689558 -0.055625479911650046 0 0.013926311270709292 -0.05650045414071956 0 0.015072779885794777 -0.056766011129001363 0 0.014226315650410149 -0.056197533940675511 0 0.012886895406049205 -0.055845354368226525 0 0.013513389008911799 -0.055890647598604098 0 0.014766768320689558 -0.055625479911650046 0 0.013513389008911799 -0.055890647598604098 0 0.014226315650410149 -0.056197533940675511 0 0.014766768320689558 -0.055625479911650046 0 0.016122260126299127 -0.058416648799257453 0 0.016567877167165488 -0.05816892077838056 0 0.014879841802372959 -0.058050274949797649 0 0.016567877167165488 -0.05816892077838056 0 0.016536916727576931 -0.058679139231925241 0 0.016476968465222348 -0.05960704743218815 0 0.01643284931120044 -0.058314648235827937 0 0.01565474730536185 -0.058810040703627636 0 0.016726181431271917 -0.057801162589347289 0 0.016567877167165488 -0.05816892077838056 0 0.01662408350467728 -0.058474251911338489 0 0.016536916727576931 -0.058679139231925241 0 0.01662408350467728 -0.058474251911338489 0 0.016563358736536127 -0.05896653876973517 0 0.016567877167165488 -0.05816892077838056 0 0.016536916727576931 -0.058679139231925241 0 0.01662408350467728 -0.058474251911338489 0 0.016502668858862996 -0.059297704200323251 0 0.01649465597447641 -0.059090405198158821 0 0.016563358736536127 -0.05896653876973517 0 0.016536916727576931 -0.058679139231925241 0 0.01649465597447641 -0.059090405198158821 0 0.016563358736536127 -0.05896653876973517 0 0.016419747080625855 -0.059497722024146646 0 0.01649465597447641 -0.059090405198158821 0 0.016476968465222348 -0.05960704743218815 0 0.016502668858862996 -0.059297704200323251 0 0.016419747080625855 -0.059497722024146646 0 0.016387838111813727 -0.059590827685960079 0 0.016502668858862996 -0.059297704200323251 0 0.016419747080625855 -0.059497722024146646 0 0.01649465597447641 -0.059090405198158821 0 0.016536916727576931 -0.058679139231925241 0 0.01649465597447641 -0.059090405198158821 0 0.016476968465222348 -0.05960704743218815 0 0.013353394366417758 -0.057031406421526341 0 0.015400804360483461 -0.057010727869131403 0 0.013710299600860391 -0.058184394004393521 0 0.016122260126299127 -0.058416648799257453 0 0.014879841802372959 -0.058050274949797649 0 0.016419747080625855 -0.059497722024146646 0 0.016476968465222348 -0.05960704743218815 0 0.016101284849196065 -0.059766057494804278 0 0.016418275819116285 -0.058297394577401962 0 0.016172809322906892 -0.057731535485627108 0 0.016220967905521768 -0.058956907025686817 0 0.017130111528871936 -0.056153927893184429 0 0.01793393451243044 -0.058468237947284424 0 0.016172809322906892 -0.057731535485627108 0 0.016220967905521768 -0.058956907025686817 0 0.016063240623186349 -0.059071051855794754 0 0.016418275819116285 -0.058297394577401962 0 0.016630694398681312 -0.058307857932679681 0 0.016497682873118008 -0.058958789124901288 0 0.016418275819116285 -0.058297394577401962 0 0.016497682873118008 -0.058958789124901288 0 0.016220967905521768 -0.058956907025686817 0 0.016859303390321156 -0.057262778460238348 0 0.016418275819116285 -0.058297394577401962 0 0.016172809322906892 -0.057731535485627108 0 0.016859303390321156 -0.057262778460238348 0 0.016418275819116285 -0.058297394577401962 0 0.016630694398681312 -0.058307857932679681 0 0.016726181431271917 -0.057801162589347289 0 0.016859303390321156 -0.057262778460238348 0 0.016630694398681312 -0.058307857932679681 0 0.016726181431271917 -0.057801162589347289 0 0.01662408350467728 -0.058474251911338489 0 0.016630694398681312 -0.058307857932679681 0 0.01662408350467728 -0.058474251911338489 0 0.016630694398681312 -0.058307857932679681 0 0.016601829622737416 -0.058908661586892182 0 0.016630694398681312 -0.058307857932679681 0 0.016601829622737416 -0.058908661586892182 0 0.016497682873118008 -0.058958789124901288 0 0.016601829622737416 -0.058908661586892182 0 0.016615826067823209 -0.059292861291027281 0 0.016497682873118008 -0.058958789124901288 0 0.016601829622737416 -0.058908661586892182 0 0.016563358736536127 -0.05896653876973517 0 0.016589854524615102 -0.059284668879316577 0 0.01662408350467728 -0.058474251911338489 0 0.016601829622737416 -0.058908661586892182 0 0.016563358736536127 -0.05896653876973517 0 0.016502668858862996 -0.059297704200323251 0 0.016563358736536127 -0.05896653876973517 0 0.016589854524615102 -0.059284668879316577 0 0.016502668858862996 -0.059297704200323251 0 0.016589854524615102 -0.059284668879316577 0 0.016531122553143623 -0.059566116329352159 0 0.016589854524615102 -0.059284668879316577 0 0.016615826067823209 -0.059292861291027281 0 0.016675955642561711 -0.059514529593294334 0 0.016601829622737416 -0.058908661586892182 0 0.016589854524615102 -0.059284668879316577 0 0.016615826067823209 -0.059292861291027281 0 0.016615826067823209 -0.059292861291027281 0 0.016497682873118008 -0.058958789124901288 0 0.016566601219694974 -0.059334407366673315 0 0.016497682873118008 -0.058958789124901288 0 0.016220967905521768 -0.058956907025686817 0 0.016374751033638207 -0.059091881288385689 0 0.016220967905521768 -0.058956907025686817 0 0.016374751033638207 -0.059091881288385689 0 0.016228826739053501 -0.059094666882443352 0 0.017470537384679991 -0.058719399560987075 0 0.01793393451243044 -0.058468237947284424 0 0.016497682873118008 -0.058958789124901288 0 0.016374751033638207 -0.059091881288385689 0 0.016566601219694974 -0.059334407366673315 0 0.016374751033638207 -0.059091881288385689 0 0.016566601219694974 -0.059334407366673315 0 0.016228826739053501 -0.059094666882443352 0 0.018311411261630182 -0.054235031303102477 0 0.019085049639813809 -0.054240298522593162 0 0.019477382897763611 -0.053641645496287443 0 0.01793393451243044 -0.058468237947284424 0 0.019591735445910401 -0.057310172723639724 0 0.018311411261630182 -0.054235031303102477 0 0.019085049639813809 -0.054240298522593162 0 0.01856263455953101 -0.054600745083579469 0 0.019085049639813809 -0.054240298522593162 0 0.019623498915748772 -0.054941410705246052 0 0.019875609360623044 -0.054312237738437831 0 0.019085049639813809 -0.054240298522593162 0 0.019875609360623044 -0.054312237738437831 0 0.019477382897763611 -0.053641645496287443 0 0.019085049639813809 -0.054240298522593162 0 0.019623498915748772 -0.054941410705246052 0 0.018850702940066268 -0.0548353358369216 0 0.019623498915748772 -0.054941410705246052 0 0.018850702940066268 -0.0548353358369216 0 0.01885160172991392 -0.055495324515618026 0 0.01794663952297413 -0.05513242014829714 0 0.018311411261630182 -0.054235031303102477 0 0.01856263455953101 -0.054600745083579469 0 0.019085049639813809 -0.054240298522593162 0 0.01856263455953101 -0.054600745083579469 0 0.018850702940066268 -0.0548353358369216 0 0.01794663952297413 -0.05513242014829714 0 0.018850702940066268 -0.0548353358369216 0 0.01885160172991392 -0.055495324515618026 0 0.01794663952297413 -0.05513242014829714 0 0.01856263455953101 -0.054600745083579469 0 0.018850702940066268 -0.0548353358369216 0 0.017419067257049975 -0.056513805682196716 0 0.01794663952297413 -0.05513242014829714 0 0.01885160172991392 -0.055495324515618026 0 0.019623498915748772 -0.054941410705246052 0 0.01885160172991392 -0.055495324515618026 0 0.019608043477166902 -0.05564076337261769 0 0.01885160172991392 -0.055495324515618026 0 0.019608043477166902 -0.05564076337261769 0 0.019090185772299508 -0.056183915174820631 0 0.019608043477166902 -0.05564076337261769 0 0.019090185772299508 -0.056183915174820631 0 0.020028818668646593 -0.055999991883653087 0 0.019489495582902801 -0.056453833399498984 0 0.019090185772299508 -0.056183915174820631 0 0.020028818668646593 -0.055999991883653087 0 0.018550209428801961 -0.056655801523536921 0 0.017419067257049975 -0.056513805682196716 0 0.019090185772299508 -0.056183915174820631 0 0.017419067257049975 -0.056513805682196716 0 0.01885160172991392 -0.055495324515618026 0 0.019090185772299508 -0.056183915174820631 0 0.020318454492556991 -0.056282252149143799 0 0.020710662044929412 -0.055801976880397848 0 0.020028818668646593 -0.055999991883653087 0 0.020710662044929412 -0.055801976880397848 0 0.020028818668646593 -0.055999991883653087 0 0.020312508368279414 -0.055479398598289875 0 0.019623498915748772 -0.054941410705246052 0 0.019608043477166902 -0.05564076337261769 0 0.020312508368279414 -0.055479398598289875 0 0.019608043477166902 -0.05564076337261769 0 0.020028818668646593 -0.055999991883653087 0 0.020312508368279414 -0.055479398598289875 0 0.020710662044929412 -0.055801976880397848 0 0.020312508368279414 -0.055479398598289875 0 0.021168651876404383 -0.055343747347473785 0 0.020312508368279414 -0.055479398598289875 0 0.021168651876404383 -0.055343747347473785 0 0.020721450996478371 -0.054310030532206614 0 0.021168651876404383 -0.055343747347473785 0 0.020721450996478371 -0.054310030532206614 0 0.022200792833342718 -0.054852922211796669 0 0.019623498915748772 -0.054941410705246052 0 0.020312508368279414 -0.055479398598289875 0 0.020721450996478371 -0.054310030532206614 0 0.019623498915748772 -0.054941410705246052 0 0.019875609360623044 -0.054312237738437831 0 0.020721450996478371 -0.054310030532206614 0 0.019875609360623044 -0.054312237738437831 0 0.020721450996478371 -0.054310030532206614 0 0.019477382897763611 -0.053641645496287443 0 0.020721450996478371 -0.054310030532206614 0 0.020688061478657351 -0.053050071651270618 0 0.021752676219865132 -0.053336428708367495 0 0.020688061478657351 -0.053050071651270618 0 0.021752676219865132 -0.053336428708367495 0 0.022009926979038169 -0.052468077698220851 0 0.020746482874455598 -0.056763087844027463 0 0.021774243829773138 -0.056223756117378995 0 0.020729400318078527 -0.06051227648159492 0 0.019630898673362318 -0.06031948235428581 0 0.020132565190323307 -0.059679375860374251 0 0.020746482874455598 -0.056763087844027463 0 0.019591735445910401 -0.057310172723639724 0 0.020729400318078527 -0.06051227648159492 0 0.019503021180102088 -0.061143184608222628 0 0.019630898673362318 -0.06031948235428581 0 0.020721450996478371 -0.054310030532206614 0 0.020688061478657351 -0.053050071651270618 0 0.019477382897763611 -0.053641645496287443 0 0.019503021180102088 -0.061143184608222628 0 0.018697068182353983 -0.060536021333346512 0 0.019630898673362318 -0.06031948235428581 0 0.01793393451243044 -0.058468237947284424 0 0.017891175967501234 -0.060523894215098371 0 0.018496646387520178 -0.061739276179851615 0 0.019503021180102088 -0.061143184608222628 0 0.018697068182353983 -0.060536021333346512 0 0.016566601219694974 -0.059334407366673315 0 0.016228826739053501 -0.059094666882443352 0 0.017231298665633409 -0.059756705923137539 0 0.017891175967501234 -0.060523894215098371 0 0.018738860512919994 -0.059007353189003374 0 0.018697068182353983 -0.060536021333346512 0 0.019630898673362318 -0.06031948235428581 0 0.01935601296953985 -0.059796956137823112 0 0.019630898673362318 -0.06031948235428581 0 0.01935601296953985 -0.059796956137823112 0 0.020132565190323307 -0.059679375860374251 0 0.01935601296953985 -0.059796956137823112 0 0.019647758958138955 -0.059116627600795703 0 0.020132565190323307 -0.059679375860374251 0 0.01935601296953985 -0.059796956137823112 0 0.019647758958138955 -0.059116627600795703 0 0.018802486722596913 -0.059242125333379164 0 0.017231298665633409 -0.059756705923137539 0 0.018802486722596913 -0.059242125333379164 0 0.01760542128635912 -0.059502841143723596 0 0.018697068182353983 -0.060536021333346512 0 0.01935601296953985 -0.059796956137823112 0 0.018802486722596913 -0.059242125333379164 0 0.018802486722596913 -0.059242125333379164 0 0.01760542128635912 -0.059502841143723596 0 0.018113726859941545 -0.059213162152338836 0 0.018802486722596913 -0.059242125333379164 0 0.018811242633598492 -0.058847821072806117 0 0.018113726859941545 -0.059213162152338836 0 0.018802486722596913 -0.059242125333379164 0 0.018811242633598492 -0.058847821072806117 0 0.019433264460572142 -0.058797423341561253 0 0.019647758958138955 -0.059116627600795703 0 0.019433264460572142 -0.058797423341561253 0 0.0197116230312969 -0.058658623862285271 0 0.01922023365071901 -0.059345941488340298 0 0.022197148579410728 -0.057760558455581201 0 0.019647758958138955 -0.059116627600795703 0 0.018802486722596913 -0.059242125333379164 0 0.019433264460572142 -0.058797423341561253 0 0.020372644561979715 -0.058529483696353302 0 0.021166504413209105 -0.058066119720915001 0 0.02106334756664795 -0.059199973044865475 0 0.020372644561979715 -0.058529483696353302 0 0.021166504413209105 -0.058066119720915001 0 0.019988822871757721 -0.057698353901405409 0 0.019647758958138955 -0.059116627600795703 0 0.020372644561979715 -0.058529483696353302 0 0.019988822871757721 -0.057698353901405409 0 0.027171165094818525 -0.05481188285802166 0 0.027061865748270492 -0.054823948656880589 0 0.026958907289116655 -0.054359092324726598 0 0.024335091122236821 -0.056380130278392865 0 0.024677320936114557 -0.056463039984732726 0 0.021166504413209105 -0.058066119720915001 0 0.02106334756664795 -0.059199973044865475 0 0.022337372911608595 -0.058380446913932564 0 0.020729400318078527 -0.06051227648159492 0 0.02106334756664795 -0.059199973044865475 0 0.022137562439711055 -0.059672581910935094 0 0.020729400318078527 -0.06051227648159492 0 0.02106334756664795 -0.059199973044865475 0 0.020132565190323307 -0.059679375860374251 0 0.019647758958138955 -0.059116627600795703 0 0.020372644561979715 -0.058529483696353302 0 0.020132565190323307 -0.059679375860374251 0 0.020372644561979715 -0.058529483696353302 0 0.02106334756664795 -0.059199973044865475 0 0.020132565190323307 -0.059679375860374251 0 0.015056976360634881 -0.059581712727311324 0 0.015668340849242447 -0.059733693282757419 0 0.015385081722718385 -0.059350795283084519 0 0.014178036561182394 -0.059051445593252941 0 0.015056976360634881 -0.059581712727311324 0 0.015385081722718385 -0.059350795283084519 0 0.015668340849242447 -0.059733693282757419 0 0.016031896103122816 -0.05960048780015479 0 0.015385081722718385 -0.059350795283084519 0 0.014854178224540122 -0.06009862274597446 0 0.015056976360634881 -0.059581712727311324 0 0.015668340849242447 -0.059733693282757419 0 0.013893724812199944 -0.058718567982567672 0 0.01565474730536185 -0.058810040703627636 0 0.012940445981590252 -0.057382403590493361 0 0.013710299600860391 -0.058184394004393521 0 0.014879841802372959 -0.058050274949797649 0 0.014854178224540122 -0.06009862274597446 0 0.016476968465222348 -0.05960704743218815 0 0.016101284849196065 -0.059766057494804278 0 0.014854178224540122 -0.06009862274597446 0 0.015668340849242447 -0.059733693282757419 0 0.016101284849196065 -0.059766057494804278 0 0.015668340849242447 -0.059733693282757419 0 0.016101284849196065 -0.059766057494804278 0 0.016278113945629794 -0.059695367539510075 0 0.016101284849196065 -0.059766057494804278 0 0.016278113945629794 -0.059695367539510075 0 0.016387838111813727 -0.059590827685960079 0 0.016419747080625855 -0.059497722024146646 0 0.016101284849196065 -0.059766057494804278 0 0.016387838111813727 -0.059590827685960079 0 0.016502668858862996 -0.059297704200323251 0 0.016387838111813727 -0.059590827685960079 0 0.016531122553143623 -0.059566116329352159 0 0.016278113945629794 -0.059695367539510075 0 0.016387838111813727 -0.059590827685960079 0 0.016531122553143623 -0.059566116329352159 0 0.016278113945629794 -0.059695367539510075 0 0.016508030809929256 -0.059636872471044752 0 0.016531122553143623 -0.059566116329352159 0 0.016278113945629794 -0.059695367539510075 0 0.016527277744373917 -0.059603662788580265 0 0.016508030809929256 -0.059636872471044752 0 0.016278113945629794 -0.059695367539510075 0 0.016031896103122816 -0.05960048780015479 0 0.016527277744373917 -0.059603662788580265 0 0.015668340849242447 -0.059733693282757419 0 0.016278113945629794 -0.059695367539510075 0 0.016031896103122816 -0.05960048780015479 0 0.016031896103122816 -0.05960048780015479 0 0.015883777493904072 -0.059365692318034451 0 0.015385081722718385 -0.059350795283084519 0 0.016031896103122816 -0.05960048780015479 0 0.016177665300675829 -0.059474676800675509 0 0.015883777493904072 -0.059365692318034451 0 0.016177665300675829 -0.059474676800675509 0 0.016527277744373917 -0.059603662788580265 0 0.016471351867639206 -0.059384965933910815 0 0.016031896103122816 -0.05960048780015479 0 0.016177665300675829 -0.059474676800675509 0 0.016527277744373917 -0.059603662788580265 0 0.016527277744373917 -0.059603662788580265 0 0.016693343467242279 -0.059629548425583545 0 0.017056466110215718 -0.059619429301588277 0 0.016527277744373917 -0.059603662788580265 0 0.017056466110215718 -0.059619429301588277 0 0.016829599196444771 -0.05948166731672324 0 0.016527277744373917 -0.059603662788580265 0 0.016829599196444771 -0.05948166731672324 0 0.016471351867639206 -0.059384965933910815 0 0.016693343467242279 -0.059629548425583545 0 0.016873834265298118 -0.05961333596195912 0 0.017056466110215718 -0.059619429301588277 0 0.016527277744373917 -0.059603662788580265 0 0.016508030809929256 -0.059636872471044752 0 0.016693343467242279 -0.059629548425583545 0 0.016508030809929256 -0.059636872471044752 0 0.016531122553143623 -0.059566116329352159 0 0.016693343467242279 -0.059629548425583545 0 0.016531122553143623 -0.059566116329352159 0 0.016675955642561711 -0.059514529593294334 0 0.016693343467242279 -0.059629548425583545 0 0.016589854524615102 -0.059284668879316577 0 0.016531122553143623 -0.059566116329352159 0 0.016675955642561711 -0.059514529593294334 0 0.016675955642561711 -0.059514529593294334 0 0.016693343467242279 -0.059629548425583545 0 0.016873834265298118 -0.05961333596195912 0 0.017231298665633409 -0.059756705923137539 0 0.016873834265298118 -0.05961333596195912 0 0.016747537733189634 -0.059509671899467827 0 0.016566601219694974 -0.059334407366673315 0 0.017231298665633409 -0.059756705923137539 0 0.016747537733189634 -0.059509671899467827 0 0.016675955642561711 -0.059514529593294334 0 0.016873834265298118 -0.05961333596195912 0 0.016747537733189634 -0.059509671899467827 0 0.016615826067823209 -0.059292861291027281 0 0.016566601219694974 -0.059334407366673315 0 0.016747537733189634 -0.059509671899467827 0 0.016615826067823209 -0.059292861291027281 0 0.016675955642561711 -0.059514529593294334 0 0.016747537733189634 -0.059509671899467827 0 0.017231298665633409 -0.059756705923137539 0 0.016873834265298118 -0.05961333596195912 0 0.017056466110215718 -0.059619429301588277 0 0.017231298665633409 -0.059756705923137539 0 0.017056466110215718 -0.059619429301588277 0 0.01760542128635912 -0.059502841143723596 0 0.017273681130369183 -0.059408019820966676 0 0.018113726859941545 -0.059213162152338836 0 0.017680201407084185 -0.058989184605653652 0 0.017056466110215718 -0.059619429301588277 0 0.01760542128635912 -0.059502841143723596 0 0.017273681130369183 -0.059408019820966676 0 0.01760542128635912 -0.059502841143723596 0 0.017273681130369183 -0.059408019820966676 0 0.018113726859941545 -0.059213162152338836 0 0.018811242633598492 -0.058847821072806117 0 0.018113726859941545 -0.059213162152338836 0 0.017680201407084185 -0.058989184605653652 0 0.018811242633598492 -0.058847821072806117 0 0.017680201407084185 -0.058989184605653652 0 0.018599197703400624 -0.058243412467401265 0 0.017680201407084185 -0.058989184605653652 0 0.016817220518825646 -0.058763160626445148 0 0.016823808342559306 -0.059201827809091265 0 0.016817220518825646 -0.058763160626445148 0 0.016823808342559306 -0.059201827809091265 0 0.016452391854146459 -0.058986484251700833 0 0.016823808342559306 -0.059201827809091265 0 0.016471351867639206 -0.059384965933910815 0 0.016350158545959424 -0.059143142778372883 0 0.016823808342559306 -0.059201827809091265 0 0.016350158545959424 -0.059143142778372883 0 0.016452391854146459 -0.058986484251700833 0 0.017273681130369183 -0.059408019820966676 0 0.017680201407084185 -0.058989184605653652 0 0.016823808342559306 -0.059201827809091265 0 0.017056466110215718 -0.059619429301588277 0 0.017273681130369183 -0.059408019820966676 0 0.016829599196444771 -0.05948166731672324 0 0.017273681130369183 -0.059408019820966676 0 0.016823808342559306 -0.059201827809091265 0 0.016829599196444771 -0.05948166731672324 0 0.016823808342559306 -0.059201827809091265 0 0.016829599196444771 -0.05948166731672324 0 0.016471351867639206 -0.059384965933910815 0 0.016471351867639206 -0.059384965933910815 0 0.016097096522437942 -0.059263380834291848 0 0.016350158545959424 -0.059143142778372883 0 0.016177665300675829 -0.059474676800675509 0 0.016471351867639206 -0.059384965933910815 0 0.016097096522437942 -0.059263380834291848 0 0.016177665300675829 -0.059474676800675509 0 0.015883777493904072 -0.059365692318034451 0 0.016097096522437942 -0.059263380834291848 0 0.015883777493904072 -0.059365692318034451 0 0.016097096522437942 -0.059263380834291848 0 0.015702497544197842 -0.059095298492902015 0 0.016097096522437942 -0.059263380834291848 0 0.015702497544197842 -0.059095298492902015 0 0.016018058206125053 -0.059073549674026067 0 0.015702497544197842 -0.059095298492902015 0 0.016018058206125053 -0.059073549674026067 0 0.015735595927540424 -0.05888709590352742 0 0.016018058206125053 -0.059073549674026067 0 0.016350158545959424 -0.059143142778372883 0 0.016105785863798187 -0.058948559093974222 0 0.016097096522437942 -0.059263380834291848 0 0.016018058206125053 -0.059073549674026067 0 0.016350158545959424 -0.059143142778372883 0 0.016817220518825646 -0.058763160626445148 0 0.016452391854146459 -0.058986484251700833 0 0.016195720706717931 -0.058873987300537535 0 0.016350158545959424 -0.059143142778372883 0 0.016452391854146459 -0.058986484251700833 0 0.016105785863798187 -0.058948559093974222 0 0.016452391854146459 -0.058986484251700833 0 0.016105785863798187 -0.058948559093974222 0 0.016195720706717931 -0.058873987300537535 0 0.016105785863798187 -0.058948559093974222 0 0.016195720706717931 -0.058873987300537535 0 0.015902091431375338 -0.058823576290213994 0 0.016817220518825646 -0.058763160626445148 0 0.016195720706717931 -0.058873987300537535 0 0.015816073642334103 -0.058810955528066318 0 0.015816073642334103 -0.058810955528066318 0 0.015674763570485958 -0.058678494184702647 0 0.015902091431375338 -0.058823576290213994 0 0.015674763570485958 -0.058678494184702647 0 0.015902091431375338 -0.058823576290213994 0 0.015735595927540424 -0.05888709590352742 0 0.016195720706717931 -0.058873987300537535 0 0.015816073642334103 -0.058810955528066318 0 0.015902091431375338 -0.058823576290213994 0 0.016105785863798187 -0.058948559093974222 0 0.015902091431375338 -0.058823576290213994 0 0.015735595927540424 -0.05888709590352742 0 0.016018058206125053 -0.059073549674026067 0 0.016105785863798187 -0.058948559093974222 0 0.015735595927540424 -0.05888709590352742 0 0.015674763570485958 -0.058678494184702647 0 0.015735595927540424 -0.05888709590352742 0 0.014885844280738981 -0.05875702070151035 0 0.013582430820603801 -0.05832316298915495 0 0.014885844280738981 -0.05875702070151035 0 0.013734692186456076 -0.057142623101841081 0 0.015674763570485958 -0.058678494184702647 0 0.014885844280738981 -0.05875702070151035 0 0.013734692186456076 -0.057142623101841081 0 0.015816073642334103 -0.058810955528066318 0 0.015674763570485958 -0.058678494184702647 0 0.014667452398956287 -0.059063760623014147 0 0.015702497544197842 -0.059095298492902015 0 0.014885844280738981 -0.05875702070151035 0 0.015385081722718385 -0.059350795283084519 0 0.015702497544197842 -0.059095298492902015 0 0.015735595927540424 -0.05888709590352742 0 0.014885844280738981 -0.05875702070151035 0 0.015883777493904072 -0.059365692318034451 0 0.015702497544197842 -0.059095298492902015 0 0.015385081722718385 -0.059350795283084519 0 0.014178036561182394 -0.059051445593252941 0 0.014885844280738981 -0.05875702070151035 0 0.015385081722718385 -0.059350795283084519 0 0.014535791815157852 -0.058066988195937815 0 0.015875504496018576 -0.058677522946640796 0 0.015863915788249097 -0.057205368161659297 0 0.014535791815157852 -0.058066988195937815 0 0.014667452398956287 -0.059063760623014147 0 0.015875504496018576 -0.058677522946640796 0 0.015483837579883168 -0.05868249559007116 0 0.014188947473153224 -0.058097727270929773 0 0.015816073642334103 -0.058810955528066318 0 0.014667452398956287 -0.059063760623014147 0 0.015875504496018576 -0.058677522946640796 0 0.015984645515546785 -0.058835923573301592 0 0.017469444670039781 -0.058354104634100019 0 0.015816073642334103 -0.058810955528066318 0 0.015875504496018576 -0.058677522946640796 0 0.017581852323996613 -0.058957426976234566 0 0.015875504496018576 -0.058677522946640796 0 0.017581852323996613 -0.058957426976234566 0 0.015863915788249097 -0.057205368161659297 0 0.017680201407084185 -0.058989184605653652 0 0.016817220518825646 -0.058763160626445148 0 0.017349291631287317 -0.057848401971177708 0 0.016817220518825646 -0.058763160626445148 0 0.015816073642334103 -0.058810955528066318 0 0.017349291631287317 -0.057848401971177708 0 0.017680201407084185 -0.058989184605653652 0 0.017349291631287317 -0.057848401971177708 0 0.018599197703400624 -0.058243412467401265 0 0.017349291631287317 -0.057848401971177708 0 0.018599197703400624 -0.058243412467401265 0 0.019448963762524859 -0.056603306093565071 0 0.017469444670039781 -0.058354104634100019 0 0.019918871719893871 -0.057086139316881501 0 0.017581852323996613 -0.058957426976234566 0 0.018391658022998789 -0.056765502958370455 0 0.020315124534325896 -0.057555836063852929 0 0.018391658022998789 -0.056765502958370455 0 0.020315124534325896 -0.057555836063852929 0 0.021087085183312017 -0.056033294871097122 0 0.0199788469840077 -0.054999791547299275 0 0.018391658022998789 -0.056765502958370455 0 0.021087085183312017 -0.056033294871097122 0 0.018391658022998789 -0.056765502958370455 0 0.015863915788249097 -0.057205368161659297 0 0.017094519729427333 -0.054999824059452487 0 0.0199788469840077 -0.054999791547299275 0 0.018391658022998789 -0.056765502958370455 0 0.017094519729427333 -0.054999824059452487 0 0.017581852323996613 -0.058957426976234566 0 0.018391658022998789 -0.056765502958370455 0 0.015863915788249097 -0.057205368161659297 0 0.015863915788249097 -0.057205368161659297 0 0.017094519729427333 -0.054999824059452487 0 0.014210637723598873 -0.054999857141970247 0 0.013305915534664212 -0.056781245958103285 0 0.015863915788249097 -0.057205368161659297 0 0.014210637723598873 -0.054999857141970247 0 0.013305915534664212 -0.056781245958103285 0 0.014535791815157852 -0.058066988195937815 0 0.015863915788249097 -0.057205368161659297 0 0.027119617356822806 -0.05516302384416235 0 0.027270314524593386 -0.055029527988138482 0 0.026874860022281233 -0.055385134523318467 0 0.022197148579410728 -0.057760558455581201 0 0.025752238770898786 -0.05593192047099349 0 0.022597219326476757 -0.059656196157929262 0 0.02201613922576013 -0.057922421464031641 0 0.023752181110726883 -0.056955923956581556 0 0.027119617356822806 -0.05516302384416235 0 0.026874860022281233 -0.055385134523318467 0 0.02727953427348636 -0.055521700566512976 0 0.027119617356822806 -0.05516302384416235 0 0.02727953427348636 -0.055521700566512976 0 0.027068943452701652 -0.055144339423266076 0 0.027171165094818525 -0.05481188285802166 0 0.027119617356822806 -0.05516302384416235 0 0.027061865748270492 -0.054823948656880589 0 0.027119617356822806 -0.05516302384416235 0 0.027068943452701652 -0.055144339423266076 0 0.027061865748270492 -0.054823948656880589 0 0.027171165094818525 -0.05481188285802166 0 0.027119617356822806 -0.05516302384416235 0 0.027270314524593386 -0.055029527988138482 0 0.024335091122236821 -0.056380130278392865 0 0.022197148579410728 -0.057760558455581201 0 0.019433264460572142 -0.058797423341561253 0 0.0197116230312969 -0.058658623862285271 0 0.019905604950400769 -0.05859377048359516 0 0.022597219326476757 -0.059656196157929262 0 0.019905604950400769 -0.05859377048359516 0 0.02201613922576013 -0.057922421464031641 0 0.022197148579410728 -0.057760558455581201 0 0.019734043774705414 -0.058787031831712029 0 0.018811242633598492 -0.058847821072806117 0 0.019433264460572142 -0.058797423341561253 0 0.019905604950400769 -0.05859377048359516 0 0.018811242633598492 -0.058847821072806117 0 0.018599197703400624 -0.058243412467401265 0 0.019905604950400769 -0.05859377048359516 0 0.018599197703400624 -0.058243412467401265 0 0.019905604950400769 -0.05859377048359516 0 0.019448963762524859 -0.056603306093565071 0 0.019905604950400769 -0.05859377048359516 0 0.021805300650723222 -0.056720596581762046 0 0.019448963762524859 -0.056603306093565071 0 0.02201613922576013 -0.057922421464031641 0 0.021805300650723222 -0.056720596581762046 0 0.023752181110726883 -0.056955923956581556 0 0.019905604950400769 -0.05859377048359516 0 0.02201613922576013 -0.057922421464031641 0 0.021805300650723222 -0.056720596581762046 0 0.021805300650723222 -0.056720596581762046 0 0.022752318988376798 -0.055465772683989001 0 0.023752181110726883 -0.056955923956581556 0 0.019918871719893871 -0.057086139316881501 0 0.022502346587431488 -0.055525287841620932 0 0.021805300650723222 -0.056720596581762046 0 0.019448963762524859 -0.056603306093565071 0 0.022752318988376798 -0.055465772683989001 0 0.0199788469840077 -0.054999791547299275 0 0.021087085183312017 -0.056033294871097122 0 0.022863050274646742 -0.054999422679317095 0 0.020315124534325896 -0.057555836063852929 0 0.021087085183312017 -0.056033294871097122 0 0.022752318988376798 -0.055465772683989001 0 0.022863050274646742 -0.054999422679317095 0 0.022752318988376798 -0.055465772683989001 0 0.025746285308393846 -0.054999696416866695 0 0.021087085183312017 -0.056033294871097122 0 0.022863050274646742 -0.054999422679317095 0 0.022752318988376798 -0.055465772683989001 0 0.022752318988376798 -0.055465772683989001 0 0.025746285308393846 -0.054999696416866695 0 0.023752181110726883 -0.056955923956581556 0 0.025747746124172324 -0.055000083067063353 0 0.025752238770898786 -0.05593192047099349 0 0.025755062211916382 -0.054999612541648001 0 0.026874860022281233 -0.055385134523318467 0 0.02727953427348636 -0.055521700566512976 0 0.025755062211916382 -0.054999612541648001 0 0.028353700308836591 -0.054999821453460815 0 0.02727953427348636 -0.055521700566512976 0 0.028353700308836591 -0.054999821453460815 0 0.026930577266002054 -0.055543087464444432 0 0.02727953427348636 -0.055521700566512976 0 0.028361130130659135 -0.055000074521180518 0 0.028876680268536674 -0.056129601807899492 0 0.028361489563626906 -0.055000110908378447 0 0.030961541494331848 -0.056945538549750804 0 0.031636502791579459 -0.054999467736467751 0 0.026930577266002054 -0.055543087464444432 0 0.02727953427348636 -0.055521700566512976 0 0.026793806308960579 -0.055163974807912353 0 0.02727953427348636 -0.055521700566512976 0 0.027068943452701652 -0.055144339423266076 0 0.026793806308960579 -0.055163974807912353 0 0.027068943452701652 -0.055144339423266076 0 0.026793806308960579 -0.055163974807912353 0 0.026600285155686142 -0.054597338522863643 0 0.026600285155686142 -0.054597338522863643 0 0.027061865748270492 -0.054823948656880589 0 0.026958907289116655 -0.054359092324726598 0 0.027068943452701652 -0.055144339423266076 0 0.026600285155686142 -0.054597338522863643 0 0.027061865748270492 -0.054823948656880589 0 0.02983312497358856 -0.056646738606217675 0 0.029736359226898521 -0.056706803385156129 0 0.025392732956580302 -0.053937082210099796 0 0.025597630607903724 -0.054927058995172008 0 0.024697981130910217 -0.053509431104361717 0 0.033784098297005349 -0.058468123497657572 0 0.036295689643401498 -0.058272416403058983 0 0.036552635461549313 -0.059646707602895276 0 0.026600285155686142 -0.054597338522863643 0 0.025392732956580302 -0.053937082210099796 0 0.025597630607903724 -0.054927058995172008 0 0.028876680268536674 -0.056129601807899492 0 0.02983312497358856 -0.056646738606217675 0 0.026930577266002054 -0.055543087464444432 0 0.026793806308960579 -0.055163974807912353 0 0.025597630607903724 -0.054927058995172008 0 0.026793806308960579 -0.055163974807912353 0 0.026600285155686142 -0.054597338522863643 0 0.025597630607903724 -0.054927058995172008 0 0.033784098297005349 -0.058468123497657572 0 0.036295689643401498 -0.058272416403058983 0 0.035611168799618918 -0.05728202611388554 0 0.033784098297005349 -0.058468123497657572 0 0.033963154963691088 -0.056411539454709975 0 0.035611168799618918 -0.05728202611388554 0 0.030961541494331848 -0.056945538549750804 0 0.033784098297005349 -0.058468123497657572 0 0.033963154963691088 -0.056411539454709975 0 0.030961541494331848 -0.056945538549750804 0 0.033963154963691088 -0.056411539454709975 0 0.031636502791579459 -0.054999467736467751 0 0.033963154963691088 -0.056411539454709975 0 0.031636502791579459 -0.054999467736467751 0 0.034911096911933739 -0.054999448645706342 0 0.033963154963691088 -0.056411539454709975 0 0.034911096911933739 -0.054999448645706342 0 0.036574181318479698 -0.05627952806109305 0 0.034911096911933739 -0.054999448645706342 0 0.036574181318479698 -0.05627952806109305 0 0.038185663826458868 -0.05499935175090695 0 0.036574181318479698 -0.05627952806109305 0 0.038185663826458868 -0.05499935175090695 0 0.039153941210738945 -0.056644514400897933 0 0.036574181318479698 -0.05627952806109305 0 0.039153941210738945 -0.056644514400897933 0 0.037483951281303315 -0.057394075505612999 0 0.033963154963691088 -0.056411539454709975 0 0.036574181318479698 -0.05627952806109305 0 0.035611168799618918 -0.05728202611388554 0 0.036574181318479698 -0.05627952806109305 0 0.035611168799618918 -0.05728202611388554 0 0.037483951281303315 -0.057394075505612999 0 0.038185663826458868 -0.05499935175090695 0 0.041358626475333587 -0.056326714048424244 0 0.041459974397244755 -0.054999333481145385 0 0.038185663826458868 -0.05499935175090695 0 0.039153941210738945 -0.056644514400897933 0 0.041358626475333587 -0.056326714048424244 0 0.039153941210738945 -0.056644514400897933 0 0.041358626475333587 -0.056326714048424244 0 0.041160803104942918 -0.057390437063808947 0 0.041358626475333587 -0.056326714048424244 0 0.041160803104942918 -0.057390437063808947 0 0.043479830147619442 -0.057529149996071796 0 0.039153941210738945 -0.056644514400897933 0 0.041160803104942918 -0.057390437063808947 0 0.039406305248055211 -0.057755648781964278 0 0.041160803104942918 -0.057390437063808947 0 0.039406305248055211 -0.057755648781964278 0 0.040822758001865855 -0.058730406240035012 0 0.039406305248055211 -0.057755648781964278 0 0.040822758001865855 -0.058730406240035012 0 0.038299884659150789 -0.058591896336497758 0 0.041160803104942918 -0.057390437063808947 0 0.040822758001865855 -0.058730406240035012 0 0.042574136448548183 -0.058199235735026458 0 0.036295689643401498 -0.058272416403058983 0 0.035611168799618918 -0.05728202611388554 0 0.037483951281303315 -0.057394075505612999 0 0.039153941210738945 -0.056644514400897933 0 0.039406305248055211 -0.057755648781964278 0 0.037483951281303315 -0.057394075505612999 0 0.036295689643401498 -0.058272416403058983 0 0.037483951281303315 -0.057394075505612999 0 0.038299884659150789 -0.058591896336497758 0 0.039406305248055211 -0.057755648781964278 0 0.037483951281303315 -0.057394075505612999 0 0.038299884659150789 -0.058591896336497758 0 0.040822758001865855 -0.058730406240035012 0 0.038299884659150789 -0.058591896336497758 0 0.039335025839933493 -0.059634022195412577 0 0.036295689643401498 -0.058272416403058983 0 0.038299884659150789 -0.058591896336497758 0 0.036552635461549313 -0.059646707602895276 0 0.024697981130910217 -0.053509431104361717 0 0.025049678622645975 -0.05291029522687047 0 0.024902696182362311 -0.053129695861964657 0 0.024697981130910217 -0.053509431104361717 0 0.024902696182362311 -0.053129695861964657 0 0.024875970219778311 -0.053122712862805239 0 0.038299884659150789 -0.058591896336497758 0 0.036552635461549313 -0.059646707602895276 0 0.039335025839933493 -0.059634022195412577 0 0.029736359226898521 -0.056706803385156129 0 0.03714921211469209 -0.055618755459737983 0 0.036552635461549313 -0.059646707602895276 0 0.039335025839933493 -0.059634022195412577 0 0.039373279121804557 -0.06160537563979359 0 0.039335025839933493 -0.059634022195412577 0 0.040014377919976619 -0.060310830163821383 0 0.040550112379802015 -0.059733853283273936 0 0.039502856273862672 -0.061533332429351835 0 0.03714921211469209 -0.055618755459737983 0 0.03714921211469209 -0.055618755459737983 0 0.020972129105084659 -0.051359003705496488 0 0.025405415568822184 -0.053043972461356871 0 0.025106922007482314 -0.053105800297654847 0 0.024902696182362311 -0.053129695861964657 0 0.025405415568822184 -0.053043972461356871 0 0.025313256746625275 -0.053110776607113261 0 0.025345686014509473 -0.05330702744861926 0 0.025405415568822184 -0.053043972461356871 0 0.025313256746625275 -0.053110776607113261 0 0.025106922007482314 -0.053105800297654847 0 0.025313256746625275 -0.053110776607113261 0 0.025106922007482314 -0.053105800297654847 0 0.025202227417239001 -0.05317740322127492 0 0.025098098230824328 -0.053135002983424592 0 0.025106922007482314 -0.053105800297654847 0 0.02495376561077323 -0.053037038434089911 0 0.025098098230824328 -0.053135002983424592 0 0.025106922007482314 -0.053105800297654847 0 0.025202227417239001 -0.05317740322127492 0 0.02495376561077323 -0.053037038434089911 0 0.024902696182362311 -0.053129695861964657 0 0.024875970219778311 -0.053122712862805239 0 0.025106922007482314 -0.053105800297654847 0 0.02495376561077323 -0.053037038434089911 0 0.024902696182362311 -0.053129695861964657 0 0.040822758001865855 -0.058730406240035012 0 0.042574136448548183 -0.058199235735026458 0 0.042964303823283659 -0.058817987936150291 0 0.040822758001865855 -0.058730406240035012 0 0.042964303823283659 -0.058817987936150291 0 0.041904036828275336 -0.059390127883922332 0 0.040822758001865855 -0.058730406240035012 0 0.039335025839933493 -0.059634022195412577 0 0.040550112379802015 -0.059733853283273936 0 0.040822758001865855 -0.058730406240035012 0 0.040550112379802015 -0.059733853283273936 0 0.041904036828275336 -0.059390127883922332 0 0.03714921211469209 -0.055618755459737983 0 0.047548784412715157 -0.059131546322049332 0 0.040014377919976619 -0.060310830163821383 0 0.041584608199776663 -0.059847504698112099 0 0.043104332339595916 -0.060167327753298402 0 0.040014377919976619 -0.060310830163821383 0 0.040550112379802015 -0.059733853283273936 0 0.041584608199776663 -0.059847504698112099 0 0.041584608199776663 -0.059847504698112099 0 0.041904036828275336 -0.059390127883922332 0 0.042393831417814699 -0.059716766068627726 0 0.040550112379802015 -0.059733853283273936 0 0.041584608199776663 -0.059847504698112099 0 0.041904036828275336 -0.059390127883922332 0 0.041904036828275336 -0.059390127883922332 0 0.042393831417814699 -0.059716766068627726 0 0.043403348996274134 -0.059235083766965069 0 0.042393831417814699 -0.059716766068627726 0 0.043403348996274134 -0.059235083766965069 0 0.043104332339595916 -0.060167327753298402 0 0.041584608199776663 -0.059847504698112099 0 0.042393831417814699 -0.059716766068627726 0 0.043104332339595916 -0.060167327753298402 0 0.042964303823283659 -0.058817987936150291 0 0.041904036828275336 -0.059390127883922332 0 0.043403348996274134 -0.059235083766965069 0 0.048814195407012179 -0.056992582158506611 0 0.048511367598307813 -0.056414931609959994 0 0.047795533798682253 -0.056231781303425092 0 0.043403348996274134 -0.059235083766965069 0 0.043104332339595916 -0.060167327753298402 0 0.044801917537580671 -0.058859794062944004 0 0.048814195407012179 -0.056992582158506611 0 0.048914672450329419 -0.056857122179084472 0 0.048511367598307813 -0.056414931609959994 0 0.03714921211469209 -0.055618755459737983 0 0.045642884117344934 -0.054240300753369962 0 0.048662432471271597 -0.056778239170601881 0 0.048814195407012179 -0.056992582158506611 0 0.048914672450329419 -0.056857122179084472 0 0.040032385147406653 -0.05133612216768027 0 0.040272825457972672 -0.051369841922985618 0 0.040145471952023414 -0.051380898120657652 0 0.040145471952023414 -0.051380898120657652 0 0.04011702084990254 -0.051409603193207074 0 0.040099747827663061 -0.051388217133084932 0 0.040272825457972672 -0.051369841922985618 0 0.040145471952023414 -0.051380898120657652 0 0.040137746841746508 -0.051427080009431969 0 0.040145471952023414 -0.051380898120657652 0 0.04011702084990254 -0.051409603193207074 0 0.040137746841746508 -0.051427080009431969 0 0.040141979594175092 -0.051392395340921548 0 0.040127931539258664 -0.051196445070063767 0 0.040137746841746508 -0.051427080009431969 0 0.040414981928367601 -0.051362812651351585 0 0.040636683953751626 -0.051286161062466258 0 0.040137746841746508 -0.051427080009431969 0 0.039704859631403966 -0.051251240796277124 0 0.039968868101682375 -0.051303906166274359 0 0.040137746841746508 -0.051427080009431969 0 0.040094941504263307 -0.051428800146192777 0 0.039968868101682375 -0.051303906166274359 0 0.04011702084990254 -0.051409603193207074 0 0.040137746841746508 -0.051427080009431969 0 0.040094941504263307 -0.051428800146192777 0 0.040272825457972672 -0.051369841922985618 0 0.040137746841746508 -0.051427080009431969 0 0.040414981928367601 -0.051362812651351585 0 0.045642884117344934 -0.054240300753369962 0 0.044219662123144092 -0.053222706204231404 0 0.040272825457972672 -0.051369841922985618 0 0.040414981928367601 -0.051362812651351585 0 0.040568895471580886 -0.051341755551500556 0 0.048914672450329419 -0.056857122179084472 0 0.048392076642682649 -0.055464021567281356 0 0.048511367598307813 -0.056414931609959994 0 0.040414981928367601 -0.051362812651351585 0 0.040568895471580886 -0.051341755551500556 0 0.040636683953751626 -0.051286161062466258 0 0.048392076642682649 -0.055464021567281356 0 0.048511367598307813 -0.056414931609959994 0 0.047795533798682253 -0.056231781303425092 0 0.02495376561077323 -0.053037038434089911 0 0.025133883807848853 -0.053292443532133013 0 0.024848093520528438 -0.053345298434662812 0 0.025098098230824328 -0.053135002983424592 0 0.02495376561077323 -0.053037038434089911 0 0.025133883807848853 -0.053292443532133013 0 0.025098098230824328 -0.053135002983424592 0 0.025133883807848853 -0.053292443532133013 0 0.025202227417239001 -0.05317740322127492 0 0.025405415568822184 -0.053043972461356871 0 0.025345686014509473 -0.05330702744861926 0 0.025547226946598969 -0.053515363930624414 0 0.040032385147406653 -0.05133612216768027 0 0.040099747827663061 -0.051388217133084932 0 0.040094941504263307 -0.051428800146192777 0 0.03714921211469209 -0.055618755459737983 0 0.032335490182680303 -0.051792986508850246 0 0.025133883807848853 -0.053292443532133013 0 0.025202227417239001 -0.05317740322127492 0 0.025345686014509473 -0.05330702744861926 0 0.025313256746625275 -0.053110776607113261 0 0.025202227417239001 -0.05317740322127492 0 0.025345686014509473 -0.05330702744861926 0 0.040032385147406653 -0.05133612216768027 0 0.040145471952023414 -0.051380898120657652 0 0.040099747827663061 -0.051388217133084932 0 0.04011702084990254 -0.051409603193207074 0 0.040099747827663061 -0.051388217133084932 0 0.040094941504263307 -0.051428800146192777 0 0.025133883807848853 -0.053292443532133013 0 0.025345686014509473 -0.05330702744861926 0 0.025312658132035482 -0.053509982797123046 0 0.025345686014509473 -0.05330702744861926 0 0.025312658132035482 -0.053509982797123046 0 0.025547226946598969 -0.053515363930624414 0 0.025312658132035482 -0.053509982797123046 0 0.025547226946598969 -0.053515363930624414 0 0.025673872997823446 -0.054090571403603002 0 0.025312658132035482 -0.053509982797123046 0 0.025180251132314695 -0.053712380851686524 0 0.025673872997823446 -0.054090571403603002 0 0.040094941504263307 -0.051428800146192777 0 0.039998245852909696 -0.051181978133140418 0 0.039968868101682375 -0.051303906166274359 0 0.032335490182680303 -0.051792986508850246 0 0.033176164161627171 -0.052512237694700668 0 0.025180251132314695 -0.053712380851686524 0 0.024848093520528438 -0.053345298434662812 0 0.024857480852681576 -0.054012352540060649 0 0.025133883807848853 -0.053292443532133013 0 0.025312658132035482 -0.053509982797123046 0 0.025180251132314695 -0.053712380851686524 0 0.025133883807848853 -0.053292443532133013 0 0.025180251132314695 -0.053712380851686524 0 0.024848093520528438 -0.053345298434662812 0 0.024271425982017713 -0.053521451863437569 0 0.024848093520528438 -0.053345298434662812 0 0.024857480852681576 -0.054012352540060649 0 0.0243467906841126 -0.053625636880053056 0 0.024661347706535969 -0.053941703929718011 0 0.024271425982017713 -0.053521451863437569 0 0.024848093520528438 -0.053345298434662812 0 0.024876929795925061 -0.052689552739180689 0 0.024271425982017713 -0.053521451863437569 0 0.0233193155332834 -0.053721362111294621 0 0.023288116387023633 -0.052977329186531627 0 0.024271425982017713 -0.053521451863437569 0 0.023288116387023633 -0.052977329186531627 0 0.024876929795925061 -0.052689552739180689 0 0.024271425982017713 -0.053521451863437569 0 0.0233193155332834 -0.053721362111294621 0 0.023617133150604968 -0.054599440406008913 0 0.020721450996478371 -0.054310030532206614 0 0.021752676219865132 -0.053336428708367495 0 0.022355883563587454 -0.05402933776918907 0 0.0233193155332834 -0.053721362111294621 0 0.021752676219865132 -0.053336428708367495 0 0.022355883563587454 -0.05402933776918907 0 0.021752676219865132 -0.053336428708367495 0 0.023288116387023633 -0.052977329186531627 0 0.022009926979038169 -0.052468077698220851 0 0.0233193155332834 -0.053721362111294621 0 0.021752676219865132 -0.053336428708367495 0 0.023288116387023633 -0.052977329186531627 0 0.023288116387023633 -0.052977329186531627 0 0.022009926979038169 -0.052468077698220851 0 0.023398883319756137 -0.05186901670221164 0 0.021774243829773138 -0.056223756117378995 0 0.024867397480954456 -0.054725491881381726 0 0.022137562439711055 -0.059672581910935094 0 0.022337372911608595 -0.058380446913932564 0 0.02356043256270322 -0.058724741830325972 0 0.02106334756664795 -0.059199973044865475 0 0.022137562439711055 -0.059672581910935094 0 0.022337372911608595 -0.058380446913932564 0 0.024677320936114557 -0.056463039984732726 0 0.024867397480954456 -0.054725491881381726 0 0.026600285155686142 -0.054597338522863643 0 0.026958907289116655 -0.054359092324726598 0 0.02643390806388422 -0.053843532004871797 0 0.026600285155686142 -0.054597338522863643 0 0.025392732956580302 -0.053937082210099796 0 0.02643390806388422 -0.053843532004871797 0 0.026047476403089062 -0.053459749639330104 0 0.024867397480954456 -0.054725491881381726 0 0.025392732956580302 -0.053937082210099796 0 0.026205973428384242 -0.053097567734914732 0 0.024876929795925061 -0.052689552739180689 0 0.025392732956580302 -0.053937082210099796 0 0.024697981130910217 -0.053509431104361717 0 0.024875970219778311 -0.053122712862805239 0 0.025392732956580302 -0.053937082210099796 0 0.024875970219778311 -0.053122712862805239 0 0.024876929795925061 -0.052689552739180689 0 0.02495376561077323 -0.053037038434089911 0 0.024848093520528438 -0.053345298434662812 0 0.024876929795925061 -0.052689552739180689 0 0.02495376561077323 -0.053037038434089911 0 0.024875970219778311 -0.053122712862805239 0 0.024876929795925061 -0.052689552739180689 0 0.023288116387023633 -0.052977329186531627 0 0.023398883319756137 -0.05186901670221164 0 0.024876929795925061 -0.052689552739180689 0 0.024867397480954456 -0.054725491881381726 0 0.024673471433501126 -0.052247446953014094 0 0.054993229224253641 -0.05500071544188323 0 0.055632895607316719 -0.052425891946995186 0 0.055000500368368684 -0.04671572682238026 0 0.056793881468288843 -0.04949607124956179 0 0.055632895607316719 -0.052425891946995186 0 0.055000500368368684 -0.04671572682238026 0 0.053995325545445366 -0.053755548960421971 0 0.05554280107978312 -0.052104357182723916 0 0.051416840607135215 -0.057164398502807766 0 0.05111748743746445 -0.055307176312307964 0 0.055632895607316719 -0.052425891946995186 0 0.051487926522979226 -0.055433867777936102 0 0.053767413979955408 -0.05429926401903281 0 0.054993229224253641 -0.05500071544188323 0 0.055632895607316719 -0.052425891946995186 0 0.055738285955021033 -0.052485167505509876 0 0.054993229224253641 -0.05500071544188323 0 0.054567300312901169 -0.054996771739222065 0 0.055738285955021033 -0.052485167505509876 0 0.054557199186507893 -0.054999425366707266 0 0.053767413979955408 -0.05429926401903281 0 0.0545555385875761 -0.054999856611728487 0 0.051483244377924897 -0.055652930149327547 0 0.051282053957911182 -0.05499902088220366 0 0.0545555385875761 -0.054999856611728487 0 0.051483244377924897 -0.055652930149327547 0 0.052112132338389454 -0.05609427602323909 0 0.05111748743746445 -0.055307176312307964 0 0.052112132338389454 -0.05609427602323909 0 0.050608911686455219 -0.055834868005075894 0 0.05111748743746445 -0.055307176312307964 0 0.055632895607316719 -0.052425891946995186 0 0.055738285955021033 -0.052485167505509876 0 0.051483244377924897 -0.055652930149327547 0 0.052112132338389454 -0.05609427602323909 0 0.050608911686455219 -0.055834868005075894 0 0.051483244377924897 -0.055652930149327547 0 0.050608911686455219 -0.055834868005075894 0 0.049410661062904093 -0.055597456519910486 0 0.050608911686455219 -0.055834868005075894 0 0.048559642830672024 -0.056175007171355748 0 0.050003656573654659 -0.055892766242703375 0 0.051483244377924897 -0.055652930149327547 0 0.051282053957911182 -0.05499902088220366 0 0.049410661062904093 -0.055597456519910486 0 0.051282053957911182 -0.05499902088220366 0 0.049410661062904093 -0.055597456519910486 0 0.048008238387631075 -0.054999058017393174 0 0.049410661062904093 -0.055597456519910486 0 0.048559642830672024 -0.056175007171355748 0 0.046586899654269903 -0.056043366314614498 0 0.050608911686455219 -0.055834868005075894 0 0.049410661062904093 -0.055597456519910486 0 0.048559642830672024 -0.056175007171355748 0 0.048559642830672024 -0.056175007171355748 0 0.047904087245515432 -0.056913936555772024 0 0.049167234831152956 -0.056421305461228387 0 0.048559642830672024 -0.056175007171355748 0 0.049167234831152956 -0.056421305461228387 0 0.050003656573654659 -0.055892766242703375 0 0.05111748743746445 -0.055307176312307964 0 0.049167234831152956 -0.056421305461228387 0 0.049944115623979234 -0.056776887052967039 0 0.05111748743746445 -0.055307176312307964 0 0.050608911686455219 -0.055834868005075894 0 0.050003656573654659 -0.055892766242703375 0 0.05111748743746445 -0.055307176312307964 0 0.049167234831152956 -0.056421305461228387 0 0.050003656573654659 -0.055892766242703375 0 0.049167234831152956 -0.056421305461228387 0 0.049944115623979234 -0.056776887052967039 0 0.048362801134996171 -0.057309691708162018 0 0.051416840607135215 -0.057164398502807766 0 0.05111748743746445 -0.055307176312307964 0 0.049944115623979234 -0.056776887052967039 0 0.051416840607135215 -0.057164398502807766 0 0.049944115623979234 -0.056776887052967039 0 0.049358278639136451 -0.0575708468938671 0 0.049944115623979234 -0.056776887052967039 0 0.048362801134996171 -0.057309691708162018 0 0.049358278639136451 -0.0575708468938671 0 0.047904087245515432 -0.056913936555772024 0 0.048362801134996171 -0.057309691708162018 0 0.046903684551956752 -0.0577031040011814 0 0.047904087245515432 -0.056913936555772024 0 0.049167234831152956 -0.056421305461228387 0 0.048362801134996171 -0.057309691708162018 0 0.047904087245515432 -0.056913936555772024 0 0.046903684551956752 -0.0577031040011814 0 0.046610686876580196 -0.05700451996716685 0 0.046903684551956752 -0.0577031040011814 0 0.045382130445132479 -0.057896922908643407 0 0.046610686876580196 -0.05700451996716685 0 0.045161301445385466 -0.056981984777617033 0 0.046610686876580196 -0.05700451996716685 0 0.046586899654269903 -0.056043366314614498 0 0.045382130445132479 -0.057896922908643407 0 0.045161301445385466 -0.056981984777617033 0 0.046610686876580196 -0.05700451996716685 0 0.048559642830672024 -0.056175007171355748 0 0.047904087245515432 -0.056913936555772024 0 0.046610686876580196 -0.05700451996716685 0 0.048559642830672024 -0.056175007171355748 0 0.046610686876580196 -0.05700451996716685 0 0.046586899654269903 -0.056043366314614498 0 0.046586899654269903 -0.056043366314614498 0 0.048008238387631075 -0.054999058017393174 0 0.044734045337472036 -0.054999294095746325 0 0.049410661062904093 -0.055597456519910486 0 0.046586899654269903 -0.056043366314614498 0 0.048008238387631075 -0.054999058017393174 0 0.046586899654269903 -0.056043366314614498 0 0.044734045337472036 -0.054999294095746325 0 0.043794291218427019 -0.056221530537242888 0 0.045161301445385466 -0.056981984777617033 0 0.046586899654269903 -0.056043366314614498 0 0.043794291218427019 -0.056221530537242888 0 0.044734045337472036 -0.054999294095746325 0 0.043794291218427019 -0.056221530537242888 0 0.041459974397244755 -0.054999333481145385 0 0.041358626475333587 -0.056326714048424244 0 0.043794291218427019 -0.056221530537242888 0 0.041459974397244755 -0.054999333481145385 0 0.041358626475333587 -0.056326714048424244 0 0.043794291218427019 -0.056221530537242888 0 0.043479830147619442 -0.057529149996071796 0 0.041160803104942918 -0.057390437063808947 0 0.042574136448548183 -0.058199235735026458 0 0.043479830147619442 -0.057529149996071796 0 0.045382130445132479 -0.057896922908643407 0 0.045161301445385466 -0.056981984777617033 0 0.043479830147619442 -0.057529149996071796 0 0.045161301445385466 -0.056981984777617033 0 0.043794291218427019 -0.056221530537242888 0 0.043479830147619442 -0.057529149996071796 0 0.045382130445132479 -0.057896922908643407 0 0.043479830147619442 -0.057529149996071796 0 0.044110673715087291 -0.058400194466629571 0 0.042574136448548183 -0.058199235735026458 0 0.043479830147619442 -0.057529149996071796 0 0.044110673715087291 -0.058400194466629571 0 0.042964303823283659 -0.058817987936150291 0 0.044110673715087291 -0.058400194466629571 0 0.044508923284432227 -0.05880413551526921 0 0.042574136448548183 -0.058199235735026458 0 0.042964303823283659 -0.058817987936150291 0 0.044110673715087291 -0.058400194466629571 0 0.045382130445132479 -0.057896922908643407 0 0.044110673715087291 -0.058400194466629571 0 0.045258037960006908 -0.058589642846598025 0 0.044110673715087291 -0.058400194466629571 0 0.045258037960006908 -0.058589642846598025 0 0.044508923284432227 -0.05880413551526921 0 0.045258037960006908 -0.058589642846598025 0 0.045625051751052019 -0.058332634702343955 0 0.045547987701035159 -0.058356433036731978 0 0.045258037960006908 -0.058589642846598025 0 0.044508923284432227 -0.05880413551526921 0 0.045625051751052019 -0.058332634702343955 0 0.044508923284432227 -0.05880413551526921 0 0.044801917537580671 -0.058859794062944004 0 0.045625051751052019 -0.058332634702343955 0 0.042964303823283659 -0.058817987936150291 0 0.043403348996274134 -0.059235083766965069 0 0.044508923284432227 -0.05880413551526921 0 0.043403348996274134 -0.059235083766965069 0 0.044508923284432227 -0.05880413551526921 0 0.044801917537580671 -0.058859794062944004 0 0.048814195407012179 -0.056992582158506611 0 0.047795533798682253 -0.056231781303425092 0 0.046554033767424764 -0.057158701638872378 0 0.043104332339595916 -0.060167327753298402 0 0.044801917537580671 -0.058859794062944004 0 0.046554033767424764 -0.057158701638872378 0 0.047548784412715157 -0.059131546322049332 0 0.045481285342393728 -0.056969681696010487 0 0.047795533798682253 -0.056231781303425092 0 0.046922560539106081 -0.055370377984013057 0 0.046554033767424764 -0.057158701638872378 0 0.047795533798682253 -0.056231781303425092 0 0.046922560539106081 -0.055370377984013057 0 0.04740146672319169 -0.055071240067704273 0 0.048392076642682649 -0.055464021567281356 0 0.047795533798682253 -0.056231781303425092 0 0.04740146672319169 -0.055071240067704273 0 0.046984179129932753 -0.054220887939338817 0 0.046922560539106081 -0.055370377984013057 0 0.046063479198307847 -0.056897259317146759 0 0.046984179129932753 -0.054220887939338817 0 0.046922560539106081 -0.055370377984013057 0 0.046899613152408232 -0.054656071558689248 0 0.046922560539106081 -0.055370377984013057 0 0.046554033767424764 -0.057158701638872378 0 0.046063479198307847 -0.056897259317146759 0 0.046063479198307847 -0.056897259317146759 0 0.045625051751052019 -0.058332634702343955 0 0.045547987701035159 -0.058356433036731978 0 0.044801917537580671 -0.058859794062944004 0 0.046554033767424764 -0.057158701638872378 0 0.045625051751052019 -0.058332634702343955 0 0.046554033767424764 -0.057158701638872378 0 0.046063479198307847 -0.056897259317146759 0 0.045625051751052019 -0.058332634702343955 0 0.046063479198307847 -0.056897259317146759 0 0.045547987701035159 -0.058356433036731978 0 0.045374341040793596 -0.057649065789150231 0 0.045547987701035159 -0.058356433036731978 0 0.045374341040793596 -0.057649065789150231 0 0.045860831877990164 -0.058423065695255683 0 0.046063479198307847 -0.056897259317146759 0 0.045374341040793596 -0.057649065789150231 0 0.045116685225560761 -0.055360084533465609 0 0.045116685225560761 -0.055360084533465609 0 0.036734700465356138 -0.059854020011344593 0 0.045721982674943637 -0.051344631858194767 0 0.047253945424372459 -0.048930862126595545 0 0.047589034075515228 -0.046435247094112501 0 0.045721982674943637 -0.051344631858194767 0 0.044698525350664819 -0.054239894946791239 0 0.044946896380908485 -0.051226434421087506 0 0.043368135861382696 -0.056708419552234157 0 0.044698525350664819 -0.054239894946791239 0 0.045374341040793596 -0.057649065789150231 0 0.045116685225560761 -0.055360084533465609 0 0.045285952347963357 -0.057876510096209192 0 0.046984179129932753 -0.054220887939338817 0 0.046063479198307847 -0.056897259317146759 0 0.045116685225560761 -0.055360084533465609 0 0.046984179129932753 -0.054220887939338817 0 0.045116685225560761 -0.055360084533465609 0 0.045721982674943637 -0.051344631858194767 0 0.048547908428818794 -0.04757291709838956 0 0.047589034075515228 -0.046435247094112501 0 0.049302160022950695 -0.045463240605654105 0 0.048547908428818794 -0.04757291709838956 0 0.047253945424372459 -0.048930862126595545 0 0.047589034075515228 -0.046435247094112501 0 0.045374341040793596 -0.057649065789150231 0 0.045285952347963357 -0.057876510096209192 0 0.045860831877990164 -0.058423065695255683 0 0.044698525350664819 -0.054239894946791239 0 0.047753330714806093 -0.055812888073971965 0 0.044698525350664819 -0.054239894946791239 0 0.049076377842186415 -0.049250293589203339 0 0.045285952347963357 -0.057876510096209192 0 0.045860831877990164 -0.058423065695255683 0 0.047110692902162826 -0.058919065823732721 0 0.046531048989324648 -0.058343600412748046 0 0.045721847832434485 -0.058465857533590335 0 0.04604889162074851 -0.058225189579037794 0 0.045860831877990164 -0.058423065695255683 0 0.046531048989324648 -0.058343600412748046 0 0.045721847832434485 -0.058465857533590335 0 0.045860831877990164 -0.058423065695255683 0 0.046531048989324648 -0.058343600412748046 0 0.047110692902162826 -0.058919065823732721 0 0.045258037960006908 -0.058589642846598025 0 0.045547987701035159 -0.058356433036731978 0 0.045721847832434485 -0.058465857533590335 0 0.045547987701035159 -0.058356433036731978 0 0.045860831877990164 -0.058423065695255683 0 0.045721847832434485 -0.058465857533590335 0 0.045258037960006908 -0.058589642846598025 0 0.045721847832434485 -0.058465857533590335 0 0.04604889162074851 -0.058225189579037794 0 0.046903684551956752 -0.0577031040011814 0 0.045382130445132479 -0.057896922908643407 0 0.04604889162074851 -0.058225189579037794 0 0.045382130445132479 -0.057896922908643407 0 0.045258037960006908 -0.058589642846598025 0 0.04604889162074851 -0.058225189579037794 0 0.046903684551956752 -0.0577031040011814 0 0.046531048989324648 -0.058343600412748046 0 0.04604889162074851 -0.058225189579037794 0 0.046903684551956752 -0.0577031040011814 0 0.046531048989324648 -0.058343600412748046 0 0.047914401637892824 -0.058019877279127809 0 0.048362801134996171 -0.057309691708162018 0 0.046903684551956752 -0.0577031040011814 0 0.047914401637892824 -0.058019877279127809 0 0.048362801134996171 -0.057309691708162018 0 0.047914401637892824 -0.058019877279127809 0 0.049358278639136451 -0.0575708468938671 0 0.047914401637892824 -0.058019877279127809 0 0.049358278639136451 -0.0575708468938671 0 0.049426824241031869 -0.058262140168698913 0 0.051416840607135215 -0.057164398502807766 0 0.049358278639136451 -0.0575708468938671 0 0.049426824241031869 -0.058262140168698913 0 0.057574818289350911 -0.047301681385312239 0 0.058002847685332523 -0.046044739820542205 0 0.056409036155106076 -0.046787258610244291 0 0.053414308975464626 -0.051481920985778064 0 0.047753330714806093 -0.055812888073971965 0 0.053414308975464626 -0.051481920985778064 0 0.052878562188548861 -0.046278840395404537 0 0.052430682506721615 -0.048920159990185563 0 0.04920107485855045 -0.051643735382980407 0 0.051301604941070209 -0.051760765348256528 0 0.052878562188548861 -0.046278840395404537 0 0.055870049141449177 -0.045179582291588943 0 0.046531048989324648 -0.058343600412748046 0 0.047914401637892824 -0.058019877279127809 0 0.047110692902162826 -0.058919065823732721 0 0.047914401637892824 -0.058019877279127809 0 0.049426824241031869 -0.058262140168698913 0 0.047110692902162826 -0.058919065823732721 0 0.049533806894824423 -0.045819544182321925 0 0.052878562188548861 -0.046278840395404537 0 0.045913599394808303 -0.054409949450664255 0 0.04920107485855045 -0.051643735382980407 0 0.048627604800943587 -0.05308986122117524 0 0.049302160022950695 -0.045463240605654105 0 0.04974432733965805 -0.046685130130513675 0 0.050382384186687848 -0.044941278060428622 0 0.04920107485855045 -0.051643735382980407 0 0.048627604800943587 -0.05308986122117524 0 0.051301604941070209 -0.051760765348256528 0 0.049076377842186415 -0.049250293589203339 0 0.052878562188548861 -0.046278840395404537 0 0.048547908428818794 -0.04757291709838956 0 0.049302160022950695 -0.045463240605654105 0 0.04974432733965805 -0.046685130130513675 0 0.04974432733965805 -0.046685130130513675 0 0.052114788616122266 -0.044807110742264289 0 0.051976008393884221 -0.043096226901725154 0 0.051225300277453971 -0.046034830526020122 0 0.052846984219005751 -0.044893211402711741 0 0.051913665998058092 -0.046115063664991802 0 0.04974432733965805 -0.046685130130513675 0 0.051225300277453971 -0.046034830526020122 0 0.052114788616122266 -0.044807110742264289 0 0.051225300277453971 -0.046034830526020122 0 0.052114788616122266 -0.044807110742264289 0 0.052846984219005751 -0.044893211402711741 0 0.052114788616122266 -0.044807110742264289 0 0.051976008393884221 -0.043096226901725154 0 0.053703223523182769 -0.043807908820256744 0 0.051976008393884221 -0.043096226901725154 0 0.053703223523182769 -0.043807908820256744 0 0.054857851690967602 -0.04394651299926134 0 0.053703223523182769 -0.043807908820256744 0 0.054651067885632384 -0.043845891445046144 0 0.054857851690967602 -0.04394651299926134 0 0.054651067885632384 -0.043845891445046144 0 0.053899563830725812 -0.044107052021549555 0 0.054871966935638825 -0.043503735421474371 0 0.053703223523182769 -0.043807908820256744 0 0.054651067885632384 -0.043845891445046144 0 0.053899563830725812 -0.044107052021549555 0 0.052114788616122266 -0.044807110742264289 0 0.053703223523182769 -0.043807908820256744 0 0.053899563830725812 -0.044107052021549555 0 0.052846984219005751 -0.044893211402711741 0 0.053899563830725812 -0.044107052021549555 0 0.053395067199804712 -0.044846041745031158 0 0.052114788616122266 -0.044807110742264289 0 0.052846984219005751 -0.044893211402711741 0 0.053899563830725812 -0.044107052021549555 0 0.054241222229447141 -0.044024748118595608 0 0.053899563830725812 -0.044107052021549555 0 0.053395067199804712 -0.044846041745031158 0 0.054241222229447141 -0.044024748118595608 0 0.053899563830725812 -0.044107052021549555 0 0.054871966935638825 -0.043503735421474371 0 0.054241222229447141 -0.044024748118595608 0 0.053860756140067863 -0.044669500341149013 0 0.053395067199804712 -0.044846041745031158 0 0.053860756140067863 -0.044669500341149013 0 0.053395067199804712 -0.044846041745031158 0 0.053043253092255882 -0.045848466606760327 0 0.052846984219005751 -0.044893211402711741 0 0.053395067199804712 -0.044846041745031158 0 0.051913665998058092 -0.046115063664991802 0 0.055000563585027085 -0.04174464765762928 0 0.054871966935638825 -0.043503735421474371 0 0.054998539186001873 -0.044221362852236816 0 0.055000563585027085 -0.04174464765762928 0 0.054500725230893596 -0.043645649806594383 0 0.054871966935638825 -0.043503735421474371 0 0.054241222229447141 -0.044024748118595608 0 0.053860756140067863 -0.044669500341149013 0 0.054500725230893596 -0.043645649806594383 0 0.055000563585027085 -0.04174464765762928 0 0.054500725230893596 -0.043645649806594383 0 0.05420557896469079 -0.045943984643693953 0 0.054241222229447141 -0.044024748118595608 0 0.054500725230893596 -0.043645649806594383 0 0.054871966935638825 -0.043503735421474371 0 0.054651067885632384 -0.043845891445046144 0 0.054998539186001873 -0.044221362852236816 0 0.054857851690967602 -0.04394651299926134 0 0.054651067885632384 -0.043845891445046144 0 0.054871966935638825 -0.043503735421474371 0 0.054998539186001873 -0.044221362852236816 0 0.055870049141449177 -0.045179582291588943 0 0.054998975578749117 -0.046710105808657684 0 0.054998539186001873 -0.044221362852236816 0 0.054857851690967602 -0.04394651299926134 0 0.054999678601876607 -0.046707666925638075 0 0.056793881468288843 -0.04949607124956179 0 0.056136704068351764 -0.04915184861650701 0 0.056382949672475841 -0.048491475905296968 0 0.057574818289350911 -0.047301681385312239 0 0.056409036155106076 -0.046787258610244291 0 0.056382949672475841 -0.048491475905296968 0 0.053995325545445366 -0.053755548960421971 0 0.053414308975464626 -0.051481920985778064 0 0.056793881468288843 -0.04949607124956179 0 0.056382949672475841 -0.048491475905296968 0 0.055000500368368684 -0.04671572682238026 0 0.053414308975464626 -0.051481920985778064 0 0.05771841183262863 -0.047350662765995304 0 0.056409036155106076 -0.046787258610244291 0 0.056382949672475841 -0.048491475905296968 0 0.055000500368368684 -0.04671572682238026 0 0.053139425476456656 -0.04340115154542893 0 0.053150111509258996 -0.04249016474823894 0 0.055652360149349288 -0.037490506977931833 0 0.055893053051682295 -0.036692780231911769 0 0.056273791098916996 -0.037523168149549049 0 0.054999953565118602 -0.035635310229533701 0 0.055893053051682295 -0.036692780231911769 0 0.056067953771795048 -0.033937514427275987 0 0.055652360149349288 -0.037490506977931833 0 0.055893053051682295 -0.036692780231911769 0 0.055890941669807473 -0.037944786552484878 0 0.055839626322004628 -0.037090566853234259 0 0.056192837002734607 -0.034760238563879782 0 0.050452892757403861 -0.04777695920532616 0 0.049981501475821484 -0.048163784574620228 0 0.049623967449728058 -0.048528899464337971 0 0.050452892757403861 -0.04777695920532616 0 0.049981501475821484 -0.048163784574620228 0 0.050085454524720942 -0.047714090582910249 0 0.049981501475821484 -0.048163784574620228 0 0.050085454524720942 -0.047714090582910249 0 0.050539207123372787 -0.048421525661742494 0 0.055893053051682295 -0.036692780231911769 0 0.056273791098916996 -0.037523168149549049 0 0.055000020266446355 -0.038684251377426163 0 0.054999953565118602 -0.035635310229533701 0 0.055893053051682295 -0.036692780231911769 0 0.055000020266446355 -0.038684251377426163 0 0.056273791098916996 -0.037523168149549049 0 0.055000020266446355 -0.038684251377426163 0 0.056543394981948603 -0.040208358929413809 0 0.053150111509258996 -0.04249016474823894 0 0.053461449974434271 -0.044664240415000903 0 0.054999916816807548 -0.041736364034331501 0 0.055000020266446355 -0.038684251377426163 0 0.056543394981948603 -0.040208358929413809 0 0.053461449974434271 -0.044664240415000903 0 0.053516369802658587 -0.044967322134380303 0 0.053860756140067863 -0.044669500341149013 0 0.054500725230893596 -0.043645649806594383 0 0.05420557896469079 -0.045943984643693953 0 0.055000563585027085 -0.04174464765762928 0 0.054354765565964649 -0.046545418595577259 0 0.05420557896469079 -0.045943984643693953 0 0.055001713244648615 -0.041735778781730015 0 0.053461449974434271 -0.044664240415000903 0 0.053395067199804712 -0.044846041745031158 0 0.053043253092255882 -0.045848466606760327 0 0.051913665998058092 -0.046115063664991802 0 0.053043253092255882 -0.045848466606760327 0 0.051859401206375486 -0.046946496221341324 0 0.051913665998058092 -0.046115063664991802 0 0.054130547098438273 -0.046540995156666813 0 0.05420557896469079 -0.045943984643693953 0 0.053043253092255882 -0.045848466606760327 0 0.053860756140067863 -0.044669500341149013 0 0.05420557896469079 -0.045943984643693953 0 0.053043253092255882 -0.045848466606760327 0 0.054130547098438273 -0.046540995156666813 0 0.053043253092255882 -0.045848466606760327 0 0.051859401206375486 -0.046946496221341324 0 0.050085454524720942 -0.047714090582910249 0 0.050112517122329295 -0.04858170164859836 0 0.050539207123372787 -0.048421525661742494 0 0.053461449974434271 -0.044664240415000903 0 0.049998015335100982 -0.049415658236904608 0 0.054130547098438273 -0.046540995156666813 0 0.051859401206375486 -0.046946496221341324 0 0.050539207123372787 -0.048421525661742494 0 0.051859401206375486 -0.046946496221341324 0 0.050539207123372787 -0.048421525661742494 0 0.05019895237574077 -0.047744366422363918 0 0.050539207123372787 -0.048421525661742494 0 0.05019895237574077 -0.047744366422363918 0 0.049480860795667568 -0.048665195815819406 0 0.051225300277453971 -0.046034830526020122 0 0.05019895237574077 -0.047744366422363918 0 0.051913665998058092 -0.046115063664991802 0 0.04974432733965805 -0.046685130130513675 0 0.051225300277453971 -0.046034830526020122 0 0.05019895237574077 -0.047744366422363918 0 0.051859401206375486 -0.046946496221341324 0 0.05019895237574077 -0.047744366422363918 0 0.051913665998058092 -0.046115063664991802 0 0.048547908428818794 -0.04757291709838956 0 0.04974432733965805 -0.046685130130513675 0 0.048760543296900251 -0.048461915642359216 0 0.04974432733965805 -0.046685130130513675 0 0.05019895237574077 -0.047744366422363918 0 0.048760543296900251 -0.048461915642359216 0 0.048760543296900251 -0.048461915642359216 0 0.049480860795667568 -0.048665195815819406 0 0.04850848250862342 -0.049026029358925159 0 0.05019895237574077 -0.047744366422363918 0 0.048760543296900251 -0.048461915642359216 0 0.049480860795667568 -0.048665195815819406 0 0.049480860795667568 -0.048665195815819406 0 0.049102082072741443 -0.048932801373782628 0 0.04850848250862342 -0.049026029358925159 0 0.049102082072741443 -0.048932801373782628 0 0.04881963684961102 -0.049132002725709598 0 0.04850848250862342 -0.049026029358925159 0 0.049102082072741443 -0.048932801373782628 0 0.049241657469727307 -0.0488431092851885 0 0.04881963684961102 -0.049132002725709598 0 0.049102082072741443 -0.048932801373782628 0 0.049635604537574006 -0.048675369864607021 0 0.049241657469727307 -0.0488431092851885 0 0.049480860795667568 -0.048665195815819406 0 0.049102082072741443 -0.048932801373782628 0 0.049635604537574006 -0.048675369864607021 0 0.049981501475821484 -0.048163784574620228 0 0.050539207123372787 -0.048421525661742494 0 0.049635604537574006 -0.048675369864607021 0 0.050539207123372787 -0.048421525661742494 0 0.049480860795667568 -0.048665195815819406 0 0.049635604537574006 -0.048675369864607021 0 0.049981501475821484 -0.048163784574620228 0 0.049489674494078921 -0.048618612860752627 0 0.049623967449728058 -0.048528899464337971 0 0.049981501475821484 -0.048163784574620228 0 0.049635604537574006 -0.048675369864607021 0 0.049489674494078921 -0.048618612860752627 0 0.049489674494078921 -0.048618612860752627 0 0.049212145105898476 -0.048762065813165716 0 0.049623967449728058 -0.048528899464337971 0 0.049635604537574006 -0.048675369864607021 0 0.049489674494078921 -0.048618612860752627 0 0.049241657469727307 -0.0488431092851885 0 0.049241657469727307 -0.0488431092851885 0 0.04881963684961102 -0.049132002725709598 0 0.049212145105898476 -0.048762065813165716 0 0.047302332188504333 -0.048073636789125747 0 0.047968927096852396 -0.048207516034665394 0 0.049489674494078921 -0.048618612860752627 0 0.049241657469727307 -0.0488431092851885 0 0.049212145105898476 -0.048762065813165716 0 0.04579967992033674 -0.046917425739253102 0 0.045916695549557407 -0.047635232544089183 0 0.046724729699140287 -0.047465917883527914 0 0.045587040194192303 -0.047056575017560297 0 0.04579967992033674 -0.046917425739253102 0 0.045916695549557407 -0.047635232544089183 0 0.043545031014252528 -0.04529782854389458 0 0.045275966337191248 -0.047348583498415253 0 0.042002569934339685 -0.044506979783330979 0 0.04274160015462309 -0.046451924348221506 0 0.044369180373875987 -0.046710846295809197 0 0.041849483383514526 -0.045935712143191185 0 0.042002569934339685 -0.044506979783330979 0 0.04274160015462309 -0.046451924348221506 0 0.041849483383514526 -0.045935712143191185 0 0.040370465538835422 -0.045741576348197664 0 0.042002569934339685 -0.044506979783330979 0 0.040370465538835422 -0.045741576348197664 0 0.042002569934339685 -0.044506979783330979 0 0.040070784175770667 -0.042499991803884619 0 0.039857888977230124 -0.049263302469756985 0 0.039737633870567633 -0.050207926821528796 0 0.039930725722473484 -0.049572365796654368 0 0.039775075504298575 -0.047113757538241742 0 0.043125033051811396 -0.048335737169358538 0 0.039857888977230124 -0.049263302469756985 0 0.039964587784687429 -0.049394515598138747 0 0.039963780233085784 -0.049362519022016237 0 0.045587040194192303 -0.047056575017560297 0 0.045655080479900176 -0.047019346164079767 0 0.045740327248984622 -0.047019308177140867 0 0.043545031014252528 -0.04529782854389458 0 0.043125033051811396 -0.048335737169358538 0 0.045655080479900176 -0.047019346164079767 0 0.045740327248984622 -0.047019308177140867 0 0.045607588019884827 -0.047132943648562013 0 0.04881963684961102 -0.049132002725709598 0 0.04850848250862342 -0.049026029358925159 0 0.047407938943499442 -0.049273011860271609 0 0.045655080479900176 -0.047019346164079767 0 0.04579967992033674 -0.046917425739253102 0 0.045607588019884827 -0.047132943648562013 0 0.047302332188504333 -0.048073636789125747 0 0.046356256814297857 -0.047795765580898104 0 0.045587040194192303 -0.047056575017560297 0 0.045655080479900176 -0.047019346164079767 0 0.04579967992033674 -0.046917425739253102 0 0.04850848250862342 -0.049026029358925159 0 0.047583066799590679 -0.049232605487277162 0 0.047407938943499442 -0.049273011860271609 0 0.048760543296900251 -0.048461915642359216 0 0.04850848250862342 -0.049026029358925159 0 0.047583066799590679 -0.049232605487277162 0 0.048760543296900251 -0.048461915642359216 0 0.047583066799590679 -0.049232605487277162 0 0.047812221244178964 -0.048893049139739631 0 0.047583066799590679 -0.049232605487277162 0 0.047812221244178964 -0.048893049139739631 0 0.046714129704665125 -0.049880322941930066 0 0.047253945424372459 -0.048930862126595545 0 0.047812221244178964 -0.048893049139739631 0 0.046714129704665125 -0.049880322941930066 0 0.048547908428818794 -0.04757291709838956 0 0.047253945424372459 -0.048930862126595545 0 0.047812221244178964 -0.048893049139739631 0 0.048547908428818794 -0.04757291709838956 0 0.048760543296900251 -0.048461915642359216 0 0.047812221244178964 -0.048893049139739631 0 0.046443062247427759 -0.050349688528378719 0 0.045721982674943637 -0.051344631858194767 0 0.046975831655269897 -0.050386229666377486 0 0.047253945424372459 -0.048930862126595545 0 0.045721982674943637 -0.051344631858194767 0 0.046714129704665125 -0.049880322941930066 0 0.046443062247427759 -0.050349688528378719 0 0.045721982674943637 -0.051344631858194767 0 0.046714129704665125 -0.049880322941930066 0 0.046443062247427759 -0.050349688528378719 0 0.046714129704665125 -0.049880322941930066 0 0.04691684288503712 -0.049820485903300162 0 0.047583066799590679 -0.049232605487277162 0 0.046714129704665125 -0.049880322941930066 0 0.04691684288503712 -0.049820485903300162 0 0.046443062247427759 -0.050349688528378719 0 0.04691684288503712 -0.049820485903300162 0 0.046975831655269897 -0.050386229666377486 0 0.045740327248984622 -0.047019308177140867 0 0.045607588019884827 -0.047132943648562013 0 0.045851383189001657 -0.047505500800588844 0 0.04691684288503712 -0.049820485903300162 0 0.047407938943499442 -0.049273011860271609 0 0.046975831655269897 -0.050386229666377486 0 0.046356256814297857 -0.047795765580898104 0 0.046611745089527146 -0.051064291714712093 0 0.047583066799590679 -0.049232605487277162 0 0.04691684288503712 -0.049820485903300162 0 0.047407938943499442 -0.049273011860271609 0 0.046208133128992794 -0.05262913641854701 0 0.046595552420027393 -0.054432820775841745 0 0.047261136589682701 -0.053819641182556902 0 0.043125033051811396 -0.048335737169358538 0 0.043938445676246732 -0.05289564959105502 0 0.039737633870567633 -0.050207926821528796 0 0.040267301604134796 -0.050921436854155816 0 0.040264822015418519 -0.050328384010840263 0 0.043125033051811396 -0.048335737169358538 0 0.046611745089527146 -0.051064291714712093 0 0.046899613152408232 -0.054656071558689248 0 0.04740146672319169 -0.055071240067704273 0 0.047261136589682701 -0.053819641182556902 0 0.046899613152408232 -0.054656071558689248 0 0.046595552420027393 -0.054432820775841745 0 0.047261136589682701 -0.053819641182556902 0 0.046922560539106081 -0.055370377984013057 0 0.046899613152408232 -0.054656071558689248 0 0.04740146672319169 -0.055071240067704273 0 0.046936703951125869 -0.053641036750314355 0 0.046611745089527146 -0.051064291714712093 0 0.046984179129932753 -0.054220887939338817 0 0.045721982674943637 -0.051344631858194767 0 0.046975831655269897 -0.050386229666377486 0 0.046984179129932753 -0.054220887939338817 0 0.046899613152408232 -0.054656071558689248 0 0.046595552420027393 -0.054432820775841745 0 0.044219662123144092 -0.053222706204231404 0 0.043938445676246732 -0.05289564959105502 0 0.048392076642682649 -0.055464021567281356 0 0.04740146672319169 -0.055071240067704273 0 0.047261136589682701 -0.053819641182556902 0 0.040568895471580886 -0.051341755551500556 0 0.040556591290317523 -0.051033794086350906 0 0.040267301604134796 -0.050921436854155816 0 0.040556591290317523 -0.051033794086350906 0 0.040267301604134796 -0.050921436854155816 0 0.040681781352885089 -0.050599661575593362 0 0.040267301604134796 -0.050921436854155816 0 0.040681781352885089 -0.050599661575593362 0 0.040264822015418519 -0.050328384010840263 0 0.039412273563970125 -0.050908800743590193 0 0.039173373615093258 -0.050527355780051998 0 0.039441276233396459 -0.050567291356108608 0 0.040681781352885089 -0.050599661575593362 0 0.040264822015418519 -0.050328384010840263 0 0.040396600171795256 -0.04974705729936589 0 0.040151860331485323 -0.050884859540956 0 0.039099387362843865 -0.049552946194458172 0 0.039737633870567633 -0.050207926821528796 0 0.040088805951139846 -0.049959176510310933 0 0.039930725722473484 -0.049572365796654368 0 0.040088805951139846 -0.049959176510310933 0 0.040264822015418519 -0.050328384010840263 0 0.040396600171795256 -0.04974705729936589 0 0.039737633870567633 -0.050207926821528796 0 0.040088805951139846 -0.049959176510310933 0 0.040264822015418519 -0.050328384010840263 0 0.040088805951139846 -0.049959176510310933 0 0.039930725722473484 -0.049572365796654368 0 0.040396600171795256 -0.04974705729936589 0 0.040312160440893231 -0.04962330264689762 0 0.039099387362843865 -0.049552946194458172 0 0.039964587784687429 -0.049394515598138747 0 0.040110420551378173 -0.049491921173263634 0 0.039950468029004274 -0.049344893916786425 0 0.039930725722473484 -0.049572365796654368 0 0.039964587784687429 -0.049394515598138747 0 0.040110420551378173 -0.049491921173263634 0 0.039099387362843865 -0.049552946194458172 0 0.038717587528630845 -0.048856569160032531 0 0.039857888977230124 -0.049263302469756985 0 0.039930725722473484 -0.049572365796654368 0 0.039964587784687429 -0.049394515598138747 0 0.036707567596951499 -0.048751776952159931 0 0.037322449694824074 -0.048106986521115003 0 0.038234568170902795 -0.049631292270572357 0 0.036707567596951499 -0.048751776952159931 0 0.037322449694824074 -0.048106986521115003 0 0.036238754908413238 -0.047980453658335795 0 0.039099387362843865 -0.049552946194458172 0 0.038291196927182705 -0.049366483493709493 0 0.034236151399218678 -0.045333246658160506 0 0.03539847725994047 -0.048631733929656799 0 0.032730379287503247 -0.048793989769363173 0 0.034236151399218678 -0.045333246658160506 0 0.037993413958998835 -0.047278555757872723 0 0.03539847725994047 -0.048631733929656799 0 0.035123770923051946 -0.046433842261273429 0 0.038717587528630845 -0.048856569160032531 0 0.039964587784687429 -0.049394515598138747 0 0.039963780233085784 -0.049362519022016237 0 0.039950468029004274 -0.049344893916786425 0 0.039963780233085784 -0.049362519022016237 0 0.039945804009286046 -0.04938102481595788 0 0.039950468029004274 -0.049344893916786425 0 0.039045021408887243 -0.049033064776776734 0 0.038717587528630845 -0.048856569160032531 0 0.039945804009286046 -0.04938102481595788 0 0.039813798278499381 -0.049277572242790342 0 0.040286252323676434 -0.050524502403782388 0 0.037158349834443688 -0.049999319953725294 0 0.038331399362787344 -0.051972409345264071 0 0.040286252323676434 -0.050524502403782388 0 0.037993413958998835 -0.047278555757872723 0 0.037158349834443688 -0.049999319953725294 0 0.03539847725994047 -0.048631733929656799 0 0.037993413958998835 -0.047278555757872723 0 0.037158349834443688 -0.049999319953725294 0 0.040286252323676434 -0.050524502403782388 0 0.037158349834443688 -0.049999319953725294 0 0.03539847725994047 -0.048631733929656799 0 0.034938919346766982 -0.052005349122490593 0 0.034359235330938383 -0.05221497574315935 0 0.03172441121805427 -0.049091745257622089 0 0.03539847725994047 -0.048631733929656799 0 0.034938919346766982 -0.052005349122490593 0 0.032730379287503247 -0.048793989769363173 0 0.033657112187740236 -0.052285132989417012 0 0.032487624120704731 -0.054785046253985586 0 0.030125919350942987 -0.052175483673067381 0 0.033657112187740236 -0.052285132989417012 0 0.032487624120704731 -0.054785046253985586 0 0.037226391870122742 -0.055709624774012916 0 0.032487624120704731 -0.054785046253985586 0 0.034801850717257624 -0.057625823636698707 0 0.037226391870122742 -0.055709624774012916 0 0.032487624120704731 -0.054785046253985586 0 0.034801850717257624 -0.057625823636698707 0 0.030514548777697 -0.055990182556616613 0 0.032243567708229663 -0.054703468658565992 0 0.027285141502147569 -0.055918817851522917 0 0.031624632233379836 -0.055005709192844428 0 0.035551651694811726 -0.042337017541089164 0 0.040990074139535648 -0.046252445345709901 0 0.037825352829886 -0.036041566792103713 0 0.041600701557247766 -0.035291765361176258 0 0.041744258873716002 -0.036221768773392539 0 0.034801850717257624 -0.057625823636698707 0 0.037226391870122742 -0.055709624774012916 0 0.040299263419132932 -0.056261776377192756 0 0.037226391870122742 -0.055709624774012916 0 0.038331399362787344 -0.051972409345264071 0 0.039621818547061864 -0.053972532453107271 0 0.034938919346766982 -0.052005349122490593 0 0.037226391870122742 -0.055709624774012916 0 0.038331399362787344 -0.051972409345264071 0 0.034359235330938383 -0.05221497574315935 0 0.037052319330677687 -0.055530275558183739 0 0.037158349834443688 -0.049999319953725294 0 0.034938919346766982 -0.052005349122490593 0 0.038331399362787344 -0.051972409345264071 0 0.038331399362787344 -0.051972409345264071 0 0.040621542133739759 -0.05207014693399805 0 0.040286252323676434 -0.050524502403782388 0 0.040621542133739759 -0.05207014693399805 0 0.04238172441332428 -0.05198010903621797 0 0.041736662978542213 -0.050336328366161386 0 0.040621542133739759 -0.05207014693399805 0 0.042053249530091631 -0.053625373095167808 0 0.039621818547061864 -0.053972532453107271 0 0.040621542133739759 -0.05207014693399805 0 0.042053249530091631 -0.053625373095167808 0 0.04238172441332428 -0.05198010903621797 0 0.038331399362787344 -0.051972409345264071 0 0.040621542133739759 -0.05207014693399805 0 0.039621818547061864 -0.053972532453107271 0 0.037226391870122742 -0.055709624774012916 0 0.039621818547061864 -0.053972532453107271 0 0.040299263419132932 -0.056261776377192756 0 0.042053249530091631 -0.053625373095167808 0 0.039621818547061864 -0.053972532453107271 0 0.040299263419132932 -0.056261776377192756 0 0.040990074139535648 -0.046252445345709901 0 0.044767312805748936 -0.044776666105445687 0 0.041600701557247766 -0.035291765361176258 0 0.044979360258243117 -0.034785157028267802 0 0.044357740757271544 -0.036274209318370006 0 0.042053249530091631 -0.053625373095167808 0 0.040299263419132932 -0.056261776377192756 0 0.044720757369471092 -0.054909781861946477 0 0.044979360258243117 -0.034785157028267802 0 0.045101798457329319 -0.034986409570526331 0 0.044357740757271544 -0.036274209318370006 0 0.042053249530091631 -0.053625373095167808 0 0.044720757369471092 -0.054909781861946477 0 0.044347601583201189 -0.052619518057294937 0 0.042053249530091631 -0.053625373095167808 0 0.044347601583201189 -0.052619518057294937 0 0.04238172441332428 -0.05198010903621797 0 0.044347601583201189 -0.052619518057294937 0 0.04238172441332428 -0.05198010903621797 0 0.043549554546510751 -0.050608080636191786 0 0.044347601583201189 -0.052619518057294937 0 0.043549554546510751 -0.050608080636191786 0 0.045598379474646102 -0.050751353792424785 0 0.043549554546510751 -0.050608080636191786 0 0.044518076606091091 -0.048937217616509619 0 0.045598379474646102 -0.050751353792424785 0 0.043549554546510751 -0.050608080636191786 0 0.044518076606091091 -0.048937217616509619 0 0.04269355714620298 -0.049096871085423974 0 0.043549554546510751 -0.050608080636191786 0 0.04269355714620298 -0.049096871085423974 0 0.041736662978542213 -0.050336328366161386 0 0.04238172441332428 -0.05198010903621797 0 0.043549554546510751 -0.050608080636191786 0 0.041736662978542213 -0.050336328366161386 0 0.039945804009286046 -0.04938102481595788 0 0.040286252323676434 -0.050524502403782388 0 0.040537874745532596 -0.049782057465598252 0 0.038717587528630845 -0.048856569160032531 0 0.040178221262524322 -0.050235353760613784 0 0.040621542133739759 -0.05207014693399805 0 0.041736662978542213 -0.050336328366161386 0 0.040286252323676434 -0.050524502403782388 0 0.041736662978542213 -0.050336328366161386 0 0.040286252323676434 -0.050524502403782388 0 0.040537874745532596 -0.049782057465598252 0 0.041736662978542213 -0.050336328366161386 0 0.040537874745532596 -0.049782057465598252 0 0.041470838523191923 -0.048504821114469111 0 0.04269355714620298 -0.049096871085423974 0 0.041736662978542213 -0.050336328366161386 0 0.041470838523191923 -0.048504821114469111 0 0.039857888977230124 -0.049263302469756985 0 0.039963780233085784 -0.049362519022016237 0 0.040537874745532596 -0.049782057465598252 0 0.040370465538835422 -0.045741576348197664 0 0.041470838523191923 -0.048504821114469111 0 0.042090685407922324 -0.04736119207535408 0 0.039775075504298575 -0.047113757538241742 0 0.040582109266905302 -0.049885329362252387 0 0.040370465538835422 -0.045741576348197664 0 0.040537874745532596 -0.049782057465598252 0 0.041470838523191923 -0.048504821114469111 0 0.039963780233085784 -0.049362519022016237 0 0.039945804009286046 -0.04938102481595788 0 0.040537874745532596 -0.049782057465598252 0 0.041849483383514526 -0.045935712143191185 0 0.040370465538835422 -0.045741576348197664 0 0.042090685407922324 -0.04736119207535408 0 0.042090685407922324 -0.04736119207535408 0 0.04274160015462309 -0.046451924348221506 0 0.043378556337672 -0.047870600225699812 0 0.041849483383514526 -0.045935712143191185 0 0.042090685407922324 -0.04736119207535408 0 0.04274160015462309 -0.046451924348221506 0 0.04274160015462309 -0.046451924348221506 0 0.044369180373875987 -0.046710846295809197 0 0.043378556337672 -0.047870600225699812 0 0.044518076606091091 -0.048937217616509619 0 0.04269355714620298 -0.049096871085423974 0 0.043378556337672 -0.047870600225699812 0 0.044518076606091091 -0.048937217616509619 0 0.044369180373875987 -0.046710846295809197 0 0.043378556337672 -0.047870600225699812 0 0.04269355714620298 -0.049096871085423974 0 0.041470838523191923 -0.048504821114469111 0 0.042090685407922324 -0.04736119207535408 0 0.04269355714620298 -0.049096871085423974 0 0.042090685407922324 -0.04736119207535408 0 0.043378556337672 -0.047870600225699812 0 0.045916695549557407 -0.047635232544089183 0 0.046724729699140287 -0.047465917883527914 0 0.046988477274555088 -0.049242813230493628 0 0.044518076606091091 -0.048937217616509619 0 0.044369180373875987 -0.046710846295809197 0 0.046988477274555088 -0.049242813230493628 0 0.045275966337191248 -0.047348583498415253 0 0.046824436820350993 -0.049040168405823641 0 0.049623967449728058 -0.048528899464337971 0 0.048888735439488309 -0.049434800864898147 0 0.049993432803650574 -0.049100106084555457 0 0.049212145105898476 -0.048762065813165716 0 0.049623967449728058 -0.048528899464337971 0 0.048888735439488309 -0.049434800864898147 0 0.047968927096852396 -0.048207516034665394 0 0.048885367147992624 -0.049380763132687758 0 0.046724729699140287 -0.047465917883527914 0 0.048888735439488309 -0.049434800864898147 0 0.046988477274555088 -0.049242813230493628 0 0.048888735439488309 -0.049434800864898147 0 0.047736482896731408 -0.050640250170760771 0 0.046988477274555088 -0.049242813230493628 0 0.048888735439488309 -0.049434800864898147 0 0.047736482896731408 -0.050640250170760771 0 0.049716062871924024 -0.050871893581575005 0 0.047736482896731408 -0.050640250170760771 0 0.046988477274555088 -0.049242813230493628 0 0.045598379474646102 -0.050751353792424785 0 0.044518076606091091 -0.048937217616509619 0 0.046988477274555088 -0.049242813230493628 0 0.045598379474646102 -0.050751353792424785 0 0.044347601583201189 -0.052619518057294937 0 0.045598379474646102 -0.050751353792424785 0 0.046232007553739754 -0.052396728304112454 0 0.047736482896731408 -0.050640250170760771 0 0.045598379474646102 -0.050751353792424785 0 0.046232007553739754 -0.052396728304112454 0 0.044720757369471092 -0.054909781861946477 0 0.044347601583201189 -0.052619518057294937 0 0.046232007553739754 -0.052396728304112454 0 0.044720757369471092 -0.054909781861946477 0 0.046232007553739754 -0.052396728304112454 0 0.048421216125878415 -0.053551828865806679 0 0.044979360258243117 -0.034785157028267802 0 0.045101798457329319 -0.034986409570526331 0 0.047395210800852537 -0.034507692000230628 0 0.044767312805748936 -0.044776666105445687 0 0.047953784269987955 -0.04433911325883437 0 0.045101798457329319 -0.034986409570526331 0 0.047395210800852537 -0.034507692000230628 0 0.046417044365008438 -0.036040028856141673 0 0.046516494188679314 -0.036121212648785053 0 0.04798883170808891 -0.027101141036609086 0 0.047395210800852537 -0.034507692000230628 0 0.048620027526478711 -0.035171940591828411 0 0.047917064504563164 -0.036101159975266521 0 0.047395210800852537 -0.034507692000230628 0 0.047917064504563164 -0.036101159975266521 0 0.046417044365008438 -0.036040028856141673 0 0.047736482896731408 -0.050640250170760771 0 0.048421216125878415 -0.053551828865806679 0 0.049716062871924024 -0.050871893581575005 0 0.047736482896731408 -0.050640250170760771 0 0.046232007553739754 -0.052396728304112454 0 0.048421216125878415 -0.053551828865806679 0 0.049716062871924024 -0.050871893581575005 0 0.051318637433552847 -0.052421481403758366 0 0.051266149821295327 -0.049780836960945242 0 0.048421216125878415 -0.053551828865806679 0 0.049716062871924024 -0.050871893581575005 0 0.051318637433552847 -0.052421481403758366 0 0.047395210800852537 -0.034507692000230628 0 0.048620027526478711 -0.035171940591828411 0 0.049550283470044768 -0.034221178223887053 0 0.048620027526478711 -0.035171940591828411 0 0.049550283470044768 -0.034221178223887053 0 0.049320530657358738 -0.036148473530289514 0 0.047953784269987955 -0.04433911325883437 0 0.049708136078911426 -0.040449944815076903 0 0.049708136078911426 -0.040449944815076903 0 0.051747683639140167 -0.028507502334276 0 0.05246730397022055 -0.036766944762859605 0 0.051190964014824022 -0.036973716538857795 0 0.050859846800893012 -0.02843633719213463 0 0.056169451909351548 -0.029350568454501073 0 0.056070247484065944 -0.02669599592048132 0 0.054999995301330949 -0.027149670185141455 0 0.05246730397022055 -0.036766944762859605 0 0.050859846800893012 -0.02843633719213463 0 0.053428930475626184 -0.028608447863022336 0 0.053174536510181794 -0.034229424312814338 0 0.054607662650413877 -0.027472541328788434 0 0.054999966554197977 -0.029529712914451504 0 0.056169451909351548 -0.029350568454501073 0 0.054999995301330949 -0.027149670185141455 0 0.054999919138455276 -0.029530499013048533 0 0.056148857752380009 -0.029456880496670924 0 0.056264295247716298 -0.031891511302889343 0 0.050404793066215467 -0.039091695387186036 0 0.049840165310580165 -0.039155503979902723 0 0.049996811327783511 -0.042718394864071661 0 0.053174536510181794 -0.034229424312814338 0 0.053132203124549214 -0.041770391914372783 0 0.049708136078911426 -0.040449944815076903 0 0.053132203124549214 -0.041770391914372783 0 0.05500189388449693 -0.029531802666255678 0 0.053174536510181794 -0.034229424312814338 0 0.049708136078911426 -0.040449944815076903 0 0.053174536510181794 -0.034229424312814338 0 0.054999919138455276 -0.029530499013048533 0 0.056264295247716298 -0.031891511302889343 0 0.055000074165588393 -0.032580624996219477 0 0.048888735439488309 -0.049434800864898147 0 0.049716062871924024 -0.050871893581575005 0 0.049993432803650574 -0.049100106084555457 0 0.049716062871924024 -0.050871893581575005 0 0.051266149821295327 -0.049780836960945242 0 0.049993432803650574 -0.049100106084555457 0 0.050452892757403861 -0.04777695920532616 0 0.051266149821295327 -0.049780836960945242 0 0.049993432803650574 -0.049100106084555457 0 0.050452892757403861 -0.04777695920532616 0 0.049623967449728058 -0.048528899464337971 0 0.049993432803650574 -0.049100106084555457 0 0.053132203124549214 -0.041770391914372783 0 0.056192837002734607 -0.034760238563879782 0 0.055652360149349288 -0.037490506977931833 0 0.05553651099566103 -0.039667542555456278 0 0.055890941669807473 -0.037944786552484878 0 0.054999953565118602 -0.035635310229533701 0 0.055000074165588393 -0.032580624996219477 0 0.056067953771795048 -0.033937514427275987 0 0.053139425476456656 -0.04340115154542893 0 0.053132203124549214 -0.041770391914372783 0 0.056264295247716298 -0.031891511302889343 0 0.055000074165588393 -0.032580624996219477 0 0.056067953771795048 -0.033937514427275987 0 0.022102265693698827 -0.055009030136206082 0 0.021804060621587663 -0.055427773468033951 0 0.021494045174662045 -0.055166853612605607 0 0.023070449640281088 -0.055826399457524822 0 0.022206300321805438 -0.055382117848374615 0 0.024223717660040278 -0.055768618732482962 0 0.02456227090376837 -0.055029364675760618 0 0.024924678671484821 -0.055432823097877698 0 0.022102265693698827 -0.055009030136206082 0 0.022365048505175858 -0.055312422264818799 0 0.021804060621587663 -0.055427773468033951 0 0.021804060621587663 -0.055427773468033951 0 0.021257672901290447 -0.055567305765347852 0 0.021445284074819364 -0.055863506680829414 0 0.021804060621587663 -0.055427773468033951 0 0.021257672901290447 -0.055567305765347852 0 0.021494045174662045 -0.055166853612605607 0 0.020710662044929412 -0.055801976880397848 0 0.021257672901290447 -0.055567305765347852 0 0.020896192426085911 -0.056068991518730987 0 0.020710662044929412 -0.055801976880397848 0 0.021168651876404383 -0.055343747347473785 0 0.021257672901290447 -0.055567305765347852 0 0.021168651876404383 -0.055343747347473785 0 0.021257672901290447 -0.055567305765347852 0 0.021494045174662045 -0.055166853612605607 0 0.021243367223471178 -0.055364913984687486 0 0.022206300321805438 -0.055382117848374615 0 0.022887759856955101 -0.055728167830737516 0 0.022200792833342718 -0.054852922211796669 0 0.023617133150604968 -0.054599440406008913 0 0.021168651876404383 -0.055343747347473785 0 0.022887759856955101 -0.055728167830737516 0 0.022200792833342718 -0.054852922211796669 0 0.020721450996478371 -0.054310030532206614 0 0.022200792833342718 -0.054852922211796669 0 0.022355883563587454 -0.05402933776918907 0 0.022200792833342718 -0.054852922211796669 0 0.022355883563587454 -0.05402933776918907 0 0.023617133150604968 -0.054599440406008913 0 0.0233193155332834 -0.053721362111294621 0 0.022355883563587454 -0.05402933776918907 0 0.023617133150604968 -0.054599440406008913 0 0.024223717660040278 -0.055768618732482962 0 0.022887759856955101 -0.055728167830737516 0 0.023617133150604968 -0.054599440406008913 0 0.024223717660040278 -0.055768618732482962 0 0.023617133150604968 -0.054599440406008913 0 0.02456227090376837 -0.055029364675760618 0 0.024271425982017713 -0.053521451863437569 0 0.023617133150604968 -0.054599440406008913 0 0.024709432421302805 -0.054304697530262694 0 0.023617133150604968 -0.054599440406008913 0 0.02456227090376837 -0.055029364675760618 0 0.024709432421302805 -0.054304697530262694 0 0.024857480852681576 -0.054012352540060649 0 0.025267989412902397 -0.054078461988760623 0 0.025339068657837385 -0.054409960109065111 0 0.024661347706535969 -0.053941703929718011 0 0.025621005731444563 -0.055759580991961294 0 0.025180251132314695 -0.053712380851686524 0 0.024857480852681576 -0.054012352540060649 0 0.025267989412902397 -0.054078461988760623 0 0.025180251132314695 -0.053712380851686524 0 0.025267989412902397 -0.054078461988760623 0 0.025673872997823446 -0.054090571403603002 0 0.025267989412902397 -0.054078461988760623 0 0.025673872997823446 -0.054090571403603002 0 0.025339068657837385 -0.054409960109065111 0 0.039998245852909696 -0.051181978133140418 0 0.03984897916242286 -0.050988251877988104 0 0.039921832480927975 -0.050802889941149114 0 0.025673872997823446 -0.054090571403603002 0 0.025339068657837385 -0.054409960109065111 0 0.025654878507584571 -0.054576406317923161 0 0.033176164161627171 -0.052512237694700668 0 0.029933196650457072 -0.054101326729523253 0 0.025673872997823446 -0.054090571403603002 0 0.025654878507584571 -0.054576406317923161 0 0.025819007203879776 -0.054658606701881357 0 0.02456227090376837 -0.055029364675760618 0 0.025258658055222996 -0.055122971860095113 0 0.024924678671484821 -0.055432823097877698 0 0.02456227090376837 -0.055029364675760618 0 0.024709432421302805 -0.054304697530262694 0 0.025258658055222996 -0.055122971860095113 0 0.040568895471580886 -0.051341755551500556 0 0.040556591290317523 -0.051033794086350906 0 0.040636683953751626 -0.051286161062466258 0 0.039704859631403966 -0.051251240796277124 0 0.039852863361136283 -0.051143359710197081 0 0.039706656152389871 -0.050974555714778526 0 0.039704859631403966 -0.051251240796277124 0 0.039852863361136283 -0.051143359710197081 0 0.039968868101682375 -0.051303906166274359 0 0.039998245852909696 -0.051181978133140418 0 0.039852863361136283 -0.051143359710197081 0 0.039968868101682375 -0.051303906166274359 0 0.039998245852909696 -0.051181978133140418 0 0.039852863361136283 -0.051143359710197081 0 0.03984897916242286 -0.050988251877988104 0 0.03984897916242286 -0.050988251877988104 0 0.039758783473949351 -0.050827485736523202 0 0.039921832480927975 -0.050802889941149114 0 0.039706656152389871 -0.050974555714778526 0 0.039601903835540415 -0.050777529477020036 0 0.039758783473949351 -0.050827485736523202 0 0.03984897916242286 -0.050988251877988104 0 0.039706656152389871 -0.050974555714778526 0 0.039758783473949351 -0.050827485736523202 0 0.039852863361136283 -0.051143359710197081 0 0.03984897916242286 -0.050988251877988104 0 0.039706656152389871 -0.050974555714778526 0 0.040151860331485323 -0.050884859540956 0 0.040127931539258664 -0.051196445070063767 0 0.040556591290317523 -0.051033794086350906 0 0.040681781352885089 -0.050599661575593362 0 0.040636683953751626 -0.051286161062466258 0 0.039412273563970125 -0.050908800743590193 0 0.039704859631403966 -0.051251240796277124 0 0.039706656152389871 -0.050974555714778526 0 0.039412273563970125 -0.050908800743590193 0 0.039706656152389871 -0.050974555714778526 0 0.039601903835540415 -0.050777529477020036 0 0.039412273563970125 -0.050908800743590193 0 0.039601903835540415 -0.050777529477020036 0 0.039441276233396459 -0.050567291356108608 0 0.039601903835540415 -0.050777529477020036 0 0.039676530104077214 -0.050616728933649414 0 0.039441276233396459 -0.050567291356108608 0 0.033357039317565049 -0.049513746298917624 0 0.038291196927182705 -0.049366483493709493 0 0.039676530104077214 -0.050616728933649414 0 0.039758783473949351 -0.050827485736523202 0 0.039921832480927975 -0.050802889941149114 0 0.033357039317565049 -0.049513746298917624 0 0.029933196650457072 -0.054101326729523253 0 0.027068250427012979 -0.054921749807423155 0 0.025980850307210607 -0.05485146641451169 0 0.025946148298462746 -0.054769307122940938 0 0.033357039317565049 -0.049513746298917624 0 0.025939288982487454 -0.049314898677885799 0 0.027068250427012979 -0.054921749807423155 0 0.025948962807507418 -0.054417697147483436 0 0.025946148298462746 -0.054769307122940938 0 0.039601903835540415 -0.050777529477020036 0 0.039676530104077214 -0.050616728933649414 0 0.039758783473949351 -0.050827485736523202 0 0.028942178451561731 -0.045008963872204488 0 0.025939288982487454 -0.049314898677885799 0 0.030844706860103099 -0.043500223198061176 0 0.030577681767239111 -0.045927626004484523 0 0.02847207262684872 -0.043267677178728411 0 0.036707567596951499 -0.048751776952159931 0 0.035131739956698854 -0.047874603286939273 0 0.036238754908413238 -0.047980453658335795 0 0.035123770923051946 -0.046433842261273429 0 0.033357039317565049 -0.049513746298917624 0 0.034236151399218678 -0.045333246658160506 0 0.030844706860103099 -0.043500223198061176 0 0.030577681767239111 -0.045927626004484523 0 0.024223717660040278 -0.055768618732482962 0 0.025285573720937808 -0.055721337407128292 0 0.024924678671484821 -0.055432823097877698 0 0.023070449640281088 -0.055826399457524822 0 0.024585198363591847 -0.051628993995245231 0 0.022102265693698827 -0.055009030136206082 0 0.022365048505175858 -0.055312422264818799 0 0.02265752794826217 -0.054972916230063139 0 0.024585198363591847 -0.051628993995245231 0 0.02502293280287855 -0.054022324057730796 0 0.025285573720937808 -0.055721337407128292 0 0.024924678671484821 -0.055432823097877698 0 0.025241527094178498 -0.055534036286718789 0 0.025258658055222996 -0.055122971860095113 0 0.024924678671484821 -0.055432823097877698 0 0.025241527094178498 -0.055534036286718789 0 0.025258658055222996 -0.055122971860095113 0 0.025241527094178498 -0.055534036286718789 0 0.025696100554202388 -0.055694974966400704 0 0.025621005731444563 -0.055759580991961294 0 0.025939288982487454 -0.049314898677885799 0 0.025339068657837385 -0.054409960109065111 0 0.025654878507584571 -0.054576406317923161 0 0.025980850307210607 -0.05485146641451169 0 0.025654878507584571 -0.054576406317923161 0 0.025903356203454547 -0.054639548354857896 0 0.025946148298462746 -0.054769307122940938 0 0.026930558672913264 -0.053464698667059427 0 0.029933196650457072 -0.054101326729523253 0 0.029933196650457072 -0.054101326729523253 0 0.028944248441746156 -0.054476357073374108 0 0.025654878507584571 -0.054576406317923161 0 0.025980850307210607 -0.05485146641451169 0 0.025946148298462746 -0.054769307122940938 0 0.025271677481085136 -0.055664336591179808 0 0.025241527094178498 -0.055534036286718789 0 0.025696100554202388 -0.055694974966400704 0 0.024585198363591847 -0.051628993995245231 0 0.025939288982487454 -0.049314898677885799 0 0.027751706705989004 -0.045957400972732182 0 0.025311395699783888 -0.043062032776648766 0 0.023710850297175283 -0.046885174904302281 0 0.023032902317092683 -0.042846452490085077 0 0.025311395699783888 -0.043062032776648766 0 0.023710850297175283 -0.046885174904302281 0 0.024585198363591847 -0.051628993995245231 0 0.022984788194648643 -0.050504750670885327 0 0.022365048505175858 -0.055312422264818799 0 0.02265752794826217 -0.054972916230063139 0 0.022774443813700126 -0.055369428989615499 0 0.022365048505175858 -0.055312422264818799 0 0.022774443813700126 -0.055369428989615499 0 0.022680613625843817 -0.055564901638122298 0 0.023710850297175283 -0.046885174904302281 0 0.024290125985257302 -0.051353357732222486 0 0.027257685553777253 -0.049668173556283807 0 0.022984788194648643 -0.050504750670885327 0 0.023851667972868158 -0.053691292669201807 0 0.022774443813700126 -0.055369428989615499 0 0.023141946816544905 -0.055500439671081384 0 0.022680613625843817 -0.055564901638122298 0 0.023141946816544905 -0.055500439671081384 0 0.022680613625843817 -0.055564901638122298 0 0.022773836526372139 -0.055779330149224572 0 0.022680613625843817 -0.055564901638122298 0 0.022773836526372139 -0.055779330149224572 0 0.022238489080135877 -0.055880033539905741 0 0.027751706705989004 -0.045957400972732182 0 0.027257685553777253 -0.049668173556283807 0 0.030517052679729879 -0.049017448250527243 0 0.034236151399218678 -0.045333246658160506 0 0.030577681767239111 -0.045927626004484523 0 0.032730379287503247 -0.048793989769363173 0 0.028942178451561731 -0.045008963872204488 0 0.03172441121805427 -0.049091745257622089 0 0.027751706705989004 -0.045957400972732182 0 0.023710850297175283 -0.046885174904302281 0 0.027257685553777253 -0.049668173556283807 0 0.024290125985257302 -0.051353357732222486 0 0.027257685553777253 -0.049668173556283807 0 0.027174838640695045 -0.05331283812187132 0 0.027257685553777253 -0.049668173556283807 0 0.030517052679729879 -0.049017448250527243 0 0.030125919350942987 -0.052175483673067381 0 0.033657112187740236 -0.052285132989417012 0 0.030517052679729879 -0.049017448250527243 0 0.030125919350942987 -0.052175483673067381 0 0.032487624120704731 -0.054785046253985586 0 0.030125919350942987 -0.052175483673067381 0 0.029170257757919458 -0.054626866809403055 0 0.030125919350942987 -0.052175483673067381 0 0.027174838640695045 -0.05331283812187132 0 0.029170257757919458 -0.054626866809403055 0 0.027257685553777253 -0.049668173556283807 0 0.030125919350942987 -0.052175483673067381 0 0.027174838640695045 -0.05331283812187132 0 0.027174838640695045 -0.05331283812187132 0 0.026944933994118906 -0.05548049503532089 0 0.029170257757919458 -0.054626866809403055 0 0.028143571711320342 -0.057199678885130216 0 0.026944933994118906 -0.05548049503532089 0 0.024936344075459554 -0.056545048743021215 0 0.027399709826547498 -0.058556500987700905 0 0.02319749929113353 -0.056224888841285015 0 0.027285141502147569 -0.055918817851522917 0 0.027980961565871456 -0.056006012944151119 0 0.024618096482272867 -0.056851270117237902 0 0.029110541452166603 -0.044098431013015069 0 0.026547123329487624 -0.043651968883890536 0 0.027174838640695045 -0.05331283812187132 0 0.026944933994118906 -0.05548049503532089 0 0.024936344075459554 -0.056545048743021215 0 0.028143571711320342 -0.057199678885130216 0 0.026944933994118906 -0.05548049503532089 0 0.028402373983169499 -0.055838662512050892 0 0.026944933994118906 -0.05548049503532089 0 0.028402373983169499 -0.055838662512050892 0 0.029170257757919458 -0.054626866809403055 0 0.035551651694811726 -0.042337017541089164 0 0.027399709826547498 -0.058556500987700905 0 0.027285141502147569 -0.055918817851522917 0 0.027980961565871456 -0.056006012944151119 0 0.031624632233379836 -0.055005709192844428 0 0.034801850717257624 -0.057625823636698707 0 0.028143571711320342 -0.057199678885130216 0 0.030514548777697 -0.055990182556616613 0 0.029110541452166603 -0.044098431013015069 0 0.036381201409965487 -0.032213148925974801 0 0.028402373983169499 -0.055838662512050892 0 0.029170257757919458 -0.054626866809403055 0 0.030514548777697 -0.055990182556616613 0 0.028143571711320342 -0.057199678885130216 0 0.028402373983169499 -0.055838662512050892 0 0.030514548777697 -0.055990182556616613 0 0.032487624120704731 -0.054785046253985586 0 0.029170257757919458 -0.054626866809403055 0 0.030514548777697 -0.055990182556616613 0 0.022528348861008178 -0.056146444516825628 0 0.022773836526372139 -0.055779330149224572 0 0.022238489080135877 -0.055880033539905741 0 0.022528348861008178 -0.056146444516825628 0 0.022773836526372139 -0.055779330149224572 0 0.02333227856295618 -0.056029594403200239 0 0.024290125985257302 -0.051353357732222486 0 0.027174838640695045 -0.05331283812187132 0 0.024936344075459554 -0.056545048743021215 0 0.023141946816544905 -0.055500439671081384 0 0.022773836526372139 -0.055779330149224572 0 0.02333227856295618 -0.056029594403200239 0 0.023851667972868158 -0.053691292669201807 0 0.024775110290630852 -0.056407569642934377 0 0.023141946816544905 -0.055500439671081384 0 0.02333227856295618 -0.056029594403200239 0 0.024936344075459554 -0.056545048743021215 0 0.02333227856295618 -0.056029594403200239 0 0.024936344075459554 -0.056545048743021215 0 0.022805900851231239 -0.056866340610089321 0 0.028143571711320342 -0.057199678885130216 0 0.024936344075459554 -0.056545048743021215 0 0.022805900851231239 -0.056866340610089321 0 0.027285141502147569 -0.055918817851522917 0 0.024618096482272867 -0.056851270117237902 0 0.022805900851231239 -0.056866340610089321 0 0.026547123329487624 -0.043651968883890536 0 0.018515511031689476 -0.043430591172813733 0 0.027021927826260641 -0.03051306386691174 0 0.02243442144555623 -0.030165183171736908 0 0.024698521264523689 -0.031781813519915533 0 0.024618096482272867 -0.056851270117237902 0 0.022805900851231239 -0.056866340610089321 0 0.021552926601960044 -0.057198151822276305 0 0.022528348861008178 -0.056146444516825628 0 0.02333227856295618 -0.056029594403200239 0 0.022696231099422728 -0.056655574045745512 0 0.02333227856295618 -0.056029594403200239 0 0.022805900851231239 -0.056866340610089321 0 0.021552926601960044 -0.057198151822276305 0 0.021470294790720681 -0.058019861896095606 0 0.018515511031689476 -0.043430591172813733 0 0.022528348861008178 -0.056146444516825628 0 0.022696231099422728 -0.056655574045745512 0 0.021756571224968414 -0.056649719673706619 0 0.018515511031689476 -0.043430591172813733 0 0.013707809891305784 -0.044921523214367799 0 0.021756571224968414 -0.056649719673706619 0 0.02158054288586473 -0.056166448938288149 0 0.021039719131731457 -0.056726629172306177 0 0.021756571224968414 -0.056649719673706619 0 0.02158054288586473 -0.056166448938288149 0 0.022238489080135877 -0.055880033539905741 0 0.022528348861008178 -0.056146444516825628 0 0.021756571224968414 -0.056649719673706619 0 0.022238489080135877 -0.055880033539905741 0 0.022680613625843817 -0.055564901638122298 0 0.022238489080135877 -0.055880033539905741 0 0.022023893032738863 -0.055686420224682419 0 0.02158054288586473 -0.056166448938288149 0 0.022238489080135877 -0.055880033539905741 0 0.022023893032738863 -0.055686420224682419 0 0.02158054288586473 -0.056166448938288149 0 0.022023893032738863 -0.055686420224682419 0 0.021445284074819364 -0.055863506680829414 0 0.021804060621587663 -0.055427773468033951 0 0.022023893032738863 -0.055686420224682419 0 0.021445284074819364 -0.055863506680829414 0 0.022365048505175858 -0.055312422264818799 0 0.021804060621587663 -0.055427773468033951 0 0.022023893032738863 -0.055686420224682419 0 0.022365048505175858 -0.055312422264818799 0 0.022680613625843817 -0.055564901638122298 0 0.022023893032738863 -0.055686420224682419 0 0.021257672901290447 -0.055567305765347852 0 0.020896192426085911 -0.056068991518730987 0 0.021445284074819364 -0.055863506680829414 0 0.02158054288586473 -0.056166448938288149 0 0.021445284074819364 -0.055863506680829414 0 0.020993197915850532 -0.056328763653134252 0 0.020425623439925593 -0.056576402617927068 0 0.020896192426085911 -0.056068991518730987 0 0.020993197915850532 -0.056328763653134252 0 0.020896192426085911 -0.056068991518730987 0 0.021445284074819364 -0.055863506680829414 0 0.020993197915850532 -0.056328763653134252 0 0.020640153837034284 -0.056565672064675103 0 0.020993197915850532 -0.056328763653134252 0 0.021039719131731457 -0.056726629172306177 0 0.02158054288586473 -0.056166448938288149 0 0.020993197915850532 -0.056328763653134252 0 0.021039719131731457 -0.056726629172306177 0 0.013707809891305784 -0.044921523214367799 0 0.015810379892315367 -0.045136056889984282 0 0.013344564182759156 -0.034401378908015291 0 0.0099089774698868198 -0.033346585149689176 0 0.010930612024200866 -0.03175563897406454 0 0.016533889048175467 -0.044852908206843352 0 0.015810379892315367 -0.045136056889984282 0 0.020640153837034284 -0.056565672064675103 0 0.020495729464857681 -0.056703980931479679 0 0.021039719131731457 -0.056726629172306177 0 0.0075782594142727146 -0.032929116905244214 0 0.0099089774698868198 -0.033346585149689176 0 0.0088711282560949775 -0.030600515566584614 0 0.0099089774698868198 -0.033346585149689176 0 0.010930612024200866 -0.03175563897406454 0 0.0088711282560949775 -0.030600515566584614 0 0.0092105684079471124 -0.028040515714357953 0 0.01016863957261507 -0.027042452502960633 0 0.0087822478047940057 -0.026604876532310587 0 0.0092105684079471124 -0.028040515714357953 0 0.01016863957261507 -0.027042452502960633 0 0.012218407325318039 -0.028946589151407038 0 0.011252804238891091 -0.026090323589293789 0 0.01016863957261507 -0.027042452502960633 0 0.012218407325318039 -0.028946589151407038 0 0.010930612024200866 -0.03175563897406454 0 0.0088711282560949775 -0.030600515566584614 0 0.012218407325318039 -0.028946589151407038 0 0.0078504124657584416 -0.029556877176593811 0 0.012745979316903459 -0.028826352459650373 0 0.011252804238891091 -0.026090323589293789 0 0.012085809524304591 -0.024241358733069766 0 0.010289238190933104 -0.024684518755503287 0 0.011252804238891091 -0.026090323589293789 0 0.010056036132949501 -0.02610008826829089 0 0.010289238190933104 -0.024684518755503287 0 0.011252804238891091 -0.026090323589293789 0 0.01016863957261507 -0.027042452502960633 0 0.010056036132949501 -0.02610008826829089 0 0.01016863957261507 -0.027042452502960633 0 0.010056036132949501 -0.02610008826829089 0 0.0087822478047940057 -0.026604876532310587 0 0.017128586830041669 -0.019397238329449413 0 0.016395459520615312 -0.019385263443158905 0 0.017908582687156845 -0.018752068847021592 0 0.010056036132949501 -0.02610008826829089 0 0.010289238190933104 -0.024684518755503287 0 0.0087822478047940057 -0.026604876532310587 0 0.012178755854588984 -0.022628619896846097 0 0.015818645429019347 -0.02224886473642651 0 0.018671893064680718 -0.017682328841039069 0 0.015818645429019347 -0.02224886473642651 0 0.017128586830041669 -0.019397238329449413 0 0.018605090931442563 -0.020426554728731526 0 0.016536626801598692 -0.020476644409384688 0 0.017128586830041669 -0.019397238329449413 0 0.018605090931442563 -0.020426554728731526 0 0.020151797866891533 -0.01610335729921817 0 0.017128586830041669 -0.019397238329449413 0 0.016536626801598692 -0.020476644409384688 0 0.016395459520615312 -0.019385263443158905 0 0.018605090931442563 -0.020426554728731526 0 0.017583999825248688 -0.021677528800540066 0 0.020501115547473046 -0.020201855033351267 0 0.018605090931442563 -0.020426554728731526 0 0.017583999825248688 -0.021677528800540066 0 0.016536626801598692 -0.020476644409384688 0 0.021614053112909412 -0.019123359708790245 0 0.016888491576399305 -0.020108048654976632 0 0.012178755854588984 -0.022628619896846097 0 0.016888491576399305 -0.020108048654976632 0 0.016536626801598692 -0.020476644409384688 0 0.016395459520615312 -0.019385263443158905 0 0.013001439375369199 -0.021547653706502329 0 0.012085809524304591 -0.024241358733069766 0 0.010289238190933104 -0.024684518755503287 0 0.012827481850694569 -0.021980081095624132 0 0.017583999825248688 -0.021677528800540066 0 0.016536626801598692 -0.020476644409384688 0 0.013001439375369199 -0.021547653706502329 0 0.026340056037515984 -0.019091833838717976 0 0.023594034738245812 -0.021502058612145002 0 0.029474660039906942 -0.020746445963160262 0 0.026340056037515984 -0.019091833838717976 0 0.023594034738245812 -0.021502058612145002 0 0.023783109594888861 -0.017719095260787032 0 0.018605090931442563 -0.020426554728731526 0 0.020501115547473046 -0.020201855033351267 0 0.020151797866891533 -0.01610335729921817 0 0.021614053112909412 -0.019123359708790245 0 0.026135238982120182 -0.019057999335616315 0 0.017583999825248688 -0.021677528800540066 0 0.023594034738245812 -0.021502058612145002 0 0.020501115547473046 -0.020201855033351267 0 0.023594034738245812 -0.021502058612145002 0 0.020501115547473046 -0.020201855033351267 0 0.023783109594888861 -0.017719095260787032 0 0.020151797866891533 -0.01610335729921817 0 0.023783109594888861 -0.017719095260787032 0 0.024273304574940497 -0.013535903841249034 0 0.020501115547473046 -0.020201855033351267 0 0.020151797866891533 -0.01610335729921817 0 0.023783109594888861 -0.017719095260787032 0 0.023783109594888861 -0.017719095260787032 0 0.024273304574940497 -0.013535903841249034 0 0.027294114471121338 -0.01602619017237409 0 0.026340056037515984 -0.019091833838717976 0 0.023783109594888861 -0.017719095260787032 0 0.027294114471121338 -0.01602619017237409 0 0.019771791977924367 -0.025027816186333623 0 0.020272154939261541 -0.02292902892628371 0 0.023898538072672611 -0.022344473152559864 0 0.02294558886122108 -0.018186943680987951 0 0.025355958642784927 -0.024437419356996323 0 0.012986437418091287 -0.026607794810984874 0 0.013005119701960397 -0.028444503077662261 0 0.019771791977924367 -0.025027816186333623 0 0.01812033554959197 -0.025268319640649552 0 0.020272154939261541 -0.02292902892628371 0 0.0092105684079471124 -0.028040515714357953 0 0.0087822478047940057 -0.026604876532310587 0 0.0083902477980798487 -0.027412033638324163 0 0.016009164839022805 -0.027377153555044338 0 0.019771791977924367 -0.025027816186333623 0 0.01812033554959197 -0.025268319640649552 0 0.0092105684079471124 -0.028040515714357953 0 0.0083902477980798487 -0.027412033638324163 0 0.0080231288535708226 -0.027752063545964691 0 0.0078504124657584416 -0.029556877176593811 0 0.013005119701960397 -0.028444503077662261 0 0.015818645429019347 -0.02224886473642651 0 0.02294558886122108 -0.018186943680987951 0 0.015818645429019347 -0.02224886473642651 0 0.012986437418091287 -0.026607794810984874 0 0.0075782594142727146 -0.032929116905244214 0 0.0088711282560949775 -0.030600515566584614 0 0.0067938208397198526 -0.031380013681905058 0 0.018515511031689476 -0.043430591172813733 0 0.013005119701960397 -0.028444503077662261 0 0.013005119701960397 -0.028444503077662261 0 0.025355958642784927 -0.024437419356996323 0 0.0057937695134387176 -0.032798971721743155 0 0.0075782594142727146 -0.032929116905244214 0 0.0067938208397198526 -0.031380013681905058 0 0.02243442144555623 -0.030165183171736908 0 0.018881002066569022 -0.033844739790089444 0 0.022446613661207458 -0.033304207054563981 0 0.025355958642784927 -0.024437419356996323 0 0.022250461754141394 -0.031784307289825009 0 0.02243442144555623 -0.030165183171736908 0 0.022446613661207458 -0.033304207054563981 0 0.024698521264523689 -0.031781813519915533 0 0.025355958642784927 -0.024437419356996323 0 0.029631783154765588 -0.021598828229133584 0 0.022597363420177527 -0.033128487894089079 0 0.024698521264523689 -0.031781813519915533 0 0.02703320683472905 -0.032524017053606274 0 0.027021927826260641 -0.03051306386691174 0 0.024698521264523689 -0.031781813519915533 0 0.02703320683472905 -0.032524017053606274 0 0.028163172490881492 -0.011248666162885791 0 0.03239055435176133 -0.010829858723728724 0 0.031863654066297778 -0.015535809149624366 0 0.028163172490881492 -0.011248666162885791 0 0.027294114471121338 -0.01602619017237409 0 0.031863654066297778 -0.015535809149624366 0 0.024273304574940497 -0.013535903841249034 0 0.028163172490881492 -0.011248666162885791 0 0.027294114471121338 -0.01602619017237409 0 0.036154669218017951 -0.010719003093842423 0 0.03539356159238654 -0.013566603446040935 0 0.039044004001471705 -0.013240065176537951 0 0.034282319827489915 -0.020462933001799546 0 0.036381201409965487 -0.032213148925974801 0 0.031518531535384621 -0.030843771509855476 0 0.031532396545500094 -0.031842834840400534 0 0.035968110455453457 -0.031187388697848328 0 0.029631783154765588 -0.021598828229133584 0 0.034282319827489915 -0.020462933001799546 0 0.031518531535384621 -0.030843771509855476 0 0.027021927826260641 -0.03051306386691174 0 0.031532396545500094 -0.031842834840400534 0 0.027021927826260641 -0.03051306386691174 0 0.02703320683472905 -0.032524017053606274 0 0.031532396545500094 -0.031842834840400534 0 0.03239055435176133 -0.010829858723728724 0 0.036154669218017951 -0.010719003093842423 0 0.03539356159238654 -0.013566603446040935 0 0.03239055435176133 -0.010829858723728724 0 0.03539356159238654 -0.013566603446040935 0 0.031863654066297778 -0.015535809149624366 0 0.03539356159238654 -0.013566603446040935 0 0.037851588547819184 -0.015098088455745555 0 0.039044004001471705 -0.013240065176537951 0 0.037851588547819184 -0.015098088455745555 0 0.035324494389370742 -0.016554075555156103 0 0.039528349060993048 -0.018374773829281359 0 0.03539356159238654 -0.013566603446040935 0 0.037851588547819184 -0.015098088455745555 0 0.035324494389370742 -0.016554075555156103 0 0.035324494389370742 -0.016554075555156103 0 0.034723782891034234 -0.019855651355619383 0 0.031863654066297778 -0.015535809149624366 0 0.03539356159238654 -0.013566603446040935 0 0.035324494389370742 -0.016554075555156103 0 0.031863654066297778 -0.015535809149624366 0 0.035324494389370742 -0.016554075555156103 0 0.034723782891034234 -0.019855651355619383 0 0.039528349060993048 -0.018374773829281359 0 0.035727534330013418 -0.018649743387985685 0 0.039225624664357674 -0.018421815062754521 0 0.027294114471121338 -0.01602619017237409 0 0.031863654066297778 -0.015535809149624366 0 0.029474660039906942 -0.020746445963160262 0 0.035727534330013418 -0.018649743387985685 0 0.031178223361693298 -0.018815865603186252 0 0.034723782891034234 -0.019855651355619383 0 0.031863654066297778 -0.015535809149624366 0 0.029474660039906942 -0.020746445963160262 0 0.026340056037515984 -0.019091833838717976 0 0.027294114471121338 -0.01602619017237409 0 0.029474660039906942 -0.020746445963160262 0 0.026135238982120182 -0.019057999335616315 0 0.031178223361693298 -0.018815865603186252 0 0.033020238575014522 -0.016856588830024572 0 0.032078949192466594 -0.018721891951610996 0 0.033634170620698123 -0.019337256416670397 0 0.033020238575014522 -0.016856588830024572 0 0.032078949192466594 -0.018721891951610996 0 0.03017670949206059 -0.018353654727171983 0 0.032078949192466594 -0.018721891951610996 0 0.031439254372051008 -0.020411468656518345 0 0.03017670949206059 -0.018353654727171983 0 0.033020238575014522 -0.016856588830024572 0 0.033634170620698123 -0.019337256416670397 0 0.035825755501581194 -0.019304869564123188 0 0.036859705939153505 -0.017484471550274879 0 0.033020238575014522 -0.016856588830024572 0 0.035825755501581194 -0.019304869564123188 0 0.033634170620698123 -0.019337256416670397 0 0.035825755501581194 -0.019304869564123188 0 0.034800803555322633 -0.021606524732251393 0 0.033634170620698123 -0.019337256416670397 0 0.031439254372051008 -0.020411468656518345 0 0.034800803555322633 -0.021606524732251393 0 0.030565676545687644 -0.019853385133074362 0 0.035083067556820113 -0.020044520205996477 0 0.035083067556820113 -0.020044520205996477 0 0.030309749236101909 -0.019124125086179555 0 0.030206585074968047 -0.019291965753222118 0 0.032672463446654969 -0.020230976025132352 0 0.029574907148155891 -0.019929970386725233 0 0.032078949192466594 -0.018721891951610996 0 0.033634170620698123 -0.019337256416670397 0 0.031439254372051008 -0.020411468656518345 0 0.036859705939153505 -0.017484471550274879 0 0.037740578939128092 -0.019512403706119077 0 0.039528349060993048 -0.018374773829281359 0 0.037740578939128092 -0.019512403706119077 0 0.039528349060993048 -0.018374773829281359 0 0.03964196953910535 -0.019938264961465526 0 0.036859705939153505 -0.017484471550274879 0 0.037740578939128092 -0.019512403706119077 0 0.035825755501581194 -0.019304869564123188 0 0.036700669062211977 -0.020732546664499325 0 0.038131176227372533 -0.021601635220935902 0 0.034800803555322633 -0.021606524732251393 0 0.035825755501581194 -0.019304869564123188 0 0.036700669062211977 -0.020732546664499325 0 0.034800803555322633 -0.021606524732251393 0 0.037740578939128092 -0.019512403706119077 0 0.036700669062211977 -0.020732546664499325 0 0.037789434987722199 -0.020563362152626257 0 0.037740578939128092 -0.019512403706119077 0 0.035825755501581194 -0.019304869564123188 0 0.036700669062211977 -0.020732546664499325 0 0.038567122992600344 -0.020402577385584236 0 0.038131176227372533 -0.021601635220935902 0 0.041065554916255999 -0.021257113302592497 0 0.037740578939128092 -0.019512403706119077 0 0.038567122992600344 -0.020402577385584236 0 0.03964196953910535 -0.019938264961465526 0 0.037740578939128092 -0.019512403706119077 0 0.037789434987722199 -0.020563362152626257 0 0.038567122992600344 -0.020402577385584236 0 0.037789434987722199 -0.020563362152626257 0 0.038567122992600344 -0.020402577385584236 0 0.038131176227372533 -0.021601635220935902 0 0.036700669062211977 -0.020732546664499325 0 0.037789434987722199 -0.020563362152626257 0 0.038131176227372533 -0.021601635220935902 0 0.039835676730485221 -0.020382458336858221 0 0.039125157501568093 -0.020710965168627485 0 0.041227794872907328 -0.020456857778695502 0 0.039835676730485221 -0.020382458336858221 0 0.039801356038603429 -0.020187413301321205 0 0.041065554916255999 -0.021257113302592497 0 0.039155556754253584 -0.019959904299153008 0 0.040844904178521407 -0.020434728823174132 0 0.038716406576707649 -0.019286846552053063 0 0.039586795269163873 -0.020980788275087068 0 0.041227794872907328 -0.020456857778695502 0 0.039835676730485221 -0.020382458336858221 0 0.039801356038603429 -0.020187413301321205 0 0.039125157501568093 -0.020710965168627485 0 0.03912774007054319 -0.021018321147316221 0 0.035083067556820113 -0.020044520205996477 0 0.039155556754253584 -0.019959904299153008 0 0.035083067556820113 -0.020044520205996477 0 0.038716406576707649 -0.019286846552053063 0 0.037801969217649063 -0.020574898568563735 0 0.035877733013600734 -0.018363255344514561 0 0.039801356038603429 -0.020187413301321205 0 0.039125157501568093 -0.020710965168627485 0 0.037116576536499975 -0.019944300002467715 0 0.038716406576707649 -0.019286846552053063 0 0.037801969217649063 -0.020574898568563735 0 0.039586795269163873 -0.020980788275087068 0 0.037801969217649063 -0.020574898568563735 0 0.039586795269163873 -0.020980788275087068 0 0.038575290696718098 -0.022522959896823482 0 0.037801969217649063 -0.020574898568563735 0 0.036130037743112013 -0.021413407890831338 0 0.038575290696718098 -0.022522959896823482 0 0.039586795269163873 -0.020980788275087068 0 0.041121491124715588 -0.021764826398286839 0 0.038575290696718098 -0.022522959896823482 0 0.039586795269163873 -0.020980788275087068 0 0.041227794872907328 -0.020456857778695502 0 0.041121491124715588 -0.021764826398286839 0 0.033793343810467891 -0.020300899886161586 0 0.035877733013600734 -0.018363255344514561 0 0.031418089685265146 -0.018459236297725275 0 0.033793343810467891 -0.020300899886161586 0 0.031675029722265859 -0.020987061280133404 0 0.031418089685265146 -0.018459236297725275 0 0.033793343810467891 -0.020300899886161586 0 0.035877733013600734 -0.018363255344514561 0 0.036130037743112013 -0.021413407890831338 0 0.037801969217649063 -0.020574898568563735 0 0.035877733013600734 -0.018363255344514561 0 0.036130037743112013 -0.021413407890831338 0 0.033793343810467891 -0.020300899886161586 0 0.036130037743112013 -0.021413407890831338 0 0.033701898669005685 -0.022273600541109283 0 0.033701898669005685 -0.022273600541109283 0 0.031675029722265859 -0.020987061280133404 0 0.030769122665913372 -0.023494302385226689 0 0.033793343810467891 -0.020300899886161586 0 0.033701898669005685 -0.022273600541109283 0 0.031675029722265859 -0.020987061280133404 0 0.031675029722265859 -0.020987061280133404 0 0.028989573936429522 -0.02073981734222221 0 0.030769122665913372 -0.023494302385226689 0 0.031675029722265859 -0.020987061280133404 0 0.028989573936429522 -0.02073981734222221 0 0.031418089685265146 -0.018459236297725275 0 0.028989573936429522 -0.02073981734222221 0 0.026517265079964786 -0.022336706797403311 0 0.026844073538695806 -0.019419051086154604 0 0.028989573936429522 -0.02073981734222221 0 0.031418089685265146 -0.018459236297725275 0 0.026844073538695806 -0.019419051086154604 0 0.028989573936429522 -0.02073981734222221 0 0.026517265079964786 -0.022336706797403311 0 0.030769122665913372 -0.023494302385226689 0 0.031185354298922271 -0.0069669427767946237 0 0.035101087479065325 -0.0081612902613433045 0 0.035852566944401823 0.008392266738598728 0 0.032500713242384002 0.0095298861736743314 0 0.032940623999335734 0.0062024833561315773 0 0.022767649116767447 -0.021262195127267246 0 0.02494085162762814 -0.020317589869859841 0 0.023986502299778664 -0.01949106122378131 0 0.031185354298922271 -0.0069669427767946237 0 0.027635544371973398 -0.0058482260317294687 0 0.026517265079964786 -0.022336706797403311 0 0.02494085162762814 -0.020317589869859841 0 0.026844073538695806 -0.019419051086154604 0 0.026517265079964786 -0.022336706797403311 0 0.022767649116767447 -0.021262195127267246 0 0.02494085162762814 -0.020317589869859841 0 0.02494085162762814 -0.020317589869859841 0 0.025456179993714845 -0.019100674921434305 0 0.026844073538695806 -0.019419051086154604 0 0.02494085162762814 -0.020317589869859841 0 0.025456179993714845 -0.019100674921434305 0 0.023986502299778664 -0.01949106122378131 0 0.025456179993714845 -0.019100674921434305 0 0.026536126142314327 -0.018189594153495928 0 0.026844073538695806 -0.019419051086154604 0 0.022767649116767447 -0.021262195127267246 0 0.023986502299778664 -0.01949106122378131 0 0.0224659793352441 -0.018958233314893748 0 0.025456179993714845 -0.019100674921434305 0 0.023986502299778664 -0.01949106122378131 0 0.024261100842673567 -0.018291604737437718 0 0.023986502299778664 -0.01949106122378131 0 0.024261100842673567 -0.018291604737437718 0 0.0224659793352441 -0.018958233314893748 0 0.024261100842673567 -0.018291604737437718 0 0.021771492850775533 -0.017367315447946608 0 0.0224659793352441 -0.018958233314893748 0 0.025326139203013638 -0.016710520938424758 0 0.024261100842673567 -0.018291604737437718 0 0.021771492850775533 -0.017367315447946608 0 0.025456179993714845 -0.019100674921434305 0 0.024261100842673567 -0.018291604737437718 0 0.026536126142314327 -0.018189594153495928 0 0.025326139203013638 -0.016710520938424758 0 0.024261100842673567 -0.018291604737437718 0 0.026536126142314327 -0.018189594153495928 0 0.028762582791192145 -0.016617811122161576 0 0.026536126142314327 -0.018189594153495928 0 0.028021495013103803 -0.018580480691461853 0 0.025326139203013638 -0.016710520938424758 0 0.028762582791192145 -0.016617811122161576 0 0.026536126142314327 -0.018189594153495928 0 0.028762582791192145 -0.016617811122161576 0 0.028021495013103803 -0.018580480691461853 0 0.03017670949206059 -0.018353654727171983 0 0.028762582791192145 -0.016617811122161576 0 0.033020238575014522 -0.016856588830024572 0 0.03017670949206059 -0.018353654727171983 0 0.030206585074968047 -0.019291965753222118 0 0.028021495013103803 -0.018580480691461853 0 0.029574907148155891 -0.019929970386725233 0 0.031439254372051008 -0.020411468656518345 0 0.028021495013103803 -0.018580480691461853 0 0.03017670949206059 -0.018353654727171983 0 0.030565676545687644 -0.019853385133074362 0 0.028325698488917729 -0.018721227446757065 0 0.028021495013103803 -0.018580480691461853 0 0.029574907148155891 -0.019929970386725233 0 0.026844073538695806 -0.019419051086154604 0 0.030309749236101909 -0.019124125086179555 0 0.02719658873266333 -0.019379968228179396 0 0.026536126142314327 -0.018189594153495928 0 0.028021495013103803 -0.018580480691461853 0 0.026844073538695806 -0.019419051086154604 0 0.055966445317372417 -0.020679014096196262 0 0.056658786741951662 -0.02105552765553954 0 0.054999663519791853 -0.022387065810734238 0 0.055966445317372417 -0.020679014096196262 0 0.054999663519791853 -0.022387065810734238 0 0.054999855020185291 -0.01922044443523744 0 0.056658786741951662 -0.02105552765553954 0 0.055748821012068669 -0.021079027906124131 0 0.05674546216208242 -0.020094377023665937 0 0.055966445317372417 -0.020679014096196262 0 0.056658786741951662 -0.02105552765553954 0 0.05674546216208242 -0.020094377023665937 0 0.056658786741951662 -0.02105552765553954 0 0.055256187933883823 -0.018411114998812171 0 0.055748821012068669 -0.021079027906124131 0 0.057081314397571685 -0.020045847083993595 0 0.055298152823153687 -0.022143949134077658 0 0.056658786741951662 -0.02105552765553954 0 0.055256187933883823 -0.018411114998812171 0 0.057488845565750506 -0.016605235692519579 0 0.055002779505482984 -0.022392009309873232 0 0.055298152823153687 -0.022143949134077658 0 0.056658786741951662 -0.02105552765553954 0 0.054999663519791853 -0.022387065810734238 0 0.05650094016325314 -0.023285662513658663 0 0.054999991585302763 -0.022389607262427624 0 0.055936306312725642 -0.023923798948241513 0 0.054999950708786847 -0.02476956351372045 0 0.054999991585302763 -0.022389607262427624 0 0.055936306312725642 -0.023923798948241513 0 0.057104699386153458 -0.024238794105958601 0 0.056232177440271841 -0.023770285003687108 0 0.054607662650413877 -0.027472541328788434 0 0.055936306312725642 -0.023923798948241513 0 0.055972330898778788 -0.026685267009484929 0 0.057104699386153458 -0.024238794105958601 0 0.055936306312725642 -0.023923798948241513 0 0.054999950708786847 -0.02476956351372045 0 0.056072766881181783 -0.026685750759649275 0 0.054999950708786847 -0.02476956351372045 0 0.05535463769566594 -0.026640375696652112 0 0.056072766881181783 -0.026685750759649275 0 0.054999950708786847 -0.02476956351372045 0 0.05535463769566594 -0.026640375696652112 0 0.054999995301330949 -0.027149670185141455 0 0.055972330898778788 -0.026685267009484929 0 0.056763886008732958 -0.026738843269528523 0 0.057104699386153458 -0.024238794105958601 0 0.054607662650413877 -0.027472541328788434 0 0.051747683639140167 -0.028507502334276 0 0.05535463769566594 -0.026640375696652112 0 0.056070247484065944 -0.02669599592048132 0 0.054999995301330949 -0.027149670185141455 0 0.055373935365583618 -0.027225645126410125 0 0.054607662650413877 -0.027472541328788434 0 0.048620027526478711 -0.035171940591828411 0 0.049320530657358738 -0.036148473530289514 0 0.047917064504563164 -0.036101159975266521 0 0.051747683639140167 -0.028507502334276 0 0.049334056920396788 -0.030225696835550889 0 0.051112839449369576 -0.024676163693231296 0 0.051027532491934958 -0.024730102349811923 0 0.050939841095310828 -0.024648476277601118 0 0.051027532491934958 -0.024730102349811923 0 0.050933739183824524 -0.024757394219355695 0 0.050939841095310828 -0.024648476277601118 0 0.055256187933883823 -0.018411114998812171 0 0.057488845565750506 -0.016605235692519579 0 0.05379085175989911 -0.013229787823107698 0 0.051027532491934958 -0.024730102349811923 0 0.051112701191287489 -0.024852117901534999 0 0.050933739183824524 -0.024757394219355695 0 0.051112839449369576 -0.024676163693231296 0 0.051027532491934958 -0.024730102349811923 0 0.051112701191287489 -0.024852117901534999 0 0.051747683639140167 -0.028507502334276 0 0.055298152823153687 -0.022143949134077658 0 0.055298152823153687 -0.022143949134077658 0 0.05170200222134979 -0.018098532170390008 0 0.05379085175989911 -0.013229787823107698 0 0.049936225917643982 -0.01049548580836124 0 0.050247901387060902 -0.015253106087595992 0 0.055256187933883823 -0.018411114998812171 0 0.05379085175989911 -0.013229787823107698 0 0.050247901387060902 -0.015253106087595992 0 0.049334056920396788 -0.030225696835550889 0 0.04798883170808891 -0.027101141036609086 0 0.050933739183824524 -0.024757394219355695 0 0.050939841095310828 -0.024648476277601118 0 0.050715615384024672 -0.024646222988454536 0 0.05170200222134979 -0.018098532170390008 0 0.04798883170808891 -0.027101141036609086 0 0.049936225917643982 -0.01049548580836124 0 0.0472477706173847 -0.012862642498784313 0 0.045906824907515284 -0.010786389551826932 0 0.049936225917643982 -0.01049548580836124 0 0.0472477706173847 -0.012862642498784313 0 0.050247901387060902 -0.015253106087595992 0 0.045101798457329319 -0.034986409570526331 0 0.04677709265151192 -0.036306235757078226 0 0.044357740757271544 -0.036274209318370006 0 0.04798883170808891 -0.027101141036609086 0 0.045221916723339341 -0.023440444567514387 0 0.0472477706173847 -0.012862642498784313 0 0.050247901387060902 -0.015253106087595992 0 0.046067143666200065 -0.015373126002811575 0 0.046725100546210402 -0.016588695610690089 0 0.045513698629913314 -0.016960212091245597 0 0.046067143666200065 -0.015373126002811575 0 0.050247901387060902 -0.015253106087595992 0 0.049580850363176471 -0.019554889353570429 0 0.046067143666200065 -0.015373126002811575 0 0.047759037679309273 -0.017747319950595884 0 0.046335183873794358 -0.015809874606792226 0 0.055256187933883823 -0.018411114998812171 0 0.050247901387060902 -0.015253106087595992 0 0.049580850363176471 -0.019554889353570429 0 0.055256187933883823 -0.018411114998812171 0 0.049580850363176471 -0.019554889353570429 0 0.053292647815867657 -0.023287769592591347 0 0.047759037679309273 -0.017747319950595884 0 0.05423533868461599 -0.020022031727586029 0 0.055186664579505794 -0.019356909249199212 0 0.05423533868461599 -0.020022031727586029 0 0.046725100546210402 -0.016588695610690089 0 0.047707360798223949 -0.017744606417660985 0 0.046629861959505983 -0.017754967320439387 0 0.046629861959505983 -0.017754967320439387 0 0.045513698629913314 -0.016960212091245597 0 0.045681139092088464 -0.018373476507507772 0 0.046725100546210402 -0.016588695610690089 0 0.046629861959505983 -0.017754967320439387 0 0.045513698629913314 -0.016960212091245597 0 0.045513698629913314 -0.016960212091245597 0 0.043640730738826114 -0.017813687803298537 0 0.045681139092088464 -0.018373476507507772 0 0.045513698629913314 -0.016960212091245597 0 0.043640730738826114 -0.017813687803298537 0 0.044084390405103438 -0.015956028650770507 0 0.043640730738826114 -0.017813687803298537 0 0.041845691236178546 -0.01550353385110899 0 0.041506120814496346 -0.018054860526604426 0 0.043640730738826114 -0.017813687803298537 0 0.044084390405103438 -0.015956028650770507 0 0.041845691236178546 -0.01550353385110899 0 0.044084390405103438 -0.015956028650770507 0 0.043498295327369103 -0.014019329137194191 0 0.041845691236178546 -0.01550353385110899 0 0.045513698629913314 -0.016960212091245597 0 0.044084390405103438 -0.015956028650770507 0 0.046067143666200065 -0.015373126002811575 0 0.044084390405103438 -0.015956028650770507 0 0.046067143666200065 -0.015373126002811575 0 0.043498295327369103 -0.014019329137194191 0 0.046067143666200065 -0.015373126002811575 0 0.04491421311101608 -0.01270243916772241 0 0.043498295327369103 -0.014019329137194191 0 0.0472477706173847 -0.012862642498784313 0 0.046067143666200065 -0.015373126002811575 0 0.04491421311101608 -0.01270243916772241 0 0.0472477706173847 -0.012862642498784313 0 0.04491421311101608 -0.01270243916772241 0 0.045906824907515284 -0.010786389551826932 0 0.045221916723339341 -0.023440444567514387 0 0.043328690757358193 -0.023777318285895185 0 0.04491421311101608 -0.01270243916772241 0 0.045906824907515284 -0.010786389551826932 0 0.043956933819688994 -0.011015638928283084 0 0.041600701557247766 -0.035291765361176258 0 0.044357740757271544 -0.036274209318370006 0 0.042614618769536775 -0.036212262647696239 0 0.043154839324394512 -0.011072031968984321 0 0.043956933819688994 -0.011015638928283084 0 0.043425988780898678 -0.01230899237798049 0 0.042641502645629881 -0.024123166643567596 0 0.043328690757358193 -0.023777318285895185 0 0.041600701557247766 -0.035291765361176258 0 0.041744258873716002 -0.036221768773392539 0 0.042614618769536775 -0.036212262647696239 0 0.04491421311101608 -0.01270243916772241 0 0.043956933819688994 -0.011015638928283084 0 0.043425988780898678 -0.01230899237798049 0 0.043154839324394512 -0.011072031968984321 0 0.043425988780898678 -0.01230899237798049 0 0.041726403985960989 -0.01274719595286365 0 0.043425988780898678 -0.01230899237798049 0 0.043498295327369103 -0.014019329137194191 0 0.041726403985960989 -0.01274719595286365 0 0.043498295327369103 -0.014019329137194191 0 0.041726403985960989 -0.01274719595286365 0 0.041845691236178546 -0.01550353385110899 0 0.04491421311101608 -0.01270243916772241 0 0.043425988780898678 -0.01230899237798049 0 0.043498295327369103 -0.014019329137194191 0 0.041726403985960989 -0.01274719595286365 0 0.039044004001471705 -0.013240065176537951 0 0.041845691236178546 -0.01550353385110899 0 0.043154839324394512 -0.011072031968984321 0 0.041726403985960989 -0.01274719595286365 0 0.039326713176188847 -0.010644674516274738 0 0.042641502645629881 -0.024123166643567596 0 0.036381201409965487 -0.032213148925974801 0 0.035551651694811726 -0.042337017541089164 0 0.042641502645629881 -0.024123166643567596 0 0.036796359877559019 -0.03073388903566799 0 0.042090736551928264 -0.030606073924771656 0 0.036037667043209612 -0.030945275135861962 0 0.041726403985960989 -0.01274719595286365 0 0.039326713176188847 -0.010644674516274738 0 0.039044004001471705 -0.013240065176537951 0 0.036154669218017951 -0.010719003093842423 0 0.039326713176188847 -0.010644674516274738 0 0.039044004001471705 -0.013240065176537951 0 0.035551651694811726 -0.042337017541089164 0 0.036381201409965487 -0.032213148925974801 0 0.039044004001471705 -0.013240065176537951 0 0.039955123313360902 -0.016360758206480818 0 0.041845691236178546 -0.01550353385110899 0 0.037851588547819184 -0.015098088455745555 0 0.039044004001471705 -0.013240065176537951 0 0.039955123313360902 -0.016360758206480818 0 0.037851588547819184 -0.015098088455745555 0 0.039955123313360902 -0.016360758206480818 0 0.039528349060993048 -0.018374773829281359 0 0.039955123313360902 -0.016360758206480818 0 0.041845691236178546 -0.01550353385110899 0 0.041506120814496346 -0.018054860526604426 0 0.039955123313360902 -0.016360758206480818 0 0.041506120814496346 -0.018054860526604426 0 0.039528349060993048 -0.018374773829281359 0 0.039528349060993048 -0.018374773829281359 0 0.041166271353748993 -0.019800137902935114 0 0.03964196953910535 -0.019938264961465526 0 0.041506120814496346 -0.018054860526604426 0 0.039528349060993048 -0.018374773829281359 0 0.041166271353748993 -0.019800137902935114 0 0.041506120814496346 -0.018054860526604426 0 0.041166271353748993 -0.019800137902935114 0 0.042792599945109443 -0.019637454602945765 0 0.041166271353748993 -0.019800137902935114 0 0.042413099105061143 -0.020896700874847709 0 0.042792599945109443 -0.019637454602945765 0 0.041166271353748993 -0.019800137902935114 0 0.041065554916255999 -0.021257113302592497 0 0.042413099105061143 -0.020896700874847709 0 0.038567122992600344 -0.020402577385584236 0 0.03964196953910535 -0.019938264961465526 0 0.041065554916255999 -0.021257113302592497 0 0.041166271353748993 -0.019800137902935114 0 0.03964196953910535 -0.019938264961465526 0 0.041065554916255999 -0.021257113302592497 0 0.039835676730485221 -0.020382458336858221 0 0.041227794872907328 -0.020456857778695502 0 0.042567881977619848 -0.020421045492524503 0 0.03912774007054319 -0.021018321147316221 0 0.040782705709051827 -0.021173870373780889 0 0.039835676730485221 -0.020382458336858221 0 0.041065554916255999 -0.021257113302592497 0 0.041083657408844912 -0.022194216305756399 0 0.040011027838659813 -0.020468905495058965 0 0.041974014117268733 -0.021293421850145849 0 0.041227794872907328 -0.020456857778695502 0 0.042567881977619848 -0.020421045492524503 0 0.041121491124715588 -0.021764826398286839 0 0.042567881977619848 -0.020421045492524503 0 0.041121491124715588 -0.021764826398286839 0 0.043183679071351171 -0.022140661774203152 0 0.041083657408844912 -0.022194216305756399 0 0.042248440103531328 -0.021802887857559392 0 0.043058134157515505 -0.023093691914211407 0 0.041974014117268733 -0.021293421850145849 0 0.043994626723677287 -0.022703151564115707 0 0.042567881977619848 -0.020421045492524503 0 0.045968178116990908 -0.021640856835380501 0 0.043183679071351171 -0.022140661774203152 0 0.041065554916255999 -0.021257113302592497 0 0.042248440103531328 -0.021802887857559392 0 0.042413099105061143 -0.020896700874847709 0 0.041065554916255999 -0.021257113302592497 0 0.041083657408844912 -0.022194216305756399 0 0.042248440103531328 -0.021802887857559392 0 0.043392571555539244 -0.021808286082122288 0 0.043703530096989747 -0.020748456934620518 0 0.042413099105061143 -0.020896700874847709 0 0.042248440103531328 -0.021802887857559392 0 0.043392571555539244 -0.021808286082122288 0 0.042413099105061143 -0.020896700874847709 0 0.043392571555539244 -0.021808286082122288 0 0.043766953285411955 -0.022547135989420382 0 0.043058134157515505 -0.023093691914211407 0 0.042248440103531328 -0.021802887857559392 0 0.043392571555539244 -0.021808286082122288 0 0.043058134157515505 -0.023093691914211407 0 0.044204938587955316 -0.022407406787805423 0 0.044498258202696081 -0.022626177239352063 0 0.0442193192476589 -0.021972168955351527 0 0.044204938587955316 -0.022407406787805423 0 0.043766953285411955 -0.022547135989420382 0 0.044430431361860506 -0.022768100967163581 0 0.044204938587955316 -0.022407406787805423 0 0.044498258202696081 -0.022626177239352063 0 0.044430431361860506 -0.022768100967163581 0 0.044204938587955316 -0.022407406787805423 0 0.043766953285411955 -0.022547135989420382 0 0.0442193192476589 -0.021972168955351527 0 0.043392571555539244 -0.021808286082122288 0 0.043766953285411955 -0.022547135989420382 0 0.0442193192476589 -0.021972168955351527 0 0.049531766192767779 -0.019308026576324643 0 0.044892739553184721 -0.020985776038686638 0 0.0442193192476589 -0.021972168955351527 0 0.0440561229871205 -0.021373702344480643 0 0.044892590381843261 -0.020940727097214812 0 0.044498258202696081 -0.022626177239352063 0 0.0442193192476589 -0.021972168955351527 0 0.044892590381843261 -0.020940727097214812 0 0.043392571555539244 -0.021808286082122288 0 0.0440561229871205 -0.021373702344480643 0 0.043703530096989747 -0.020748456934620518 0 0.043392571555539244 -0.021808286082122288 0 0.0442193192476589 -0.021972168955351527 0 0.0440561229871205 -0.021373702344480643 0 0.0440561229871205 -0.021373702344480643 0 0.044892590381843261 -0.020940727097214812 0 0.043703530096989747 -0.020748456934620518 0 0.044892590381843261 -0.020940727097214812 0 0.043703530096989747 -0.020748456934620518 0 0.044162037670177019 -0.019553294801853034 0 0.043703530096989747 -0.020748456934620518 0 0.042413099105061143 -0.020896700874847709 0 0.042792599945109443 -0.019637454602945765 0 0.043703530096989747 -0.020748456934620518 0 0.042792599945109443 -0.019637454602945765 0 0.044162037670177019 -0.019553294801853034 0 0.043640730738826114 -0.017813687803298537 0 0.042792599945109443 -0.019637454602945765 0 0.044162037670177019 -0.019553294801853034 0 0.043640730738826114 -0.017813687803298537 0 0.041506120814496346 -0.018054860526604426 0 0.042792599945109443 -0.019637454602945765 0 0.043640730738826114 -0.017813687803298537 0 0.044162037670177019 -0.019553294801853034 0 0.045681139092088464 -0.018373476507507772 0 0.044892590381843261 -0.020940727097214812 0 0.044162037670177019 -0.019553294801853034 0 0.045681139092088464 -0.018373476507507772 0 0.046629861959505983 -0.017754967320439387 0 0.045681139092088464 -0.018373476507507772 0 0.046921277944663178 -0.019310221089142512 0 0.05423533868461599 -0.020022031727586029 0 0.053068108639161594 -0.01897744327646049 0 0.058649385878485005 -0.020814212994490322 0 0.059524454944061056 -0.01866376632536457 0 0.057137498102895402 -0.019273571384464405 0 0.047707360798223949 -0.017744606417660985 0 0.046629861959505983 -0.017754967320439387 0 0.046921277944663178 -0.019310221089142512 0 0.059524454944061056 -0.01866376632536457 0 0.058552170066519249 -0.017416185690053258 0 0.057137498102895402 -0.019273571384464405 0 0.059524454944061056 -0.01866376632536457 0 0.058552170066519249 -0.017416185690053258 0 0.060400468550079994 -0.016452766585264837 0 0.044892739553184721 -0.020985776038686638 0 0.045831306302835439 -0.018161447712074733 0 0.046094964057529796 -0.020012619864214352 0 0.046921277944663178 -0.019310221089142512 0 0.046429221339044452 -0.020240488077222552 0 0.046094964057529796 -0.020012619864214352 0 0.045681139092088464 -0.018373476507507772 0 0.046921277944663178 -0.019310221089142512 0 0.053068108639161594 -0.01897744327646049 0 0.053969511075265673 -0.017853434150209523 0 0.046329229834651382 -0.020798969146749238 0 0.046094964057529796 -0.020012619864214352 0 0.046429221339044452 -0.020240488077222552 0 0.060400468550079994 -0.016452766585264837 0 0.060085575312027031 -0.015401512847708718 0 0.059144582693742578 -0.016104004353128067 0 0.061245673534244538 -0.01434639737363382 0 0.059522347089900118 -0.014723018674505142 0 0.060024589046383317 -0.013372015631687734 0 0.061245673534244538 -0.01434639737363382 0 0.060085575312027031 -0.015401512847708718 0 0.059522347089900118 -0.014723018674505142 0 0.061245673534244538 -0.01434639737363382 0 0.060400468550079994 -0.016452766585264837 0 0.060085575312027031 -0.015401512847708718 0 0.049531766192767779 -0.019308026576324643 0 0.053969511075265673 -0.017853434150209523 0 0.059522347089900118 -0.014723018674505142 0 0.058322618951502592 -0.015095122442827024 0 0.058402446903827364 -0.013732473059379325 0 0.059522347089900118 -0.014723018674505142 0 0.058322618951502592 -0.015095122442827024 0 0.059144582693742578 -0.016104004353128067 0 0.060085575312027031 -0.015401512847708718 0 0.059522347089900118 -0.014723018674505142 0 0.059144582693742578 -0.016104004353128067 0 0.058322618951502592 -0.015095122442827024 0 0.059144582693742578 -0.016104004353128067 0 0.057717304894373204 -0.016249570201224885 0 0.058552170066519249 -0.017416185690053258 0 0.060400468550079994 -0.016452766585264837 0 0.059144582693742578 -0.016104004353128067 0 0.058552170066519249 -0.017416185690053258 0 0.059144582693742578 -0.016104004353128067 0 0.057717304894373204 -0.016249570201224885 0 0.057717304894373204 -0.016249570201224885 0 0.056788544309573509 -0.014653492861452257 0 0.056440208460549306 -0.016436248461119456 0 0.058552170066519249 -0.017416185690053258 0 0.057717304894373204 -0.016249570201224885 0 0.057105896283366729 -0.017467689856117834 0 0.057717304894373204 -0.016249570201224885 0 0.056440208460549306 -0.016436248461119456 0 0.057105896283366729 -0.017467689856117834 0 0.058322618951502592 -0.015095122442827024 0 0.057717304894373204 -0.016249570201224885 0 0.056788544309573509 -0.014653492861452257 0 0.058322618951502592 -0.015095122442827024 0 0.056788544309573509 -0.014653492861452257 0 0.058402446903827364 -0.013732473059379325 0 0.056788544309573509 -0.014653492861452257 0 0.054999849248371126 -0.016048726847054409 0 0.055000139626680038 -0.01287961146823509 0 0.056788544309573509 -0.014653492861452257 0 0.054999849248371126 -0.016048726847054409 0 0.056440208460549306 -0.016436248461119456 0 0.054999849248371126 -0.016048726847054409 0 0.056440208460549306 -0.016436248461119456 0 0.055537822059020615 -0.017782477924197539 0 0.05541590271832178 -0.017790096310829073 0 0.057307564446708939 -0.019932215929368929 0 0.055537822059020615 -0.017782477924197539 0 0.05674546216208242 -0.020094377023665937 0 0.054999855020185291 -0.01922044443523744 0 0.054999849248371126 -0.016048726847054409 0 0.055537822059020615 -0.017782477924197539 0 0.054999855020185291 -0.01922044443523744 0 0.056440208460549306 -0.016436248461119456 0 0.055537822059020615 -0.017782477924197539 0 0.057105896283366729 -0.017467689856117834 0 0.058552170066519249 -0.017416185690053258 0 0.057105896283366729 -0.017467689856117834 0 0.057137498102895402 -0.019273571384464405 0 0.055537822059020615 -0.017782477924197539 0 0.057105896283366729 -0.017467689856117834 0 0.057137498102895402 -0.019273571384464405 0 0.05423533868461599 -0.020022031727586029 0 0.057307564446708939 -0.019932215929368929 0 0.055966445317372417 -0.020679014096196262 0 0.05674546216208242 -0.020094377023665937 0 0.054999855020185291 -0.01922044443523744 0 0.055229575083656793 -0.0075058530860647663 0 0.053897982025992289 -0.0078736718109946209 0 0.055000500215078484 -0.0065424412004316899 0 0.055229575083656793 -0.0075058530860647663 0 0.0549990225132257 -0.0097070699451380672 0 0.055000500215078484 -0.0065424412004316899 0 0.055378964141196307 -0.0075477020136195576 0 0.054371369727942723 -0.0069529348478829826 0 0.055229575083656793 -0.0075058530860647663 0 0.053897982025992289 -0.0078736718109946209 0 0.053041964312817297 -0.0056965808083640655 0 0.053041964312817297 -0.0056965808083640655 0 0.050577372087929243 -0.0065381272928162664 0 0.051630665162974265 -0.0083293485108360821 0 0.053897982025992289 -0.0078736718109946209 0 0.053041964312817297 -0.0056965808083640655 0 0.051630665162974265 -0.0083293485108360821 0 0.057060960356600146 -0.0087809346532242202 0 0.056414160636048087 -0.010908076968982048 0 0.057880532522332204 -0.010667131086019747 0 0.053041964312817297 -0.0056965808083640655 0 0.050434526081929339 -0.0042473939742055456 0 0.050577372087929243 -0.0065381272928162664 0 0.054371369727942723 -0.0069529348478829826 0 0.055455672402326878 -0.013552560171114281 0 0.057060960356600146 -0.0087809346532242202 0 0.057880532522332204 -0.010667131086019747 0 0.058683857468840542 -0.0098980069155051136 0 0.058364130428412118 -0.010469978262683633 0 0.055455672402326878 -0.013552560171114281 0 0.057060960356600146 -0.0087809346532242202 0 0.0549990225132257 -0.0097070699451380672 0 0.056414160636048087 -0.010908076968982048 0 0.055229575083656793 -0.0075058530860647663 0 0.057060960356600146 -0.0087809346532242202 0 0.0549990225132257 -0.0097070699451380672 0 0.0549990225132257 -0.0097070699451380672 0 0.056414160636048087 -0.010908076968982048 0 0.055000139626680038 -0.01287961146823509 0 0.056414160636048087 -0.010908076968982048 0 0.055000139626680038 -0.01287961146823509 0 0.057168598462368776 -0.012381730074794662 0 0.056788544309573509 -0.014653492861452257 0 0.055000139626680038 -0.01287961146823509 0 0.057168598462368776 -0.012381730074794662 0 0.056788544309573509 -0.014653492861452257 0 0.057168598462368776 -0.012381730074794662 0 0.058402446903827364 -0.013732473059379325 0 0.057168598462368776 -0.012381730074794662 0 0.058722736893207457 -0.012129017711938361 0 0.058402446903827364 -0.013732473059379325 0 0.056414160636048087 -0.010908076968982048 0 0.057168598462368776 -0.012381730074794662 0 0.057880532522332204 -0.010667131086019747 0 0.057168598462368776 -0.012381730074794662 0 0.057880532522332204 -0.010667131086019747 0 0.058722736893207457 -0.012129017711938361 0 0.057880532522332204 -0.010667131086019747 0 0.05882041247806289 -0.011149916992777641 0 0.058722736893207457 -0.012129017711938361 0 0.057880532522332204 -0.010667131086019747 0 0.05882041247806289 -0.011149916992777641 0 0.058503550002133288 -0.010150655747209004 0 0.05882041247806289 -0.011149916992777641 0 0.059780143083350869 -0.01228214405797836 0 0.059921333378796168 -0.011180192913210575 0 0.05882041247806289 -0.011149916992777641 0 0.059921333378796168 -0.011180192913210575 0 0.058503550002133288 -0.010150655747209004 0 0.05882041247806289 -0.011149916992777641 0 0.058722736893207457 -0.012129017711938361 0 0.059780143083350869 -0.01228214405797836 0 0.059522347089900118 -0.014723018674505142 0 0.058402446903827364 -0.013732473059379325 0 0.060024589046383317 -0.013372015631687734 0 0.058722736893207457 -0.012129017711938361 0 0.058402446903827364 -0.013732473059379325 0 0.060024589046383317 -0.013372015631687734 0 0.058722736893207457 -0.012129017711938361 0 0.060024589046383317 -0.013372015631687734 0 0.059780143083350869 -0.01228214405797836 0 0.061245673534244538 -0.01434639737363382 0 0.060024589046383317 -0.013372015631687734 0 0.061314075382676476 -0.012306856845414793 0 0.060024589046383317 -0.013372015631687734 0 0.059780143083350869 -0.01228214405797836 0 0.061314075382676476 -0.012306856845414793 0 0.057111198290551085 -0.017244934667073872 0 0.050049594997197175 -0.020253219019773203 0 0.059780143083350869 -0.01228214405797836 0 0.059921333378796168 -0.011180192913210575 0 0.061314075382676476 -0.012306856845414793 0 0.052727558803002374 -0.022310310274617214 0 0.049555597671729422 -0.024641572344308194 0 0.049568438110576749 -0.020387648862980428 0 0.052682508153690799 -0.026531487064744598 0 0.048829793829307418 -0.026453508467569938 0 0.049555597671729422 -0.024641572344308194 0 0.052851074684977538 -0.024394622189201638 0 0.052682508153690799 -0.026531487064744598 0 0.049555597671729422 -0.024641572344308194 0 0.052727558803002374 -0.022310310274617214 0 0.052851074684977538 -0.024394622189201638 0 0.049555597671729422 -0.024641572344308194 0 0.052727558803002374 -0.022310310274617214 0 0.052851074684977538 -0.024394622189201638 0 0.055658673874042143 -0.02391609584940449 0 0.057111198290551085 -0.017244934667073872 0 0.055455672402326878 -0.013552560171114281 0 0.055455672402326878 -0.013552560171114281 0 0.048781875137090772 -0.01816960349979195 0 0.050434526081929339 -0.0042473939742055456 0 0.050577372087929243 -0.0065381272928162664 0 0.047756375780633784 -0.0066435473732916828 0 0.052851074684977538 -0.024394622189201638 0 0.055658673874042143 -0.02391609584940449 0 0.052682508153690799 -0.026531487064744598 0 0.050577372087929243 -0.0065381272928162664 0 0.048759022961172696 -0.008191130833046378 0 0.047756375780633784 -0.0066435473732916828 0 0.050577372087929243 -0.0065381272928162664 0 0.048759022961172696 -0.008191130833046378 0 0.051630665162974265 -0.0083293485108360821 0 0.048759022961172696 -0.008191130833046378 0 0.047756375780633784 -0.0066435473732916828 0 0.045059442629285393 -0.0091910454133315236 0 0.052682508153690799 -0.026531487064744598 0 0.048829793829307418 -0.026453508467569938 0 0.050065482821236469 -0.028631628940652878 0 0.048781875137090772 -0.01816960349979195 0 0.051197185133329499 -0.0089158209892960093 0 0.048829793829307418 -0.026453508467569938 0 0.045933426284672334 -0.027022071909374432 0 0.050065482821236469 -0.028631628940652878 0 0.04962464846392281 -0.013841768624356368 0 0.051197185133329499 -0.0089158209892960093 0 0.048829793829307418 -0.026453508467569938 0 0.045933426284672334 -0.027022071909374432 0 0.047166103528276382 -0.025500928325596976 0 0.047166103528276382 -0.025500928325596976 0 0.046812881562637576 -0.023965172725505416 0 0.044997384854383558 -0.025542654313858871 0 0.045933426284672334 -0.027022071909374432 0 0.047166103528276382 -0.025500928325596976 0 0.044997384854383558 -0.025542654313858871 0 0.048829793829307418 -0.026453508467569938 0 0.047166103528276382 -0.025500928325596976 0 0.049555597671729422 -0.024641572344308194 0 0.047166103528276382 -0.025500928325596976 0 0.049555597671729422 -0.024641572344308194 0 0.046812881562637576 -0.023965172725505416 0 0.049152692880750228 -0.022933177280049153 0 0.045968178116990908 -0.021640856835380501 0 0.046812881562637576 -0.023965172725505416 0 0.049443006008372439 -0.024888739433954005 0 0.050049594997197175 -0.020253219019773203 0 0.049555597671729422 -0.024641572344308194 0 0.049152692880750228 -0.022933177280049153 0 0.046812881562637576 -0.023965172725505416 0 0.049531766192767779 -0.019308026576324643 0 0.050049594997197175 -0.020253219019773203 0 0.050049594997197175 -0.020253219019773203 0 0.043994626723677287 -0.022703151564115707 0 0.043766953285411955 -0.022547135989420382 0 0.044430431361860506 -0.022768100967163581 0 0.043058134157515505 -0.023093691914211407 0 0.044539223647892028 -0.023512600122945267 0 0.044430431361860506 -0.022768100967163581 0 0.043058134157515505 -0.023093691914211407 0 0.044509287708536481 -0.022531660402602117 0 0.044539223647892028 -0.023512600122945267 0 0.044430431361860506 -0.022768100967163581 0 0.049531766192767779 -0.019308026576324643 0 0.047871383460446226 -0.02168549953625715 0 0.046812881562637576 -0.023965172725505416 0 0.044491998178614448 -0.023512942854330202 0 0.044997384854383558 -0.025542654313858871 0 0.045968178116990908 -0.021640856835380501 0 0.046812881562637576 -0.023965172725505416 0 0.044491998178614448 -0.023512942854330202 0 0.044491998178614448 -0.023512942854330202 0 0.042954416829053189 -0.024594256189579295 0 0.044997384854383558 -0.025542654313858871 0 0.044491998178614448 -0.023512942854330202 0 0.043183679071351171 -0.022140661774203152 0 0.041917589836122184 -0.0233726247889736 0 0.045968178116990908 -0.021640856835380501 0 0.044491998178614448 -0.023512942854330202 0 0.043183679071351171 -0.022140661774203152 0 0.041121491124715588 -0.021764826398286839 0 0.043183679071351171 -0.022140661774203152 0 0.041917589836122184 -0.0233726247889736 0 0.041121491124715588 -0.021764826398286839 0 0.041917589836122184 -0.0233726247889736 0 0.040143071983827043 -0.023239021036696939 0 0.044491998178614448 -0.023512942854330202 0 0.041917589836122184 -0.0233726247889736 0 0.042954416829053189 -0.024594256189579295 0 0.041917589836122184 -0.0233726247889736 0 0.042954416829053189 -0.024594256189579295 0 0.038948494149170954 -0.025309228830711124 0 0.042954416829053189 -0.024594256189579295 0 0.042533262477559161 -0.026252356329748462 0 0.038948494149170954 -0.025309228830711124 0 0.046935489721765679 -0.010890334278104067 0 0.042753823175887731 -0.026279004290113369 0 0.045933426284672334 -0.027022071909374432 0 0.043113602888234244 -0.025620970257717122 0 0.044997384854383558 -0.025542654313858871 0 0.04962464846392281 -0.013841768624356368 0 0.046935489721765679 -0.010890334278104067 0 0.042954416829053189 -0.024594256189579295 0 0.042533262477559161 -0.026252356329748462 0 0.044997384854383558 -0.025542654313858871 0 0.052535226536274654 0.0011559678515988257 0 0.050946155393986378 0.0021233980424714303 0 0.05079919341546494 0.00044925933450273723 0 0.050946155393986378 0.0021233980424714303 0 0.05079919341546494 0.00044925933450273723 0 0.049831338505643974 0.0010119880316560397 0 0.05079919341546494 0.00044925933450273723 0 0.05175354503258657 -0.00036695123359405861 0 0.050540400732853444 -0.00083479045773040769 0 0.052535226536274654 0.0011559678515988257 0 0.05079919341546494 0.00044925933450273723 0 0.05175354503258657 -0.00036695123359405861 0 0.05175354503258657 -0.00036695123359405861 0 0.050540400732853444 -0.00083479045773040769 0 0.051911245140710702 -0.0016297368922918859 0 0.051012429584229455 4.6502472761627172e-05 0 0.053381283898109776 -0.00098391617799729208 0 0.05344601901446789 0.00083620580902409513 0 0.054308921770928609 -0.00047548603999777967 0 0.055750128312774511 0.00077489427917379436 0 0.055060764257670307 0.0012746405248356579 0 0.05399344320668685 0.00074081842457340396 0 0.051562537567869993 0.00082057165493728049 0 0.05399344320668685 0.00074081842457340396 0 0.050426756864620587 -8.1621853185910752e-05 0 0.055750128312774511 0.00077489427917379436 0 0.05399344320668685 0.00074081842457340396 0 0.056629027493682559 -0.00020596217273898421 0 0.055750128312774511 0.00077489427917379436 0 0.055060764257670307 0.0012746405248356579 0 0.056139834698583323 0.0012106588148923015 0 0.055060764257670307 0.0012746405248356579 0 0.055816357136192124 0.0020713490195653191 0 0.056139834698583323 0.0012106588148923015 0 0.055060764257670307 0.0012746405248356579 0 0.054763046238550855 0.0020259436349641196 0 0.054353961087403362 0.0014741458985908363 0 0.055060764257670307 0.0012746405248356579 0 0.054763046238550855 0.0020259436349641196 0 0.055816357136192124 0.0020713490195653191 0 0.053925861807482302 0.0025252528853545613 0 0.054037264160718516 0.0017922859635683935 0 0.053932740137449725 0.0019696254264175267 0 0.054763046238550855 0.0020259436349641196 0 0.054037264160718516 0.0017922859635683935 0 0.054353961087403362 0.0014741458985908363 0 0.053925861807482302 0.0025252528853545613 0 0.054763046238550855 0.0020259436349641196 0 0.054037264160718516 0.0017922859635683935 0 0.054037264160718516 0.0017922859635683935 0 0.054353961087403362 0.0014741458985908363 0 0.054032203528961174 0.0013106986726451897 0 0.055060764257670307 0.0012746405248356579 0 0.054353961087403362 0.0014741458985908363 0 0.05399344320668685 0.00074081842457340396 0 0.054353961087403362 0.0014741458985908363 0 0.054032203528961174 0.0013106986726451897 0 0.05399344320668685 0.00074081842457340396 0 0.054032203528961174 0.0013106986726451897 0 0.053962821030212181 0.0015526249403248807 0 0.05396951728802224 0.0010928440342013528 0 0.054037264160718516 0.0017922859635683935 0 0.053962821030212181 0.0015526249403248807 0 0.053914074154739061 0.0017859118973324599 0 0.054037264160718516 0.0017922859635683935 0 0.054032203528961174 0.0013106986726451897 0 0.053962821030212181 0.0015526249403248807 0 0.051562537567869993 0.00082057165493728049 0 0.053931386479709409 0.00088345856519870007 0 0.054209066303419234 0.0011486952414546275 0 0.051562537567869993 0.00082057165493728049 0 0.05399344320668685 0.00074081842457340396 0 0.053931386479709409 0.00088345856519870007 0 0.053935479502369842 0.0013870338991073461 0 0.05396951728802224 0.0010928440342013528 0 0.053949599039116711 0.00091071211110073348 0 0.05396951728802224 0.0010928440342013528 0 0.053931386479709409 0.00088345856519870007 0 0.053949599039116711 0.00091071211110073348 0 0.053935479502369842 0.0013870338991073461 0 0.053949599039116711 0.00091071211110073348 0 0.053909083867714244 0.0016552112645892825 0 0.053962821030212181 0.0015526249403248807 0 0.053935479502369842 0.0013870338991073461 0 0.05396951728802224 0.0010928440342013528 0 0.054032203528961174 0.0013106986726451897 0 0.05396951728802224 0.0010928440342013528 0 0.05399344320668685 0.00074081842457340396 0 0.05396951728802224 0.0010928440342013528 0 0.05399344320668685 0.00074081842457340396 0 0.053931386479709409 0.00088345856519870007 0 0.054019222669643999 -7.2060711921614472e-05 0 0.053381283898109776 -0.00098391617799729208 0 0.053381283898109776 -0.00098391617799729208 0 0.056455988800026391 -0.00010640377348519601 0 0.056124556406987144 -0.0024704935082220675 0 0.055140263337796092 -0.0018832334228314183 0 0.055254187206040542 -0.0033382317212868125 0 0.053949599039116711 0.00091071211110073348 0 0.053909083867714244 0.0016552112645892825 0 0.053776787210073375 0.0018796873927163181 0 0.053962821030212181 0.0015526249403248807 0 0.053935479502369842 0.0013870338991073461 0 0.053914074154739061 0.0017859118973324599 0 0.053935479502369842 0.0013870338991073461 0 0.053914074154739061 0.0017859118973324599 0 0.053909083867714244 0.0016552112645892825 0 0.053914074154739061 0.0017859118973324599 0 0.053919634739483045 0.0019083645300184081 0 0.053909083867714244 0.0016552112645892825 0 0.053912544546411929 0.0020028794524255527 0 0.054143247807579654 0.0023258530522664396 0 0.054017630742630704 0.0019603997956023603 0 0.054143247807579654 0.0023258530522664396 0 0.054017630742630704 0.0019603997956023603 0 0.054479052548043451 0.0019692319905208196 0 0.053919634739483045 0.0019083645300184081 0 0.053909083867714244 0.0016552112645892825 0 0.053912544546411929 0.0020028794524255527 0 0.053909083867714244 0.0016552112645892825 0 0.053912544546411929 0.0020028794524255527 0 0.053776787210073375 0.0018796873927163181 0 0.055535743002647388 0.0001612691138129955 0 0.056455988800026391 -0.00010640377348519601 0 0.053919634739483045 0.0019083645300184081 0 0.053912544546411929 0.0020028794524255527 0 0.054017630742630704 0.0019603997956023603 0 0.054097832180100586 0.0019379886071620401 0 0.054017630742630704 0.0019603997956023603 0 0.054479052548043451 0.0019692319905208196 0 0.054097832180100586 0.0019379886071620401 0 0.054017630742630704 0.0019603997956023603 0 0.053932740137449725 0.0019696254264175267 0 0.054037264160718516 0.0017922859635683935 0 0.053914074154739061 0.0017859118973324599 0 0.053932740137449725 0.0019696254264175267 0 0.053914074154739061 0.0017859118973324599 0 0.053919634739483045 0.0019083645300184081 0 0.053932740137449725 0.0019696254264175267 0 0.053919634739483045 0.0019083645300184081 0 0.054017630742630704 0.0019603997956023603 0 0.053932740137449725 0.0019696254264175267 0 0.054734888634397585 0.0017744844717344269 0 0.054479052548043451 0.0019692319905208196 0 0.056021237407276915 0.0021445513221462044 0 0.056455988800026391 -0.00010640377348519601 0 0.05811746134373684 0.0010592576991392045 0 0.054143247807579654 0.0023258530522664396 0 0.054479052548043451 0.0019692319905208196 0 0.056021237407276915 0.0021445513221462044 0 0.061715177354953618 -0.0013189452629623556 0 0.060099923551877106 -0.0013201199798510966 0 0.059685753999717379 -2.2325383404761153e-05 0 0.056455988800026391 -0.00010640377348519601 0 0.057097226911674424 -0.0025811849631581568 0 0.055140263337796092 -0.0018832334228314183 0 0.055254187206040542 -0.0033382317212868125 0 0.053863380940224352 -0.0026367479330566758 0 0.061715177354953618 -0.0013189452629623556 0 0.059457471530741775 -0.0026835180866798167 0 0.060099923551877106 -0.0013201199798510966 0 0.055254187206040542 -0.0033382317212868125 0 0.054231157175868558 -0.0035016421528920633 0 0.053863380940224352 -0.0026367479330566758 0 0.05175354503258657 -0.00036695123359405861 0 0.051911245140710702 -0.0016297368922918859 0 0.052993109723613749 -0.00059835128571659123 0 0.053381283898109776 -0.00098391617799729208 0 0.054997866527628739 -0.0008879973812595959 0 0.052535226536274654 0.0011559678515988257 0 0.05175354503258657 -0.00036695123359405861 0 0.052993109723613749 -0.00059835128571659123 0 0.052535226536274654 0.0011559678515988257 0 0.052993109723613749 -0.00059835128571659123 0 0.054017056015868252 0.00033068419260047662 0 0.054997866527628739 -0.0008879973812595959 0 0.051197185133329499 -0.0089158209892960093 0 0.055254187206040542 -0.0033382317212868125 0 0.054348466397751635 -0.004232597656991432 0 0.054231157175868558 -0.0035016421528920633 0 0.054348466397751635 -0.004232597656991432 0 0.053466984107950352 -0.0038016840380280565 0 0.054231157175868558 -0.0035016421528920633 0 0.048759022961172696 -0.008191130833046378 0 0.045059442629285393 -0.0091910454133315236 0 0.048607033058700219 -0.010281221632152551 0 0.051197185133329499 -0.0089158209892960093 0 0.050360246483034339 -0.006790284191394773 0 0.048607033058700219 -0.010281221632152551 0 0.051822547611116224 -0.011140425395168423 0 0.051630665162974265 -0.0083293485108360821 0 0.048759022961172696 -0.008191130833046378 0 0.048607033058700219 -0.010281221632152551 0 0.051630665162974265 -0.0083293485108360821 0 0.050360246483034339 -0.006790284191394773 0 0.05458122822763229 -0.0052829685297146609 0 0.053466984107950352 -0.0038016840380280565 0 0.053863380940224352 -0.0026367479330566758 0 0.052600702711387538 -0.0033980574998777741 0 0.057097226911674424 -0.0025811849631581568 0 0.05458122822763229 -0.0052829685297146609 0 0.059457471530741775 -0.0026835180866798167 0 0.057158065399636075 -0.0027309556447186749 0 0.057013715629407657 -0.0041132905807271559 0 0.053466984107950352 -0.0038016840380280565 0 0.054231157175868558 -0.0035016421528920633 0 0.053863380940224352 -0.0026367479330566758 0 0.059457471530741775 -0.0026835180866798167 0 0.059164813041002885 -0.0013247836247033521 0 0.058451156723322351 -0.0019005887779817989 0 0.059457471530741775 -0.0026835180866798167 0 0.060099923551877106 -0.0013201199798510966 0 0.059164813041002885 -0.0013247836247033521 0 0.060099923551877106 -0.0013201199798510966 0 0.059164813041002885 -0.0013247836247033521 0 0.059685753999717379 -2.2325383404761153e-05 0 0.059164813041002885 -0.0013247836247033521 0 0.059685753999717379 -2.2325383404761153e-05 0 0.058115838892188652 -0.00065656136959499909 0 0.059164813041002885 -0.0013247836247033521 0 0.058115838892188652 -0.00065656136959499909 0 0.058451156723322351 -0.0019005887779817989 0 0.058115838892188652 -0.00065656136959499909 0 0.058451156723322351 -0.0019005887779817989 0 0.057434842508618474 -0.0016285840809325755 0 0.058451156723322351 -0.0019005887779817989 0 0.057380852190951973 -0.0028034112042888432 0 0.057434842508618474 -0.0016285840809325755 0 0.059457471530741775 -0.0026835180866798167 0 0.058451156723322351 -0.0019005887779817989 0 0.057158065399636075 -0.0027309556447186749 0 0.058293687452916736 -0.0020389602077943458 0 0.057284631508253192 -0.0027789748223979805 0 0.057380852190951973 -0.0028034112042888432 0 0.056281239925639069 -0.0021388593506109187 0 0.056266779606187846 -0.0037494850974559586 0 0.057380852190951973 -0.0028034112042888432 0 0.057434842508618474 -0.0016285840809325755 0 0.056281239925639069 -0.0021388593506109187 0 0.05712865994452989 0.0015509431043632016 0 0.058115838892188652 -0.00065656136959499909 0 0.056778652981655228 -0.00050580820911598891 0 0.058115838892188652 -0.00065656136959499909 0 0.057434842508618474 -0.0016285840809325755 0 0.056778652981655228 -0.00050580820911598891 0 0.057434842508618474 -0.0016285840809325755 0 0.056778652981655228 -0.00050580820911598891 0 0.056281239925639069 -0.0021388593506109187 0 0.056778652981655228 -0.00050580820911598891 0 0.054999381461963148 -0.00038872413829757225 0 0.056281239925639069 -0.0021388593506109187 0 0.054999381461963148 -0.00038872413829757225 0 0.056281239925639069 -0.0021388593506109187 0 0.05499980610722173 -0.0034317007098948788 0 0.056281239925639069 -0.0021388593506109187 0 0.05499980610722173 -0.0034317007098948788 0 0.056266779606187846 -0.0037494850974559586 0 0.055000400208182532 -0.0034329444643090672 0 0.056396564154514751 -0.0041093103226406864 0 0.054999996058841816 -0.0034328474468550176 0 0.056671864760339176 -0.0042187511182232695 0 0.054999997267920847 -0.005319894977780776 0 0.056396564154514751 -0.0041093103226406864 0 0.055000462170160844 -0.0053196389775426707 0 0.056477739013316999 -0.0044032302708534622 0 0.054999968438636603 -0.0053201978018045911 0 0.056335028672062699 -0.0056710608432500413 0 0.057284631508253192 -0.0027789748223979805 0 0.056396564154514751 -0.0041093103226406864 0 0.057158065399636075 -0.0027309556447186749 0 0.055864966740849821 -0.0035775806935374257 0 0.057013715629407657 -0.0041132905807271559 0 0.056396564154514751 -0.0041093103226406864 0 0.05458122822763229 -0.0052829685297146609 0 0.056477739013316999 -0.0044032302708534622 0 0.057574686654143878 -0.0049373826385392238 0 0.056335028672062699 -0.0056710608432500413 0 0.05458122822763229 -0.0052829685297146609 0 0.054778878262402735 -0.0074879628991599946 0 0.051822547611116224 -0.011140425395168423 0 0.051630665162974265 -0.0083293485108360821 0 0.054043412460091457 -0.0093456626195032467 0 0.053897982025992289 -0.0078736718109946209 0 0.051630665162974265 -0.0083293485108360821 0 0.054043412460091457 -0.0093456626195032467 0 0.053897982025992289 -0.0078736718109946209 0 0.055000500215078484 -0.0065424412004316899 0 0.054043412460091457 -0.0093456626195032467 0 0.054999963823003276 -0.0065390730989822706 0 0.054778878262402735 -0.0074879628991599946 0 0.054999980519872663 -0.0065381255350593342 0 0.054999968438636603 -0.0053201978018045911 0 0.056335028672062699 -0.0056710608432500413 0 0.03758701550768638 0.0024430211748431613 0 0.03913433483741334 0.0030141139478668685 0 0.03683855190788185 0.0037517551932765032 0 0.03758701550768638 0.0024430211748431613 0 0.036977134275972018 0.0010012760432572103 0 0.036156798620360538 0.002770791731728838 0 0.03758701550768638 0.0024430211748431613 0 0.036156798620360538 0.002770791731728838 0 0.03683855190788185 0.0037517551932765032 0 0.03913433483741334 0.0030141139478668685 0 0.040652700260773368 0.001809496012003731 0 0.041299618032654403 0.0039662904232760521 0 0.03758701550768638 0.0024430211748431613 0 0.03913433483741334 0.0030141139478668685 0 0.038816266879702188 0.0015504020843568258 0 0.03913433483741334 0.0030141139478668685 0 0.040652700260773368 0.001809496012003731 0 0.038816266879702188 0.0015504020843568258 0 0.040652700260773368 0.001809496012003731 0 0.039621905011811266 -0.00031340385323702077 0 0.042140268165743226 0.00016544358264794493 0 0.040652700260773368 0.001809496012003731 0 0.038816266879702188 0.0015504020843568258 0 0.039621905011811266 -0.00031340385323702077 0 0.038816266879702188 0.0015504020843568258 0 0.039621905011811266 -0.00031340385323702077 0 0.036977134275972018 0.0010012760432572103 0 0.037556227848105549 0.0010118870775506549 0 0.035928290653767327 0.0018936908311913004 0 0.035898964347136665 0.0024028023282636666 0 0.03476846659680758 0.002781097060377013 0 0.035064907005894382 0.0018463395458730041 0 0.03476846659680758 0.002781097060377013 0 0.034465079263537875 0.0025355746214256064 0 0.035064907005894382 0.0018463395458730041 0 0.03758701550768638 0.0024430211748431613 0 0.038816266879702188 0.0015504020843568258 0 0.036977134275972018 0.0010012760432572103 0 0.034465079263537875 0.0025355746214256064 0 0.034203303173828865 0.0024984021024624802 0 0.034406699849790189 0.0026934402884940716 0 0.03476846659680758 0.002781097060377013 0 0.034465079263537875 0.0025355746214256064 0 0.034406699849790189 0.0026934402884940716 0 0.035928290653767327 0.0018936908311913004 0 0.034548214090575478 0.0026005705780595793 0 0.034203303173828865 0.0024984021024624802 0 0.034406699849790189 0.0026934402884940716 0 0.033756817570707323 0.0025428588370984971 0 0.034203303173828865 0.0024984021024624802 0 0.033973508902498825 0.0024435460890509285 0 0.033756817570707323 0.0025428588370984971 0 0.034406699849790189 0.0026934402884940716 0 0.03341140314599815 0.0036620747480510412 0 0.033756817570707323 0.0025428588370984971 0 0.033421675265934481 0.0035371619190992204 0 0.032903888026590986 0.0020608346400483677 0 0.034406699849790189 0.0026934402884940716 0 0.035096232801942122 0.00373647408331718 0 0.03341140314599815 0.0036620747480510412 0 0.036977134275972018 0.0010012760432572103 0 0.036156798620360538 0.002770791731728838 0 0.034406699849790189 0.0026934402884940716 0 0.036156798620360538 0.002770791731728838 0 0.035096232801942122 0.00373647408331718 0 0.03683855190788185 0.0037517551932765032 0 0.036156798620360538 0.002770791731728838 0 0.034406699849790189 0.0026934402884940716 0 0.035096232801942122 0.00373647408331718 0 0.035096232801942122 0.00373647408331718 0 0.035378632619428162 0.0056528688403281614 0 0.03683855190788185 0.0037517551932765032 0 0.035096232801942122 0.00373647408331718 0 0.03341140314599815 0.0036620747480510412 0 0.035378632619428162 0.0056528688403281614 0 0.03341140314599815 0.0036620747480510412 0 0.032940623999335734 0.0062024833561315773 0 0.035378632619428162 0.0056528688403281614 0 0.035852566944401823 0.008392266738598728 0 0.032940623999335734 0.0062024833561315773 0 0.035378632619428162 0.0056528688403281614 0 0.035378632619428162 0.0056528688403281614 0 0.038510985150088578 0.0048203466744451895 0 0.039484794026723065 0.0071627683667027662 0 0.035852566944401823 0.008392266738598728 0 0.035378632619428162 0.0056528688403281614 0 0.039484794026723065 0.0071627683667027662 0 0.035378632619428162 0.0056528688403281614 0 0.03683855190788185 0.0037517551932765032 0 0.038510985150088578 0.0048203466744451895 0 0.03913433483741334 0.0030141139478668685 0 0.03683855190788185 0.0037517551932765032 0 0.038510985150088578 0.0048203466744451895 0 0.038510985150088578 0.0048203466744451895 0 0.039484794026723065 0.0071627683667027662 0 0.041299618032654403 0.0039662904232760521 0 0.03913433483741334 0.0030141139478668685 0 0.038510985150088578 0.0048203466744451895 0 0.041299618032654403 0.0039662904232760521 0 0.039484794026723065 0.0071627683667027662 0 0.043225988224569731 0.0055737439238423376 0 0.041299618032654403 0.0039662904232760521 0 0.035101087479065325 -0.0081612902613433045 0 0.039146288927169683 -0.009438321368845452 0 0.033701898669005685 -0.022273600541109283 0 0.030769122665913372 -0.023494302385226689 0 0.035096470165964823 -0.024499463417141154 0 0.036130037743112013 -0.021413407890831338 0 0.035096470165964823 -0.024499463417141154 0 0.038575290696718098 -0.022522959896823482 0 0.036130037743112013 -0.021413407890831338 0 0.033701898669005685 -0.022273600541109283 0 0.035096470165964823 -0.024499463417141154 0 0.043225988224569731 0.0055737439238423376 0 0.046317810373734364 0.003852631730811911 0 0.044264465162045012 0.003433316458858205 0 0.043225988224569731 0.0055737439238423376 0 0.041299618032654403 0.0039662904232760521 0 0.044264465162045012 0.003433316458858205 0 0.041121491124715588 -0.021764826398286839 0 0.040143071983827043 -0.023239021036696939 0 0.038575290696718098 -0.022522959896823482 0 0.040143071983827043 -0.023239021036696939 0 0.038575290696718098 -0.022522959896823482 0 0.038948494149170954 -0.025309228830711124 0 0.035096470165964823 -0.024499463417141154 0 0.038575290696718098 -0.022522959896823482 0 0.038948494149170954 -0.025309228830711124 0 0.039146288927169683 -0.009438321368845452 0 0.042377269963518385 -0.010846826990386194 0 0.041917589836122184 -0.0233726247889736 0 0.040143071983827043 -0.023239021036696939 0 0.038948494149170954 -0.025309228830711124 0 0.049112130808333099 0.0022795325171316096 0 0.046317810373734364 0.003852631730811911 0 0.045996208409570909 0.0021627831547151883 0 0.046935489721765679 -0.010890334278104067 0 0.042377269963518385 -0.010846826990386194 0 0.046935489721765679 -0.010890334278104067 0 0.048149252864670637 0.0042848683588117926 0 0.046317810373734364 0.003852631730811911 0 0.045996208409570909 0.0021627831547151883 0 0.044264465162045012 0.003433316458858205 0 0.048694976743409106 0.0025005422231119574 0 0.048175311715337767 0.00034266979696725264 0 0.049831338505643974 0.0010119880316560397 0 0.048694976743409106 0.0025005422231119574 0 0.048175311715337767 0.00034266979696725264 0 0.045325981919511676 0.00063632886729703792 0 0.050946155393986378 0.0021233980424714303 0 0.048694976743409106 0.0025005422231119574 0 0.049831338505643974 0.0010119880316560397 0 0.040652700260773368 0.001809496012003731 0 0.041299618032654403 0.0039662904232760521 0 0.04294340142958742 0.0019631937975408131 0 0.041299618032654403 0.0039662904232760521 0 0.044264465162045012 0.003433316458858205 0 0.04294340142958742 0.0019631937975408131 0 0.048149252864670637 0.0042848683588117926 0 0.042737269076914872 0.0013893608111930184 0 0.045996208409570909 0.0021627831547151883 0 0.044264465162045012 0.003433316458858205 0 0.04294340142958742 0.0019631937975408131 0 0.045325981919511676 0.00063632886729703792 0 0.042140268165743226 0.00016544358264794493 0 0.044004667259007979 -0.00095741784212547169 0 0.048694976743409106 0.0025005422231119574 0 0.045325981919511676 0.00063632886729703792 0 0.04294340142958742 0.0019631937975408131 0 0.045325981919511676 0.00063632886729703792 0 0.042140268165743226 0.00016544358264794493 0 0.04294340142958742 0.0019631937975408131 0 0.048175311715337767 0.00034266979696725264 0 0.045325981919511676 0.00063632886729703792 0 0.04592583768111369 -0.00092391714798468842 0 0.045325981919511676 0.00063632886729703792 0 0.044004667259007979 -0.00095741784212547169 0 0.04592583768111369 -0.00092391714798468842 0 0.040652700260773368 0.001809496012003731 0 0.042140268165743226 0.00016544358264794493 0 0.04294340142958742 0.0019631937975408131 0 0.037556227848105549 0.0010118870775506549 0 0.041552157043789915 0.0014083698914788148 0 0.041552157043789915 0.0014083698914788148 0 0.037375973022829384 0.006745699805748199 0 0.039621905011811266 -0.00031340385323702077 0 0.042140268165743226 0.00016544358264794493 0 0.042566094765294896 -0.0018115867611427194 0 0.042140268165743226 0.00016544358264794493 0 0.042566094765294896 -0.0018115867611427194 0 0.044004667259007979 -0.00095741784212547169 0 0.041552157043789915 0.0014083698914788148 0 0.042686820050756275 1.4898223108701344e-05 0 0.041552157043789915 0.0014083698914788148 0 0.05021818978144714 0.0010901263966509355 0 0.042422379054057657 -0.0019668690059289652 0 0.044004667259007979 -0.00095741784212547169 0 0.046305411443592716 -0.0039269255646243442 0 0.044004667259007979 -0.00095741784212547169 0 0.04592583768111369 -0.00092391714798468842 0 0.046305411443592716 -0.0039269255646243442 0 0.043985039767526726 0.007091310847835295 0 0.045846815544186681 0.0061722610106101812 0 0.044059005689401201 0.005711427966709942 0 0.045846815544186681 0.0061722610106101812 0 0.044059005689401201 0.005711427966709942 0 0.045190652162338155 0.0047978692395994173 0 0.058787568834127286 -0.001180140798866117 0 0.058223670827927766 -2.7734640925369511e-06 0 0.059403306645038192 1.967938682122622e-05 0 0.05021818978144714 0.0010901263966509355 0 0.052109171166935406 0.0022821981750291457 0 0.044059005689401201 0.005711427966709942 0 0.04327186817781193 0.004640623755596757 0 0.041984979095824347 0.0058593370906685508 0 0.044059005689401201 0.005711427966709942 0 0.04327186817781193 0.004640623755596757 0 0.045190652162338155 0.0047978692395994173 0 0.043985039767526726 0.007091310847835295 0 0.044059005689401201 0.005711427966709942 0 0.041984979095824347 0.0058593370906685508 0 0.048175311715337767 0.00034266979696725264 0 0.049831338505643974 0.0010119880316560397 0 0.049088407527067911 0.00013230566577442706 0 0.05079919341546494 0.00044925933450273723 0 0.050540400732853444 -0.00083479045773040769 0 0.049088407527067911 0.00013230566577442706 0 0.05079919341546494 0.00044925933450273723 0 0.049831338505643974 0.0010119880316560397 0 0.049088407527067911 0.00013230566577442706 0 0.048175311715337767 0.00034266979696725264 0 0.048387660008185826 -0.00017006022844048203 0 0.049088407527067911 0.00013230566577442706 0 0.047374933629511853 -0.0011811951046656552 0 0.05021818978144714 0.0010901263966509355 0 0.048175311715337767 0.00034266979696725264 0 0.04592583768111369 -0.00092391714798468842 0 0.046305411443592716 -0.0039269255646243442 0 0.048387660008185826 -0.00017006022844048203 0 0.049088407527067911 0.00013230566577442706 0 0.050426756864620587 -8.1621853185910752e-05 0 0.058787568834127286 -0.001180140798866117 0 0.056629027493682559 -0.00020596217273898421 0 0.058223670827927766 -2.7734640925369511e-06 0 0.05021818978144714 0.0010901263966509355 0 0.054308921770928609 -0.00047548603999777967 0 0.051562537567869993 0.00082057165493728049 0 0.049088407527067911 0.00013230566577442706 0 0.050426756864620587 -8.1621853185910752e-05 0 0.051012429584229455 4.6502472761627172e-05 0 0.04940118671873734 0.00014110772294380119 0 0.055750128312774511 0.00077489427917379436 0 0.056819328618877472 0.0008074664601465056 0 0.056139834698583323 0.0012106588148923015 0 0.055750128312774511 0.00077489427917379436 0 0.056629027493682559 -0.00020596217273898421 0 0.056819328618877472 0.0008074664601465056 0 0.056629027493682559 -0.00020596217273898421 0 0.056819328618877472 0.0008074664601465056 0 0.057648538472535107 0.00056240572246275594 0 0.056819328618877472 0.0008074664601465056 0 0.057648538472535107 0.00056240572246275594 0 0.05776860306150438 0.001301465962201804 0 0.056629027493682559 -0.00020596217273898421 0 0.057648538472535107 0.00056240572246275594 0 0.058223670827927766 -2.7734640925369511e-06 0 0.057648538472535107 0.00056240572246275594 0 0.05776860306150438 0.001301465962201804 0 0.058810738871329427 0.00093819297040830842 0 0.057648538472535107 0.00056240572246275594 0 0.058223670827927766 -2.7734640925369511e-06 0 0.058810738871329427 0.00093819297040830842 0 0.058570216916019477 0.001865357213616058 0 0.05776860306150438 0.001301465962201804 0 0.058810738871329427 0.00093819297040830842 0 0.058342511378031203 0.0027976800435620939 0 0.058570216916019477 0.001865357213616058 0 0.059069666919614218 0.0025906100485553378 0 0.058342511378031203 0.0027976800435620939 0 0.058570216916019477 0.001865357213616058 0 0.057819384181993304 0.0021196707670240031 0 0.058342511378031203 0.0027976800435620939 0 0.057450278340452784 0.0028285848525664084 0 0.057819384181993304 0.0021196707670240031 0 0.058570216916019477 0.001865357213616058 0 0.057819384181993304 0.0021196707670240031 0 0.05776860306150438 0.001301465962201804 0 0.057819384181993304 0.0021196707670240031 0 0.05776860306150438 0.001301465962201804 0 0.056955628008668838 0.0018028701126655677 0 0.056819328618877472 0.0008074664601465056 0 0.05776860306150438 0.001301465962201804 0 0.056955628008668838 0.0018028701126655677 0 0.057450278340452784 0.0028285848525664084 0 0.056601304337382911 0.0027924154844756644 0 0.056955628008668838 0.0018028701126655677 0 0.057450278340452784 0.0028285848525664084 0 0.057819384181993304 0.0021196707670240031 0 0.056955628008668838 0.0018028701126655677 0 0.056601304337382911 0.0027924154844756644 0 0.055816357136192124 0.0020713490195653191 0 0.056955628008668838 0.0018028701126655677 0 0.055816357136192124 0.0020713490195653191 0 0.056955628008668838 0.0018028701126655677 0 0.056139834698583323 0.0012106588148923015 0 0.056819328618877472 0.0008074664601465056 0 0.056955628008668838 0.0018028701126655677 0 0.056139834698583323 0.0012106588148923015 0 0.039231487850187492 0.017909586775297477 0 0.041011517624598343 0.016211219864243374 0 0.038770044979480466 0.015954201486231216 0 0.04327186817781193 0.004640623755596757 0 0.045190652162338155 0.0047978692395994173 0 0.044558429091276434 0.0034338697652220003 0 0.040053813185139578 0.012512431143244915 0 0.050513172203156015 0.0070130209371464343 0 0.058223670827927766 -2.7734640925369511e-06 0 0.059403306645038192 1.967938682122622e-05 0 0.058810738871329427 0.00093819297040830842 0 0.059403306645038192 1.967938682122622e-05 0 0.058810738871329427 0.00093819297040830842 0 0.060035935889367627 0.0013411325025054766 0 0.052109171166935406 0.0022821981750291457 0 0.050513172203156015 0.0070130209371464343 0 0.058810738871329427 0.00093819297040830842 0 0.060035935889367627 0.0013411325025054766 0 0.059494559686760401 0.0019302852250568004 0 0.059605623205694909 0.0033563712801724212 0 0.059494559686760401 0.0019302852250568004 0 0.059069666919614218 0.0025906100485553378 0 0.050513172203156015 0.0070130209371464343 0 0.059040159837015299 0.00059132594440274207 0 0.058570216916019477 0.001865357213616058 0 0.058810738871329427 0.00093819297040830842 0 0.059494559686760401 0.0019302852250568004 0 0.058570216916019477 0.001865357213616058 0 0.059494559686760401 0.0019302852250568004 0 0.059069666919614218 0.0025906100485553378 0 0.060862787912985078 0.0034561045050748281 0 0.060006987751912939 0.0014064208272987755 0 0.059494559686760401 0.0019302852250568004 0 0.039643414040059888 0.013264118822657513 0 0.041011517624598343 0.016211219864243374 0 0.038770044979480466 0.015954201486231216 0 0.05032431420247864 0.0087292917402910005 0 0.050513172203156015 0.0070130209371464343 0 0.039643414040059888 0.013264118822657513 0 0.038770044979480466 0.015954201486231216 0 0.036632316644212591 0.015101878127622927 0 0.038770044979480466 0.015954201486231216 0 0.036632316644212591 0.015101878127622927 0 0.037363007778986351 0.017267079167431129 0 0.036632316644212591 0.015101878127622927 0 0.034511201418107755 0.017806389743868622 0 0.033975156036369074 0.015501292103519766 0 0.034907291049470456 0.013016983814330117 0 0.036632316644212591 0.015101878127622927 0 0.033975156036369074 0.015501292103519766 0 0.037363007778986351 0.017267079167431129 0 0.03747322887655704 0.019491423994127448 0 0.034511201418107755 0.017806389743868622 0 0.036632316644212591 0.015101878127622927 0 0.037363007778986351 0.017267079167431129 0 0.034511201418107755 0.017806389743868622 0 0.039231487850187492 0.017909586775297477 0 0.037363007778986351 0.017267079167431129 0 0.03747322887655704 0.019491423994127448 0 0.039231487850187492 0.017909586775297477 0 0.038770044979480466 0.015954201486231216 0 0.037363007778986351 0.017267079167431129 0 0.040053813185139578 0.012512431143244915 0 0.037375973022829384 0.006745699805748199 0 0.037375973022829384 0.006745699805748199 0 0.034435614995157432 0.010650275617530239 0 0.034562364272851656 0.0025461488868124653 0 0.034373298394218106 0.0024788399749694529 0 0.034435345172335416 0.0022912527112633786 0 0.034798199576514782 0.0024777178472176692 0 0.034562364272851656 0.0025461488868124653 0 0.034435345172335416 0.0022912527112633786 0 0.037375973022829384 0.006745699805748199 0 0.035073339864393704 0.0019341756682297107 0 0.034465079263537875 0.0025355746214256064 0 0.034562364272851656 0.0025461488868124653 0 0.034373298394218106 0.0024788399749694529 0 0.034426031840327449 0.0025770815693953136 0 0.035073339864393704 0.0019341756682297107 0 0.035898964347136665 0.0024028023282636666 0 0.037065716902444076 0.0018757558933881543 0 0.035814774281146995 0.0011188018283866 0 0.035898964347136665 0.0024028023282636666 0 0.035814774281146995 0.0011188018283866 0 0.035064907005894382 0.0018463395458730041 0 0.034203303173828865 0.0024984021024624802 0 0.033973508902498825 0.0024435460890509285 0 0.034158453909714385 0.0024145350058532738 0 0.034203303173828865 0.0024984021024624802 0 0.034373298394218106 0.0024788399749694529 0 0.034158453909714385 0.0024145350058532738 0 0.034465079263537875 0.0025355746214256064 0 0.034203303173828865 0.0024984021024624802 0 0.034373298394218106 0.0024788399749694529 0 0.033986916272652649 0.0023346936733453392 0 0.034158453909714385 0.0024145350058532738 0 0.034435345172335416 0.0022912527112633786 0 0.034373298394218106 0.0024788399749694529 0 0.034158453909714385 0.0024145350058532738 0 0.034435345172335416 0.0022912527112633786 0 0.033973508902498825 0.0024435460890509285 0 0.033986916272652649 0.0023346936733453392 0 0.034158453909714385 0.0024145350058532738 0 0.033986916272652649 0.0023346936733453392 0 0.034435345172335416 0.0022912527112633786 0 0.034026147099134429 0.00213292473772448 0 0.033986916272652649 0.0023346936733453392 0 0.034026147099134429 0.00213292473772448 0 0.033799110231325979 0.0022010545469486535 0 0.034435614995157432 0.010650275617530239 0 0.032494967137582056 0.0090574900753590173 0 0.034511201418107755 0.017806389743868622 0 0.033975156036369074 0.015501292103519766 0 0.031298020154936462 0.016248126550979545 0 0.031576046120267834 0.012943095856245812 0 0.033975156036369074 0.015501292103519766 0 0.031298020154936462 0.016248126550979545 0 0.033603658763249819 0.0019838963015334863 0 0.034026147099134429 0.00213292473772448 0 0.033799110231325979 0.0022010545469486535 0 0.031158715345948825 0.0083176837349648505 0 0.032494967137582056 0.0090574900753590173 0 0.033603658763249819 0.0019838963015334863 0 0.033619885285055391 0.0021820602427119408 0 0.033799110231325979 0.0022010545469486535 0 0.033349840789476476 0.0021080091725920137 0 0.033619885285055391 0.0021820602427119408 0 0.033592833297356732 0.0023524593469601645 0 0.033603658763249819 0.0019838963015334863 0 0.033349840789476476 0.0021080091725920137 0 0.033619885285055391 0.0021820602427119408 0 0.033619885285055391 0.0021820602427119408 0 0.033674000764371131 0.0023021572903440621 0 0.033592833297356732 0.0023524593469601645 0 0.024382267096289115 0.0052536017438510399 0 0.027518073945761931 0.0035384511877724393 0 0.016018518114957914 0.0088383832213637173 0 0.015910195263505983 0.0082374471948265561 0 0.016025606606440992 0.0082828867512157456 0 0.030724093164180091 0.0019136236355308399 0 0.027518073945761931 0.0035384511877724393 0 0.033986916272652649 0.0023346936733453392 0 0.033782780661623033 0.0023075778989542317 0 0.033799110231325979 0.0022010545469486535 0 0.033674000764371131 0.0023021572903440621 0 0.033653675025461689 0.0023154369317934936 0 0.033782780661623033 0.0023075778989542317 0 0.033619885285055391 0.0021820602427119408 0 0.033674000764371131 0.0023021572903440621 0 0.033711361637104455 0.0022357683572168906 0 0.033782780661623033 0.0023075778989542317 0 0.033799110231325979 0.0022010545469486535 0 0.033711361637104455 0.0022357683572168906 0 0.033674000764371131 0.0023021572903440621 0 0.033782780661623033 0.0023075778989542317 0 0.033711361637104455 0.0022357683572168906 0 0.033619885285055391 0.0021820602427119408 0 0.033799110231325979 0.0022010545469486535 0 0.033711361637104455 0.0022357683572168906 0 0.016325940851560628 0.0090161116022027255 0 0.016329846659461154 0.0091008395331338421 0 0.016200186771213616 0.0087613649748174444 0 0.016329846659461154 0.0091008395331338421 0 0.016200186771213616 0.0087613649748174444 0 0.016410125391171961 0.0090722633390645183 0 0.01641672264104535 0.0091280625090491511 0 0.016329846659461154 0.0091008395331338421 0 0.01623688500572423 0.009342662422922289 0 0.016018518114957914 0.0088383832213637173 0 0.016200186771213616 0.0087613649748174444 0 0.016025606606440992 0.0082828867512157456 0 0.016325940851560628 0.0090161116022027255 0 0.016018518114957914 0.0088383832213637173 0 0.016200186771213616 0.0087613649748174444 0 0.016200186771213616 0.0087613649748174444 0 0.016025606606440992 0.0082828867512157456 0 0.016016916011978508 0.0079469664820710755 0 0.016200186771213616 0.0087613649748174444 0 0.016016916011978508 0.0079469664820710755 0 0.016410125391171961 0.0090722633390645183 0 0.015903094025219687 0.0078633027100251454 0 0.014948658713589679 0.0073574626639916181 0 0.027514001367424129 -0.0017856627596604981 0 0.029951731246327849 0.0005884698381204295 0 0.027902318590920922 0.0015833092256605712 0 0.027514001367424129 -0.0017856627596604981 0 0.027902318590920922 0.0015833092256605712 0 0.025031261174503026 1.8300230601725501e-05 0 0.014479830907191529 0.0084146193339514341 0 0.01613765868711638 0.0082854839468280272 0 0.016016916011978508 0.0079469664820710755 0 0.014479830907191529 0.0084146193339514341 0 0.016016916011978508 0.0079469664820710755 0 0.013696018780020469 0.0056284258023024071 0 0.015910195263505983 0.0082374471948265561 0 0.016025606606440992 0.0082828867512157456 0 0.01613765868711638 0.0082854839468280272 0 0.016025606606440992 0.0082828867512157456 0 0.01613765868711638 0.0082854839468280272 0 0.016016916011978508 0.0079469664820710755 0 0.020977640382736615 0.0032905706831386434 0 0.01953230351040576 0.005014215926732216 0 0.014479830907191529 0.0084146193339514341 0 0.01613765868711638 0.0082854839468280272 0 0.013914074502690697 0.010040612786043341 0 0.027518073945761931 0.0035384511877724393 0 0.032697445380211722 -2.8820281597321706e-05 0 0.033973508902498825 0.0024435460890509285 0 0.033986916272652649 0.0023346936733453392 0 0.033833034067945258 0.0024281533387077721 0 0.033986916272652649 0.0023346936733453392 0 0.033782780661623033 0.0023075778989542317 0 0.033833034067945258 0.0024281533387077721 0 0.033653675025461689 0.0023154369317934936 0 0.033782780661623033 0.0023075778989542317 0 0.033833034067945258 0.0024281533387077721 0 0.029927688583536362 -0.0034830552219288725 0 0.029505630061678462 -0.0015958022027635537 0 0.030932086226941439 -0.001173580847460814 0 0.029927688583536362 -0.0034830552219288725 0 0.027514001367424129 -0.0017856627596604981 0 0.029505630061678462 -0.0015958022027635537 0 0.027518073945761931 0.0035384511877724393 0 0.020977640382736615 0.0032905706831386434 0 0.029505630061678462 -0.0015958022027635537 0 0.030932086226941439 -0.001173580847460814 0 0.029951731246327849 0.0005884698381204295 0 0.027514001367424129 -0.0017856627596604981 0 0.029505630061678462 -0.0015958022027635537 0 0.029951731246327849 0.0005884698381204295 0 0.033973508902498825 0.0024435460890509285 0 0.033833034067945258 0.0024281533387077721 0 0.033756817570707323 0.0025428588370984971 0 0.032697445380211722 -2.8820281597321706e-05 0 0.032903888026590986 0.0020608346400483677 0 0.030932086226941439 -0.001173580847460814 0 0.032062389081045854 0.0011636992355665296 0 0.029951731246327849 0.0005884698381204295 0 0.032062389081045854 0.0011636992355665296 0 0.031569728580739059 0.0024984479267975358 0 0.029951731246327849 0.0005884698381204295 0 0.03341140314599815 0.0036620747480510412 0 0.031569728580739059 0.0024984479267975358 0 0.030274228860833776 0.0037087871284324282 0 0.03341140314599815 0.0036620747480510412 0 0.032062389081045854 0.0011636992355665296 0 0.031569728580739059 0.0024984479267975358 0 0.031569728580739059 0.0024984479267975358 0 0.029951731246327849 0.0005884698381204295 0 0.030274228860833776 0.0037087871284324282 0 0.027902318590920922 0.0015833092256605712 0 0.028261633459557831 0.0040028924344028688 0 0.030274228860833776 0.0037087871284324282 0 0.029951731246327849 0.0005884698381204295 0 0.027902318590920922 0.0015833092256605712 0 0.030274228860833776 0.0037087871284324282 0 0.027902318590920922 0.0015833092256605712 0 0.025783758807381946 0.0029641157115158278 0 0.025031261174503026 1.8300230601725501e-05 0 0.027902318590920922 0.0015833092256605712 0 0.025783758807381946 0.0029641157115158278 0 0.028261633459557831 0.0040028924344028688 0 0.028261633459557831 0.0040028924344028688 0 0.027168664544568386 0.0056118710045316069 0 0.030251362226242938 0.0061955466643044115 0 0.025783758807381946 0.0029641157115158278 0 0.028261633459557831 0.0040028924344028688 0 0.027168664544568386 0.0056118710045316069 0 0.025783758807381946 0.0029641157115158278 0 0.027168664544568386 0.0056118710045316069 0 0.02379473976213765 0.0049660056270458526 0 0.025369293449783208 0.0068153433968457878 0 0.027168664544568386 0.0056118710045316069 0 0.02379473976213765 0.0049660056270458526 0 0.027168664544568386 0.0056118710045316069 0 0.030251362226242938 0.0061955466643044115 0 0.029407259476216738 0.0083633856030950349 0 0.032940623999335734 0.0062024833561315773 0 0.030251362226242938 0.0061955466643044115 0 0.030274228860833776 0.0037087871284324282 0 0.03341140314599815 0.0036620747480510412 0 0.032940623999335734 0.0062024833561315773 0 0.030274228860833776 0.0037087871284324282 0 0.028261633459557831 0.0040028924344028688 0 0.030251362226242938 0.0061955466643044115 0 0.030274228860833776 0.0037087871284324282 0 0.0091816096370647884 0.011478696460848323 0 0.01163105368024211 0.0095979821302545707 0 0.0064746853694783888 0.013775656700216415 0 0.0052546873237725947 0.014640289130912311 0 0.0057609644097043758 0.016493860658504 0 0.013096836349956342 0.010826902246485757 0 0.01163105368024211 0.0095979821302545707 0 0.0064746853694783888 0.013775656700216415 0 0.0057609644097043758 0.016493860658504 0 0.0068939494521185257 0.013499061511317564 0 0.0052546873237725947 0.014640289130912311 0 0.0054209657850456438 0.013445348587359697 0 0.0040703521275295782 0.013959976672055827 0 0.0064746853694783888 0.013775656700216415 0 0.0052546873237725947 0.014640289130912311 0 0.0054209657850456438 0.013445348587359697 0 0.0052546873237725947 0.014640289130912311 0 0.0057609644097043758 0.016493860658504 0 0.0044406487348369857 0.015777193052967216 0 0.0057609644097043758 0.016493860658504 0 0.0044406487348369857 0.015777193052967216 0 0.004003470822331468 0.017704049732854672 0 0.019669931125665653 0.0065051201335188779 0 0.021738012421542767 0.0063305813466582057 0 0.020266845154193407 0.0036635289128908676 0 0.021738012421542767 0.0063305813466582057 0 0.02379473976213765 0.0049660056270458526 0 0.023729892532571122 0.0081610190469058892 0 0.021738012421542767 0.0063305813466582057 0 0.02379473976213765 0.0049660056270458526 0 0.020266845154193407 0.0036635289128908676 0 0.025369293449783208 0.0068153433968457878 0 0.02379473976213765 0.0049660056270458526 0 0.023729892532571122 0.0081610190469058892 0 0.02379473976213765 0.0049660056270458526 0 0.022605412626281102 0.0018575348512877312 0 0.020266845154193407 0.0036635289128908676 0 0.025783758807381946 0.0029641157115158278 0 0.02379473976213765 0.0049660056270458526 0 0.022605412626281102 0.0018575348512877312 0 0.025783758807381946 0.0029641157115158278 0 0.022605412626281102 0.0018575348512877312 0 0.025031261174503026 1.8300230601725501e-05 0 0.012590364285259796 0.0105627340303727 0 0.010665817117906711 0.011666502598403109 0 0.013914074502690697 0.010040612786043341 0 0.017071445654940988 0.0065387211083752887 0 0.01953230351040576 0.005014215926732216 0 0.012590364285259796 0.0105627340303727 0 0.010665817117906711 0.011666502598403109 0 0.0088006576735672349 0.0098602923899113598 0 0.012590364285259796 0.0105627340303727 0 0.0096709647823637335 0.010834474013754956 0 0.011330939390858658 0.0098827235018618641 0 0.01232708011389603 0.010524294714920612 0 0.0092458295881974913 0.010372028687269538 0 0.0088006576735672349 0.0098602923899113598 0 0.007540387531825554 0.01234894774427928 0 0.0065150971524780676 0.01146681218682458 0 0.010665817117906711 0.011666502598403109 0 0.0088006576735672349 0.0098602923899113598 0 0.007540387531825554 0.01234894774427928 0 0.017071445654940988 0.0065387211083752887 0 0.01163105368024211 0.0095979821302545707 0 0.010665817117906711 0.011666502598403109 0 0.007540387531825554 0.01234894774427928 0 0.007142486478484247 0.013846342273960425 0 0.0083910031470774173 0.01357036828185431 0 0.01163105368024211 0.0095979821302545707 0 0.0054209657850456438 0.013445348587359697 0 0.0062210824234919648 0.012958999793288508 0 0.0050273994929709402 0.012167030273243631 0 0.0064746853694783888 0.013775656700216415 0 0.0054209657850456438 0.013445348587359697 0 0.0062210824234919648 0.012958999793288508 0 0.007540387531825554 0.01234894774427928 0 0.0069673437857204149 0.013515310080437184 0 0.0062210824234919648 0.012958999793288508 0 0.0064746853694783888 0.013775656700216415 0 0.0069673437857204149 0.013515310080437184 0 0.0062210824234919648 0.012958999793288508 0 0.007540387531825554 0.01234894774427928 0 0.0062210824234919648 0.012958999793288508 0 0.0065150971524780676 0.01146681218682458 0 0.0062210824234919648 0.012958999793288508 0 0.0050273994929709402 0.012167030273243631 0 0.0065150971524780676 0.01146681218682458 0 0.0092458295881974913 0.010372028687269538 0 0.0056886210785297891 0.010331280748353898 0 0.0050273994929709402 0.012167030273243631 0 0.0051202953702969992 0.0098196669565587952 0 0.0065150971524780676 0.01146681218682458 0 0.0088006576735672349 0.0098602923899113598 0 0.0051202953702969992 0.0098196669565587952 0 0.0065150971524780676 0.01146681218682458 0 0.0096709647823637335 0.010834474013754956 0 0.0062321473882101588 0.01085420123875769 0 0.0080066798308953344 0.0088339085864013595 0 0.0062321473882101588 0.01085420123875769 0 0.0080066798308953344 0.0088339085864013595 0 0.0052320700998695971 0.0083801820795909292 0 0.0096709647823637335 0.010834474013754956 0 0.0080066798308953344 0.0088339085864013595 0 0.010518769654327562 0.0091090123494110015 0 0.0080066798308953344 0.0088339085864013595 0 0.0089859813524127939 0.0070755828964472198 0 0.010518769654327562 0.0091090123494110015 0 0.0089859813524127939 0.0070755828964472198 0 0.011142033198288364 0.0073941700158240281 0 0.0097932682355887386 0.0056997316057638657 0 0.0080066798308953344 0.0088339085864013595 0 0.0089859813524127939 0.0070755828964472198 0 0.0068399522040658908 0.0069307849050697428 0 0.0080066798308953344 0.0088339085864013595 0 0.0068399522040658908 0.0069307849050697428 0 0.0052320700998695971 0.0083801820795909292 0 0.014479830907191529 0.0084146193339514341 0 0.013914074502690697 0.010040612786043341 0 0.012487317727876432 0.0090253773202331276 0 0.012590364285259796 0.0105627340303727 0 0.012487317727876432 0.0090253773202331276 0 0.011330939390858658 0.0098827235018618641 0 0.012590364285259796 0.0105627340303727 0 0.013914074502690697 0.010040612786043341 0 0.012487317727876432 0.0090253773202331276 0 0.012487317727876432 0.0090253773202331276 0 0.011330939390858658 0.0098827235018618641 0 0.010518769654327562 0.0091090123494110015 0 0.0096709647823637335 0.010834474013754956 0 0.011330939390858658 0.0098827235018618641 0 0.010518769654327562 0.0091090123494110015 0 0.0089859813524127939 0.0070755828964472198 0 0.010518769654327562 0.0091090123494110015 0 0.011142033198288364 0.0073941700158240281 0 0.012487317727876432 0.0090253773202331276 0 0.010518769654327562 0.0091090123494110015 0 0.011142033198288364 0.0073941700158240281 0 0.012487317727876432 0.0090253773202331276 0 0.011142033198288364 0.0073941700158240281 0 0.012686685057751031 0.0072376708685905336 0 0.011142033198288364 0.0073941700158240281 0 0.012686685057751031 0.0072376708685905336 0 0.01162568381336359 0.0056734920497255982 0 0.014479830907191529 0.0084146193339514341 0 0.012487317727876432 0.0090253773202331276 0 0.012686685057751031 0.0072376708685905336 0 0.014479830907191529 0.0084146193339514341 0 0.012686685057751031 0.0072376708685905336 0 0.013696018780020469 0.0056284258023024071 0 0.012686685057751031 0.0072376708685905336 0 0.013696018780020469 0.0056284258023024071 0 0.01162568381336359 0.0056734920497255982 0 0.013696018780020469 0.0056284258023024071 0 0.01162568381336359 0.0056734920497255982 0 0.011186058810281495 0.0038468125157877287 0 0.011142033198288364 0.0073941700158240281 0 0.01162568381336359 0.0056734920497255982 0 0.0097932682355887386 0.0056997316057638657 0 0.01162568381336359 0.0056734920497255982 0 0.010973858988476942 0.0040976122394111164 0 0.0097932682355887386 0.0056997316057638657 0 0.010973858988476942 0.0040976122394111164 0 0.011186058810281495 0.0038468125157877287 0 0.0096896790631095971 0.0038996925963503261 0 0.014986657600440665 0.0097598514400609754 0 0.015527348669743059 0.0097003439662197641 0 0.015523866555337091 0.0099847334585712096 0 0.015527348669743059 0.0097003439662197641 0 0.015523866555337091 0.0099847334585712096 0 0.015942255313534614 0.0095791957711548401 0 0.01162568381336359 0.0056734920497255982 0 0.010973858988476942 0.0040976122394111164 0 0.011186058810281495 0.0038468125157877287 0 0.016410125391171961 0.0090722633390645183 0 0.015942255313534614 0.0095791957711548401 0 0.01623688500572423 0.009342662422922289 0 0.016410125391171961 0.0090722633390645183 0 0.015523866555337091 0.0099847334585712096 0 0.015942255313534614 0.0095791957711548401 0 0.016329846659461154 0.0091008395331338421 0 0.016410125391171961 0.0090722633390645183 0 0.01623688500572423 0.009342662422922289 0 0.014948658713589679 0.0073574626639916181 0 0.013359117627859952 0.0068369838659707496 0 0.015864567321602283 0.0094717320103861729 0 0.015942255313534614 0.0095791957711548401 0 0.01623688500572423 0.009342662422922289 0 0.0068399522040658908 0.0069307849050697428 0 0.0077056741836476058 0.0047872220662431887 0 0.004148040238973737 0.005579232071382635 0 0.0089859813524127939 0.0070755828964472198 0 0.0068399522040658908 0.0069307849050697428 0 0.0077056741836476058 0.0047872220662431887 0 0.0089859813524127939 0.0070755828964472198 0 0.0077056741836476058 0.0047872220662431887 0 0.0097932682355887386 0.0056997316057638657 0 0.010973858988476942 0.0040976122394111164 0 0.0077056741836476058 0.0047872220662431887 0 0.0097932682355887386 0.0056997316057638657 0 0.0086902963377733355 0.0023471318735379535 0 0.0079003735993458443 0.0053122351455330199 0 0.0096896790631095971 0.0038996925963503261 0 0.01027940692219557 0.0068629926953387233 0 0.013359117627859952 0.0068369838659707496 0 0.01076480034044038 0.004145217178251114 0 0.0078188231395958843 0.0050424963342387448 0 0.010973858988476942 0.0040976122394111164 0 0.0079003735993458443 0.0053122351455330199 0 0.0096896790631095971 0.0038996925963503261 0 0.0086902963377733355 0.0023471318735379535 0 0.011186058810281495 0.0038468125157877287 0 0.0096896790631095971 0.0038996925963503261 0 0.0086902963377733355 0.0023471318735379535 0 0.0079003735993458443 0.0053122351455330199 0 0.0052045153252357982 0.0032584238324851896 0 0.0078188231395958843 0.0050424963342387448 0 0.0043676692641830151 0.0060661323107962951 0 0.0079003735993458443 0.0053122351455330199 0 0.0052045153252357982 0.0032584238324851896 0 0.0046927079405387874 0.0064944403197591243 0 0.0046927079405387874 0.0064944403197591243 0 0.0028078619584790319 0.0058219291205744263 0 0.0014319049339585794 0.0076420437697119923 0 0.0043676692641830151 0.0060661323107962951 0 0.0010202068002395071 0.0070052639468896772 0 0.0052045153252357982 0.0032584238324851896 0 0.0046927079405387874 0.0064944403197591243 0 0.0028078619584790319 0.0058219291205744263 0 0.0052045153252357982 0.0032584238324851896 0 0.0028078619584790319 0.0058219291205744263 0 0.0016311049866287049 0.004201701335539384 0 0.0059762032212380082 0.0050141385812257303 0 0.0021222944530161023 0.0062530545687691308 0 7.0341057795610348e-05 0.0059307382673904844 0 0.00057525300233651658 0.0072151998774200336 0 -0.0010157893945956439 0.0063373536849778197 0 0.0021222944530161023 0.0062530545687691308 0 -0.002442281649645411 0.0070020566754441151 0 -0.0024398903248692653 0.0053108162097519774 0 -0.0010157893945956439 0.0063373536849778197 0 -0.0023218684772360314 0.0079737167630977435 0 0.00057525300233651658 0.0072151998774200336 0 -0.0010157893945956439 0.0063373536849778197 0 -0.0023218684772360314 0.0079737167630977435 0 0.0015841728688932668 0.0043674112298469452 0 0.00090331778258688229 0.006507691789252837 0 -0.0018076723778650886 0.0052399531552605721 0 0.00090331778258688229 0.006507691789252837 0 -0.0018076723778650886 0.0052399531552605721 0 -0.0017046840556651296 0.0087139911072858459 0 0.0021222944530161023 0.0062530545687691308 0 0.0011133738067988779 0.0056968789912096125 0 0.0028078619584790319 0.0058219291205744263 0 0.0016311049866287049 0.004201701335539384 0 0.00090331778258688229 0.006507691789252837 0 0.0028078619584790319 0.0058219291205744263 0 0.00090331778258688229 0.006507691789252837 0 0.0014319049339585794 0.0076420437697119923 0 0.00041822674265871106 0.006561303308900074 0 -0.0012139035905504795 0.0084766150316944993 0 0.00066866625405234117 0.0086559932957366997 0 0.00041822674265871106 0.006561303308900074 0 0.00066866625405234117 0.0086559932957366997 0 0.0026490341385760133 0.0079554480018706342 0 0.00041822674265871106 0.006561303308900074 0 -0.0012139035905504795 0.0084766150316944993 0 -0.0030310362064605175 0.0076827457401856415 0 0.0010202068002395071 0.0070052639468896772 0 -0.0027008315441680434 0.00891883315905612 0 0.00090331778258688229 0.006507691789252837 0 0.0014319049339585794 0.0076420437697119923 0 -0.0017046840556651296 0.0087139911072858459 0 -0.0012139035905504795 0.0084766150316944993 0 -0.003038576572485757 0.01099892127810375 0 -0.0011049867162941259 0.010157461677582384 0 -0.0012139035905504795 0.0084766150316944993 0 -0.0030310362064605175 0.0076827457401856415 0 -0.003038576572485757 0.01099892127810375 0 0.00066866625405234117 0.0086559932957366997 0 0.0025897632021607557 0.01067549358034282 0 -0.0011049867162941259 0.010157461677582384 0 -0.0012139035905504795 0.0084766150316944993 0 0.00066866625405234117 0.0086559932957366997 0 -0.0011049867162941259 0.010157461677582384 0 0.0052320700998695971 0.0083801820795909292 0 0.0026490341385760133 0.0079554480018706342 0 0.0025897632021607557 0.01067549358034282 0 0.00066866625405234117 0.0086559932957366997 0 0.0026490341385760133 0.0079554480018706342 0 0.0025897632021607557 0.01067549358034282 0 0.0062321473882101588 0.01085420123875769 0 0.0052320700998695971 0.0083801820795909292 0 0.0025897632021607557 0.01067549358034282 0 0.004148040238973737 0.005579232071382635 0 0.0052320700998695971 0.0083801820795909292 0 0.0026490341385760133 0.0079554480018706342 0 0.0068399522040658908 0.0069307849050697428 0 0.004148040238973737 0.005579232071382635 0 0.0052320700998695971 0.0083801820795909292 0 0.004148040238973737 0.005579232071382635 0 0.00041822674265871106 0.006561303308900074 0 0.0026490341385760133 0.0079554480018706342 0 -0.0093643723239680721 0.0095196777779169069 0 -0.0074826032371397618 0.0078818467400485204 0 -0.0074111450431927862 0.0091079505089365059 0 -0.0074826032371397618 0.0078818467400485204 0 -0.0059264851137110783 0.0084550153109900338 0 -0.0074111450431927862 0.0091079505089365059 0 -0.0078264253544094685 0.0077496645696664831 0 -0.0083805625494766875 0.0096344783251867822 0 -0.0062053727740151087 0.009139968413910014 0 -0.0078264253544094685 0.0077496645696664831 0 -0.0091424579463971947 0.0085467529079393742 0 -0.0083805625494766875 0.0096344783251867822 0 -0.0078910637605067533 0.008751805139361208 0 -0.0058654550220137661 0.0078523854276999414 0 -0.0074826032371397618 0.0078818467400485204 0 -0.0056154498614724444 0.0066088185645699132 0 -0.0059264851137110783 0.0084550153109900338 0 -0.0057218009499354575 0.0084139249116274 0 -0.0045526860190338537 0.0081496609923266111 0 -0.0059264851137110783 0.0084550153109900338 0 -0.0046450873850532298 0.0081110765877919402 0 -0.0050349311032293793 0.0092870589532486197 0 -0.0056154498614724444 0.0066088185645699132 0 -0.0059264851137110783 0.0084550153109900338 0 -0.004196576201414468 0.0080983813701713415 0 -0.0056154498614724444 0.0066088185645699132 0 -0.004196576201414468 0.0080983813701713415 0 -0.0042685456621210901 0.0067554668814149479 0 -0.004196576201414468 0.0080983813701713415 0 -0.0042685456621210901 0.0067554668814149479 0 -0.0033258811824761307 0.0066157952492759842 0 -0.0035896462536822468 0.0052480324059928076 0 -0.0056154498614724444 0.0066088185645699132 0 -0.0042685456621210901 0.0067554668814149479 0 -0.0024254444479373514 0.0057873803790259616 0 -0.002442281649645411 0.0070020566754441151 0 -0.004196576201414468 0.0080983813701713415 0 -0.0033258811824761307 0.0066157952492759842 0 -0.0024568103478212547 0.00768496711275424 0 -0.0024398903248692653 0.0053108162097519774 0 -0.0033258811824761307 0.0066157952492759842 0 -0.0024568103478212547 0.00768496711275424 0 -0.0035896462536822468 0.0052480324059928076 0 -0.0042685456621210901 0.0067554668814149479 0 -0.0033258811824761307 0.0066157952492759842 0 -0.002442281649645411 0.0070020566754441151 0 -0.0027008315441680434 0.00891883315905612 0 -0.0045526860190338537 0.0081496609923266111 0 -0.002442281649645411 0.0070020566754441151 0 -0.0046450873850532298 0.0081110765877919402 0 -0.0033343102875370016 0.0077616698307441017 0 -0.0032689967964438732 0.0097845570606721749 0 -0.0046450873850532298 0.0081110765877919402 0 -0.0032689967964438732 0.0097845570606721749 0 -0.0050349311032293793 0.0092870589532486197 0 -0.0031643893773504947 0.0094533922841996462 0 -0.0047621193027719 0.010173087473442461 0 -0.0044088543230018269 0.011222901226174727 0 -0.0027008315441680434 0.00891883315905612 0 -0.0050358689644742138 0.010381993252561743 0 -0.0027008315441680434 0.00891883315905612 0 -0.0031307697676522983 0.01073440706653047 0 -0.0031643893773504947 0.0094533922841996462 0 -0.0044088543230018269 0.011222901226174727 0 -0.003038576572485757 0.01099892127810375 0 -0.0050106624070921837 0.010379340387958421 0 -0.0050349311032293793 0.0092870589532486197 0 -0.00631031946586629 0.0097189091029796244 0 -0.0032689967964438732 0.0097845570606721749 0 -0.0050106624070921837 0.010379340387958421 0 -0.0050349311032293793 0.0092870589532486197 0 -0.0059264851137110783 0.0084550153109900338 0 -0.00631031946586629 0.0097189091029796244 0 -0.0074111450431927862 0.0091079505089365059 0 -0.0059264851137110783 0.0084550153109900338 0 -0.0050349311032293793 0.0092870589532486197 0 -0.00631031946586629 0.0097189091029796244 0 -0.0050358689644742138 0.010381993252561743 0 -0.0063770078794005824 0.010814835799942992 0 -0.0050106624070921837 0.010379340387958421 0 -0.00631031946586629 0.0097189091029796244 0 -0.0065407263789342002 0.010891414255677355 0 -0.0087092748567387229 0.011095303897183741 0 -0.0065407263789342002 0.010891414255677355 0 -0.0080079528958598451 0.0099743067650498746 0 -0.00631031946586629 0.0097189091029796244 0 -0.0065407263789342002 0.010891414255677355 0 -0.0080079528958598451 0.0099743067650498746 0 -0.00631031946586629 0.0097189091029796244 0 -0.0080079528958598451 0.0099743067650498746 0 -0.0074111450431927862 0.0091079505089365059 0 -0.0030931984515056069 0.01248197700139826 0 -0.0041087845120189878 0.01185158378126382 0 -0.0052369265171501372 0.01215778922769431 0 -0.0045926426937516465 0.012831347609012805 0 -0.0057517498424280045 0.012206811488577931 0 -0.0026440877952787546 0.011632687105879749 0 -0.0041087845120189878 0.01185158378126382 0 -0.0031919021551613689 0.011173670352988841 0 -0.0087092748567387229 0.011095303897183741 0 -0.0065407263789342002 0.010891414255677355 0 -0.0075250433322021464 0.011607033616807124 0 -0.0082437323092429231 0.012852699933196508 0 -0.0075250433322021464 0.011607033616807124 0 -0.0052369265171501372 0.01215778922769431 0 -0.0065407263789342002 0.010891414255677355 0 -0.0075250433322021464 0.011607033616807124 0 -0.0052369265171501372 0.01215778922769431 0 -0.0047621193027719 0.010173087473442461 0 -0.0065407263789342002 0.010891414255677355 0 -0.0052369265171501372 0.01215778922769431 0 -0.0052369265171501372 0.01215778922769431 0 -0.0049877297452795601 0.011874535299759984 0 -0.0044132017201172508 0.011271388584388406 0 -0.0041087845120189878 0.01185158378126382 0 -0.0052369265171501372 0.01215778922769431 0 -0.0044132017201172508 0.011271388584388406 0 -0.0049877297452795601 0.011874535299759984 0 -0.0044088543230018269 0.011222901226174727 0 -0.0041582764700088884 0.011981934029457311 0 -0.0052369265171501372 0.01215778922769431 0 -0.0049877297452795601 0.011874535299759984 0 -0.0044088543230018269 0.011222901226174727 0 -0.0047621193027719 0.010173087473442461 0 -0.0052369265171501372 0.01215778922769431 0 -0.0044088543230018269 0.011222901226174727 0 -0.0044088543230018269 0.011222901226174727 0 -0.0041582764700088884 0.011981934029457311 0 -0.003038576572485757 0.01099892127810375 0 -0.0049877297452795601 0.011874535299759984 0 -0.0041582764700088884 0.011981934029457311 0 -0.0049198510565396387 0.011674501282016147 0 -0.0041582764700088884 0.011981934029457311 0 -0.0036917932020020909 0.014308924278895763 0 -0.0023729215262888272 0.013026536511950709 0 -0.0042403907811168701 0.012039473475740213 0 -0.0042747604979378852 0.012910858561425091 0 -0.0036917932020020909 0.014308924278895763 0 -0.0033361811747662515 0.016314194509929558 0 -0.0017735907300820892 0.014494376570780806 0 -0.0049198510565396387 0.011674501282016147 0 -0.0050197509045141215 0.011399354806548904 0 -0.0050045023239373466 0.011391559831261264 0 -0.0042747604979378852 0.012910858561425091 0 -0.0029304631025050508 0.013579579392351951 0 -0.0049198510565396387 0.011674501282016147 0 -0.0052380731799112875 0.011238941863345843 0 -0.0050197509045141215 0.011399354806548904 0 -0.0052380731799112875 0.011238941863345843 0 -0.0050264278057362156 0.011214226920555707 0 -0.0050197509045141215 0.011399354806548904 0 -0.0050264278057362156 0.011214226920555707 0 -0.0050197509045141215 0.011399354806548904 0 -0.0050045023239373466 0.011391559831261264 0 -0.0050264278057362156 0.011214226920555707 0 -0.0049838607489769244 0.011164761043900399 0 -0.0050045023239373466 0.011391559831261264 0 -0.0049838607489769244 0.011164761043900399 0 -0.0050045023239373466 0.011391559831261264 0 -0.0051305681145265127 0.011080793376275527 0 -0.0049877297452795601 0.011874535299759984 0 -0.0049198510565396387 0.011674501282016147 0 -0.0050045023239373466 0.011391559831261264 0 -0.0049877297452795601 0.011874535299759984 0 -0.0050045023239373466 0.011391559831261264 0 -0.0051305681145265127 0.011080793376275527 0 -0.0044132017201172508 0.011271388584388406 0 -0.0051305681145265127 0.011080793376275527 0 -0.0038885409130116995 0.009706489877240855 0 -0.0049877297452795601 0.011874535299759984 0 -0.0044132017201172508 0.011271388584388406 0 -0.0051305681145265127 0.011080793376275527 0 -0.0051859175832445351 0.010832942261947309 0 -0.0054195679296752024 0.0095804556928888018 0 -0.0049838607489769244 0.011164761043900399 0 -0.0051305681145265127 0.011080793376275527 0 -0.0048642565418811146 0.011080820988131559 0 -0.0051305681145265127 0.011080793376275527 0 -0.0038885409130116995 0.009706489877240855 0 -0.0058739703215485977 0.007970148285973859 0 -0.0020106012306055246 0.0097426190803060701 0 -0.0038885409130116995 0.009706489877240855 0 -0.0030910171180217124 0.010366105090443348 0 -0.0044132017201172508 0.011271388584388406 0 -0.0038885409130116995 0.009706489877240855 0 -0.0030910171180217124 0.010366105090443348 0 -0.0041087845120189878 0.01185158378126382 0 -0.0044132017201172508 0.011271388584388406 0 -0.0031919021551613689 0.011173670352988841 0 -0.0044132017201172508 0.011271388584388406 0 -0.0030910171180217124 0.010366105090443348 0 -0.0031919021551613689 0.011173670352988841 0 0.0029893677525001613 0.011905618022897191 0 0.00049427565138863213 0.011829620833604544 0 0.002223935786245447 0.014015287622258376 0 0.0050273994929709402 0.012167030273243631 0 0.0029893677525001613 0.011905618022897191 0 0.0040703521275295782 0.013959976672055827 0 0.0029893677525001613 0.011905618022897191 0 0.002223935786245447 0.014015287622258376 0 0.0040703521275295782 0.013959976672055827 0 0.0054209657850456438 0.013445348587359697 0 0.0050273994929709402 0.012167030273243631 0 0.0040703521275295782 0.013959976672055827 0 0.0051202953702969992 0.0098196669565587952 0 0.0029893677525001613 0.011905618022897191 0 0.0019266069506306746 0.0098963937833097346 0 0.0056886210785297891 0.010331280748353898 0 0.002240629000704679 0.010277218227600814 0 0.0050273994929709402 0.012167030273243631 0 0.0051202953702969992 0.0098196669565587952 0 0.0029893677525001613 0.011905618022897191 0 0.0029893677525001613 0.011905618022897191 0 0.0019266069506306746 0.0098963937833097346 0 0.00049427565138863213 0.011829620833604544 0 0.002240629000704679 0.010277218227600814 0 -0.00085142651256471709 0.010175367629221327 0 -0.0011049867162941259 0.010157461677582384 0 -0.0017521546283900344 0.011770346671300953 0 0.00049427565138863213 0.011829620833604544 0 0.0019266069506306746 0.0098963937833097346 0 -0.0011049867162941259 0.010157461677582384 0 0.00049427565138863213 0.011829620833604544 0 -0.0041582764700088884 0.011981934029457311 0 -0.003038576572485757 0.01099892127810375 0 -0.0017521546283900344 0.011770346671300953 0 -0.003038576572485757 0.01099892127810375 0 -0.0011049867162941259 0.010157461677582384 0 -0.0017521546283900344 0.011770346671300953 0 -0.0041582764700088884 0.011981934029457311 0 -0.0017521546283900344 0.011770346671300953 0 -0.0023729215262888272 0.013026536511950709 0 -0.0017521546283900344 0.011770346671300953 0 -0.0023729215262888272 0.013026536511950709 0 -0.00094392580099102066 0.012954701587589568 0 0.00049427565138863213 0.011829620833604544 0 -0.00094392580099102066 0.012954701587589568 0 0.0002738559764432329 0.014222862091996044 0 -0.0017521546283900344 0.011770346671300953 0 0.00049427565138863213 0.011829620833604544 0 -0.00094392580099102066 0.012954701587589568 0 0.00049427565138863213 0.011829620833604544 0 0.0002738559764432329 0.014222862091996044 0 0.002223935786245447 0.014015287622258376 0 0.0002738559764432329 0.014222862091996044 0 -0.0017735907300820892 0.014494376570780806 0 -0.00076449139059623055 0.016101284737337102 0 -0.00094392580099102066 0.012954701587589568 0 0.0002738559764432329 0.014222862091996044 0 -0.0017735907300820892 0.014494376570780806 0 -0.0036917932020020909 0.014308924278895763 0 -0.0023729215262888272 0.013026536511950709 0 -0.0017735907300820892 0.014494376570780806 0 -0.0023729215262888272 0.013026536511950709 0 -0.00094392580099102066 0.012954701587589568 0 -0.0017735907300820892 0.014494376570780806 0 -0.0033361811747662515 0.016314194509929558 0 -0.00076449139059623055 0.016101284737337102 0 -0.00049090289560765053 0.018672986731046365 0 -0.0033361811747662515 0.016314194509929558 0 -0.0017735907300820892 0.014494376570780806 0 -0.00076449139059623055 0.016101284737337102 0 -0.00076449139059623055 0.016101284737337102 0 0.0013579468054856169 0.01616403587524853 0 -0.00049090289560765053 0.018672986731046365 0 0.0002738559764432329 0.014222862091996044 0 -0.00076449139059623055 0.016101284737337102 0 0.0013579468054856169 0.01616403587524853 0 0.0013579468054856169 0.01616403587524853 0 0.0030882872457232641 0.015908874210539384 0 0.00218216627003062 0.017798434307510692 0 0.0013579468054856169 0.01616403587524853 0 0.002223935786245447 0.014015287622258376 0 0.0030882872457232641 0.015908874210539384 0 0.0002738559764432329 0.014222862091996044 0 0.0013579468054856169 0.01616403587524853 0 0.002223935786245447 0.014015287622258376 0 0.0040703521275295782 0.013959976672055827 0 0.0044406487348369857 0.015777193052967216 0 0.0030882872457232641 0.015908874210539384 0 0.0052546873237725947 0.014640289130912311 0 0.0040703521275295782 0.013959976672055827 0 0.0044406487348369857 0.015777193052967216 0 0.002223935786245447 0.014015287622258376 0 0.0040703521275295782 0.013959976672055827 0 0.0030882872457232641 0.015908874210539384 0 0.0044406487348369857 0.015777193052967216 0 0.0030882872457232641 0.015908874210539384 0 0.004003470822331468 0.017704049732854672 0 0.0030882872457232641 0.015908874210539384 0 0.004003470822331468 0.017704049732854672 0 0.00218216627003062 0.017798434307510692 0 0.004003470822331468 0.017704049732854672 0 0.0023183142099735925 0.019782706032871421 0 0.0048105352107175913 0.019048518991695899 0 0.004003470822331468 0.017704049732854672 0 0.00218216627003062 0.017798434307510692 0 0.0023183142099735925 0.019782706032871421 0 0.00218216627003062 0.017798434307510692 0 0.00055912137382803069 0.018231477355158756 0 0.0023183142099735925 0.019782706032871421 0 0.0013579468054856169 0.01616403587524853 0 0.00218216627003062 0.017798434307510692 0 -0.00049090289560765053 0.018672986731046365 0 0.0011215974200758107 0.018535085967417205 0 0.001779088919273216 0.014735851041816912 0 -0.00055579122403234176 0.012218532730570171 0 6.3201231161816123e-05 0.012756076104137469 0 -0.00045712590161148232 0.012883468168130964 0 -0.0029304631025050508 0.013579579392351951 0 0.001779088919273216 0.014735851041816912 0 0.001779088919273216 0.014735851041816912 0 0.00020288383873092179 0.0092204006884752387 0 0.0054113368610570305 0.007921460977424629 0 0.0054835720265603632 0.0077217117078624692 0 0.0055848570836217757 0.007857899753672605 0 0.001779088919273216 0.014735851041816912 0 0.0046306046153063293 0.012783021233624509 0 0.0054113368610570305 0.007921460977424629 0 0.0054023571619441126 0.0077446035575789041 0 0.0054835720265603632 0.0077217117078624692 0 0.0054113368610570305 0.007921460977424629 0 0.0054023571619441126 0.0077446035575789041 0 0.0053081603027414692 0.0077356828567316342 0 0.0054023571619441126 0.0077446035575789041 0 0.0054094751510918252 0.0076036550419708035 0 0.0053081603027414692 0.0077356828567316342 0 0.0054023571619441126 0.0077446035575789041 0 0.0054094751510918252 0.0076036550419708035 0 0.0054835720265603632 0.0077217117078624692 0 0.0054094751510918252 0.0076036550419708035 0 0.0054835720265603632 0.0077217117078624692 0 0.0055946930450700262 0.0075065971809626401 0 0.0054835720265603632 0.0077217117078624692 0 0.0055946930450700262 0.0075065971809626401 0 0.0055848570836217757 0.007857899753672605 0 0.0054190514053438265 0.0010695821569274714 0 0.00020288383873092179 0.0092204006884752387 0 0.0054190514053438265 0.0010695821569274714 0 0.0053810955519759084 -0.0058516834900621513 0 0.0098445461920412571 0.0021549647650472344 0 0.0054190514053438265 0.0010695821569274714 0 0.010874027184515019 -0.0014398760319282327 0 0.010673063187460993 -0.0015976031727694007 0 0.010974946587663658 -0.0017445015845182262 0 0.012378655295515916 -0.0022798400500890345 0 0.010673063187460993 -0.0015976031727694007 0 0.011937211225810641 -0.0013268669335507316 0 0.010874027184515019 -0.0014398760319282327 0 0.010673063187460993 -0.0015976031727694007 0 0.011937211225810641 -0.0013268669335507316 0 0.010874027184515019 -0.0014398760319282327 0 0.011937211225810641 -0.0013268669335507316 0 0.013260135154822456 0.00047008197705496695 0 0.012378655295515916 -0.0022798400500890345 0 0.011937211225810641 -0.0013268669335507316 0 0.012965758811865374 -0.0011197959898414985 0 0.011937211225810641 -0.0013268669335507316 0 0.012965758811865374 -0.0011197959898414985 0 0.013260135154822456 0.00047008197705496695 0 0.012965758811865374 -0.0011197959898414985 0 0.014486712557244843 -0.0011231519729208641 0 0.013260135154822456 0.00047008197705496695 0 0.012378655295515916 -0.0022798400500890345 0 0.014486712557244843 -0.0011231519729208641 0 0.014789603375424726 -0.0027986607162750455 0 0.012378655295515916 -0.0022798400500890345 0 0.012965758811865374 -0.0011197959898414985 0 0.014486712557244843 -0.0011231519729208641 0 0.012377856692866722 0.0086925860214659926 0 0.016741937588300865 -0.0032790343490455023 0 0.014486712557244843 -0.0011231519729208641 0 0.016212840594456181 -0.0015922472989974967 0 0.014789603375424726 -0.0027986607162750455 0 0.014486712557244843 -0.0011231519729208641 0 0.016212840594456181 -0.0015922472989974967 0 0.015888222676121527 0.00022851969749782298 0 0.016490959530368228 -0.0010907966766640043 0 0.015888222676121527 0.00022851969749782298 0 0.01762745046991929 -0.00019329524822948871 0 0.0023183142099735925 0.019782706032871421 0 0.0030981914340310595 0.020358787148786268 0 0.0048105352107175913 0.019048518991695899 0 0.012377856692866722 0.0086925860214659926 0 0.011580011794553861 0.015900022922935582 0 0.0041894965347363203 0.02119364590369761 0 0.0030981914340310595 0.020358787148786268 0 0.0048105352107175913 0.019048518991695899 0 0.012377856692866722 0.0086925860214659926 0 0.0085521579930875596 0.0089238652712530907 0 0.0054094751510918252 0.0076036550419708035 0 0.0053081603027414692 0.0077356828567316342 0 0.0052768092806198715 0.0076903066639740399 0 0.0098445461920412571 0.0021549647650472344 0 0.0085521579930875596 0.0089238652712530907 0 0.0046306046153063293 0.012783021233624509 0 0.0085521579930875596 0.0089238652712530907 0 -0.0042886001753055375 0.0054457038157306086 0 -0.0024279574030645814 0.0066981029912475155 0 -0.0033666065560520771 0.0032689736963749795 0 -0.0042886001753055375 0.0054457038157306086 0 -0.0049838521456545808 0.0036908497985882254 0 -0.0033666065560520771 0.0032689736963749795 0 -0.0042886001753055375 0.0054457038157306086 0 -0.0024279574030645814 0.0066981029912475155 0 -0.0058739703215485977 0.007970148285973859 0 -0.0038885409130116995 0.009706489877240855 0 -0.0024279574030645814 0.0066981029912475155 0 -0.0058739703215485977 0.007970148285973859 0 -0.0020106012306055246 0.0097426190803060701 0 -0.0038885409130116995 0.009706489877240855 0 -0.0024279574030645814 0.0066981029912475155 0 -0.0040038231150327543 0.0050734459490270689 0 -0.0044011503712227552 0.0052252811032486267 0 -0.0039868577124586432 0.0049760607936824479 0 -0.0042886001753055375 0.0054457038157306086 0 -0.0058739703215485977 0.007970148285973859 0 -0.0058313274289442983 0.0036067259387153492 0 -0.0048642565418811146 0.011080820988131559 0 -0.0047339266586329375 0.010684206907430025 0 -0.0049147506915696373 0.010907228336465853 0 -0.0054195679296752024 0.0095804556928888018 0 -0.0044970347873201462 0.0066421550681600812 0 -0.0042886001753055375 0.0054457038157306086 0 -0.0049838521456545808 0.0036908497985882254 0 -0.0058313274289442983 0.0036067259387153492 0 -0.0026772528724753374 0.0010993671716523143 0 -0.0039883836351192669 0.0020542153885679398 0 2.3891707897239496e-05 6.368150738011999e-05 0 -0.0044970347873201462 0.0066421550681600812 0 -0.004067472977073743 0.0061229966520360357 0 -0.0047339266586329375 0.010684206907430025 0 -0.00505886392818023 0.010820532042260385 0 -0.0049147506915696373 0.010907228336465853 0 -0.004067472977073743 0.0061229966520360357 0 -0.0035774281111853926 0.0021822605411080491 0 -0.00505886392818023 0.010820532042260385 0 -0.004991972460601549 0.011019844441174325 0 -0.0051308172797006474 0.010868764279645065 0 -0.00505886392818023 0.010820532042260385 0 -0.0049147506915696373 0.010907228336465853 0 -0.004991972460601549 0.011019844441174325 0 -0.0050264278057362156 0.011214226920555707 0 -0.0049838607489769244 0.011164761043900399 0 -0.004991972460601549 0.011019844441174325 0 -0.0050264278057362156 0.011214226920555707 0 -0.004991972460601549 0.011019844441174325 0 -0.0051308172797006474 0.010868764279645065 0 -0.0048642565418811146 0.011080820988131559 0 -0.0049147506915696373 0.010907228336465853 0 -0.004991972460601549 0.011019844441174325 0 -0.0049838607489769244 0.011164761043900399 0 -0.0048642565418811146 0.011080820988131559 0 -0.004991972460601549 0.011019844441174325 0 -0.0052380731799112875 0.011238941863345843 0 -0.005289459019987946 0.010324200486314869 0 -0.0051476096377299323 0.010372428490413537 0 -0.0052380731799112875 0.011238941863345843 0 -0.0050264278057362156 0.011214226920555707 0 -0.0051476096377299323 0.010372428490413537 0 -0.0050264278057362156 0.011214226920555707 0 -0.0051476096377299323 0.010372428490413537 0 -0.0049134750097539854 0.010257205875745511 0 -0.0052722116277152441 0.012348674086582528 0 -0.0039817486516350318 0.0077769297991918751 0 -0.0029304631025050508 0.013579579392351951 0 0.00020288383873092179 0.0092204006884752387 0 -0.00079013806370967568 0.0068803880088687767 0 0.0014608710823732106 0.0065036386849761972 0 0.0014902447584496327 0.0010808907292227958 0 -0.0039883836351192669 0.0020542153885679398 0 -0.0050159638297020493 0.0025614000113531521 0 -0.0049781220867661279 -0.0016067581908548823 0 0.00020288383873092179 0.0092204006884752387 0 -0.0039817486516350318 0.0077769297991918751 0 -0.005289459019987946 0.010324200486314869 0 -0.0051476096377299323 0.010372428490413537 0 -0.0049026667719967018 0.010229272722174708 0 -0.004067472977073743 0.0061229966520360357 0 -0.0039817486516350318 0.0077769297991918751 0 -0.0053188708183327512 0.0092069802950643011 0 -0.0039817486516350318 0.0077769297991918751 0 -0.0014642030749303834 0.00047341213793049796 0 -0.00079013806370967568 0.0068803880088687767 0 0.0014902447584496327 0.0010808907292227958 0 -0.0039817486516350318 0.0077769297991918751 0 -0.0019030657684481185 -0.0022465523743696908 0 -0.0014642030749303834 0.00047341213793049796 0 0.0014902447584496327 0.0010808907292227958 0 0.00061128462499150237 3.3925664631559103e-05 0 0.0040460618428939344 -0.0028870992093593816 0 0.0046591020628171395 -0.0030228120396250465 0 0.0039455047032051294 -0.0039003487446151223 0 0.0054190514053438265 0.0010695821569274714 0 0.00099057823977727962 -0.0043580859791004355 0 0.0038929836611987503 -0.0091105832232935332 0 0.0040885145134527748 -0.0087633370537530137 0 0.0041206067678027231 -0.0094335156620369582 0 -0.00192941633953952 -0.0078011285154349855 0 0.00066474637582934998 -0.013946653606182682 0 0.0038929836611987503 -0.0091105832232935332 0 0.0039407405493729428 -0.0087308052069104813 0 0.0035687136196763626 -0.0092352765439520888 0 0.00099057823977727962 -0.0043580859791004355 0 0.0053810955519759084 -0.0058516834900621513 0 0.0038929836611987503 -0.0091105832232935332 0 0.0040885145134527748 -0.0087633370537530137 0 0.0039407405493729428 -0.0087308052069104813 0 -0.00192941633953952 -0.0078011285154349855 0 0.00099057823977727962 -0.0043580859791004355 0 -0.0019030657684481185 -0.0022465523743696908 0 0.00099057823977727962 -0.0043580859791004355 0 -0.0017305110617186141 -0.0043711429743438007 0 -0.0017273596452952254 -0.005100067277619756 0 -0.0022446196987376834 -0.0049901564973648827 0 -0.0019030657684481185 -0.0022465523743696908 0 -0.00192941633953952 -0.0078011285154349855 0 -0.0050729326257231665 -0.0017803237152879687 0 -0.0050661133817724432 -0.0027661131352512253 0 -0.0028741320858042419 -0.0012088783314646049 0 -0.0028389862278228144 -0.016272246874070504 0 -0.0018597378413065377 -0.016544498289047371 0 -0.0028253223427186364 -0.017311862159411943 0 -0.00192941633953952 -0.0078011285154349855 0 -0.0018387804844590299 -0.010055008557973625 0 -0.0050661133817724432 -0.0027661131352512253 0 -0.002120158117598343 -0.0033680974263799613 0 -0.0028741320858042419 -0.0012088783314646049 0 -0.002120158117598343 -0.0033680974263799613 0 -0.0028741320858042419 -0.0012088783314646049 0 -0.0010388191221654705 -0.0021265646609084153 0 -0.0026772528724753374 0.0010993671716523143 0 -0.0039883836351192669 0.0020542153885679398 0 -0.0049781220867661279 -0.0016067581908548823 0 -0.0026772528724753374 0.0010993671716523143 0 -0.0050729326257231665 -0.0017803237152879687 0 -0.0028741320858042419 -0.0012088783314646049 0 -0.0035493375833201227 0.00067565598653084426 0 -0.0019030657684481185 -0.0022465523743696908 0 -0.0026772528724753374 0.0010993671716523143 0 -0.0028741320858042419 -0.0012088783314646049 0 2.3891707897239496e-05 6.368150738011999e-05 0 -0.0028741320858042419 -0.0012088783314646049 0 2.3891707897239496e-05 6.368150738011999e-05 0 -0.0010388191221654705 -0.0021265646609084153 0 -0.0044970347873201462 0.0066421550681600812 0 -0.0035774281111853926 0.0021822605411080491 0 -0.0049838521456545808 0.0036908497985882254 0 -0.0058313274289442983 0.0036067259387153492 0 -0.0057074264857851663 0.0025512544217395675 0 -0.0018387804844590299 -0.010055008557973625 0 -0.0020761229109451901 -0.0069577535245509787 0 -0.0018597378413065377 -0.016544498289047371 0 -0.00096914837320282127 -0.016797464310344717 0 -0.0014601128921442781 -0.01742455464588168 0 2.3891707897239496e-05 6.368150738011999e-05 0 -0.0010388191221654705 -0.0021265646609084153 0 0.0008191857309012468 -0.0039944789926092648 0 -0.0035774281111853926 0.0021822605411080491 0 -0.0020761229109451901 -0.0069577535245509787 0 -0.002120158117598343 -0.0033680974263799613 0 -0.0010388191221654705 -0.0021265646609084153 0 0.0008191857309012468 -0.0039944789926092648 0 -0.0026006119441759211 -0.0042504381954147161 0 -0.0020761229109451901 -0.0069577535245509787 0 -0.00074217662903679129 -0.0049087062892327372 0 -0.0056931780459018883 -0.0038324450466578073 0 -0.0027839015684734255 -3.7654164088329915e-05 0 -0.0035774281111853926 0.0021822605411080491 0 -0.0029677772367461002 0.00035766245548073485 0 -0.0067933672322682825 0.0018814468804588236 0 -0.0056931780459018883 -0.0038324450466578073 0 -0.0027839015684734255 -3.7654164088329915e-05 0 -0.0057074264857851663 0.0025512544217395675 0 -0.0025462634217818217 0.00052149920656628039 0 -0.0033666065560520771 0.0032689736963749795 0 -0.0049838521456545808 0.0036908497985882254 0 -0.0057074264857851663 0.0025512544217395675 0 -0.0033666065560520771 0.0032689736963749795 0 -0.0027510699823784014 -0.014092150323754373 0 -0.0021546874747869096 -0.016112684165261879 0 -0.0012679862773641926 -0.011753722048313353 0 -0.0045819068684067104 -0.0090501606126329667 0 -0.0032121333018772713 -0.01406674815402717 0 -0.00064530942494028798 -0.0090563470048094577 0 -0.0012679862773641926 -0.011753722048313353 0 -0.0045819068684067104 -0.0090501606126329667 0 -0.00094437090446686136 -0.017943562795877856 0 -0.0013348187978005509 -0.018444872561448823 0 -0.0011667221183909292 -0.018503444532572969 0 -0.0020761229109451901 -0.0069577535245509787 0 -0.0027510699823784014 -0.014092150323754373 0 -0.00074217662903679129 -0.0049087062892327372 0 -0.0056051916196757845 -0.0040157987100642341 0 -0.0045819068684067104 -0.0090501606126329667 0 -0.00096914837320282127 -0.016797464310344717 0 -0.00094437090446686136 -0.017943562795877856 0 -0.0014601128921442781 -0.01742455464588168 0 -0.0014601128921442781 -0.01742455464588168 0 -0.0015514875107801888 -0.018207173304583837 0 -0.0021109404559405873 -0.017544005469338542 0 -0.00094437090446686136 -0.017943562795877856 0 -0.0015514875107801888 -0.018207173304583837 0 -0.0013348187978005509 -0.018444872561448823 0 -0.00094437090446686136 -0.017943562795877856 0 -0.0014601128921442781 -0.01742455464588168 0 -0.0015514875107801888 -0.018207173304583837 0 -0.0025785120251166855 -0.018756389186169703 0 0.00022006299948669857 -0.015552638261198575 0 -0.0015514875107801888 -0.018207173304583837 0 -0.0015146887136783978 -0.018475211568783876 0 -0.0015046566434635891 -0.018572402730241373 0 -0.0015514875107801888 -0.018207173304583837 0 -0.0015146887136783978 -0.018475211568783876 0 -0.0014878174508751727 -0.018595794705275743 0 -0.0015514875107801888 -0.018207173304583837 0 -0.0021109404559405873 -0.017544005469338542 0 -0.0028169969967385784 -0.018332458960199145 0 -0.0015146887136783978 -0.018475211568783876 0 -0.0015046566434635891 -0.018572402730241373 0 -0.0014812817222880357 -0.018633939729126036 0 -0.0021109404559405873 -0.017544005469338542 0 -0.0028253223427186364 -0.017311862159411943 0 -0.0028169969967385784 -0.018332458960199145 0 -0.0018597378413065377 -0.016544498289047371 0 -0.0014601128921442781 -0.01742455464588168 0 -0.0021109404559405873 -0.017544005469338542 0 -0.0018597378413065377 -0.016544498289047371 0 -0.0021109404559405873 -0.017544005469338542 0 -0.0028253223427186364 -0.017311862159411943 0 0.0038929836611987503 -0.0091105832232935332 0 0.0041206067678027231 -0.0094335156620369582 0 0.0037896236217665443 -0.0093975160370760053 0 0.0038929836611987503 -0.0091105832232935332 0 0.0037896236217665443 -0.0093975160370760053 0 0.0035687136196763626 -0.0092352765439520888 0 0.0041206067678027231 -0.0094335156620369582 0 0.0037896236217665443 -0.0093975160370760053 0 0.0038403574179909322 -0.0096785014133342982 0 0.0037896236217665443 -0.0093975160370760053 0 0.0038403574179909322 -0.0096785014133342982 0 0.0035529311362752841 -0.0095253422289862284 0 -0.0014768005132886259 -0.018756437405314411 0 -0.0014812817222880357 -0.018633939729126036 0 -0.0011263599708763929 -0.018873976333567029 0 0.0041249367859122329 -0.010104767682140093 0 0.0036182988080460236 -0.0098554645925829701 0 0.0034167446973137113 -0.010208697508698333 0 0.0038403574179909322 -0.0096785014133342982 0 0.0041249367859122329 -0.010104767682140093 0 0.0036182988080460236 -0.0098554645925829701 0 0.00022006299948669857 -0.015552638261198575 0 0.00069980747051499425 -0.014468161791895169 0 0.0041206067678027231 -0.0094335156620369582 0 0.0038403574179909322 -0.0096785014133342982 0 0.0041249367859122329 -0.010104767682140093 0 0.00066474637582934998 -0.013946653606182682 0 0.00022006299948669857 -0.015552638261198575 0 0.00022006299948669857 -0.015552638261198575 0 -0.00034842112612952015 -0.018023814541886514 0 -0.0014812817222880357 -0.018633939729126036 0 -0.001505916406842702 -0.018753657155142715 0 -0.0012469584659983892 -0.018637777338756854 0 -0.0014812817222880357 -0.018633939729126036 0 -0.0011263599708763929 -0.018873976333567029 0 -0.0012469584659983892 -0.018637777338756854 0 0.0036831319941255988 -0.034272761274703682 0 0.0018123928218564279 -0.034635519881830334 0 0.0058757447826760668 -0.051739247043535122 0 0.0091539254026640222 -0.051599210852177897 0 0.0051044235882192314 -0.049080666197213824 0 -0.0015146887136783978 -0.018475211568783876 0 -0.0014812817222880357 -0.018633939729126036 0 -0.0014878174508751727 -0.018595794705275743 0 -0.0014812817222880357 -0.018633939729126036 0 -0.001505916406842702 -0.018753657155142715 0 -0.0014878174508751727 -0.018595794705275743 0 -0.0014878174508751727 -0.018595794705275743 0 -0.0013348187978005509 -0.018444872561448823 0 -0.0013904345267519713 -0.018628145098219955 0 -0.0015514875107801888 -0.018207173304583837 0 -0.0014878174508751727 -0.018595794705275743 0 -0.0013348187978005509 -0.018444872561448823 0 -0.001505916406842702 -0.018753657155142715 0 -0.0014878174508751727 -0.018595794705275743 0 -0.0013904345267519713 -0.018628145098219955 0 -0.0015055809461382542 -0.019214718416943163 0 -0.001505916406842702 -0.018753657155142715 0 -0.0013904345267519713 -0.018628145098219955 0 -0.0015055809461382542 -0.019214718416943163 0 -0.0013904345267519713 -0.018628145098219955 0 -0.0012798045512173669 -0.018564135384002717 0 -0.0013904345267519713 -0.018628145098219955 0 -0.0012798045512173669 -0.018564135384002717 0 -0.0011667221183909292 -0.018503444532572969 0 -0.00011855737119847235 -0.016389041543034295 0 -0.0012798045512173669 -0.018564135384002717 0 -0.0032121333018772713 -0.01406674815402717 0 -0.0014408183412874228 -0.018373768664294712 0 -0.0021546874747869096 -0.016112684165261879 0 -0.0013348187978005509 -0.018444872561448823 0 -0.0013904345267519713 -0.018628145098219955 0 -0.0011667221183909292 -0.018503444532572969 0 0.0087390368748048938 -0.0037923346727183125 0 0.0069157338407853462 -0.0037119932285964606 0 0.0086187910315353566 -0.0044909953595114538 0 0.0087390368748048938 -0.0037923346727183125 0 0.0069157338407853462 -0.0037119932285964606 0 0.0088768874388252175 -0.0025923036295700782 0 0.012128883503222235 -0.029097525488588828 0 0.010360868544193151 -0.027650421814432148 0 0.0091915955543754591 -0.027801071561778398 0 0.0087390368748048938 -0.0037923346727183125 0 0.0092503183227288822 -0.0043996434170679955 0 0.0086187910315353566 -0.0044909953595114538 0 0.013240188701894966 -0.010860198495645044 0 0.00573198548661922 -0.023981153812575266 0 0.012128883503222235 -0.029097525488588828 0 0.010360868544193151 -0.027650421814432148 0 0.012270589751124713 -0.027027983784862385 0 0.016440541614853362 0.0019728315453983025 0 0.015888222676121527 0.00022851969749782298 0 0.01722574315945 0.00070360346654468008 0 0.016440541614853362 0.0019728315453983025 0 0.015888222676121527 0.00022851969749782298 0 0.013260135154822456 0.00047008197705496695 0 0.014486712557244843 -0.0011231519729208641 0 0.015888222676121527 0.00022851969749782298 0 0.013260135154822456 0.00047008197705496695 0 0.013240188701894966 -0.010860198495645044 0 0.011118521935830782 0.00049142866601305853 0 0.010874027184515019 -0.0014398760319282327 0 0.0088768874388252175 -0.0025923036295700782 0 0.010155682769498291 -0.0031263652317257595 0 0.010811971048787512 -0.0018553769415128375 0 0.011118521935830782 0.00049142866601305853 0 0.010874027184515019 -0.0014398760319282327 0 0.010974946587663658 -0.0017445015845182262 0 0.010155682769498291 -0.0031263652317257595 0 0.0037896236217665443 -0.0093975160370760053 0 0.0035687136196763626 -0.0092352765439520888 0 0.0035529311362752841 -0.0095253422289862284 0 0.0053810955519759084 -0.0058516834900621513 0 0.004264497091690485 -0.0094841923942119589 0 0.0053810955519759084 -0.0058516834900621513 0 0.0075761965396342213 -0.0052097463067310159 0 0.0036038209571809892 -0.0091207593741699407 0 0.0035529311362752841 -0.0095253422289862284 0 0.0031245596991822653 -0.0097554651096413963 0 0.0038403574179909322 -0.0096785014133342982 0 0.0035529311362752841 -0.0095253422289862284 0 0.0036182988080460236 -0.0098554645925829701 0 0.0035529311362752841 -0.0095253422289862284 0 0.0036182988080460236 -0.0098554645925829701 0 0.0031245596991822653 -0.0097554651096413963 0 0.0036182988080460236 -0.0098554645925829701 0 0.0031245596991822653 -0.0097554651096413963 0 0.0034167446973137113 -0.010208697508698333 0 0.0087390368748048938 -0.0037923346727183125 0 0.010155682769498291 -0.0031263652317257595 0 0.0092503183227288822 -0.0043996434170679955 0 0.0087390368748048938 -0.0037923346727183125 0 0.0088768874388252175 -0.0025923036295700782 0 0.010155682769498291 -0.0031263652317257595 0 0.00069980747051499425 -0.014468161791895169 0 0.004845623796826343 -0.016022387404064545 0 0.0031245596991822653 -0.0097554651096413963 0 0.0034167446973137113 -0.010208697508698333 0 0.0026717989923329137 -0.010364636469192197 0 0.0075761965396342213 -0.0052097463067310159 0 0.004845623796826343 -0.016022387404064545 0 0.0012617505205009365 -0.028250774502283936 0 0.0018123928218564279 -0.034635519881830334 0 0.0020024905987085576 -0.02160889982120464 0 0.0028727216379627698 -0.020601900359682051 0 0.0043601632626134069 -0.02130823603829712 0 -0.00067945595506528709 -0.018917291363748152 0 -0.00060527264903182385 -0.01885933287669584 0 -0.0012469584659983892 -0.018637777338756854 0 0.00043046934275104722 -0.046342118854310124 0 0.0011911941558435915 -0.048414743531944929 0 0.0051044235882192314 -0.049080666197213824 0 0.004845623796826343 -0.016022387404064545 0 0.0012617505205009365 -0.028250774502283936 0 -0.0011263599708763929 -0.018873976333567029 0 -0.00067945595506528709 -0.018917291363748152 0 -0.0012469584659983892 -0.018637777338756854 0 0.0059956860522969646 -0.051706403388530817 0 0.002147088863901725 -0.050805617813356192 0 0.004332573490846591 -0.052488847373285831 0 0.0058757447826760668 -0.051739247043535122 0 0.0035755534530351909 -0.051114092125712732 0 0.0058757447826760668 -0.051739247043535122 0 0.0051044235882192314 -0.049080666197213824 0 0.0024945010531730351 -0.050127793303902081 0 0.0011911941558435915 -0.048414743531944929 0 0.0051044235882192314 -0.049080666197213824 0 0.0024945010531730351 -0.050127793303902081 0 0.002147088863901725 -0.050805617813356192 0 0.0069254426551771499 -0.043224182676074391 0 0.0035755534530351909 -0.051114092125712732 0 0.0024389674952659587 -0.051948131780924958 0 0.0014540446566284233 -0.050293026518356453 0 0.004332573490846591 -0.052488847373285831 0 0.0035755534530351909 -0.051114092125712732 0 0.0024389674952659587 -0.051948131780924958 0 0.0011911941558435915 -0.048414743531944929 0 0.0024945010531730351 -0.050127793303902081 0 -0.00093745471248075072 -0.048544078319611821 0 0.00089278955917326732 -0.052773258083016271 0 0.0024389674952659587 -0.051948131780924958 0 0.0014540446566284233 -0.050293026518356453 0 0.010129999730873919 -0.052309132096752989 0 0.0069254426551771499 -0.043224182676074391 0 0.01532414457419142 -0.049210774798726348 0 0.017242371384020135 -0.044580868310243861 0 0.016820423332064342 -0.04442059788268006 0 0.01617982252757167 -0.04954099309505982 0 0.01532414457419142 -0.049210774798726348 0 0.017242371384020135 -0.044580868310243861 0 0.0011911941558435915 -0.048414743531944929 0 -0.00077358694561040968 -0.047807969715622803 0 -0.00093745471248075072 -0.048544078319611821 0 0.00043046934275104722 -0.046342118854310124 0 0.0011911941558435915 -0.048414743531944929 0 -0.00077358694561040968 -0.047807969715622803 0 0.011025618302251428 -0.0401480664270173 0 0.010806086503040314 -0.041097235089709437 0 0.010370390812694292 -0.040918884036759771 0 0.0057142433456711071 -0.038923027690155224 0 0.0069254426551771499 -0.043224182676074391 0 0.0057142433456711071 -0.038923027690155224 0 0.011322719172651248 -0.039037515980198362 0 0.0094092218840865025 -0.02664796752948511 0 0.009751634422557753 -0.026254385312244291 0 0.010360868544193151 -0.027650421814432148 0 0.0069254426551771499 -0.043224182676074391 0 0.011322719172651248 -0.039037515980198362 0 0.0094092218840865025 -0.02664796752948511 0 0.010360868544193151 -0.027650421814432148 0 0.0092298063449879585 -0.027827146028918559 0 0.0099299934512059561 -0.025824294012281729 0 0.00573198548661922 -0.023981153812575266 0 0.0047073226445182546 -0.032769552701259877 0 -0.00053133649977471693 -0.038964154950166814 0 0.00066535277977092504 -0.030855085225850537 0 0.0012617505205009365 -0.028250774502283936 0 0.0057142433456711071 -0.038923027690155224 0 0.004845623796826343 -0.016022387404064545 0 0.00573198548661922 -0.023981153812575266 0 0.0057142433456711071 -0.038923027690155224 0 0.00573198548661922 -0.023981153812575266 0 0.0012617505205009365 -0.028250774502283936 0 0.00573198548661922 -0.023981153812575266 0 0.011322719172651248 -0.039037515980198362 0 0.015501638025850644 -0.031916212209031021 0 0.009751634422557753 -0.026254385312244291 0 0.010360868544193151 -0.027650421814432148 0 0.012270589751124713 -0.027027983784862385 0 0.018387488557294111 -0.035881941796000877 0 0.017322033984400964 -0.037003426665448015 0 0.018442592121940819 -0.037298831739288191 0 0.01532414457419142 -0.049210774798726348 0 0.013204328159080177 -0.049501088661064341 0 0.016820423332064342 -0.04442059788268006 0 0.013204328159080177 -0.049501088661064341 0 0.012714198260395685 -0.049472017309066189 0 0.016820423332064342 -0.04442059788268006 0 0.017471347195123405 -0.047925295880778089 0 0.011322719172651248 -0.039037515980198362 0 0.018387488557294111 -0.035881941796000877 0 0.018442592121940819 -0.037298831739288191 0 0.019180149696876595 -0.036745372815744005 0 0.018387488557294111 -0.035881941796000877 0 0.019789450877852641 -0.035954960923706085 0 0.019180149696876595 -0.036745372815744005 0 0.019789450877852641 -0.035954960923706085 0 0.019180149696876595 -0.036745372815744005 0 0.019688125148917983 -0.037052583470310818 0 0.019789450877852641 -0.035954960923706085 0 0.019688125148917983 -0.037052583470310818 0 0.020392977171898669 -0.036630221010247141 0 0.019180149696876595 -0.036745372815744005 0 0.019688125148917983 -0.037052583470310818 0 0.019537336788722184 -0.037507181449172158 0 0.019688125148917983 -0.037052583470310818 0 0.020282671532080066 -0.037111627999705604 0 0.020392977171898669 -0.036630221010247141 0 0.019688125148917983 -0.037052583470310818 0 0.019537336788722184 -0.037507181449172158 0 0.020282671532080066 -0.037111627999705604 0 0.015501638025850644 -0.031916212209031021 0 0.017704330829777001 -0.029085263249767904 0 0.018442592121940819 -0.037298831739288191 0 0.019180149696876595 -0.036745372815744005 0 0.019537336788722184 -0.037507181449172158 0 0.013240188701894966 -0.010860198495645044 0 0.017704330829777001 -0.029085263249767904 0 0.017316441076662241 -0.017879556967594745 0 0.018814529454966009 -0.017310301430258249 0 0.018895244861415996 -0.018623847081539007 0 0.012128883503222235 -0.029097525488588828 0 0.012270589751124713 -0.027027983784862385 0 0.014835805210443868 -0.027921178680190013 0 0.017704330829777001 -0.029085263249767904 0 0.022467447474028127 -0.02696689783960184 0 0.018814529454966009 -0.017310301430258249 0 0.018895244861415996 -0.018623847081539007 0 0.019949017877819098 -0.017757208689587807 0 0.019537336788722184 -0.037507181449172158 0 0.020374198287473222 -0.037613005428587101 0 0.020282671532080066 -0.037111627999705604 0 0.022333551522356554 -0.0079176269554383366 0 0.022467447474028127 -0.02696689783960184 0 0.020706922184063326 0.013610633303822806 0 0.020994841427131938 0.012140934217331381 0 0.02344404799191277 0.012607851147667567 0 0.020706922184063326 0.013610633303822806 0 0.019511295021680787 0.012604765449644022 0 0.020994841427131938 0.012140934217331381 0 0.016440541614853362 0.0019728315453983025 0 0.018899150939815649 0.00082151015704822513 0 0.01722574315945 0.00070360346654468008 0 0.013240188701894966 -0.010860198495645044 0 0.022333551522356554 -0.0079176269554383366 0 0.022333551522356554 -0.0079176269554383366 0 0.019821397663800831 0.007069650763027408 0 0.018899150939815649 0.00082151015704822513 0 0.01722574315945 0.00070360346654468008 0 0.01762745046991929 -0.00019329524822948871 0 0.015888222676121527 0.00022851969749782298 0 0.01722574315945 0.00070360346654468008 0 0.01762745046991929 -0.00019329524822948871 0 0.024197829308056747 -0.023813581443372433 0 0.022711447526183457 -0.021954222040109175 0 0.025496824072578569 -0.020903308849579229 0 0.024197829308056747 -0.023813581443372433 0 0.022711447526183457 -0.021954222040109175 0 0.021932269601497023 -0.024608571060096934 0 0.030298633856653989 -0.023109041825799599 0 0.026720675153070576 -0.025507728640859102 0 0.025496824072578569 -0.020903308849579229 0 0.024197829308056747 -0.023813581443372433 0 0.026720675153070576 -0.025507728640859102 0 0.025496824072578569 -0.020903308849579229 0 0.022333551522356554 -0.0079176269554383366 0 0.025055261463358899 -0.003771924282832993 0 0.030298633856653989 -0.023109041825799599 0 0.026720675153070576 -0.025507728640859102 0 0.027574841328371211 -0.025803398191792729 0 0.026720675153070576 -0.025507728640859102 0 0.027570412776648279 -0.025853106872013722 0 0.023937305747440789 -0.02977906535926932 0 0.024907030837733143 -0.027181585339133098 0 0.022467447474028127 -0.02696689783960184 0 0.024197829308056747 -0.023813581443372433 0 0.026720675153070576 -0.025507728640859102 0 0.023771217295245606 -0.026269378697176313 0 0.026720675153070576 -0.025507728640859102 0 0.023771217295245606 -0.026269378697176313 0 0.023937305747440789 -0.02977906535926932 0 0.024197829308056747 -0.023813581443372433 0 0.023771217295245606 -0.026269378697176313 0 0.021932269601497023 -0.024608571060096934 0 0.023771217295245606 -0.026269378697176313 0 0.023937305747440789 -0.02977906535926932 0 0.021537536008000308 -0.027626984313807394 0 0.021224770673772767 -0.036814736476427828 0 0.020282671532080066 -0.037111627999705604 0 0.020392977171898669 -0.036630221010247141 0 0.022467447474028127 -0.02696689783960184 0 0.022711459564517901 -0.033156303548229155 0 0.020374198287473222 -0.037613005428587101 0 0.021224770673772767 -0.036814736476427828 0 0.020282671532080066 -0.037111627999705604 0 0.020991063491305778 -0.036103500703341104 0 0.019789450877852641 -0.035954960923706085 0 0.020392977171898669 -0.036630221010247141 0 0.021895576401427606 -0.036225620809510646 0 0.020991063491305778 -0.036103500703341104 0 0.021224770673772767 -0.036814736476427828 0 0.020991063491305778 -0.036103500703341104 0 0.021224770673772767 -0.036814736476427828 0 0.020392977171898669 -0.036630221010247141 0 0.021307990300189896 -0.040708391375727244 0 0.022711459564517901 -0.033156303548229155 0 0.01918388227197336 -0.03424370509132095 0 0.023937305747440789 -0.02977906535926932 0 0.019787139111598514 -0.030306717915634669 0 0.016910080486734508 -0.033317480433269625 0 0.018411137574154055 -0.032117229734451753 0 0.015473735268494665 -0.031103587074881527 0 0.018411137574154055 -0.032117229734451753 0 0.017574208563974968 -0.029194644297978727 0 0.015473735268494665 -0.031103587074881527 0 0.01918388227197336 -0.03424370509132095 0 0.018090647339662747 -0.033416393683883071 0 0.018411137574154055 -0.032117229734451753 0 0.01918388227197336 -0.03424370509132095 0 0.018411137574154055 -0.032117229734451753 0 0.019787139111598514 -0.030306717915634669 0 0.018090647339662747 -0.033416393683883071 0 0.016910080486734508 -0.033317480433269625 0 0.018411137574154055 -0.032117229734451753 0 0.017781505674789113 -0.034175366334316282 0 0.018090647339662747 -0.033416393683883071 0 0.016910080486734508 -0.033317480433269625 0 0.018411137574154055 -0.032117229734451753 0 0.017574208563974968 -0.029194644297978727 0 0.019787139111598514 -0.030306717915634669 0 0.017574208563974968 -0.029194644297978727 0 0.019471628155205933 -0.028238857533575704 0 0.019787139111598514 -0.030306717915634669 0 0.017574208563974968 -0.029194644297978727 0 0.018349430327568365 -0.027469729598066098 0 0.016777257134820787 -0.026892791827477936 0 0.017574208563974968 -0.029194644297978727 0 0.018349430327568365 -0.027469729598066098 0 0.019471628155205933 -0.028238857533575704 0 0.018349430327568365 -0.027469729598066098 0 0.019471628155205933 -0.028238857533575704 0 0.019807194897984728 -0.026441628580915682 0 0.023937305747440789 -0.02977906535926932 0 0.021537536008000308 -0.027626984313807394 0 0.019787139111598514 -0.030306717915634669 0 0.019471628155205933 -0.028238857533575704 0 0.021537536008000308 -0.027626984313807394 0 0.019787139111598514 -0.030306717915634669 0 0.019471628155205933 -0.028238857533575704 0 0.021537536008000308 -0.027626984313807394 0 0.019807194897984728 -0.026441628580915682 0 0.013344564182759156 -0.034401378908015291 0 0.010930612024200866 -0.03175563897406454 0 0.012218407325318039 -0.028946589151407038 0 0.013344564182759156 -0.034401378908015291 0 0.015473735268494665 -0.031103587074881527 0 0.012218407325318039 -0.028946589151407038 0 0.013344564182759156 -0.034401378908015291 0 0.016910080486734508 -0.033317480433269625 0 0.015473735268494665 -0.031103587074881527 0 0.017574208563974968 -0.029194644297978727 0 0.014980492934888151 -0.028100099253387828 0 0.016777257134820787 -0.026892791827477936 0 0.017574208563974968 -0.029194644297978727 0 0.015473735268494665 -0.031103587074881527 0 0.014980492934888151 -0.028100099253387828 0 0.015473735268494665 -0.031103587074881527 0 0.014980492934888151 -0.028100099253387828 0 0.012218407325318039 -0.028946589151407038 0 0.014980492934888151 -0.028100099253387828 0 0.012218407325318039 -0.028946589151407038 0 0.013231965373160239 -0.026186981593090065 0 0.011252804238891091 -0.026090323589293789 0 0.012218407325318039 -0.028946589151407038 0 0.013231965373160239 -0.026186981593090065 0 0.011252804238891091 -0.026090323589293789 0 0.012085809524304591 -0.024241358733069766 0 0.013231965373160239 -0.026186981593090065 0 0.012085809524304591 -0.024241358733069766 0 0.013231965373160239 -0.026186981593090065 0 0.013906830662925975 -0.024193180271418979 0 0.013231965373160239 -0.026186981593090065 0 0.015271012544751597 -0.025584360536938654 0 0.013906830662925975 -0.024193180271418979 0 0.014980492934888151 -0.028100099253387828 0 0.013231965373160239 -0.026186981593090065 0 0.015271012544751597 -0.025584360536938654 0 0.014980492934888151 -0.028100099253387828 0 0.015271012544751597 -0.025584360536938654 0 0.016777257134820787 -0.026892791827477936 0 0.015271012544751597 -0.025584360536938654 0 0.016777257134820787 -0.026892791827477936 0 0.016933820341372509 -0.024649095750750732 0 0.016933820341372509 -0.024649095750750732 0 0.016108425123038384 -0.023235189298769384 0 0.018741730572471853 -0.023259721920983648 0 0.015271012544751597 -0.025584360536938654 0 0.016933820341372509 -0.024649095750750732 0 0.016108425123038384 -0.023235189298769384 0 0.016108425123038384 -0.023235189298769384 0 0.019175036797240867 -0.020541055288910075 0 0.015509457015011595 -0.021279224362438849 0 0.016108425123038384 -0.023235189298769384 0 0.014211102671941566 -0.022713659276440736 0 0.015509457015011595 -0.021279224362438849 0 0.016108425123038384 -0.023235189298769384 0 0.013906830662925975 -0.024193180271418979 0 0.014211102671941566 -0.022713659276440736 0 0.015271012544751597 -0.025584360536938654 0 0.016108425123038384 -0.023235189298769384 0 0.013906830662925975 -0.024193180271418979 0 0.013906830662925975 -0.024193180271418979 0 0.014211102671941566 -0.022713659276440736 0 0.013239435956326547 -0.023284775590525986 0 0.014211102671941566 -0.022713659276440736 0 0.013239435956326547 -0.023284775590525986 0 0.012827481850694569 -0.021980081095624132 0 0.014211102671941566 -0.022713659276440736 0 0.012827481850694569 -0.021980081095624132 0 0.015509457015011595 -0.021279224362438849 0 0.012085809524304591 -0.024241358733069766 0 0.013239435956326547 -0.023284775590525986 0 0.012827481850694569 -0.021980081095624132 0 0.012085809524304591 -0.024241358733069766 0 0.013906830662925975 -0.024193180271418979 0 0.013239435956326547 -0.023284775590525986 0 0.021932269601497023 -0.024608571060096934 0 0.019807194897984728 -0.026441628580915682 0 0.019906239037045099 -0.024301321070544966 0 0.023771217295245606 -0.026269378697176313 0 0.021537536008000308 -0.027626984313807394 0 0.021932269601497023 -0.024608571060096934 0 0.021537536008000308 -0.027626984313807394 0 0.021932269601497023 -0.024608571060096934 0 0.019807194897984728 -0.026441628580915682 0 0.018349430327568365 -0.027469729598066098 0 0.019807194897984728 -0.026441628580915682 0 0.018415923176603899 -0.025499494468332655 0 0.018349430327568365 -0.027469729598066098 0 0.016777257134820787 -0.026892791827477936 0 0.018415923176603899 -0.025499494468332655 0 0.016777257134820787 -0.026892791827477936 0 0.016933820341372509 -0.024649095750750732 0 0.018415923176603899 -0.025499494468332655 0 0.016933820341372509 -0.024649095750750732 0 0.018415923176603899 -0.025499494468332655 0 0.018741730572471853 -0.023259721920983648 0 0.018415923176603899 -0.025499494468332655 0 0.019906239037045099 -0.024301321070544966 0 0.018741730572471853 -0.023259721920983648 0 0.019807194897984728 -0.026441628580915682 0 0.018415923176603899 -0.025499494468332655 0 0.019906239037045099 -0.024301321070544966 0 0.019906239037045099 -0.024301321070544966 0 0.018741730572471853 -0.023259721920983648 0 0.020755997461440839 -0.021953308126176168 0 0.016108425123038384 -0.023235189298769384 0 0.018741730572471853 -0.023259721920983648 0 0.019175036797240867 -0.020541055288910075 0 0.018741730572471853 -0.023259721920983648 0 0.020755997461440839 -0.021953308126176168 0 0.019175036797240867 -0.020541055288910075 0 0.021932269601497023 -0.024608571060096934 0 0.019906239037045099 -0.024301321070544966 0 0.020755997461440839 -0.021953308126176168 0 0.022711447526183457 -0.021954222040109175 0 0.021932269601497023 -0.024608571060096934 0 0.020755997461440839 -0.021953308126176168 0 0.026290654929282946 0.011622171420710353 0 0.026805765810031898 0.0085153147032831934 0 0.024024815812675199 0.010469734809788012 0 0.022711447526183457 -0.021954222040109175 0 0.020755997461440839 -0.021953308126176168 0 0.020642911634806509 -0.019239567508998748 0 0.026290654929282946 0.011622171420710353 0 0.029292702333281323 0.010590763073071805 0 0.026805765810031898 0.0085153147032831934 0 0.020755997461440839 -0.021953308126176168 0 0.020642911634806509 -0.019239567508998748 0 0.019175036797240867 -0.020541055288910075 0 0.020642911634806509 -0.019239567508998748 0 0.019175036797240867 -0.020541055288910075 0 0.019560410604423459 -0.019550490524175946 0 0.023433916843115656 -0.0039039645133418172 0 0.024625601304346462 -0.0046052114005520929 0 0.020642911634806509 -0.019239567508998748 0 0.019560410604423459 -0.019550490524175946 0 0.019753615925367691 -0.019804414239206404 0 0.021771492850775533 -0.017367315447946608 0 0.020702327837149929 -0.018481955683869945 0 0.0224659793352441 -0.018958233314893748 0 0.016888491576399305 -0.020108048654976632 0 0.018026541922037381 -0.020099797458206833 0 0.021139177036584536 -0.018077119470849435 0 0.020702327837149929 -0.018481955683869945 0 0.020041671311859886 -0.018717209738787485 0 0.016888491576399305 -0.020108048654976632 0 0.020909281143251756 -0.017838069407691181 0 0.020702327837149929 -0.018481955683869945 0 0.02089058185892164 -0.01939734346716596 0 0.0224659793352441 -0.018958233314893748 0 0.020702327837149929 -0.018481955683869945 0 0.019560410604423459 -0.019550490524175946 0 0.02089058185892164 -0.01939734346716596 0 0.020702327837149929 -0.018481955683869945 0 0.020041671311859886 -0.018717209738787485 0 0.019560410604423459 -0.019550490524175946 0 0.019175036797240867 -0.020541055288910075 0 0.020041671311859886 -0.018717209738787485 0 0.019560410604423459 -0.019550490524175946 0 0.019165310016808983 -0.020327964390658239 0 0.018026541922037381 -0.020099797458206833 0 0.019560410604423459 -0.019550490524175946 0 0.019753615925367691 -0.019804414239206404 0 0.02089058185892164 -0.01939734346716596 0 0.022767649116767447 -0.021262195127267246 0 0.02089058185892164 -0.01939734346716596 0 0.0224659793352441 -0.018958233314893748 0 0.022767649116767447 -0.021262195127267246 0 0.019753615925367691 -0.019804414239206404 0 0.02089058185892164 -0.01939734346716596 0 0.027635544371973398 -0.0058482260317294687 0 0.024625601304346462 -0.0046052114005520929 0 0.032500713242384002 0.0095298861736743314 0 0.029292702333281323 0.010590763073071805 0 0.029407259476216738 0.0083633856030950349 0 0.032500713242384002 0.0095298861736743314 0 0.030251362226242938 0.0061955466643044115 0 0.029407259476216738 0.0083633856030950349 0 0.032500713242384002 0.0095298861736743314 0 0.032940623999335734 0.0062024833561315773 0 0.030251362226242938 0.0061955466643044115 0 0.029292702333281323 0.010590763073071805 0 0.029407259476216738 0.0083633856030950349 0 0.026805765810031898 0.0085153147032831934 0 0.027168664544568386 0.0056118710045316069 0 0.029407259476216738 0.0083633856030950349 0 0.026805765810031898 0.0085153147032831934 0 0.025369293449783208 0.0068153433968457878 0 0.026805765810031898 0.0085153147032831934 0 0.023729892532571122 0.0081610190469058892 0 0.025369293449783208 0.0068153433968457878 0 0.027168664544568386 0.0056118710045316069 0 0.026805765810031898 0.0085153147032831934 0 0.026805765810031898 0.0085153147032831934 0 0.023729892532571122 0.0081610190469058892 0 0.024024815812675199 0.010469734809788012 0 0.023729892532571122 0.0081610190469058892 0 0.021247914590464378 0.0082804934745818199 0 0.024024815812675199 0.010469734809788012 0 0.021247914590464378 0.0082804934745818199 0 0.02144443169817932 0.01065502948900109 0 0.024024815812675199 0.010469734809788012 0 0.021738012421542767 0.0063305813466582057 0 0.023729892532571122 0.0081610190469058892 0 0.021247914590464378 0.0082804934745818199 0 0.019669931125665653 0.0065051201335188779 0 0.021738012421542767 0.0063305813466582057 0 0.021247914590464378 0.0082804934745818199 0 0.019669931125665653 0.0065051201335188779 0 0.021247914590464378 0.0082804934745818199 0 0.019066771087470982 0.0091722249388321679 0 0.0057609644097043758 0.016493860658504 0 0.004003470822331468 0.017704049732854672 0 0.0048105352107175913 0.019048518991695899 0 0.013096836349956342 0.010826902246485757 0 0.011580011794553861 0.015900022922935582 0 0.021247914590464378 0.0082804934745818199 0 0.019066771087470982 0.0091722249388321679 0 0.02144443169817932 0.01065502948900109 0 0.018373895792657212 0.011616220504852972 0 0.019066771087470982 0.0091722249388321679 0 0.019883000672206049 0.011229339723359186 0 0.019066771087470982 0.0091722249388321679 0 0.02144443169817932 0.01065502948900109 0 0.019883000672206049 0.011229339723359186 0 0.018373895792657212 0.011616220504852972 0 0.019883000672206049 0.011229339723359186 0 0.019511295021680787 0.012604765449644022 0 0.019883000672206049 0.011229339723359186 0 0.019511295021680787 0.012604765449644022 0 0.020994841427131938 0.012140934217331381 0 0.012377856692866722 0.0086925860214659926 0 0.019821397663800831 0.007069650763027408 0 0.02144443169817932 0.01065502948900109 0 0.019883000672206049 0.011229339723359186 0 0.020994841427131938 0.012140934217331381 0 0.02144443169817932 0.01065502948900109 0 0.020994841427131938 0.012140934217331381 0 0.02344404799191277 0.012607851147667567 0 0.023433916843115656 -0.0039039645133418172 0 0.025055261463358899 -0.003771924282832993 0 0.026290654929282946 0.011622171420710353 0 0.02344404799191277 0.012607851147667567 0 0.024024815812675199 0.010469734809788012 0 0.022711447526183457 -0.021954222040109175 0 0.020642911634806509 -0.019239567508998748 0 0.025496824072578569 -0.020903308849579229 0 0.02144443169817932 0.01065502948900109 0 0.02344404799191277 0.012607851147667567 0 0.024024815812675199 0.010469734809788012 0 
</DataArray>
</PointData>
<CellData Scalars="region_id,cross_section_updated," Vectors="" Tensors="stress,">
<DataArray type="Float64" Name="region_id" format="ascii">
5 5 5 5 6 5 5 5 5 5 5 5 6 5 5 5 5 6 5 5 5 5 5 6 5 5 5 5 5 6 5 5 5 6 5 5 6 5 5 5 5 6 5 5 5 5 6 5 6 5 5 5 5 5 5 5 5 5 6 5 5 5 5 5 5 6 5 5 5 5 5 5 6 5 5 5 5 5 6 5 5 6 5 5 5 5 5 5 5 5 5 6 5 5 5 6 5 5 5 5 5 5 5 5 5 5 5 5 5 5 5 5 5 5 5 5 5 5 5 6 5 5 5 5 5 6 5 5 6 5 5 5 5 5 5 5 5 5 5 5 5 5 5 5 6 5 5 5 5 5 5 5 6 5 5 5 5 5 5 6 6 5 5 5 5 5 5 5 6 5 5 5 5 5 6 5 5 5 5 5 5 5 5 5 5 5 5 5 6 5 5 5 6 5 6 5 5 5 5 5 5 6 5 5 6 5 5 5 5 5 6 5 5 5 5 5 5 5 6 5 6 5 5 5 5 5 5 5 5 5 5 6 5 5 6 5 6 5 6 5 5 5 5 6 6 5 5 5 5 6 5 5 6 5 6 5 5 5 6 5 5 5 5 5 5 5 5 5 5 6 5 6 5 5 5 5 5 5 5 5 5 5 5 5 5 5 5 5 5 5 5 5 5 5 5 5 5 5 5 5 5 5 5 5 5 5 5 5 5 5 5 5 5 5 5 5 5 5 5 5 5 5 5 5 5 5 5 5 5 5 5 5 5 5 5 5 5 5 5 5 5 5 5 5 6 5 5 5 5 5 6 5 5 5 5 5 5 5 5 5 6 5 6 5 5 5 6 5 6 5 5 5 5 5 5 5 5 5 5 5 5 5 5 5 5 5 5 5 5 5 5 5 5 5 5 5 5 5 5 5 5 5 5 5 5 5 5 5 5 5 5 5 5 5 5 5 5 5 5 5 5 6 5 5 6 5 6 5 5 5 5 5 5 5 5 5 5 5 5 5 5 5 5 5 5 5 5 5 5 6 5 6 5 5 5 5 5 5 5 6 5 5 5 5 5 5 5 5 5 5 5 5 5 5 5 5 5 6 5 5 6 5 5 5 5 5 5 5 5 5 5 6 5 5 5 5 5 5 5 5 5 5 6 5 6 5 6 6 5 5 5 5 6 5 5 5 5 5 6 5 5 5 5 5 5 5 5 5 6 5 5 6 5 6 5 5 5 5 5 5 5 5 5 5 5 5 6 5 5 5 6 5 5 5 5 5 6 5 5 6 5 5 5 5 6 5 6 5 5 5 5 5 5 5 5 5 5 5 5 6 5 5 5 5 5 6 5 5 6 5 5 6 5 5 5 5 5 5 6 5 5 5 5 6 5 6 5 6 5 5 5 5 5 5 5 5 5 5 5 5 5 5 6 5 5 5 5 5 5 5 5 5 5 5 5 5 5 5 5 5 5 5 5 5 5 5 5 5 5 5 5 5 5 5 5 5 5 5 5 5 5 5 5 5 5 5 5 5 5 5 5 5 5 5 5 5 5 5 5 5 5 5 5 5 5 5 5 5 5 5 5 5 6 6 5 5 5 5 6 5 5 6 5 5 5 5 5 6 5 5 5 5 5 5 6 5 6 5 5 5 5 6 5 5 5 6 5 6 5 5 5 5 5 5 5 6 5 5 5 6 5 5 5 5 5 5 5 5 5 5 5 5 5 5 5 5 5 5 5 5 5 5 5 6 5 5 5 5 5 5 6 5 5 5 5 6 5 6 5 5 5 5 5 5 5 5 5 5 5 5 5 6 5 5 5 5 5 5 5 5 5 5 5 5 5 5 5 5 5 5 5 5 5 5 5 5 5 5 5 5 5 5 5 5 5 6 5 5 6 5 6 5 5 5 5 6 5 5 5 5 6 5 5 5 5 5 6 5 5 5 5 5 6 5 5 6 5 5 5 5 5 5 5 6 5 5 6 5 5 5 5 6 5 5 5 5 5 5 5 5 5 5 5 5 5 5 5 5 5 5 5 5 5 5 5 5 5 5 5 5 5 5 5 5 5 5 5 5 5 5 5 5 5 5 5 6 5 5 5 5 5 5 5 5 5 5 5 5 5 5 6 5 5 5 5 5 5 5 6 5 5 5 5 5 6 5 5 5 5 6 5 5 5 5 5 5 6 5 5 6 5 5 6 5 6 5 6 5 5 5 5 6 6 5 5 6 5 5 5 6 5 5 5 6 5 5 5 5 5 5 5 5 5 5 5 5 5 5 5 6 5 5 5 5 5 5 5 5 5 6 5 5 5 5 5 5 6 6 5 5 5 5 5 5 5 5 6 5 5 5 5 5 6 5 5 5 6 5 5 5 6 5 5 5 5 5 5 5 5 5 5 5 5 5 5 5 5 5 6 5 5 5 5 5 5 5 5 6 5 5 5 5 5 5 5 5 5 6 5 5 5 5 5 5 5 5 6 5 5 5 5 6 5 5 5 5 5 5 5 5 5 5 6 5 5 5 6 6 5 6 5 5 5 6 6 6 5 5 5 5 5 5 5 6 5 5 5 6 6 5 5 6 6 5 5 5 6 5 5 5 5 5 6 5 5 5 5 5 5 5 5 5 5 6 5 5 5 5 5 5 5 5 5 5 5 5 5 5 5 5 5 5 5 5 6 5 5 5 5 6 5 5 5 5 5 5 5 5 5 5 5 5 5 6 5 5 5 5 5 5 5 6 5 5 5 5 5 5 5 5 5 5 5 5 5 5 5 5 5 5 6 5 5 5 5 5 5 6 5 5 5 5 5 5 5 6 5 5 5 5 6 5 5 5 5 5 6 5 5 5 6 5 5 6 5 5 5 5 6 5 6 5 5 5 5 5 5 5 5 5 5 5 5 6 5 5 5 5 5 5 5 5 5 6 5 5 5 5 5 5 6 5 5 5 5 5 5 5 5 5 6 5 6 5 5 5 5 5 6 6 5 5 5 5 5 5 5 5 5 5 5 5 5 5 5 5 5 5 5 5 5 5 6 5 5 5 5 5 5 5 5 5 5 5 5 5 5 5 5 5 5 5 5 5 5 5 5 5 5 5 5 5 5 5 5 5 5 5 5 5 5 5 5 5 5 5 5 5 5 5 5 5 5 5 5 5 5 5 5 5 5 5 5 6 5 6 5 5 5 5 5 5 5 5 5 5 5 5 5 6 5 5 5 5 6 5 5 5 5 5 5 5 5 5 5 5 5 5 5 5 5 5 5 5 5 6 5 5 5 5 5 5 5 5 5 5 5 5 5 5 5 5 5 5 5 5 5 5 5 5 5 5 5 5 5 5 5 5 5 5 5 5 5 5 5 5 5 5 5 6 5 5 5 5 5 5 5 5 5 6 6 6 6 5 5 5 5 5 5 5 5 5 5 5 5 5 5 5 6 5 5 5 5 5 5 5 5 5 6 5 5 5 5 5 5 5 6 5 5 5 5 5 5 6 5 5 5 5 6 5 5 5 5 5 6 5 5 5 5 5 5 5 6 5 5 5 5 5 5 5 5 5 6 5 5 6 6 5 5 5 5 6 5 5 6 5 5 5 5 5 6 6 5 5 5 5 5 5 5 5 5 5 5 5 5 5 5 5 5 5 5 5 5 5 5 5 5 5 5 5 5 5 5 5 5 5 5 5 5 5 5 5 5 5 5 5 5 5 5 5 5 5 5 5 5 5 5 5 5 5 5 5 5 5 5 5 5 5 5 5 5 5 5 5 5 5 5 5 5 5 5 5 6 5 5 5 5 5 5 5 6 6 5 6 5 5 5 5 5 5 5 6 5 5 5 5 5 5 5 5 5 5 6 5 5 6 5 5 5 5 5 5 5 5 5 5 5 6 5 5 5 5 5 5 5 5 5 5 5 5 5 6 6 5 5 5 5 5 5 5 5 5 5 5 5 5 5 5 5 5 5 5 5 5 5 5 5 5 5 5 5 5 5 5 5 5 5 5 5 5 5 5 5 5 6 5 5 5 5 5 6 5 5 5 5 5 5 5 5 5 5 5 5 5 5 5 5 6 6 5 5 5 5 5 6 5 5 5 5 6 5 5 5 5 5 5 6 5 6 5 5 5 5 5 5 5 5 5 6 5 5 5 5 5 6 5 5 6 5 5 5 5 5 5 5 5 5 6 5 6 5 6 5 5 5 6 5 5 6 5 6 6 5 6 5 6 5 5 5 5 5 5 5 5 6 5 5 6 5 5 5 5 5 5 6 6 5 6 5 5 5 6 5 5 5 5 6 5 6 5 5 5 5 6 6 5 5 5 5 5 5 5 5 5 5 5 5 5 5 5 5 5 5 5 6 6 6 6 5 5 6 5 6 5 5 5 6 5 6 5 6 6 6 5 5 5 5 5 6 5 5 5 5 5 6 5 6 5 5 6 5 6 5 6 5 5 5 5 6 5 5 6 5 5 5 6 6 6 6 5 6 5 6 5 5 5 6 6 6 5 6 5 6 5 5 6 6 5 5 6 5 5 6 5 6 5 5 5 5 5 6 5 6 5 6 6 5 5 6 5 6 6 5 5 5 6 5 6 5 5 5 6 5 5 5 5 6 5 6 5 5 5 5 5 5 5 5 5 6 6 5 6 5 6 5 5 6 5 5 5 5 5 5 5 5 5 5 5 5 5 5 5 5 6 6 5 5 5 5 5 5 5 5 5 5 5 5 5 5 5 5 5 5 5 5 5 5 5 5 5 5 5 6 5 5 6 5 5 5 5 5 5 6 5 5 5 6 6 5 6 5 5 6 5 5 6 5 5 6 5 6 5 5 5 5 5 5 6 5 5 5 5 5 5 5 5 5 6 5 5 5 5 5 5 6 6 5 5 5 5 6 5 5 5 5 5 5 5 5 6 5 6 5 6 5 5 5 5 5 5 5 6 5 6 6 5 5 5 5 5 5 5 5 6 5 5 5 5 6 5 6 5 5 6 5 5 6 5 5 5 5 5 5 5 5 5 5 5 5 5 5 5 5 6 5 5 5 6 5 5 5 5 5 5 5 5 5 5 5 6 5 5 5 5 6 6 5 5 5 5 5 6 5 5 5 6 5 5 5 5 5 6 5 5 5 5 5 5 5 6 5 6 6 5 6 5 5 5 5 6 6 5 5 5 6 5 6 5 6 5 5 5 6 5 5 5 6 5 5 6 5 6 6 6 5 5 6 5 6 5 6 5 5 6 6 5 5 5 6 5 5 6 5 5 5 5 5 5 5 6 5 5 5 5 5 5 5 5 5 5 5 5 5 5 5 5 5 5 5 5 5 6 5 5 6 5 5 5 5 6 5 6 5 5 5 5 5 5 5 5 5 5 5 5 5 5 5 5 5 5 5 5 5 5 5 5 5 5 5 5 5 6 5 5 5 5 5 5 6 5 5 5 5 5 5 5 5 5 5 5 5 5 5 5 6 5 5 5 6 5 6 5 5 6 5 5 5 5 6 5 5 6 5 6 6 6 5 5 5 6 5 5 6 5 6 5 5 5 5 5 5 5 5 5 5 5 5 5 6 5 5 5 5 5 5 5 5 5 5 5 5 5 5 5 5 5 5 5 5 5 5 5 5 5 5 6 5 6 5 5 5 5 5 6 5 5 5 5 5 5 5 5 5 5 5 5 5 5 5 6 5 6 5 5 6 5 5 5 5 5 5 5 5 5 5 5 5 5 5 5 5 5 5 5 6 5 5 5 5 5 5 5 5 6 5 6 5 5 5 5 6 6 5 5 5 5 5 6 6 5 5 5 5 5 6 6 5 5 5 5 5 5 6 5 5 5 5 5 5 5 5 5 5 5 5 6 5 5 5 5 5 5 5 5 5 5 5 5 5 5 5 5 5 5 5 5 5 5 6 5 5 6 5 6 5 5 5 5 6 5 5 5 5 5 5 5 5 5 5 5 5 5 5 5 5 5 5 5 5 5 5 5 5 5 5 5 5 6 5 5 6 5 5 5 6 5 5 5 5 5 6 5 5 5 5 6 5 5 5 5 5 5 5 5 5 5 5 5 5 5 5 5 5 5 5 5 5 5 5 5 5 5 6 5 5 5 6 5 6 5 6 6 5 5 5 6 5 6 6 5 5 5 6 5 5 6 5 5 5 5 5 5 6 5 5 5 5 5 5 5 5 5 6 5 5 5 5 5 6 5 5 5 5 5 5 5 5 5 6 5 5 6 5 6 5 5 5 5 5 5 5 5 5 5 5 6 5 5 5 5 5 5 6 5 5 5 5 6 6 5 6 5 5 5 6 6 5 6 5 5 6 5 5 5 5 5 5 5 5 5 5 5 5 5 5 5 5 5 5 5 5 5 5 5 5 5 5 5 5 5 5 5 5 5 5 5 5 5 5 5 5 5 5 5 5 5 5 5 5 5 5 5 5 5 5 5 5 5 5 5 5 5 5 5 5 5 5 6 5 5 5 5 5 5 5 5 5 5 5 5 5 5 5 5 6 5 5 5 5 5 5 6 5 6 6 5 5 5 5 6 5 6 5 5 5 5 6 5 5 5 6 5 6 5 5 5 5 5 6 5 6 5 5 5 6 5 5 5 5 5 5 5 5 6 5 5 5 5 6 6 5 5 5 5 6 6 5 5 5 5 5 5 5 5 6 6 5 6 5 5 5 5 6 5 5 5 6 5 5 5 5 5 5 5 5 5 5 5 5 6 5 5 5 5 5 5 5 5 5 5 5 5 5 6 5 5 5 5 5 5 5 6 5 5 5 5 5 5 5 5 5 5 5 5 5 6 5 5 5 5 5 5 5 5 5 5 5 5 5 6 5 6 5 5 5 5 5 5 5 5 5 5 5 5 5 5 5 5 5 5 5 5 5 5 5 5 5 5 5 5 5 5 5 5 5 5 5 5 5 5 5 5 5 5 5 5 5 5 5 5 5 5 5 5 5 5 5 5 5 5 5 5 5 5 5 5 5 5 5 5 5 5 5 5 5 5 5 5 5 5 5 5 5 5 5 5 5 5 5 5 5 5 5 5 5 5 5 5 5 5 5 5 5 5 5 5 5 5 5 5 5 5 5 5 5 5 5 5 5 5 5 5 5 5 5 6 5 5 5 5 5 5 6 5 5 5 5 5 6 5 5 5 5 5 6 5 5 6 5 5 5 6 5 5 5 5 5 6 5 5 5 5 5 5 5 6 5 5 5 5 5 5 5 5 5 5 5 5 5 5 5 5 5 5 5 6 5 5 5 5 5 5 5 6 5 5 5 5 5 5 6 5 6 5 5 5 6 5 5 6 5 5 5 5 5 5 5 5 5 5 6 5 5 5 5 5 5 5 5 5 5 5 5 5 5 5 6 5 5 6 5 5 5 5 5 5 5 5 5 5 5 5 5 5 5 5 6 5 5 5 5 5 5 5 5 5 5 5 5 5 5 5 6 5 5 5 5 5 5 5 5 6 5 5 5 5 5 5 5 5 5 5 5 6 5 5 5 5 5 6 5 5 5 5 5 5 5 5 6 5 5 5 5 6 5 5 6 5 5 5 5 5 5 5 6 5 5 6 5 5 6 5 5 5 5 5 5 5 5 5 5 5 5 5 6 5 5 5 5 5 5 5 5 5 5 5 5 6 5 5 6 5 5 6 5 5 5 6 5 5 5 5 5 5 5 5 5 5 5 6 5 5 5 5 5 5 5 5 5 5 5 6 5 5 5 5 5 5 5 5 5 5 5 5 5 5 5 5 5 5 5 6 5 5 5 5 5 5 5 5 5 5 5 6 5 6 5 6 5 5 5 5 6 5 5 5 5 5 5 5 5 5 5 5 5 5 5 5 5 5 5 5 5 5 5 5 5 5 5 5 5 6 5 5 5 5 6 5 5 5 6 5 5 5 6 5 5 5 5 6 5 6 5 5 6 6 5 5 5 6 5 6 5 5 6 5 6 5 5 5 6 5 5 6 5 6 5 5 5 6 5 6 5 5 6 6 5 5 5 6 6 5 5 6 5 5 5 5 5 5 5 5 5 5 5 6 6 5 5 5 5 5 5 6 5 6 5 6 5 5 6 5 5 6 5 6 5 5 5 5 5 5 5 5 5 5 5 5 5 5 5 5 5 5 5 6 5 5 5 5 5 5 5 5 5 5 5 5 5 5 5 5 5 5 5 5 5 5 5 5 5 5 5 5 5 5 5 5 6 6 5 5 5 6 5 6 5 6 5 6 5 5 5 5 6 5 5 5 5 5 5 5 6 5 5 5 5 5 5 5 5 5 5 5 5 5 5 5 6 5 5 5 5 5 6 5 5 5 5 5 5 5 6 5 5 5 5 6 5 5 5 5 5 6 5 5 5 6 5 6 5 5 5 6 5 6 5 6 5 5 6 5 5 5 6 5 5 5 5 5 6 5 5 5 6 5 5 6 5 5 6 5 5 5 5 5 5 5 5 5 5 5 5 5 5 5 5 6 5 5 6 5 5 5 5 6 5 5 5 5 5 5 5 5 5 5 5 5 5 5 5 5 5 5 6 6 5 5 5 5 5 5 5 5 5 5 5 5 5 6 5 6 5 6 6 6 5 5 5 5 5 5 5 5 5 6 5 5 6 5 5 5 5 5 5 6 5 5 5 6 5 5 6 5 5 5 5 5 5 6 6 5 5 5 5 6 5 5 6 6 5 5 5 5 5 5 5 6 6 5 5 5 5 5 6 5 6 5 5 6 5 5 6 6 5 6 5 5 5 5 6 6 5 5 5 5 6 5 5 6 5 5 6 5 5 6 5 5 5 5 5 5 5 5 5 5 5 5 5 5 5 5 5 5 5 5 5 6 5 6 6 5 5 6 5 5 5 5 5 5 5 5 5 6 5 5 5 5 5 5 5 6 5 5 5 5 5 5 5 5 5 5 5 5 5 5 5 6 5 5 5 5 5 6 6 5 5 6 6 6 5 5 5 5 5 5 6 5 6 5 5 5 5 5 5 6 5 6 5 5 5 6 5 5 5 5 5 5 5 5 5 5 6 5 5 5 5 5 5 5 5 5 5 5 5 5 5 5 5 5 5 5 5 5 5 5 5 6 5 5 5 5 5 5 5 6 6 5 5 6 6 5 5 5 5 5 5 5 5 5 5 5 5 5 5 5 5 5 5 5 5 5 5 5 5 5 5 6 5 5 5 6 5 5 6 5 5 5 5 5 5 5 5 5 5 5 5 5 5 5 5 5 5 5 5 5 5 5 5 5 5 5 5 5 5 5 5 5 5 5 5 5 5 5 5 5 5 5 5 5 5 5 5 5 5 5 6 5 5 5 5 5 5 5 5 5 5 5 6 6 5 5 5 6 5 5 5 5 5 5 5 5 5 6 5 5 5 5 6 5 5 5 5 5 5 5 5 6 6 5 5 5 5 6 5 5 5 5 5 5 6 5 5 5 5 5 6 5 5 5 6 5 5 6 5 5 6 5 5 5 5 5 5 6 5 5 5 5 5 5 5 5 5 5 5 5 5 5 5 5 5 5 5 5 5 5 5 5 5 5 5 5 5 5 5 5 5 5 5 5 5 5 5 5 5 5 5 5 5 5 5 5 5 5 5 6 5 5 5 5 5 6 5 5 5 5 6 5 5 5 5 5 5 5 5 5 5 6 6 5 5 5 5 6 5 6 5 5 5 5 5 5 5 5 5 5 5 5 5 5 5 5 5 5 5 5 5 5 5 6 5 5 5 5 5 5 5 6 5 5 5 6 5 6 5 5 5 5 5 5 5 5 5 5 5 5 5 5 5 5 5 5 5 5 5 5 5 5 5 5 5 6 5 5 5 5 5 5 5 5 5 5 5 5 5 5 5 6 5 6 5 5 5 5 6 5 5 5 5 6 5 5 5 5 5 5 5 5 5 6 5 5 5 5 5 5 5 5 6 5 5 6 5 5 6 5 5 5 5 5 5 5 5 5 6 5 5 5 5 5 5 5 5 5 5 6 5 5 5 5 6 5 5 5 5 5 5 5 5 5 5 5 5 5 5 5 5 5 5 5 5 6 5 6 5 5 5 5 5 5 5 5 5 5 5 6 5 5 6 6 5 5 5 6 5 5 6 5 5 5 5 5 5 6 5 5 6 5 6 5 5 5 5 5 5 5 6 5 6 5 6 6 5 5 5 5 5 6 6 6 5 5 5 5 6 6 5 5 5 5 6 5 5 6 5 5 6 5 5 5 5 5 5 5 5 5 5 5 5 5 5 5 5 6 6 5 5 6 5 5 5 5 6 5 5 5 5 6 5 6 5 5 5 5 5 5 5 6 6 5 5 5 5 6 5 6 6 5 5 5 5 5 5 5 5 5 5 5 5 5 5 5 5 5 5 5 5 5 5 6 5 6 5 5 6 5 5 6 6 5 5 5 5 5 5 5 5 5 6 5 5 6 6 6 5 6 5 5 5 6 6 5 5 5 6 6 5 5 5 6 6 5 6 5 6 5 5 5 6 5 6 5 5 5 6 5 5 5 5 5 5 5 5 5 5 5 6 6 5 5 6 5 5 5 6 5 6 5 5 5 6 5 5 5 5 5 5 5 5 5 5 6 5 5 5 5 5 5 6 5 5 6 5 5 5 5 5 5 5 5 5 5 5 6 5 5 5 5 5 5 5 5 5 5 5 6 6 5 6 5 5 5 5 6 6 5 5 5 5 5 5 6 5 5 5 5 5 5 6 5 5 5 6 5 6 5 5 5 5 6 5 5 6 6 5 5 6 5 5 6 5 5 5 6 5 5 5 5 5 5 5 6 6 5 5 5 5 5 5 5 5 6 6 5 5 6 5 5 5 5 5 5 6 5 5 5 5 5 5 5 5 6 5 6 5 5 5 5 6 5 5 5 5 5 5 5 5 5 5 5 6 5 6 6 5 5 6 5 5 5 5 5 6 5 6 5 5 5 5 6 5 5 5 5 5 5 5 5 5 5 6 5 5 5 5 5 5 5 5 5 5 5 5 6 5 5 5 5 6 5 5 6 5 5 5 5 5 5 5 5 5 5 5 5 5 5 6 5 5 5 5 5 5 5 5 5 5 5 5 6 5 5 5 5 5 5 6 5 5 5 5 6 6 5 5 6 5 5 6 5 5 5 5 6 5 5 5 5 5 6 5 5 5 6 5 5 5 5 5 6 5 6 5 6 6 6 5 5 5 5 5 5 5 5 6 5 5 6 5 5 5 5 5 5 5 5 5 6 5 5 5 5 5 5 5 5 5 5 5 5 5 5 5 5 5 5 5 5 5 5 5 5 5 5 5 5 5 5 6 5 6 5 5 5 6 5 5 6 5 6 6 5 6 5 6 5 5 5 5 5 5 5 5 6 5 6 5 5 6 5 6 5 6 5 5 5 5 5 5 5 5 6 6 5 5 5 6 5 6 5 6 6 5 5 5 5 5 5 5 5 5 6 5 5 6 5 5 5 5 5 5 5 5 6 5 5 6 5 5 5 5 5 5 5 5 6 5 6 5 5 5 5 5 5 5 6 5 5 5 5 5 5 5 5 5 5 6 5 5 6 6 5 6 6 6 5 5 6 5 5 6 5 5 5 5 6 5 5 5 5 5 5 5 5 5 5 5 5 5 5 5 5 5 5 5 5 5 5 5 6 5 5 5 6 5 5 5 5 6 5 5 5 5 5 5 5 5 5 5 5 6 5 5 5 5 5 5 5 5 5 5 5 5 5 5 5 5 6 5 5 5 6 5 5 5 5 5 6 5 5 5 5 6 5 5 5 5 5 5 6 5 5 5 5 5 6 5 5 6 5 5 5 6 5 5 5 6 5 5 5 6 5 5 5 5 5 5 5 6 5 5 5 5 5 6 5 5 5 6 5 5 5 5 5 6 6 5 5 5 5 5 5 5 5 6 6 5 5 5 6 5 6 5 5 5 5 5 5 5 6 5 6 5 5 5 5 6 5 6 5 6 5 5 5 5 5 5 6 5 5 5 6 5 5 5 5 5 6 5 5 5 5 5 5 5 5 5 5 5 5 5 5 5 5 5 5 5 5 5 5 6 5 6 5 5 6 5 5 5 5 5 5 6 5 5 6 5 5 5 5 5 5 5 5 5 5 5 5 5 5 5 5 5 5 5 5 5 5 5 5 6 5 5 5 5 6 5 5 5 5 5 5 5 5 5 5 5 5 5 6 5 6 5 5 5 5 5 6 5 5 5 5 5 5 5 5 5 5 5 5 5 5 5 5 5 5 5 5 6 6 5 5 5 5 5 5 5 5 5 5 5 5 5 6 5 5 5 5 5 5 5 5 5 5 5 5 5 5 5 5 5 5 6 5 5 5 5 5 5 5 5 5 5 5 5 5 5 5 5 5 5 5 5 5 6 5 5 5 5 5 6 5 5 5 5 5 5 5 5 5 5 6 5 6 5 5 5 5 5 5 5 5 5 5 5 6 5 5 6 5 5 5 5 5 5 6 6 5 5 5 6 5 5 5 5 5 5 5 5 5 5 5 5 5 5 5 5 5 5 5 5 5 5 5 5 5 5 5 5 5 5 5 5 5 5 5 5 5 5 5 6 5 5 5 5 5 5 5 5 5 5 5 5 5 5 5 5 5 5 5 5 5 5 5 5 5 5 5 6 5 5 6 5 5 5 5 6 5 5 5 6 5 5 5 5 5 5 5 5 5 5 5 5 5 5 5 6 5 5 6 5 5 5 5 5 5 5 5 6 5 5 5 5 5 5 5 6 5 5 5 5 5 5 5 5 5 5 5 5 5 5 5 5 5 5 5 5 5 5 5 5 5 5 6 5 5 5 5 5 5 5 5 5 5 5 5 5 5 6 5 5 5 5 6 5 5 5 5 5 5 5 5 5 5 5 5 5 5 5 5 5 5 5 5 5 5 5 5 5 5 5 5 6 5 5 5 6 5 5 5 5 5 5 5 6 5 5 5 5 6 5 5 6 5 5 5 5 5 6 5 6 6 5 5 5 5 5 5 5 5 5 5 5 5 5 5 5 5 5 5 5 5 5 5 5 5 5 5 5 5 5 6 5 5 5 5 5 5 6 5 5 5 6 5 5 5 6 5 5 5 6 5 5 5 5 5 5 6 5 5 5 5 5 5 6 5 5 5 5 5 5 5 5 5 5 6 5 5 5 5 5 5 5 5 5 5 5 6 5 5 5 5 6 5 5 5 6 5 5 5 5 5 5 5 5 5 5 5 5 5 5 5 5 5 5 5 5 5 5 5 5 5 5 5 5 5 5 5 5 5 5 5 5 5 5 5 5 6 6 5 5 5 5 5 5 5 5 5 6 5 6 6 5 5 5 6 6 5 5 5 5 5 5 5 5 5 5 5 6 5 5 6 6 5 5 5 5 5 5 5 5 5 5 5 5 5 5 5 5 5 5 5 5 5 5 6 5 6 5 5 5 6 6 5 5 5 5 5 6 6 6 6 5 5 5 5 5 5 5 6 5 5 5 5 5 5 5 6 5 5 6 5 5 6 5 5 5 5 5 5 5 5 5 5 5 5 5 5 5 5 5 5 6 5 5 5 5 6 5 5 5 5 5 5 5 5 5 5 5 5 5 5 5 5 5 5 5 5 6 5 5 5 6 5 5 5 5 5 5 5 5 5 5 5 5 5 6 6 5 6 5 5 5 5 6 5 5 5 5 6 5 5 5 5 5 5 5 6 5 5 5 6 5 5 5 5 5 5 5 5 5 6 6 5 5 5 6 5 5 5 5 6 5 5 6 6 5 6 5 6 5 6 5 5 5 6 5 5 5 5 5 5 5 5 5 6 5 5 5 5 6 5 6 5 5 6 5 5 5 5 5 5 5 5 5 5 5 5 5 5 5 5 6 5 5 5 5 5 5 6 5 5 6 5 5 5 5 5 5 5 5 5 5 5 5 6 5 5 5 6 5 6 5 6 5 5 5 5 6 5 5 5 5 5 5 5 6 6 5 5 5 5 5 5 5 5 5 5 5 5 5 5 5 5 5 5 5 5 5 5 5 5 5 6 5 5 5 5 5 5 6 5 5 5 5 5 5 6 5 5 5 5 5 5 5 5 5 5 5 5 5 5 6 6 6 5 5 5 5 5 5 5 5 6 5 5 5 5 6 5 5 5 5 6 5 5 5 5 5 5 6 5 5 5 6 5 5 5 5 5 5 5 5 5 5 5 5 5 5 5 5 5 5 5 5 5 5 5 5 5 5 6 5 5 5 5 6 5 5 5 5 5 5 5 6 5 5 5 5 6 5 5 5 5 5 5 5 5 5 5 6 5 5 6 5 5 5 5 5 5 5 5 5 5 5 5 5 5 5 5 5 6 5 5 5 5 5 5 5 5 5 5 5 5 5 5 5 6 5 5 6 5 5 5 5 5 5 5 5 5 5 5 5 5 5 5 5 5 5 5 5 5 6 5 5 6 5 5 5 5 5 5 5 5 5 6 5 5 5 6 5 5 5 5 5 5 5 5 5 5 5 5 5 5 5 5 5 5 5 6 5 5 5 5 6 5 5 5 5 5 5 5 5 5 5 5 5 6 5 5 5 5 5 5 5 5 5 5 5 5 5 5 5 5 5 5 5 5 5 5 5 5 5 5 5 5 5 5 5 5 5 5 5 5 5 5 5 6 6 5 5 5 5 5 5 5 5 5 6 5 5 5 5 5 5 5 5 5 5 5 6 5 5 5 5 5 6 6 5 5 5 5 6 5 5 5 6 5 5 5 5 5 5 5 5 5 6 5 5 5 5 5 5 5 5 6 6 6 5 5 6 5 5 5 5 5 5 5 5 5 5 5 5 6 5 5 5 5 5 5 5 5 5 5 5 5 6 5 5 5 5 5 5 5 6 5 5 5 5 5 5 5 5 5 5 5 5 6 5 6 5 5 5 5 5 6 5 5 5 5 5 5 5 6 5 5 5 5 5 5 5 5 5 6 5 5 6 5 5 5 5 5 5 5 5 5 5 5 5 5 5 5 5 5 6 5 5 6 5 5 5 5 5 5 5 5 5 5 5 5 5 5 5 5 5 5 5 5 5 5 5 5 5 5 5 6 5 6 5 5 5 5 5 5 5 5 5 5 6 5 5 5 5 5 5 5 5 5 5 5 5 5 5 5 5 5 5 5 5 5 5 5 5 5 5 5 5 5 5 5 5 5 5 5 5 5 5 5 5 5 5 5 5 5 6 5 5 6 5 5 6 5 5 5 5 5 6 5 5 5 5 5 5 6 5 5 6 5 5 6 6 6 5 6 6 5 5 5 5 5 6 5 5 5 6 5 5 5 5 5 6 5 6 5 5 5 5 5 6 5 5 5 5 6 5 6 5 5 5 5 5 6 5 6 5 6 5 5 5 6 5 5 5 5 6 5 5 5 5 5 5 5 5 5 5 5 5 5 5 5 5 5 5 5 5 5 5 5 6 5 5 6 5 5 5 5 6 5 5 5 5 5 5 6 5 6 5 5 5 5 5 5 5 5 5 6 6 6 5 5 6 5 5 5 5 5 5 5 5 5 5 6 6 6 5 5 5 5 5 5 5 6 5 6 5 6 5 5 5 5 6 5 5 5 6 5 5 5 5 6 5 5 6 5 5 5 5 5 5 5 5 6 5 5 5 5 6 5 5 6 5 5 5 5 5 6 5 5 5 5 5 5 5 5 5 5 5 5 5 5 5 5 5 5 5 5 5 5 5 6 5 6 5 5 5 5 6 5 5 5 6 5 6 5 5 5 5 5 5 5 5 5 6 5 6 6 5 5 5 6 5 5 5 5 5 5 5 5 5 5 5 5 5 5 5 5 5 6 5 6 5 5 5 5 5 5 5 5 5 5 5 5 5 5 5 5 5 5 5 5 5 5 5 5 5 5 5 5 5 5 5 5 5 5 5 5 5 5 5 5 5 5 5 5 6 5 5 5 5 5 5 5 5 5 5 6 5 5 5 6 5 5 5 5 5 5 5 5 6 5 5 5 6 5 5 6 5 5 5 5 5 5 5 5 6 5 5 5 5 6 5 5 5 5 5 5 5 5 6 5 5 5 5 5 5 5 5 5 5 5 5 6 6 6 5 5 5 6 5 5 6 6 5 6 5 6 5 5 5 5 6 5 5 5 5 5 5 6 5 6 5 5 5 6 5 5 5 5 6 6 5 5 5 5 5 6 5 5 5 6 5 6 6 5 5 5 5 5 6 5 5 6 5 5 6 5 5 5 5 5 5 5 5 5 5 5 5 5 5 5 5 5 5 5 5 5 6 5 6 5 5 5 5 5 5 6 5 5 5 5 5 5 5 6 5 5 5 5 5 5 5 5 5 5 5 5 5 5 5 5 5 6 5 5 6 5 5 5 5 5 5 5 5 5 5 5 5 5 5 6 5 5 6 5 5 5 5 5 6 5 6 5 5 5 6 5 5 5 5 5 5 6 5 5 5 5 6 5 5 5 5 5 6 5 5 5 5 5 5 5 5 5 5 5 5 6 5 6 5 5 5 5 5 6 5 5 5 5 5 5 5 5 5 5 6 5 5 5 5 5 5 5 5 5 5 5 5 6 5 5 5 5 6 5 5 5 5 5 5 5 5 5 6 5 6 5 5 5 5 5 5 5 6 5 6 5 6 5 5 5 5 5 5 6 5 5 5 5 5 5 5 5 5 6 5 5 5 6 5 6 5 5 5 5 6 5 5 6 5 5 5 5 5 6 5 5 5 5 5 5 5 5 5 5 5 5 5 5 6 5 5 5 5 5 5 5 5 5 5 5 6 5 5 5 5 6 5 6 5 5 5 6 5 5 6 5 6 5 5 5 5 5 5 5 6 5 5 5 5 5 5 5 5 5 5 5 5 5 5 5 5 5 5 5 5 6 5 5 6 5 6 5 5 6 5 5 5 6 6 5 5 5 5 6 6 5 5 5 6 6 5 6 5 5 6 5 5 5 5 6 5 5 5 5 5 5 5 6 5 5 5 6 6 6 5 5 5 6 6 6 5 5 5 5 6 5 5 5 5 5 6 5 5 5 5 5 5 5 5 5 6 5 5 5 5 6 6 5 5 5 5 5 5 5 5 6 5 5 5 5 5 6 5 5 6 6 5 5 5 5 6 6 5 5 6 5 5 5 5 5 5 5 5 6 5 5 5 5 5 5 5 5 6 5 5 5 6 5 5 5 5 5 5 6 5 6 5 6 5 5 6 5 5 5 5 5 6 6 5 5 5 5 6 5 5 5 5 5 6 6 5 5 6 5 6 5 5 6 5 6 5 5 5 5 5 5 6 5 6 5 5 5 6 5 5 5 6 5 5 5 5 5 5 5 5 5 5 5 5 6 5 5 5 5 5 5 5 5 5 5 5 6 5 5 5 5 5 5 5 5 5 5 5 5 5 5 5 5 6 5 5 5 5 6 5 5 6 5 5 5 5 5 5 5 6 5 5 6 5 5 5 6 5 5 5 5 5 6 5 6 5 6 5 5 5 5 6 6 6 5 6 5 5 5 5 5 5 5 5 5 5 6 5 5 6 6 5 5 6 6 5 5 5 5 6 5 5 5 6 6 5 5 6 5 6 5 6 5 5 5 6 5 5 5 5 5 6 5 5 5 5 5 5 6 6 5 5 5 5 5 5 5 5 5 5 5 5 5 6 5 5 5 5 5 6 5 5 5 5 5 5 5 5 6 5 5 6 5 6 5 5 5 5 5 5 5 5 6 5 6 5 5 5 6 6 5 5 6 6 5 6 5 6 6 5 6 5 5 6 5 5 6 5 5 5 5 6 5 5 6 5 5 5 5 5 5 5 5 5 6 5 5 5 5 5 5 5 5 6 5 5 6 5 5 5 5 6 5 5 5 5 5 5 5 5 6 6 5 5 5 6 5 6 5 6 5 5 5 5 5 5 5 5 5 6 5 5 5 6 5 5 5 6 5 5 6 5 5 5 5 5 6 6 5 6 5 5 5 5 5 5 5 5 5 5 5 5 6 5 5 6 5 6 5 5 5 5 6 5 6 5 6 5 5 5 5 5 6 5 5 6 5 5 5 6 5 6 5 5 6 5 5 6 5 5 5 5 6 5 6 5 6 5 5 6 6 6 5 5 5 5 5 5 5 5 5 5 5 5 5 5 5 5 5 6 5 5 5 5 5 5 5 5 5 5 6 5 5 5 5 5 5 5 5 5 5 5 5 5 5 5 5 5 5 5 5 5 5 5 5 5 5 5 5 5 5 5 5 5 5 5 5 5 5 5 5 5 5 5 5 6 5 5 5 5 5 5 5 6 5 5 5 5 5 5 5 6 5 5 6 5 5 5 5 5 5 5 6 5 5 6 5 6 5 5 5 6 5 5 5 5 5 5 5 5 5 5 5 5 5 6 5 5 5 6 6 5 6 5 5 5 5 5 5 5 5 5 5 5 5 5 5 5 5 5 5 5 6 5 5 6 5 5 5 5 6 5 5 5 5 5 5 5 6 5 5 5 5 6 5 5 6 5 5 6 5 5 5 6 5 5 5 6 5 5 5 5 5 5 5 5 5 5 5 5 6 5 5 6 5 5 6 5 5 5 6 5 5 6 5 5 5 5 6 5 5 5 5 6 5 6 6 5 6 6 5 5 5 5 6 5 5 5 6 5 5 6 5 5 5 5 6 5 5 5 5 5 6 5 5 6 5 6 6 5 5 5 6 5 6 5 5 5 5 5 6 6 5 6 5 5 5 5 5 5 5 5 5 5 5 5 5 5 5 6 5 5 6 6 5 6 5 5 5 5 5 5 5 5 5 6 5 5 5 5 5 5 5 5 5 5 5 5 6 5 6 5 5 5 5 5 6 5 6 5 6 5 5 5 6 5 5 5 5 6 5 5 6 5 6 5 5 6 5 5 6 5 5 6 5 5 5 5 5 5 5 5 5 5 5 6 5 5 5 6 5 6 5 5 5 5 5 6 5 5 5 6 5 5 5 5 5 5 5 5 6 5 5 5 5 5 6 5 5 5 5 5 5 5 5 5 5 5 5 5 5 5 5 5 5 5 5 6 5 5 5 6 5 5 5 5 5 6 5 5 6 5 5 5 6 5 5 5 5 5 5 5 6 6 5 5 5 5 5 6 5 5 6 5 5 5 5 6 5 5 5 5 6 5 5 5 5 5 5 5 5 5 5 5 5 5 5 5 5 5 5 5 5 5 5 5 5 5 5 5 5 6 5 5 5 5 6 5 5 5 5 5 5 6 5 5 5 5 6 5 5 6 5 5 5 5 5 6 5 5 5 6 5 5 5 6 5 6 5 5 5 5 5 5 5 6 5 6 5 5 5 6 5 5 6 5 6 5 5 5 5 5 6 5 5 5 5 5 5 5 6 5 5 5 6 5 6 5 6 5 6 5 6 5 5 5 5 5 5 5 5 5 5 5 6 5 5 5 5 6 5 5 5 5 6 5 5 5 5 5 5 5 5 5 5 5 5 5 5 5 6 5 6 5 5 5 6 5 5 5 5 5 6 5 5 5 6 5 5 5 5 6 6 5 5 5 6 5 5 5 5 5 5 5 5 6 5 5 5 5 5 5 6 5 5 5 5 5 5 5 5 6 6 5 5 5 5 5 5 6 5 5 6 5 6 5 5 5 5 5 6 5 6 5 5 5 5 5 5 5 5 5 6 5 5 5 5 5 5 5 5 6 5 5 5 5 5 5 5 5 5 5 5 5 5 5 6 5 6 5 5 5 6 5 5 5 6 5 5 5 5 5 5 5 5 5 5 6 5 5 5 6 5 5 5 5 5 5 5 5 5 5 5 5 5 6 5 5 5 5 5 5 5 5 5 5 5 5 5 6 5 5 5 5 5 6 5 5 5 5 6 5 5 5 5 5 5 5 5 5 6 5 5 5 5 5 5 5 5 6 5 5 5 5 5 5 5 5 5 5 5 5 5 5 5 5 5 5 5 5 6 5 5 6 5 5 5 5 5 5 5 5 5 5 5 5 5 5 5 5 5 5 5 5 5 5 5 5 5 5 5 5 5 6 5 5 6 5 5 5 6 5 5 6 5 5 5 6 5 6 5 5 6 5 6 5 6 5 5 5 5 6 5 5 5 5 5 5 5 6 5 5 6 5 5 6 6 6 6 5 5 5 5 5 5 5 5 5 5 5 5 5 5 5 5 5 5 5 5 5 5 5 5 5 5 5 5 6 6 5 5 5 5 6 5 6 5 5 5 6 5 5 5 5 5 5 5 5 6 5 5 5 5 6 5 5 5 5 6 5 5 6 5 6 5 5 5 6 5 5 5 5 5 5 5 5 5 5 5 5 5 5 5 5 6 5 5 5 5 5 5 5 6 5 5 5 5 5 5 5 5 5 6 5 5 5 5 5 5 5 5 5 6 5 5 5 6 5 5 5 5 5 5 5 5 5 5 5 5 5 5 5 5 5 5 5 6 5 5 5 6 5 5 5 5 5 5 5 5 5 5 5 5 5 5 5 5 5 5 5 5 5 5 5 5 5 5 5 5 6 5 6 5 5 5 6 5 5 6 5 5 5 5 5 5 5 5 5 5 6 5 5 5 5 5 6 5 5 5 5 5 5 5 5 5 6 5 5 5 5 5 5 5 5 5 5 5 5 5 5 5 5 5 5 5 5 5 5 5 5 5 5 5 5 5 5 5 5 5 5 5 5 5 5 5 5 5 5 5 5 5 5 5 5 5 5 5 5 5 5 5 5 5 5 5 5 5 5 5 5 5 5 5 5 5 5 5 5 5 6 5 6 5 5 5 5 5 5 6 5 5 5 5 5 5 5 5 5 5 6 5 5 5 5 5 5 6 5 5 6 5 5 5 5 5 5 5 6 5 5 5 5 5 5 6 5 5 5 6 5 5 5 5 5 5 6 5 5 5 6 5 5 5 5 5 5 5 5 5 5 5 5 5 5 5 5 5 5 5 5 5 5 5 5 5 5 5 5 5 5 6 5 5 6 6 5 5 5 5 5 5 5 5 5 5 5 5 6 5 5 5 5 5 5 5 5 5 5 5 6 5 5 5 5 5 6 5 5 5 5 5 6 5 5 5 5 5 5 5 5 5 6 5 5 5 5 5 5 5 5 5 6 5 5 5 5 6 5 5 5 5 5 5 5 5 5 6 5 5 6 5 5 6 5 5 5 5 5 5 6 5 5 6 5 6 5 5 6 5 5 5 5 5 5 5 5 5 5 5 5 5 5 5 5 5 5 5 5 5 5 5 5 5 5 5 5 5 5 5 5 5 5 5 5 5 5 5 5 5 5 5 5 5 5 5 5 5 5 5 6 5 5 5 5 5 5 5 5 5 5 5 5 5 5 6 6 5 5 5 5 5 5 6 6 5 5 5 5 5 5 5 5 5 5 5 5 5 5 5 5 6 6 5 6 5 5 6 5 5 5 6 5 5 5 5 5 5 5 5 5 5 5 5 5 5 5 5 5 5 5 5 5 5 5 5 5 6 5 5 5 6 5 6 5 6 5 5 5 6 5 5 5 5 5 5 6 5 6 5 5 6 5 5 5 5 5 5 6 5 5 5 5 5 5 5 5 5 5 5 5 5 5 5 5 5 5 5 5 5 5 6 5 5 5 6 5 5 5 5 5 6 5 5 6 5 5 5 6 5 5 5 5 5 5 5 5 5 5 5 5 5 5 5 5 6 5 5 6 5 6 5 5 5 6 5 5 6 5 5 5 5 5 5 6 5 5 5 5 6 5 5 6 5 5 5 6 5 5 6 5 5 6 5 5 5 5 5 6 5 5 5 5 5 5 6 5 5 5 5 6 5 5 5 5 5 5 5 5 6 5 5 5 5 5 5 5 5 5 5 5 5 6 5 5 5 5 5 5 6 5 5 5 5 5 5 5 5 5 5 5 5 6 5 5 6 5 5 5 5 5 5 5 5 5 5 6 5 6 5 5 5 5 5 5 5 5 6 6 5 5 5 6 5 5 5 6 6 6 6 5 5 5 5 5 6 5 5 6 5 5 6 5 5 5 5 5 5 5 6 5 5 5 5 5 5 5 5 5 5 6 5 5 5 5 5 6 5 5 5 5 5 5 5 5 5 5 5 5 6 5 5 5 5 5 6 5 6 5 6 5 5 6 5 5 6 5 5 6 5 6 5 5 5 6 5 5 6 6 5 5 6 5 5 6 5 5 5 6 5 5 5 5 5 6 5 5 5 5 5 5 5 5 5 6 5 6 5 5 5 6 5 5 6 5 5 5 5 5 5 5 6 5 5 5 5 6 5 5 5 5 6 5 6 5 5 5 5 5 5 5 5 5 5 5 5 5 5 5 6 5 6 5 5 5 5 5 5 5 6 5 5 5 5 5 5 6 6 5 5 5 5 5 6 6 5 5 5 5 5 5 6 5 5 5 5 5 5 5 6 6 5 5 5 5 6 6 6 5 6 6 5 5 6 5 6 5 5 5 5 5 5 6 5 6 5 5 5 5 5 5 5 5 5 5 6 5 6 5 5 6 5 5 5 5 5 5 5 6 6 5 5 5 5 5 5 5 5 5 5 5 5 5 5 5 5 6 5 5 6 6 5 5 5 5 5 5 5 5 5 5 5 5 5 5 5 5 5 5 5 6 5 5 6 5 5 5 5 5 5 5 5 5 5 5 5 5 5 5 5 5 5 6 5 6 5 5 5 5 5 5 6 5 6 5 5 5 6 5 5 5 5 5 6 5 6 5 6 5 5 5 5 5 6 6 5 5 6 5 6 5 5 5 6 5 5 5 6 5 5 6 6 5 5 5 5 5 5 5 5 5 5 5 5 5 6 5 5 5 6 5 5 5 5 5 5 5 5 6 6 5 5 5 6 5 5 5 5 5 5 5 5 5 5 5 5 5 6 5 6 5 5 5 6 5 5 5 5 5 5 5 5 5 5 5 5 6 5 5 5 5 5 5 5 5 5 5 5 5 5 6 5 5 5 5 6 5 5 6 5 5 5 5 5 6 5 5 5 5 5 5 5 5 5 5 5 5 5 5 6 5 5 5 5 5 6 5 5 5 6 5 5 5 5 5 6 5 6 5 5 5 5 5 5 5 5 5 5 5 5 5 5 5 5 5 5 5 6 5 5 5 5 5 5 6 6 5 5 5 5 5 5 6 5 6 5 5 5 5 5 5 6 5 6 6 5 5 5 6 5 5 5 5 5 5 5 5 5 5 6 5 6 5 5 5 5 5 5 6 6 5 5 5 5 5 5 5 5 5 5 5 5 5 5 5 5 5 5 5 5 5 5 5 5 6 6 5 5 5 5 5 5 5 5 5 6 5 5 5 5 5 5 5 6 5 5 6 5 5 5 5 6 5 5 6 5 5 5 6 5 5 6 5 6 5 5 5 5 5 5 5 5 5 5 6 5 5 5 5 5 5 5 5 6 5 6 5 6 5 6 5 6 5 5 5 6 5 5 5 5 5 5 5 5 5 5 6 5 5 5 5 5 6 5 5 5 6 5 5 5 5 5 5 5 5 5 5 5 5 5 5 5 6 5 5 5 5 5 5 5 5 6 5 5 6 6 5 5 5 5 5 5 6 5 5 5 5 5 5 5 6 6 5 5 6 6 5 5 5 5 5 6 5 5 5 5 5 5 5 6 5 5 5 6 5 6 5 5 5 5 5 5 5 5 5 5 5 5 5 5 5 5 5 5 5 5 5 6 5 5 6 5 5 6 5 5 5 5 6 5 5 5 5 5 5 5 5 6 6 5 5 6 5 6 5 5 5 5 5 5 5 5 5 5 6 5 5 5 6 5 5 5 5 6 5 6 5 5 5 5 5 5 5 5 5 5 5 5 5 6 5 5 5 5 5 5 6 5 6 5 5 5 5 5 6 5 5 5 6 5 5 5 5 5 5 5 5 5 5 5 5 5 5 5 5 5 6 5 6 5 5 5 5 5 5 5 5 5 5 5 5 5 6 5 5 6 5 5 6 5 6 5 5 5 5 5 5 6 5 5 5 5 5 5 5 5 5 5 5 5 5 5 5 5 5 5 5 5 5 5 5 5 5 5 5 5 5 5 5 6 5 5 5 5 5 5 6 6 5 5 5 6 5 5 6 5 5 6 5 6 5 5 5 5 6 5 5 5 5 5 6 5 5 5 5 5 5 5 5 5 5 5 5 5 5 5 6 5 6 5 5 5 5 5 6 5 5 5 6 6 5 5 5 6 6 5 5 5 5 5 6 5 5 5 5 5 6 5 5 5 5 5 5 5 5 5 5 5 5 5 6 5 5 6 5 5 5 5 5 5 5 5 5 6 5 5 5 5 5 5 5 5 5 5 5 6 5 5 6 5 5 5 5 5 5 5 5 5 5 5 5 5 5 5 5 5 5 5 5 5 5 5 5 5 5 5 5 5 6 5 6 6 5 6 5 5 5 5 5 5 6 6 6 5 5 5 5 5 5 5 5 5 6 5 5 5 5 6 5 6 5 6 6 5 5 5 5 5 5 5 5 6 5 5 6 5 6 5 5 5 5 5 5 5 5 5 6 6 5 5 6 5 6 6 5 6 5 5 6 5 6 5 6 5 6 6 5 6 5 5 6 5 5 5 5 6 5 5 6 5 6 5 5 6 5 6 5 6 5 5 5 6 5 5 5 6 5 5 5 5 5 6 5 5 5 5 5 5 5 5 5 5 5 5 5 5 6 5 6 6 5 5 6 5 5 5 5 5 5 5 5 5 5 6 5 5 5 5 5 6 5 5 5 5 6 5 6 5 5 6 6 5 5 5 5 5 5 6 5 6 6 5 5 5 6 5 6 5 5 5 6 5 5 5 5 6 5 5 5 5 5 6 6 5 6 5 6 5 6 6 6 6 6 5 5 5 5 6 5 5 5 5 5 5 5 6 5 6 5 5 6 5 5 6 5 5 5 6 6 5 5 5 5 5 5 6 5 5 6 5 5 5 5 5 6 5 5 5 5 6 5 5 5 5 5 5 5 5 5 5 5 5 5 5 5 5 5 5 5 5 5 5 5 5 5 5 5 5 5 5 5 5 5 5 5 5 5 5 5 5 5 5 5 5 5 5 5 5 5 5 5 5 5 5 5 5 5 5 5 6 5 5 6 5 6 5 5 5 5 6 5 5 5 6 5 5 5 5 5 5 5 5 5 5 5 5 5 5 6 5 5 5 5 5 6 5 5 6 5 5 5 
</DataArray>
<DataArray type="Float64" Name="stress" NumberOfComponents="9" format="ascii">
-11.69119681059026 -4635.5098253232545 0 -4635.5098253232545 8115.5012909149955 0 0 0 0 1062.9195102581361 -2780.8491825860692 0 -2780.8491825860692 973.34062620000623 0 0 0 0 1518.7338512155184 -1821.5641052560823 0 -1821.5641052560823 5.2318866067216732 0 0 0 0 -33.187022124766372 -71.506026577037119 0 -71.506026577037119 -177.05640158551614 0 0 0 0 25.602488301150629 -12.727191326368796 0 -12.727191326368796 11.10638757270911 0 0 0 0 41.652571653467021 26.158469220739789 0 26.158469220739789 -57.777828935708385 0 0 0 0 243.95433503012464 -79.837932015172555 0 -79.837932015172555 -91.368050449877046 0 0 0 0 -64.897924486896954 -120.76958742135321 0 -120.76958742135321 48.059009112825152 0 0 0 0 -0.10207762160280254 -103.8662214428623 0 -103.8662214428623 -149.1519553924154 0 0 0 0 -364.91871931872447 -275.03436332191632 0 -275.03436332191632 -131.05216548029421 0 0 0 0 27.720068279842963 -16.099154903015005 0 -16.099154903015005 -237.76781711298099 0 0 0 0 17.869662192228134 -130.52972865666379 0 -130.52972865666379 -19.715501615821267 0 0 0 0 -26.525632668054982 -68.20200204047228 0 -68.20200204047228 -16.73826140654046 0 0 0 0 74.346899886411848 -146.59291293930255 0 -146.59291293930255 47.520044413977303 0 0 0 0 156.1255846327258 -151.23843463772937 0 -151.23843463772937 -65.771599002546282 0 0 0 0 496.19543915713439 -354.05715312750544 0 -354.05715312750544 34.73455512234068 0 0 0 0 180.42517464492994 -260.29933629271363 0 -260.29933629271363 101.11152281184332 0 0 0 0 77.357998557411747 -45.693698105628698 0 -45.693698105628698 13.640203010226415 0 0 0 0 376.45870933623519 -1483.088098459717 0 -1483.088098459717 3821.9800904721596 0 0 0 0 371.54312436228793 -1023.0873841730754 0 -1023.0873841730754 1340.0992965064943 0 0 0 0 785.73503555252682 -1151.9101446401619 0 -1151.9101446401619 1363.1036619080187 0 0 0 0 501.59341275940824 -982.01954450276389 0 -982.01954450276389 1369.1131181978562 0 0 0 0 23.118446548178326 -55.901962083677063 0 -55.901962083677063 126.8783698847401 0 0 0 0 4.5507955005538747 0.026033707055546529 0 0.026033707055546529 -2.4850526415435183 0 0 0 0 196.17740862819483 -347.25244458226371 0 -347.25244458226371 -0.38565005852433387 0 0 0 0 486.42003071504269 -777.23095161663514 0 -777.23095161663514 499.57198454014724 0 0 0 0 -18.814571435272228 -132.51496436922753 0 -132.51496436922753 366.08560120600305 0 0 0 0 76.178313215335947 -199.19985589863063 0 -199.19985589863063 135.19667347466748 0 0 0 0 88.927101663422945 -157.35658917190449 0 -157.35658917190449 45.415991943795234 0 0 0 0 74.245259169261942 -103.4634853567004 0 -103.4634853567004 51.321953032446913 0 0 0 0 188.55080013425322 0.50019305510795675 0 0.50019305510795675 -811.18419749449822 0 0 0 0 445.19053948501823 156.72919644630747 0 156.72919644630747 -779.08287426127936 0 0 0 0 47.628469104718533 -105.53289370803759 0 -105.53289370803759 58.627618787751999 0 0 0 0 89.613928055014696 -109.26794382868275 0 -109.26794382868275 20.217289928560973 0 0 0 0 107.30723817968101 -183.72422555122466 0 -183.72422555122466 -48.66636598855257 0 0 0 0 55.498948681241018 -106.07344920602918 0 -106.07344920602918 122.99728049388796 0 0 0 0 16.028195375737823 -16.960545981866574 0 -16.960545981866574 29.442294125539377 0 0 0 0 22.868763410195243 -67.378317996393889 0 -67.378317996393889 162.04904290250852 0 0 0 0 26.709253445937065 -99.202650455976254 0 -99.202650455976254 171.98193589635048 0 0 0 0 30.095856228726916 -90.315058563370258 0 -90.315058563370258 139.7843366673842 0 0 0 0 30.881297550804447 -27.727738839486847 0 -27.727738839486847 -695.84280253075121 0 0 0 0 54.869274666261163 -101.47146434667985 0 -101.47146434667985 37.417715798960813 0 0 0 0 -38.103869553015102 -49.363425051662489 0 -49.363425051662489 -90.085907554814185 0 0 0 0 -4.2787370550795458 -196.24207370294607 0 -196.24207370294607 -209.80604765096359 0 0 0 0 73.179266093065962 -85.999829123844393 0 -85.999829123844393 -376.5246140769741 0 0 0 0 509.15181001333985 -69.171609122800874 0 -69.171609122800874 -1610.1981987434119 0 0 0 0 18.095526975321832 -0.88334478596937061 0 -0.88334478596937061 -1.4142379452994298 0 0 0 0 -55.829461881658062 157.12043707630073 0 157.12043707630073 -835.02144673366274 0 0 0 0 8.3925280585436894 -3.2796950345550613 0 -3.2796950345550613 -1.2351634343529803 0 0 0 0 110.27895056229318 35.534619834288605 0 35.534619834288605 -655.30345194548136 0 0 0 0 226.58545044669881 -650.71817024661868 0 -650.71817024661868 -212.74136947073566 0 0 0 0 152.35624462328269 -604.22230888273043 0 -604.22230888273043 -241.532611150702 0 0 0 0 419.62235699276789 -639.19339471744024 0 -639.19339471744024 -259.02138638589531 0 0 0 0 21.29237122143968 -530.59109179745428 0 -530.59109179745428 -179.18966627435293 0 0 0 0 1017.4275118663209 -450.01056597137358 0 -450.01056597137358 574.74427635586471 0 0 0 0 189.02485087089008 -489.34049944285653 0 -489.34049944285653 -250.21866097245947 0 0 0 0 596.8481985061444 -837.67758514408706 0 -837.67758514408706 -214.09549341280945 0 0 0 0 538.50192969839554 -519.41884204275266 0 -519.41884204275266 -249.84810162785857 0 0 0 0 25.953219867628263 1.5500153199890292 0 1.5500153199890292 -44.671647739813665 0 0 0 0 336.57189224858303 -816.135816598151 0 -816.135816598151 419.96600849844981 0 0 0 0 365.39574174769223 -337.18672990295454 0 -337.18672990295454 -205.76597925476381 0 0 0 0 201.06443066333304 -425.09140479068446 0 -425.09140479068446 -248.33237845182884 0 0 0 0 469.58095339413558 -240.00278376955248 0 -240.00278376955248 -1043.0355199949699 0 0 0 0 553.43137144471984 -435.27562468359247 0 -435.27562468359247 -378.65937896288233 0 0 0 0 383.81039204704575 -534.19167019953602 0 -534.19167019953602 -434.42165024619317 0 0 0 0 19.217636542355933 -81.478778947076705 0 -81.478778947076705 -43.910784616413139 0 0 0 0 -246.67576710582944 -126.27150416736185 0 -126.27150416736185 55.827085813114536 0 0 0 0 -64.707000012029312 -637.84606643076586 0 -637.84606643076586 77.797454142913921 0 0 0 0 271.52818061213475 -541.82516421769105 0 -541.82516421769105 -231.46655078658659 0 0 0 0 353.02777384707588 -535.69846234473516 0 -535.69846234473516 -249.4639818877331 0 0 0 0 299.84616257624293 -623.34091538636858 0 -623.34091538636858 -215.09956336548203 0 0 0 0 114.96607791312272 -644.05840941358474 0 -644.05840941358474 -214.79996965409737 0 0 0 0 1.7956435603838941 -76.238757074122248 0 -76.238757074122248 -99.621198978919324 0 0 0 0 -22.433232574549038 -440.22952153616643 0 -440.22952153616643 -184.44925471560418 0 0 0 0 -246.98543992779742 -723.36136516306578 0 -723.36136516306578 -554.76802970747667 0 0 0 0 247.54287183046108 -770.42394756243448 0 -770.42394756243448 -225.80463860183954 0 0 0 0 -651.80599683237961 -1284.0824749379244 0 -1284.0824749379244 359.29949104803381 0 0 0 0 -178.66539309494692 -350.02308071803873 0 -350.02308071803873 -362.43420371435059 0 0 0 0 65.31036346903295 18.650549462694833 0 18.650549462694833 -56.925293826986547 0 0 0 0 64.673444192041643 -467.79438668893272 0 -467.79438668893272 -946.16940357599924 0 0 0 0 5.4500712346634828 -719.61434702156839 0 -719.61434702156839 -935.66581420388911 0 0 0 0 72.441905802644499 6.6205482857266347 0 6.6205482857266347 -75.982977376308384 0 0 0 0 81.614428183325799 -1.1694901502341963 0 -1.1694901502341963 -148.92343819702364 0 0 0 0 81.828169155247451 4.4223061920256441 0 4.4223061920256441 -142.07581026811386 0 0 0 0 85.942541622935096 16.016166257228178 0 16.016166257228178 -163.06155921657046 0 0 0 0 74.770340050483355 -42.159002313004748 0 -42.159002313004748 -218.34300428492134 0 0 0 0 61.74724848522601 -36.858942401549939 0 -36.858942401549939 -161.15953547898971 0 0 0 0 302.182776161324 -351.82380478935374 0 -351.82380478935374 728.89989184963633 0 0 0 0 935.57804934575688 -737.31489368685288 0 -737.31489368685288 11.370543665543664 0 0 0 0 622.35480883019045 -1091.1281068239186 0 -1091.1281068239186 474.36054176541256 0 0 0 0 82.344879747135565 7.5026289545421605 0 7.5026289545421605 -147.09103574470646 0 0 0 0 54.285683823928423 -17.784305346404722 0 -17.784305346404722 -61.351425856125019 0 0 0 0 80.522847779851872 0.92146982654230669 0 0.92146982654230669 -140.49621476596076 0 0 0 0 82.73143043051823 23.266222031248617 0 23.266222031248617 -96.991055233927909 0 0 0 0 26.349508453131421 74.192867259778723 0 74.192867259778723 -121.40700484391709 0 0 0 0 38.386258381063783 -21.072219055450716 0 -21.072219055450716 -41.176863180893235 0 0 0 0 627.68719830265763 -439.98506763274418 0 -439.98506763274418 738.0960983846453 0 0 0 0 413.39756493468303 -1278.2195445043471 0 -1278.2195445043471 1170.3032819127693 0 0 0 0 -67.197858233004808 -839.77523472050962 0 -839.77523472050962 508.09259054100403 0 0 0 0 130.29966633021832 -699.99923160817707 0 -699.99923160817707 -190.07639799536446 0 0 0 0 -211.56529460515594 -494.72261722755502 0 -494.72261722755502 702.29993351714802 0 0 0 0 157.22327478736406 -408.24288984726445 0 -408.24288984726445 1298.2868229883461 0 0 0 0 -76.160141333151842 -807.90960425129015 0 -807.90960425129015 1430.6160599549621 0 0 0 0 -121.83721510696341 -374.52742572850548 0 -374.52742572850548 1460.1677258476557 0 0 0 0 -232.65305511985207 -235.18219340662472 0 -235.18219340662472 1352.4581149545847 0 0 0 0 -341.2967088042642 -867.51699870677839 0 -867.51699870677839 932.19564119333518 0 0 0 0 -0.25548729045840446 -912.73702964614495 0 -912.73702964614495 1362.5391425435082 0 0 0 0 -358.45067016329267 353.00824443616148 0 353.00824443616148 3458.4206561609171 0 0 0 0 98.180490608880064 -29.572677142117755 0 -29.572677142117755 -177.95641698122199 0 0 0 0 -663.08956805060734 -863.64388999770745 0 -863.64388999770745 871.73451852475409 0 0 0 0 -57.082025840412825 -756.75863582038437 0 -756.75863582038437 -535.93889584511635 0 0 0 0 -329.08600214886246 -415.72858457961411 0 -415.72858457961411 -504.2264706020469 0 0 0 0 -331.66995172036695 -1196.4074368368238 0 -1196.4074368368238 -2537.2227450755308 0 0 0 0 -1125.6972954034864 -192.15980505109474 0 -192.15980505109474 -198.51136533718091 0 0 0 0 0.7786953861505026 -399.08636957151612 0 -399.08636957151612 -2214.0868460016354 0 0 0 0 -169.67336158786202 -1071.5768668455275 0 -1071.5768668455275 -1808.4955657667233 0 0 0 0 -0.66188985238382636 -298.10154412808026 0 -298.10154412808026 -527.72739140235353 0 0 0 0 -169.14116915815976 938.83600771830243 0 938.83600771830243 -3067.7344573909941 0 0 0 0 -465.9006240136514 -816.55176460024813 0 -816.55176460024813 -152.30257849016925 0 0 0 0 -5.90309461454558 -7.4939212872451435 0 -7.4939212872451435 -13.244148090522231 0 0 0 0 -309.09487544446893 -508.02936173528724 0 -508.02936173528724 410.21451355275349 0 0 0 0 -99.327860541467089 -42.622738717516768 0 -42.622738717516768 -108.34021626002504 0 0 0 0 317.97557822591625 41.90240755409468 0 41.90240755409468 58.023298018204514 0 0 0 0 317.97557822556701 41.902407554560341 0 41.902407554560341 58.023298018262722 0 0 0 0 317.97557822574163 41.902407554531237 0 41.902407554531237 58.023298017680645 0 0 0 0 -29.343643722657248 -32.687214777552242 0 -32.687214777552242 -32.8267813204493 0 0 0 0 50.803899496109807 -58.461194399031228 0 -58.461194399031228 -162.11658836466086 0 0 0 0 190.41326761560049 250.50148237090616 0 250.50148237090616 -1671.7771591437195 0 0 0 0 15.905659944047557 1.4575930634869678 0 1.4575930634869678 -7.182295429662517 0 0 0 0 -171.19578398443036 274.49486084290118 0 274.49486084290118 -1560.234886153572 0 0 0 0 5.1039803722524084 -350.94423916070082 0 -350.94423916070082 -1067.285225627129 0 0 0 0 -276.77441503797309 330.44837482807634 0 330.44837482807634 -1248.9314428771031 0 0 0 0 378.33456829196075 -99.469093514897395 0 -99.469093514897395 -1210.4729405737435 0 0 0 0 -47.412083592120325 -88.850666624304722 0 -88.850666624304722 -530.56762674608035 0 0 0 0 491.17384351900546 -583.71792669088609 0 -583.71792669088609 -410.85847790312255 0 0 0 0 235.50189580829465 -184.31531098471896 0 -184.31531098471896 -132.159750375562 0 0 0 0 240.75707307699486 -493.14649690143415 0 -493.14649690143415 -1033.7471487085277 0 0 0 0 -94.202532335650176 -401.12292625245755 0 -401.12292625245755 -143.08037103889365 0 0 0 0 -69.052354749597725 -833.48889948895521 0 -833.48889948895521 -1213.9065061551228 0 0 0 0 263.51403886621119 24.721967555597075 0 24.721967555597075 -1907.6995794425893 0 0 0 0 113.09033349022502 -129.74027534794004 0 -129.74027534794004 -885.97253983383416 0 0 0 0 204.53746716833484 -146.17896173579538 0 -146.17896173579538 0.31197848571900977 0 0 0 0 -20.829344065787154 -220.85374052856787 0 -220.85374052856787 458.622923784671 0 0 0 0 139.03671264252625 -256.31319873845496 0 -256.31319873845496 -852.71882039801676 0 0 0 0 -4.960432314161892 -3.3357409995188618 0 -3.3357409995188618 -0.25615827750649345 0 0 0 0 102.72087111460496 -355.49684016440006 0 -355.49684016440006 330.79380458348896 0 0 0 0 -137.05288128301618 -339.11831063643331 0 -339.11831063643331 343.87522899979376 0 0 0 0 95.575388437162474 -301.03236220108829 0 -301.03236220108829 110.52794285287382 0 0 0 0 81.012741170750814 -139.33213068726764 0 -139.33213068726764 260.27908774410025 0 0 0 0 207.73616320053588 -419.74779042398131 0 -419.74779042398131 -74.361486244510161 0 0 0 0 193.66744756682601 -279.36717945800046 0 -279.36717945800046 84.976800634649408 0 0 0 0 -1621.6575706817384 -803.70845093097887 0 -803.70845093097887 68.97221472558158 0 0 0 0 3.1503105514361209 -4.9123889182308034 0 -4.9123889182308034 5.2758249321836388 0 0 0 0 2265.1011066190476 -232.38343168570282 0 -232.38343168570282 -272.02120577020105 0 0 0 0 295.24252720804361 -1801.4439104604899 0 -1801.4439104604899 0.44274145626695827 0 0 0 0 -1465.9952312003297 -258.22418693185318 0 -258.22418693185318 366.09787050847081 0 0 0 0 192.56351247742714 -518.16321521134159 0 -518.16321521134159 232.8839748098253 0 0 0 0 14.691573657139088 -470.26851620650268 0 -470.26851620650268 241.36899698308844 0 0 0 0 203.81832302511611 -164.38480394014914 0 -164.38480394014914 69.446071941303671 0 0 0 0 -1.9143568172784171 -4.5082030424104005 0 -4.5082030424104005 -8.6981299169192425 0 0 0 0 -10.94088497173874 -15.560395253194315 0 -15.560395253194315 -18.87788810942294 0 0 0 0 -310.74057636191719 -203.37975978022587 0 -203.37975978022587 914.96360376379744 0 0 0 0 750.46871033601929 34.221226964727975 0 34.221226964727975 -429.33935236412799 0 0 0 0 -178.37080111479736 -391.2223598434939 0 -391.2223598434939 525.80531882375362 0 0 0 0 88.313879551016726 -616.0591284953407 0 -616.0591284953407 431.48157620153506 0 0 0 0 -100.88737556656997 -467.14675760696991 0 -467.14675760696991 130.97008468874265 0 0 0 0 -110.56935025397979 -42.22880716790678 0 -42.22880716790678 -7.1897162981913425 0 0 0 0 42.790475581758074 -227.1288115420175 0 -227.1288115420175 -199.73354182082403 0 0 0 0 -1.9970592241631646 7.4741558381724928 0 7.4741558381724928 9.1234734080659337 0 0 0 0 1040.7747107881241 -397.01716776758531 0 -397.01716776758531 85.089423101599095 0 0 0 0 -45.287767029105453 -209.51110178729868 0 -209.51110178729868 105.07863259494479 0 0 0 0 170.08211489546738 -170.68324880303771 0 -170.68324880303771 70.037715554179158 0 0 0 0 172.99817300860013 -249.77326648830785 0 -249.77326648830785 70.357052250652487 0 0 0 0 135.33541234169388 -188.4686950626492 0 -188.4686950626492 91.055472260930401 0 0 0 0 -23.393699903090322 -23.975730270276244 0 -23.975730270276244 -39.849513443169826 0 0 0 0 202.58543213637313 -224.7936874732768 0 -224.7936874732768 86.726305591291748 0 0 0 0 173.76608894379751 -207.48366925387018 0 -207.48366925387018 38.687873417413357 0 0 0 0 132.54579502239358 -261.17881452306028 0 -261.17881452306028 174.84086974135425 0 0 0 0 123.45978192346956 -195.40193292636832 0 -195.40193292636832 89.523643481254112 0 0 0 0 110.74581772382953 -209.18769329726638 0 -209.18769329726638 47.764139537335723 0 0 0 0 51.867976478639321 -165.6939814867801 0 -165.6939814867801 116.27792823637719 0 0 0 0 128.7848102436983 -170.62155127514779 0 -170.62155127514779 45.210982836055337 0 0 0 0 120.75082674057921 -228.99187891426845 0 -228.99187891426845 4.015802341455128 0 0 0 0 106.81569610029692 -191.04164221364772 0 -191.04164221364772 49.314745859534014 0 0 0 0 115.18376259772776 -192.77238903530451 0 -192.77238903530451 -42.170864109502872 0 0 0 0 77.968072480522096 -180.540528139245 0 -180.540528139245 37.1346090160514 0 0 0 0 120.80030203549541 -400.77560965273733 0 -400.77560965273733 95.173371473647421 0 0 0 0 36.651666933175875 -86.628928761972929 0 -86.628928761972929 306.97295093109278 0 0 0 0 122.88246973290211 -182.59664366885292 0 -182.59664366885292 81.347614891565428 0 0 0 0 130.08158701172215 -232.48192061731243 0 -232.48192061731243 -76.222444117374835 0 0 0 0 158.4595780436357 -209.07751447830378 0 -209.07751447830378 -43.502167482307414 0 0 0 0 212.96167648441951 -204.55326396169994 0 -204.55326396169994 271.59381244564429 0 0 0 0 142.15512769631607 -193.31902705777401 0 -193.31902705777401 72.975111662973291 0 0 0 0 206.15491261120042 -157.24064928292 0 -157.24064928292 117.49669024352625 0 0 0 0 26.77526478187616 -51.806718283003477 0 -51.806718283003477 51.035699827948321 0 0 0 0 -369.0407864775334 -550.93412813386385 0 -550.93412813386385 100.52228760220351 0 0 0 0 17.9969703835377 -94.606610184688179 0 -94.606610184688179 123.54598559803708 0 0 0 0 -35.325934647466056 -819.4417353304234 0 -819.4417353304234 -1179.3869383254205 0 0 0 0 -520.23548945918446 -619.41042415828269 0 -619.41042415828269 26.092776483577836 0 0 0 0 106.33624510842492 -474.16321993142628 0 -474.16321993142628 -1309.1482209947062 0 0 0 0 4.54267444339348 -103.27899733437516 0 -103.27899733437516 -175.64520164755231 0 0 0 0 55.077485862296044 12.940662917963365 0 12.940662917963365 -80.409223074400359 0 0 0 0 -224.40925729405717 247.2169381378917 0 247.2169381378917 -472.40643783321866 0 0 0 0 -320.19898945445311 -390.17625457391114 0 -390.17625457391114 -501.34201850387035 0 0 0 0 -4.7065328861897342 -14.380161334034824 0 -14.380161334034824 -30.886143160716188 0 0 0 0 855.21140563394874 -1750.2630443847884 0 -1750.2630443847884 -498.98178994064801 0 0 0 0 114.74387693664175 372.66523349285853 0 372.66523349285853 -2054.4219050117481 0 0 0 0 8.3984571175242309 126.17773658469378 0 126.17773658469378 -977.04931215197576 0 0 0 0 -140.89444031665334 -504.49216286102092 0 -504.49216286102092 -1434.7594423099654 0 0 0 0 864.27826085037668 -975.35550606703328 0 -975.35550606703328 -1418.3626101973641 0 0 0 0 -3.4402891159431874 -0.58065356206833485 0 -0.58065356206833485 -7.3328430053942952 0 0 0 0 180.85815689776791 -737.30780673548725 0 -737.30780673548725 -1277.4405651077177 0 0 0 0 703.72031655645696 -529.51000491452578 0 -529.51000491452578 -2394.3968168339925 0 0 0 0 116.1751363231815 233.58668073197623 0 233.58668073197623 163.86368017690256 0 0 0 0 -1235.2429240440251 -1094.3222964265879 0 -1094.3222964265879 -904.19160088947683 0 0 0 0 -455.51977194621577 849.91022331017302 0 849.91022331017302 -731.17764899105168 0 0 0 0 -1092.6925152198673 -2027.7444767182969 0 -2027.7444767182969 3096.6312922375073 0 0 0 0 1545.9248102669371 1263.9499711898825 0 1263.9499711898825 -6881.9508900247092 0 0 0 0 -17.333225515807953 -7.8131514240544959 0 -7.8131514240544959 -7.2352875569318087 0 0 0 0 -1555.2517079493264 1469.3258018334891 0 1469.3258018334891 -5291.5266434027799 0 0 0 0 7.0506916236614643 -5.8927383204829198 0 -5.8927383204829198 -9.1001991550718202 0 0 0 0 408.66538988903631 -2308.557692087139 0 -2308.557692087139 1673.1229438147348 0 0 0 0 477.02245864277938 3648.1067043255316 0 3648.1067043255316 -3798.5993090482953 0 0 0 0 969.13696710160002 -129.31688180275523 0 -129.31688180275523 -925.33809964936518 0 0 0 0 1245.3847598062421 -769.72689423187694 0 -769.72689423187694 -384.39086839358788 0 0 0 0 504.12055881146807 4.423959429084789 0 4.423959429084789 -439.12268877487895 0 0 0 0 288.67767658486264 20.956816830104799 0 20.956816830104799 -59.672488603318925 0 0 0 0 371.12893725859431 -40.454064246837788 0 -40.454064246837788 145.24896998063195 0 0 0 0 367.5517590289528 24.262430917668098 0 24.262430917668098 -71.413291263161227 0 0 0 0 -95.596545740190777 12.74628020892942 0 12.74628020892942 497.11234048503684 0 0 0 0 156.65852076833835 -645.02819564611127 0 -645.02819564611127 636.86778958877767 0 0 0 0 -0.63752706834753781 -86.505425445310436 0 -86.505425445310436 -6.9358481420969156 0 0 0 0 216.14090126147494 -256.14548509276938 0 -256.14548509276938 84.108495142732863 0 0 0 0 233.37269166637998 -313.60595025927614 0 -313.60595025927614 139.90956620209909 0 0 0 0 220.34737927009712 -160.48186489750634 0 -160.48186489750634 52.465810768526197 0 0 0 0 448.98673701933876 -249.80559607631585 0 -249.80559607631585 -92.346716050582472 0 0 0 0 39.939749930658124 -41.86287782413217 0 -41.86287782413217 21.805224644127975 0 0 0 0 291.90310633029731 -134.12831230387383 0 -134.12831230387383 -33.917295867213397 0 0 0 0 72.127057738013093 -139.68906539769273 0 -139.68906539769273 72.507162903310757 0 0 0 0 36.022005478888786 -163.66578653504575 0 -163.66578653504575 62.048005826887675 0 0 0 0 120.34382741269656 -150.83765193736326 0 -150.83765193736326 -92.485114471142879 0 0 0 0 -61.362164631333144 -61.783878573900438 0 -61.783878573900438 331.21583391097374 0 0 0 0 388.24453328794334 -184.43578875871754 0 -184.43578875871754 119.1224924580165 0 0 0 0 224.99535097054502 -169.2144210171665 0 -169.2144210171665 75.584380509267305 0 0 0 0 61.546404884641703 -129.0466055529028 0 -129.0466055529028 64.220652216071016 0 0 0 0 308.9272073545726 -80.418308053325745 0 -80.418308053325745 337.30653301560233 0 0 0 0 123.24780435324647 -235.29178247455275 0 -235.29178247455275 242.74206082357705 0 0 0 0 448.0858761848358 -105.62789938563583 0 -105.62789938563583 -85.26934378882288 0 0 0 0 700.84356068189663 -263.85104900391525 0 -263.85104900391525 -93.241615086531965 0 0 0 0 10.697457764586066 -104.24239110501438 0 -104.24239110501438 91.152356844220776 0 0 0 0 480.18169400666375 -761.97560554966185 0 -761.97560554966185 670.63902389311261 0 0 0 0 519.57023560395464 -2169.3486588801898 0 -2169.3486588801898 -5421.3329050579341 0 0 0 0 -39.884210813543632 -53.124750331350953 0 -53.124750331350953 0.73862645431406193 0 0 0 0 -1270.0582729926973 -1107.0065545377402 0 -1107.0065545377402 -2238.2805913801712 0 0 0 0 15.102364368103821 -40.502161627072212 0 -40.502161627072212 -12.124435987942206 0 0 0 0 204.70919191621942 -665.28740874909272 0 -665.28740874909272 -4391.7183748991556 0 0 0 0 1042.160793150455 -2323.775802038097 0 -2323.775802038097 -1107.8494022992381 0 0 0 0 -222.86936093457916 229.26045170896759 0 229.26045170896759 -719.82215497826837 0 0 0 0 101.70451350031578 -110.28167977488918 0 -110.28167977488918 -36.779609011173108 0 0 0 0 -61.561117198667489 601.3387609532947 0 601.3387609532947 -1469.6140436708811 0 0 0 0 171.19416303897015 -144.70176522271731 0 -144.70176522271731 57.562307825661264 0 0 0 0 61.271687301094062 -150.24213644735573 0 -150.24213644735573 195.46891493779549 0 0 0 0 86.907738120586146 -237.13278876967524 0 -237.13278876967524 37.348584689898416 0 0 0 0 72.137357750252704 -89.208314498413529 0 -89.208314498413529 79.881981922895648 0 0 0 0 12.929007097482099 82.649252016979517 0 82.649252016979517 -773.91761211431367 0 0 0 0 22.244642789926729 99.1820127976207 0 99.1820127976207 -1205.0236359268238 0 0 0 0 359.74813665330294 221.23686256700057 0 221.23686256700057 -1285.099818667084 0 0 0 0 126.46813388174633 -190.11133816742949 0 -190.11133816742949 -89.125494464838994 0 0 0 0 19.887376115191728 -184.21725800506101 0 -184.21725800506101 171.86738219787367 0 0 0 0 74.299955152340146 -106.24151277548003 0 -106.24151277548003 -48.223909935519217 0 0 0 0 55.024885415856261 -41.104698713694233 0 -41.104698713694233 55.933041011696332 0 0 0 0 77.186762086862132 -133.34799421349933 0 -133.34799421349933 67.181464923179476 0 0 0 0 -159.77822570447461 -278.45451681256236 0 -278.45451681256236 152.12253509555012 0 0 0 0 74.942212157344329 -40.290852064506907 0 -40.290852064506907 -74.166350387822604 0 0 0 0 -192.53398604559879 -431.15340712224497 0 -431.15340712224497 -142.81469124695286 0 0 0 0 -57.662999877215043 -321.57456512703538 0 -321.57456512703538 72.030547675123671 0 0 0 0 -111.7703748362328 43.652957087295363 0 43.652957087295363 -166.86964207749406 0 0 0 0 -139.74422731871164 -577.2234349716723 0 -577.2234349716723 1048.2088510309841 0 0 0 0 -164.85538146071485 -758.30712716765265 0 -758.30712716765265 667.93810317573661 0 0 0 0 -585.44944230827969 -503.09652265841214 0 -503.09652265841214 550.11485578857537 0 0 0 0 -670.79810338949028 -717.31072350253089 0 -717.31072350253089 562.19975230513955 0 0 0 0 -568.48306353477528 -748.59886287558038 0 -748.59886287558038 420.3111136357038 0 0 0 0 -512.49596992737497 -488.50916215288817 0 -488.50916215288817 368.32446002273355 0 0 0 0 -573.67565366439521 -481.45079738905042 0 -481.45079738905042 467.49767461039301 0 0 0 0 -58.626097915521314 -294.51629735169809 0 -294.51629735169809 425.04076756411087 0 0 0 0 -473.74318096393836 -324.66901003449675 0 -324.66901003449675 828.90398635602651 0 0 0 0 456.4029940925393 -54.771470165411301 0 -54.771470165411301 -213.2579034627197 0 0 0 0 -220.83169997142977 -75.120785173363402 0 -75.120785173363402 525.22719366091769 0 0 0 0 -38.63753043318502 -37.036835536373474 0 -37.036835536373474 -179.15658240396442 0 0 0 0 84.368666142567236 106.95899997426386 0 106.95899997426386 -767.06559215889865 0 0 0 0 -237.82529721225728 -186.00206805031485 0 -186.00206805031485 -91.215531391186232 0 0 0 0 -254.41762260874384 -234.06560945738602 0 -234.06560945738602 -116.86976901924209 0 0 0 0 -517.27164063902455 -381.45958365168917 0 -381.45958365168917 411.15980136382859 0 0 0 0 -503.37782823636735 -353.56318058265606 0 -353.56318058265606 56.853054463179433 0 0 0 0 -682.75907995893067 -203.80681970537262 0 -203.80681970537262 -79.032739378759288 0 0 0 0 -704.57615067443112 -579.85762905895535 0 -579.85762905895535 -90.515629942827218 0 0 0 0 -228.02806171629345 -198.17490740418725 0 -198.17490740418725 -698.09024111781036 0 0 0 0 -248.06554810961825 -278.08686619914988 0 -278.08686619914988 -744.06663446563471 0 0 0 0 -459.18010518523806 -780.89395363944277 0 -780.89395363944277 -2150.7960946929525 0 0 0 0 51.769029550661799 -235.83361467026407 0 -235.83361467026407 -518.0989064314781 0 0 0 0 -439.5378274283139 -635.12348893377566 0 -635.12348893377566 -466.15197629139584 0 0 0 0 -1542.9555637719168 -331.22661634239921 0 -331.22661634239921 -500.94200629266561 0 0 0 0 -611.44157976738643 -24.57365569636022 0 -24.57365569636022 -2196.2579465028075 0 0 0 0 -723.85502867837204 -526.46881911141099 0 -526.46881911141099 -454.99612833417268 0 0 0 0 -21.558594236295903 -258.4277830576284 0 -258.4277830576284 -104.98036044902983 0 0 0 0 -385.38614370732103 181.54131872337894 0 181.54131872337894 -535.76397819483645 0 0 0 0 163.42349994092365 -14.259969484388421 0 -14.259969484388421 -187.57195212795341 0 0 0 0 -317.58775261076516 -402.42069094163162 0 -402.42069094163162 28.492873703995429 0 0 0 0 -359.22068329543617 -170.59518083369949 0 -170.59518083369949 -7.7174659369338769 0 0 0 0 124.52931716488092 -296.7468840388683 0 -296.7468840388683 -40.107224623548973 0 0 0 0 -190.21102447231533 -583.91591664488078 0 -583.91591664488078 210.51173261963413 0 0 0 0 -19.993134979042225 -355.73141507092987 0 -355.73141507092987 -64.160116925209877 0 0 0 0 -537.15006916047423 -548.13855235054507 0 -548.13855235054507 295.52029562029202 0 0 0 0 -573.22619047637272 -409.33823483111337 0 -409.33823483111337 149.99077541346924 0 0 0 0 -473.07254389498848 -784.63043520654537 0 -784.63043520654537 394.87436045076902 0 0 0 0 122.00455007320852 -898.46069793898278 0 -898.46069793898278 58.043080959439976 0 0 0 0 -418.54419780242461 -715.79979911066403 0 -715.79979911066403 149.44307920945721 0 0 0 0 194.56170245807152 -683.59864808787825 0 -683.59864808787825 -196.53973092064552 0 0 0 0 530.488515028861 -465.30065361007655 0 -465.30065361007655 -398.96992926931125 0 0 0 0 979.26685987171368 -465.51603812648682 0 -465.51603812648682 -405.83186547476907 0 0 0 0 561.78104060987243 -547.92185128345591 0 -547.92185128345591 -188.10668768307914 0 0 0 0 781.74213096595486 -323.83204487796684 0 -323.83204487796684 -388.47358807738055 0 0 0 0 639.49578416162694 -166.39541992166778 0 -166.39541992166778 -409.72020214183431 0 0 0 0 572.6302219767822 -308.8391287853301 0 -308.8391287853301 -386.32761423163993 0 0 0 0 571.29551959404489 -282.44878383105242 0 -282.44878383105242 -330.92396411599475 0 0 0 0 559.28653668431798 -323.71034551883349 0 -323.71034551883349 -302.54004686626286 0 0 0 0 563.86017708975123 -281.56120968340838 0 -281.56120968340838 -301.11239922943059 0 0 0 0 193.87741332990117 -474.67218788946047 0 -474.67218788946047 -198.01612161670346 0 0 0 0 496.78492778782675 -357.52681438345007 0 -357.52681438345007 -215.04545132357453 0 0 0 0 511.14227840807871 -311.27688213168585 0 -311.27688213168585 -317.2459050516045 0 0 0 0 126.84647600408061 -293.74814602766855 0 -293.74814602766855 -205.35555445474165 0 0 0 0 467.45950526179513 -185.78080354253325 0 -185.78080354253325 -233.33319691901124 0 0 0 0 480.06606815127452 -298.21899233437171 0 -298.21899233437171 -253.84954381041462 0 0 0 0 559.34791617706651 -128.70175838521391 0 -128.70175838521391 -155.80417511315318 0 0 0 0 663.67142554049497 -370.23514860818977 0 -370.23514860818977 -130.20125834736973 0 0 0 0 300.70038451778237 -252.27660240644036 0 -252.27660240644036 -166.79998658588738 0 0 0 0 377.73625462086056 21.529360981388891 0 21.529360981388891 -92.108561774803093 0 0 0 0 794.04011226844159 -423.37775398714803 0 -423.37775398714803 -40.719215878722025 0 0 0 0 612.09010898653651 -409.48572856248938 0 -409.48572856248938 310.04635822193814 0 0 0 0 451.39024805478402 -345.00149667942969 0 -345.00149667942969 1254.4065010226623 0 0 0 0 1115.3481576971535 -350.42536488430778 0 -350.42536488430778 316.35130234595272 0 0 0 0 715.37708645046223 -878.47839474101784 0 -878.47839474101784 -17.656951955331351 0 0 0 0 -275.09691490742262 -1212.2255396316468 0 -1212.2255396316468 -2675.6405615343592 0 0 0 0 730.0432867895579 -665.03397772300741 0 -665.03397772300741 478.1827429044497 0 0 0 0 28.258184395292346 -6.6357437302825417 0 -6.6357437302825417 -28.006604413664306 0 0 0 0 478.32133845158387 -2008.3081955107555 0 -2008.3081955107555 -5184.1219781011459 0 0 0 0 797.71267552219797 -444.26787222000712 0 -444.26787222000712 110.49917372671189 0 0 0 0 721.31592403526884 -610.3738023725291 0 -610.3738023725291 352.61721754257451 0 0 0 0 584.02545595407719 -508.52128232405812 0 -508.52128232405812 487.91040394600714 0 0 0 0 265.55911626835587 -590.2296567828962 0 -590.2296567828962 488.68265263875946 0 0 0 0 12.894234404603083 0.50375851143648731 0 0.50375851143648731 -23.242225905071763 0 0 0 0 560.64958443041542 -293.1113088553866 0 -293.1113088553866 -90.723913972295122 0 0 0 0 596.93640312500065 -440.72284783368377 0 -440.72284783368377 268.22192713336699 0 0 0 0 634.55678141181124 -269.70961662118498 0 -269.70961662118498 79.119739262638177 0 0 0 0 579.58926457812777 -232.44875261359266 0 -232.44875261359266 -210.47988296781841 0 0 0 0 583.28513187478529 -414.33142914974451 0 -414.33142914974451 -81.897395434040845 0 0 0 0 479.07389486532338 -291.79037302163442 0 -291.79037302163442 -223.73251902376069 0 0 0 0 475.79892099419885 -312.30829313469667 0 -312.30829313469667 -170.13012459945458 0 0 0 0 160.4264178027006 -215.04303118507869 0 -215.04303118507869 51.763160077054636 0 0 0 0 224.52524684394302 -179.79360306547278 0 -179.79360306547278 -74.680646032800723 0 0 0 0 17.756825443880302 -44.246099374688839 0 -44.246099374688839 -48.055938348494408 0 0 0 0 25.535043360985583 -29.772809664060333 0 -29.772809664060333 -101.98027161173377 0 0 0 0 37.072737627682216 -6.0114649457700864 0 -6.0114649457700864 -68.899183467635666 0 0 0 0 -1356.2536563838803 953.32651711439576 0 953.32651711439576 2028.3893091021018 0 0 0 0 15.085202495160047 -36.17866527903243 0 -36.17866527903243 -83.037890462815994 0 0 0 0 76.081222777313087 -44.011893490584043 0 -44.011893490584043 -166.57501229034096 0 0 0 0 2.0322635018089841 -51.624585450341556 0 -51.624585450341556 -100.88668944255741 0 0 0 0 -12.50636027676228 -38.271817573102453 0 -38.271817573102453 -66.378021240037924 0 0 0 0 4.9274461025452183 -40.74243866791727 0 -40.74243866791727 -74.274379514863924 0 0 0 0 82.076573462898523 31.120851528798084 0 31.120851528798084 -271.3268410835808 0 0 0 0 39.996358544623945 -123.27689493979415 0 -123.27689493979415 -79.521121171877894 0 0 0 0 175.3633521103111 -19.763422081072349 0 -19.763422081072349 -225.89682895618898 0 0 0 0 219.76939459808636 -127.69916904105776 0 -127.69916904105776 -225.20971476444538 0 0 0 0 347.62213799383608 -153.93084717564489 0 -153.93084717564489 -224.44120403913985 0 0 0 0 340.09488906580373 -200.92399952456617 0 -200.92399952456617 -254.19049760802591 0 0 0 0 565.13728699257081 -213.43765055867016 0 -213.43765055867016 -301.19821408561256 0 0 0 0 457.39479332076371 -67.755257470897959 0 -67.755257470897959 -299.29589944452164 0 0 0 0 473.75730515504256 -161.0775218183262 0 -161.0775218183262 -328.7551566267648 0 0 0 0 693.39149797827122 -147.47892837973632 0 -147.47892837973632 -429.24368588424113 0 0 0 0 317.56462406599894 -26.293196530357818 0 -26.293196530357818 -307.54532996310445 0 0 0 0 643.83853588617058 63.920171156329161 0 63.920171156329161 -377.66912064954522 0 0 0 0 282.32135049899807 48.919200235992321 0 48.919200235992321 -227.184858236531 0 0 0 0 127.5564800886641 -47.100544885859563 0 -47.100544885859563 -205.44068948302447 0 0 0 0 162.92023613117635 346.86972691696428 0 346.86972691696428 -461.27082290416729 0 0 0 0 326.00734909396851 239.69272715113766 0 239.69272715113766 -506.56196941560484 0 0 0 0 -30.185294766677544 183.78526420203707 0 183.78526420203707 -172.4183136523643 0 0 0 0 127.51007787685376 74.3060773618854 0 74.3060773618854 -138.92578448497807 0 0 0 0 24.384706874581752 94.809703141661885 0 94.809703141661885 -28.847972148098052 0 0 0 0 423.78100372151312 170.62409763924143 0 170.62409763924143 -350.28685929908534 0 0 0 0 138.61375113902614 89.817090852506226 0 89.817090852506226 -238.61628999127424 0 0 0 0 428.1400997204255 114.79248668330956 0 114.79248668330956 -378.29263604558946 0 0 0 0 804.69507109608821 -58.921306196521982 0 -58.921306196521982 -372.78467027527222 0 0 0 0 833.80298053933075 86.246966733422596 0 86.246966733422596 -580.99198212042393 0 0 0 0 749.64572918775957 -7.6072556013386929 0 -7.6072556013386929 -487.37333508122538 0 0 0 0 1011.4382791683311 6.292560006295389 0 6.292560006295389 -689.68709452137409 0 0 0 0 1222.9370804241189 -276.64133970185139 0 -276.64133970185139 -506.3073956938606 0 0 0 0 1385.8454283364408 -375.4079989307138 0 -375.4079989307138 -467.35399492644501 0 0 0 0 1089.9560446757241 -444.24260185392632 0 -444.24260185392632 -416.03420073196321 0 0 0 0 928.14817378856242 -57.793565644780756 0 -57.793565644780756 -985.41631992076873 0 0 0 0 1042.9069752984506 -709.29216212643951 0 -709.29216212643951 -607.73971846694621 0 0 0 0 516.49692525254795 -40.798823572782567 0 -40.798823572782567 -733.05656346819887 0 0 0 0 520.56096941515352 -34.730468462523277 0 -34.730468462523277 -1624.0070476885594 0 0 0 0 611.86063683085376 311.56475516324645 0 311.56475516324645 -962.24795565797831 0 0 0 0 28.401423698756844 654.01075666103134 0 654.01075666103134 -1074.0876273206668 0 0 0 0 451.83602433936903 -272.98473467459553 0 -272.98473467459553 -1164.048537615261 0 0 0 0 -833.19996311358409 170.22939456249878 0 170.22939456249878 -966.43384808234987 0 0 0 0 394.77576407714514 -180.52639403513604 0 -180.52639403513604 -666.78623359079938 0 0 0 0 -239.99012077145744 14.660165191351552 0 14.660165191351552 -566.5601066153904 0 0 0 0 259.69819766265573 -392.66532340965932 0 -392.66532340965932 16.734756816993468 0 0 0 0 642.66621013198164 44.047588681038178 0 44.047588681038178 -638.07664137065876 0 0 0 0 1023.7044282062852 -507.95074244942953 0 -507.95074244942953 -137.63700059912662 0 0 0 0 768.7991040902416 -376.15728048446545 0 -376.15728048446545 1287.8340650566242 0 0 0 0 240.618462778104 -134.85216338583996 0 -134.85216338583996 604.01544236090558 0 0 0 0 260.54685110141872 -968.08146628350369 0 -968.08146628350369 652.21860702090635 0 0 0 0 2681.306416304782 -2846.4451601688634 0 -2846.4451601688634 2082.4831175067011 0 0 0 0 3030.7052849121101 -747.30012000096758 0 -747.30012000096758 389.45386207219781 0 0 0 0 975.42934181758028 -580.86061924719979 0 -580.86061924719979 -14.385477046496817 0 0 0 0 2382.6836651446065 -911.27286709115288 0 -911.27286709115288 -189.50909624467022 0 0 0 0 908.94269303632609 -551.84881138879427 0 -551.84881138879427 578.96473602928745 0 0 0 0 1311.5110135457944 -1459.6259305429448 0 -1459.6259305429448 1315.7481094541217 0 0 0 0 1280.8993485443789 -1250.6457371462948 0 -1250.6457371462948 668.73785335210414 0 0 0 0 20.620468186562221 4.0201888229594829 0 4.0201888229594829 1.7976544652898099 0 0 0 0 54.775167237516143 -285.26149090562103 0 -285.26149090562103 -161.241776436902 0 0 0 0 132.20917034763261 -211.872634758598 0 -211.872634758598 -351.01712342107203 0 0 0 0 66.271963490247686 2.6264402642211166 0 2.6264402642211166 -3.1351462386537179 0 0 0 0 -103.6747942140646 -207.83323567170373 0 -207.83323567170373 829.49575705011375 0 0 0 0 6.3082896841232241 -4.7184823609492241 0 -4.7184823609492241 8.4291577783205582 0 0 0 0 1793.4955388749659 -671.30622814870731 0 -671.30622814870731 252.83851318012967 0 0 0 0 902.02806093469553 -1517.2099716216726 0 -1517.2099716216726 462.94111966791388 0 0 0 0 2113.1176182702475 -605.76762953488651 0 -605.76762953488651 -167.29428736794216 0 0 0 0 1211.5653709830076 -659.46603332293307 0 -659.46603332293307 966.47402247428545 0 0 0 0 1582.7758655376165 -833.65802827126572 0 -833.65802827126572 -189.86154294513108 0 0 0 0 1094.1035317120259 -278.81501849630877 0 -278.81501849630877 -10.239493732464325 0 0 0 0 1582.468451902052 -364.87613411023267 0 -364.87613411023267 -443.47500514327839 0 0 0 0 1112.5086229894077 -115.23833006524364 0 -115.23833006524364 -504.89845968235022 0 0 0 0 903.03714675156516 -424.33174759278154 0 -424.33174759278154 -416.60750258098415 0 0 0 0 1046.6928882571519 -843.75778724956763 0 -843.75778724956763 -220.39839142652636 0 0 0 0 642.40749310771935 -789.75633829786966 0 -789.75633829786966 -279.57598690796294 0 0 0 0 895.5237422757491 -740.80767905493485 0 -740.80767905493485 -272.26319241690362 0 0 0 0 471.40985741929035 -1263.8679839979595 0 -1263.8679839979595 -145.16783038481663 0 0 0 0 -361.69235130134621 -996.68054085761469 0 -996.68054085761469 41.200609544364852 0 0 0 0 -404.48555837263848 -1068.2083432562922 0 -1068.2083432562922 59.002796727356326 0 0 0 0 -842.01294845459051 -977.80478753673742 0 -977.80478753673742 308.62421290413477 0 0 0 0 -1528.5245262040698 -1565.3009043988968 0 -1565.3009043988968 -474.67762674171536 0 0 0 0 -836.09837814878847 -942.18519672979164 0 -942.18519672979164 65.568695400586876 0 0 0 0 125.22561286078417 -890.95216567086754 0 -890.95216567086754 63.323914387387049 0 0 0 0 -40.858554234582698 -190.12972164579696 0 -190.12972164579696 -67.410254639580671 0 0 0 0 -115.13474603452778 -1307.9824192518863 0 -1307.9824192518863 -635.39415672019823 0 0 0 0 71.031067081785295 -191.4703113875039 0 -191.4703113875039 -210.60499895170506 0 0 0 0 -22.548139053208843 -36.121545620352833 0 -36.121545620352833 -9.7819571084162504 0 0 0 0 -19.914032678701915 61.489428556189523 0 61.489428556189523 271.85951883434609 0 0 0 0 80.863203899471898 -65.498670263952164 0 -65.498670263952164 -0.70065850555212705 0 0 0 0 40.141830111271702 -224.15366785576771 0 -224.15366785576771 42.388657991461514 0 0 0 0 4.9061087137815775 -34.902301144771627 0 -34.902301144771627 -101.68704433753373 0 0 0 0 -1101.9308978176268 -329.42549637965567 0 -329.42549637965567 38.163092387461802 0 0 0 0 -369.62292569168494 -181.10837446057121 0 -181.10837446057121 -5.2946753389624064 0 0 0 0 -177.78564279302373 119.83928214422485 0 119.83928214422485 -36.905730800222955 0 0 0 0 -1443.4697542489448 4.9875221916372539 0 4.9875221916372539 286.2855706473274 0 0 0 0 -192.81847037976695 -753.86290811675462 0 -753.86290811675462 -2093.1533530382876 0 0 0 0 -12.428668383132219 -7.8475034911132013 0 -7.8475034911132013 -5.5061681985489344 0 0 0 0 -549.25620906038966 -1184.6099880545225 0 -1184.6099880545225 -1394.5890533488709 0 0 0 0 -1887.2511251871292 -1223.8229403363621 0 -1223.8229403363621 -251.81134588659916 0 0 0 0 -663.7751832169597 -617.2958813517107 0 -617.2958813517107 -94.272390850146621 0 0 0 0 -860.00875061767874 -859.53721803724329 0 -859.53721803724329 -281.43403248967661 0 0 0 0 -301.6963965803152 -612.52287706907373 0 -612.52287706907373 -192.28142093614952 0 0 0 0 -405.83231377943594 -774.14917489750223 0 -774.14917489750223 -329.81830070792057 0 0 0 0 -269.10183798630896 -909.70275728281558 0 -909.70275728281558 -672.87016648247663 0 0 0 0 -101.93024807229813 -788.17680619905877 0 -788.17680619905877 -658.9122062818351 0 0 0 0 -261.53000274774968 -702.60544181479054 0 -702.60544181479054 -588.32611527059635 0 0 0 0 141.98114553625055 -406.49861534345109 0 -406.49861534345109 -625.38607293914538 0 0 0 0 -318.33169022693619 -643.74512886647426 0 -643.74512886647426 -256.86309213709319 0 0 0 0 -532.82137560137198 -200.78087407018029 0 -200.78087407018029 -1169.973263547372 0 0 0 0 -1626.3521925903915 -376.06511561802836 0 -376.06511561802836 -89.039531444526801 0 0 0 0 -848.14651337629061 -622.08601597246047 0 -622.08601597246047 408.15144935149874 0 0 0 0 -595.87944574197172 -705.30377180978394 0 -705.30377180978394 10.295047181884001 0 0 0 0 16.46693194139516 -419.35194951904123 0 -419.35194951904123 -238.30218348803464 0 0 0 0 -598.88703451337642 -769.5085856359874 0 -769.5085856359874 408.26198467772338 0 0 0 0 -2.5877324390334024 0.62543700299320903 0 0.62543700299320903 0.28751026074111508 0 0 0 0 -32.185813447809778 -210.86296722681436 0 -210.86296722681436 -79.58690822083372 0 0 0 0 97.496104623249266 15.068635364725196 0 15.068635364725196 -709.89685496345919 0 0 0 0 -1.4651246397952491 1.2057345290338048 0 1.2057345290338048 0.49740995810434185 0 0 0 0 95.537880888289919 -132.96409284357765 0 -132.96409284357765 -627.75223783694673 0 0 0 0 166.06235083274078 -292.06024105267716 0 -292.06024105267716 566.20996068641398 0 0 0 0 -79.17728428808914 -158.38562492203346 0 -158.38562492203346 -435.67918158517568 0 0 0 0 123.86776059487602 -494.12803743744007 0 -494.12803743744007 756.91209928111493 0 0 0 0 14.563552767416695 -487.71630069045932 0 -487.71630069045932 1046.3641428921401 0 0 0 0 121.620321744791 -251.09778747272503 0 -251.09778747272503 24.805691555733574 0 0 0 0 57.372584463126259 -282.59807888370779 0 -282.59807888370779 94.317949685966596 0 0 0 0 -92.537526753396378 -181.31179103583418 0 -181.31179103583418 255.84760538987757 0 0 0 0 267.45476973358018 -85.583327525877394 0 -85.583327525877394 -608.31619668719941 0 0 0 0 0.00071407658106181771 -506.8767757684509 0 -506.8767757684509 295.94263162368588 0 0 0 0 -2.0020179750238185 2.7721380295491258 0 2.7721380295491258 0.74114086766653742 0 0 0 0 -338.91106167415273 -147.40109664293414 0 -147.40109664293414 539.50781525703496 0 0 0 0 -0.0087821675842860714 -232.62413105140149 0 -232.62413105140149 -283.30253697112494 0 0 0 0 168.82419385627873 -65.91716597451159 0 -65.91716597451159 -741.1176945817424 0 0 0 0 22.109212761395611 103.39917800373223 0 103.39917800373223 -134.20478645796538 0 0 0 0 63.646483870048542 267.41617590485112 0 267.41617590485112 -1332.6948051891522 0 0 0 0 132.4350585565553 -426.30055920794257 0 -426.30055920794257 -1008.1932868446675 0 0 0 0 -262.08413110664696 199.70028361472941 0 199.70028361472941 -954.80526945885504 0 0 0 0 -232.01263613259653 -413.73398285373696 0 -413.73398285373696 -622.99484558892436 0 0 0 0 0.16759554042486741 -58.407133479337098 0 -58.407133479337098 -1008.5724558225775 0 0 0 0 -107.62161712021043 -105.21665849343481 0 -105.21665849343481 -57.858265816845233 0 0 0 0 5.5377618406854481 -0.67983050435751124 0 -0.67983050435751124 3.1301434458030428 0 0 0 0 -45.487391381444468 -5.5720625181311334 0 -5.5720625181311334 -17.529000610200455 0 0 0 0 17.964261934060232 -7.0233722198182136 0 -7.0233722198182136 -8.1913816482529285 0 0 0 0 -217.27009125138284 -177.19928777626774 0 -177.19928777626774 1974.1441631630878 0 0 0 0 -8.8206567711769708 -1.4947267350643187 0 -1.4947267350643187 -2.1566238529704265 0 0 0 0 35.180778743632288 -17.327621470320253 0 -17.327621470320253 -35.30424585798761 0 0 0 0 37.355472931871191 -47.868365440444904 0 -47.868365440444904 -869.32362034051039 0 0 0 0 -49.711594684056763 -35.746992287193279 0 -35.746992287193279 -723.27109467220725 0 0 0 0 -77.591430064756423 30.388917935590143 0 30.388917935590143 -740.32225179839588 0 0 0 0 -20.322233298400533 73.929990488693875 0 73.929990488693875 -43.303593661090417 0 0 0 0 -19.378169065535644 13.65952332550674 0 13.65952332550674 -12.140201171233755 0 0 0 0 50.365712876839098 132.06474319976405 0 132.06474319976405 92.247034352978517 0 0 0 0 37.097119800702785 2.395651939606978 0 2.395651939606978 -82.661108908141614 0 0 0 0 113.02639729724615 92.928255258892023 0 92.928255258892023 -143.33319937527995 0 0 0 0 59.498689369473141 395.13326207056525 0 395.13326207056525 -606.69076131793554 0 0 0 0 -289.55328080442268 -360.79079026107502 0 -360.79079026107502 -85.263869854301447 0 0 0 0 -5.9729124203930724 3.7969791279120813 0 3.7969791279120813 -1.8874794681382099 0 0 0 0 369.15772089816164 -341.69478134650853 0 -341.69478134650853 -1292.6792364195571 0 0 0 0 -274.49906748722424 -238.17001508560497 0 -238.17001508560497 -589.68096867884742 0 0 0 0 50.983428335966892 -51.13967377620429 0 -51.13967377620429 -98.190413206204539 0 0 0 0 163.73379670991562 -37.898760992240568 0 -37.898760992240568 -170.14876874155016 0 0 0 0 126.80894894030644 95.394729782827199 0 95.394729782827199 -253.21747733264056 0 0 0 0 145.28993563857512 34.698691099925782 0 34.698691099925782 -164.94910959523986 0 0 0 0 151.35544610593934 -108.86233188126062 0 -108.86233188126062 77.192857938687666 0 0 0 0 310.27485917462036 -180.21522206130612 0 -180.21522206130612 -512.40631694301555 0 0 0 0 203.73762158385944 -112.38490250980976 0 -112.38490250980976 -97.514935555041916 0 0 0 0 -2.1505669993834999 -38.916668435316296 0 -38.916668435316296 -54.405134971386275 0 0 0 0 -85.169287661112321 68.004484613804379 0 68.004484613804379 -203.40691191652149 0 0 0 0 46.843811762926634 -66.984337633635732 0 -66.984337633635732 -215.96329802818946 0 0 0 0 14.001937893254137 -51.002086152291781 0 -51.002086152291781 -93.607043433867375 0 0 0 0 183.07292774121743 -544.9288956898672 0 -544.9288956898672 145.0186668831484 0 0 0 0 -4.0419797879840189 -7.4752243465615038 0 -7.4752243465615038 -36.58837073789465 0 0 0 0 141.80506990023423 25.863204653287539 0 25.863204653287539 -387.27343326606206 0 0 0 0 571.43785520135134 -123.81985643313965 0 -123.81985643313965 -26.726342516049044 0 0 0 0 -467.59358927267021 127.76965232278599 0 127.76965232278599 136.81957871135091 0 0 0 0 -39.983718820585636 -11.505849235945789 0 -11.505849235945789 -140.25877043639775 0 0 0 0 -91.561315958562773 51.724927654056955 0 51.724927654056955 -110.48335694918933 0 0 0 0 41.907291412528139 8.3697779789581546 0 8.3697779789581546 -211.8529718345435 0 0 0 0 79.364591368488618 24.024436016530672 0 24.024436016530672 -148.92232041506213 0 0 0 0 43.910280016149045 23.318110362662992 0 23.318110362662992 -148.93490801729786 0 0 0 0 230.01325393165462 -236.69979690173932 0 -236.69979690173932 -590.01915436558511 0 0 0 0 501.97652658773586 -405.86499803513288 0 -405.86499803513288 35.238706541505962 0 0 0 0 -36.980977626313688 -260.1803751694315 0 -260.1803751694315 96.797052843117854 0 0 0 0 288.25697690638481 -389.73635247184575 0 -389.73635247184575 -277.78074583201669 0 0 0 0 -4.8989489103394135 -8.7976453798578973 0 -8.7976453798578973 -4.0035121506140001 0 0 0 0 23.479402235738235 -700.6375433159119 0 -700.6375433159119 787.97178909209106 0 0 0 0 -218.94419457059121 77.254972755705239 0 77.254972755705239 577.96737203311932 0 0 0 0 137.68756529863458 -213.73354943470622 0 -213.73354943470622 -159.79549417389353 0 0 0 0 27.100535276016558 -34.036410636166238 0 -34.036410636166238 -93.918389919774938 0 0 0 0 -62.881258668407099 118.47668888437329 0 118.47668888437329 -213.76135872882151 0 0 0 0 109.82683819226804 272.52813968482224 0 272.52813968482224 -518.88543289675727 0 0 0 0 361.37711256326293 7.9893475058925105 0 7.9893475058925105 -567.59084042317772 0 0 0 0 -301.28667460750148 65.63343581301524 0 65.63343581301524 120.29993015502987 0 0 0 0 -20.844507442794566 392.28300856568239 0 392.28300856568239 -674.6190200963465 0 0 0 0 -2.8728637204302458 -2.0263887962258309 0 -2.0263887962258309 -1.2160470266123298 0 0 0 0 33.001765571592841 -189.84087577863102 0 -189.84087577863102 983.0337175008026 0 0 0 0 -91.260026819687482 110.07574560905482 0 110.07574560905482 -110.42417252952873 0 0 0 0 33.130252698213724 -17.885044181433045 0 -17.885044181433045 -74.414697177691579 0 0 0 0 113.88632911411696 -418.78134644739475 0 -418.78134644739475 -41.084918859483878 0 0 0 0 -64.072124731021177 103.73867022334525 0 103.73867022334525 -121.17712857550941 0 0 0 0 -100.38277101837411 -4.1637994677050756 0 -4.1637994677050756 -117.1602511472156 0 0 0 0 11.266634783401969 3.4366513830354961 0 3.4366513830354961 -124.96876344644988 0 0 0 0 -15.202391396912731 -4.0089915417852069 0 -4.0089915417852069 -10.159462839950983 0 0 0 0 1.3416010034561623 33.92532544995629 0 33.92532544995629 -2152.6998293255165 0 0 0 0 -12.420081258183814 10.735914421383256 0 10.735914421383256 -10.658276055757877 0 0 0 0 -46.182482005795464 114.46388782926078 0 114.46388782926078 -1978.9200543482148 0 0 0 0 -24.531047604628839 19.419458877222496 0 19.419458877222496 -185.67393161349173 0 0 0 0 -0.74912732024677098 -6.2058972662052838 0 -6.2058972662052838 -169.15585650110734 0 0 0 0 -126.45540117382188 37.147964470190345 0 37.147964470190345 -1815.1764778247161 0 0 0 0 -62.40234828175744 -30.257217123391456 0 -30.257217123391456 -1857.1682377657271 0 0 0 0 -64.453757164359558 49.455802768221474 0 49.455802768221474 -1818.2577601295488 0 0 0 0 7.5456534507102333 -106.29032748195459 0 -106.29032748195459 -1797.6157433278186 0 0 0 0 -50.233540868212003 -32.768708602092374 0 -32.768708602092374 -1564.0821608991537 0 0 0 0 -82.31785325310193 -120.4673351526726 0 -120.4673351526726 -1679.4149429964891 0 0 0 0 37.312357525923289 -103.26468813387328 0 -103.26468813387328 -2033.5422446806842 0 0 0 0 -0.6978369202115573 -21.991245853947476 0 -21.991245853947476 -1856.5412037399365 0 0 0 0 -30.893296435999218 -151.04481067447341 0 -151.04481067447341 -1819.0743291002 0 0 0 0 -30.581997592765788 17.077468919252524 0 17.077468919252524 -17.910019364170786 0 0 0 0 -9.448668890632689 -9.2951805380580481 0 -9.2951805380580481 -168.30021733786634 0 0 0 0 -77.405307774664834 139.38000038455357 0 139.38000038455357 -265.03890058354591 0 0 0 0 -3.8159230630844831 -116.5024758465006 0 -116.5024758465006 -2180.4255554586562 0 0 0 0 165.73101744608721 -116.20804291892273 0 -116.20804291892273 -3610.1821385263465 0 0 0 0 -167.65894152387045 8.0269298273778986 0 8.0269298273778986 -2035.3754735006951 0 0 0 0 -4.5997150609334767 -1.5558722922602612 0 -1.5558722922602612 -2.6592345520914549 0 0 0 0 -120.22113352117594 251.27419976811507 0 251.27419976811507 -2641.4897412761857 0 0 0 0 -41.938489237276372 71.628086433760473 0 71.628086433760473 -258.56531434302451 0 0 0 0 -10.1077677504897 2.7101105279177773 0 2.7101105279177773 5.4393632327024193 0 0 0 0 -220.83990716005792 363.2332279743714 0 363.2332279743714 -242.16071195766563 0 0 0 0 -12.550503180566011 23.244071246408566 0 23.244071246408566 41.571860626965645 0 0 0 0 1.1011807601281589 -4.2673419547354854 0 -4.2673419547354854 -2.8891076233972512 0 0 0 0 35.635659740597475 13.892322813844658 0 13.892322813844658 -113.04944036249071 0 0 0 0 24.973475796010462 26.154491869659978 0 26.154491869659978 -59.334207268897444 0 0 0 0 31.653127756901085 12.714085067360429 0 12.714085067360429 -132.34249227377586 0 0 0 0 21.724798466719221 -23.091148341991357 0 -23.091148341991357 -59.184519597726819 0 0 0 0 -56.868686601985246 22.035304136155901 0 22.035304136155901 -13.993089710042113 0 0 0 0 31.425780862555257 2.8399787516827928 0 2.8399787516827928 -63.900774336972972 0 0 0 0 0.37363823520763617 -4.8522868626165518 0 -4.8522868626165518 -10.155857559292272 0 0 0 0 0.53180400759447366 -16.043344514648197 0 -16.043344514648197 26.858902196516283 0 0 0 0 6.1301863431472157 45.244817328136378 0 45.244817328136378 -125.64268083916977 0 0 0 0 -2.5334448689245619 -7.7211918279353995 0 -7.7211918279353995 -67.139372377678228 0 0 0 0 18.725630843196996 -4.4598344487749273 0 -4.4598344487749273 -90.036585895475582 0 0 0 0 -24.94756461148404 5.9302335505497155 0 5.9302335505497155 -8.0745095679162127 0 0 0 0 -98.510757367941551 58.638820223713992 0 58.638820223713992 -32.232862739838311 0 0 0 0 -8.7090476821820175 8.0795924687617457 0 8.0795924687617457 -0.86422438997179341 0 0 0 0 16.879256217624061 12.49572809448 0 12.49572809448 -1942.5046617352345 0 0 0 0 1.0625770096285123 -6.9833875452061136 0 -6.9833875452061136 -13.2116253279085 0 0 0 0 32.572716170398053 -29.257344645113335 0 -29.257344645113335 -1857.2970260243164 0 0 0 0 4.6191169809899293 16.674060734541854 0 16.674060734541854 -1765.3106953931274 0 0 0 0 -18.443060906778555 -78.105040948430542 0 -78.105040948430542 -1694.2654291046492 0 0 0 0 -61.119882134895306 -37.240637096125283 0 -37.240637096125283 -1441.1884320804384 0 0 0 0 -41.500853214412928 -75.426898178760894 0 -75.426898178760894 -1574.0518511192931 0 0 0 0 25.155806185153779 -16.093039773200871 0 -16.093039773200871 -1825.7477307538502 0 0 0 0 -53.444739967642818 24.46943174426633 0 24.46943174426633 -1746.924644568935 0 0 0 0 -78.93157094088383 69.66223988305137 0 69.66223988305137 -1655.0983027923212 0 0 0 0 -73.886931630724575 -43.550347704425803 0 -43.550347704425803 -1446.0050889444683 0 0 0 0 -221.49900733737741 78.245485829043901 0 78.245485829043901 -1471.4266413923469 0 0 0 0 -63.019242810958531 99.366805101191858 0 99.366805101191858 -1885.3277261047479 0 0 0 0 -265.16602045745822 91.72752991404559 0 91.72752991404559 -1766.3076705372441 0 0 0 0 262.06593926611822 435.77231075873715 0 435.77231075873715 -486.57694334287226 0 0 0 0 -144.47763293201569 -162.93495075279498 0 -162.93495075279498 40.726900361391017 0 0 0 0 -8.6090554907938213 0.18838235198161613 0 0.18838235198161613 -1.6188159906407673 0 0 0 0 358.71307674457785 167.74192331999075 0 167.74192331999075 -2826.4843062101063 0 0 0 0 -83.810372525185812 -312.61155176575994 0 -312.61155176575994 -2207.9259999542555 0 0 0 0 -402.891780002421 -176.37818822648114 0 -176.37818822648114 -1810.0992985458288 0 0 0 0 -27.789246428117622 -3.7049052240035962 0 -3.7049052240035962 -1458.0315750276422 0 0 0 0 -239.61544603231596 -42.083321349899052 0 -42.083321349899052 -1462.6434973101423 0 0 0 0 -60.123202309361659 24.600879823497962 0 24.600879823497962 -1781.2197719150936 0 0 0 0 45.179185290122405 253.39013251761207 0 253.39013251761207 -2060.4919024235351 0 0 0 0 14.027661400963552 155.94198172309552 0 155.94198172309552 -1467.1063489406588 0 0 0 0 -6.1550767703738529 820.85900714085437 0 820.85900714085437 -2232.74217672128 0 0 0 0 5.2309582458110526 80.344399411595077 0 80.344399411595077 -1504.0082699076302 0 0 0 0 -145.97487264167285 -71.848967174330028 0 -71.848967174330028 -91.492285090666883 0 0 0 0 96.358880389365368 -487.08389168496069 0 -487.08389168496069 -105.49908661341306 0 0 0 0 -13.846377286856296 -181.80099582410912 0 -181.80099582410912 -779.28847511272761 0 0 0 0 -215.55795136262896 114.68902325249655 0 114.68902325249655 -757.81592379024369 0 0 0 0 -112.7827436652733 -140.32833059683617 0 -140.32833059683617 -992.54910212461255 0 0 0 0 -244.69950432071346 19.00795485341223 0 19.00795485341223 -989.56002255732892 0 0 0 0 -236.99418859038269 -84.210968922910979 0 -84.210968922910979 -443.23512600827962 0 0 0 0 -138.08292223740136 -410.25416843304993 0 -410.25416843304993 -341.99832882162809 0 0 0 0 -190.69119451520965 -215.47243426296336 0 -215.47243426296336 -551.50815258493822 0 0 0 0 -216.63529363035923 -255.57272955734516 0 -255.57272955734516 -578.94935579958837 0 0 0 0 -134.17667540165712 -164.7494991804524 0 -164.7494991804524 -1072.9898601675523 0 0 0 0 -131.23621916215052 58.383927803173719 0 58.383927803173719 -1358.8879032991535 0 0 0 0 -89.93332377274055 -273.08375710633845 0 -273.08375710633845 -1087.7721653832705 0 0 0 0 -116.39075404120376 -187.21262879663846 0 -187.21262879663846 -1090.2629633439938 0 0 0 0 -120.39425549352381 -101.99430621935608 0 -101.99430621935608 -1457.5382543771411 0 0 0 0 -185.32770961412461 -162.85291426582262 0 -162.85291426582262 -949.3367629632703 0 0 0 0 -166.9901715129381 -513.09919308758981 0 -513.09919308758981 -732.62738551337679 0 0 0 0 -266.2595579889603 -398.19081008682406 0 -398.19081008682406 -497.1055814728752 0 0 0 0 -229.53105380563284 -701.38661486489127 0 -701.38661486489127 -162.45832241437165 0 0 0 0 -305.9117193146958 -704.56886167172343 0 -704.56886167172343 -142.84524051778135 0 0 0 0 -296.24383179075085 -916.3236960911745 0 -916.3236960911745 89.285711035248823 0 0 0 0 -327.81982063606119 -754.72463506458371 0 -754.72463506458371 276.18424184073228 0 0 0 0 -238.85863059591793 -552.03328078370396 0 -552.03328078370396 -169.49142551232944 0 0 0 0 -235.44865731964819 -473.68307642891159 0 -473.68307642891159 -65.421190877677873 0 0 0 0 -183.58624287293787 -686.82708655034003 0 -686.82708655034003 298.51874721629429 0 0 0 0 -139.88523579956382 -223.32289208235306 0 -223.32289208235306 17.223967503785389 0 0 0 0 118.34750942012761 -612.08102871497249 0 -612.08102871497249 237.39303471841413 0 0 0 0 -46.117356276434066 -593.81502161292872 0 -593.81502161292872 -1386.4132401835814 0 0 0 0 -269.77606594629469 -556.13104138553172 0 -556.13104138553172 -1183.2403122771357 0 0 0 0 -43.698536808777135 -373.20358273101738 0 -373.20358273101738 -1802.4999900885741 0 0 0 0 -175.59642739279661 -226.84742935506802 0 -226.84742935506802 -1797.7322596854938 0 0 0 0 -141.60689058952266 -455.16779078560648 0 -455.16779078560648 -2307.1998469313985 0 0 0 0 -87.867287669461803 -415.78143303151592 0 -415.78143303151592 -1883.3634759963315 0 0 0 0 -11.572005411668215 -307.34368894115323 0 -307.34368894115323 -1741.1849310089492 0 0 0 0 -117.72242189047392 -232.32584214923554 0 -232.32584214923554 -1629.9452905653307 0 0 0 0 -111.51072769871098 -249.9064300947648 0 -249.9064300947648 -1220.8128180665371 0 0 0 0 -33.084700505540241 -207.66365669805964 0 -207.66365669805964 -1539.4572672340837 0 0 0 0 -45.348427130782511 -528.76733433203481 0 -528.76733433203481 -1202.2494494265293 0 0 0 0 -158.53060492733493 -400.71361404025083 0 -400.71361404025083 -1106.8057668863185 0 0 0 0 -215.03743305737225 -603.07996179605198 0 -603.07996179605198 -642.23965276105446 0 0 0 0 -223.6588615723158 -479.85426424785328 0 -479.85426424785328 -593.17217560716381 0 0 0 0 -202.27498971522436 -883.50247926769225 0 -883.50247926769225 -251.43209634532104 0 0 0 0 -206.22436186956475 -700.20698469554918 0 -700.20698469554918 -497.68814655815368 0 0 0 0 340.94505173168727 -884.59024579478137 0 -884.59024579478137 -696.73502289437965 0 0 0 0 -57.890770146732393 -389.54753440684135 0 -389.54753440684135 -1088.5514614331041 0 0 0 0 14.843811554368585 -842.9035074857602 0 -842.9035074857602 -822.3037226467859 0 0 0 0 -365.29132474560538 -153.93335605922493 0 -153.93335605922493 -628.37901506559137 0 0 0 0 -125.86421758370125 -578.72024439296365 0 -578.72024439296365 -1163.1016786758264 0 0 0 0 98.336698301562137 -313.03683827142868 0 -313.03683827142868 -2435.3780759663496 0 0 0 0 67.106653227208881 -514.39146298709238 0 -514.39146298709238 -1963.8819000347721 0 0 0 0 16.46462057827739 -142.29241123203246 0 -142.29241123203246 -2362.8068977057119 0 0 0 0 -213.63768782757688 -192.57453283796349 0 -192.57453283796349 -1386.0181235094824 0 0 0 0 42.943950735963881 -344.97837390519635 0 -344.97837390519635 -1822.1378690594574 0 0 0 0 71.134746824274771 -261.83840413716098 0 -261.83840413716098 -2288.4827193862293 0 0 0 0 -456.54631975985831 -279.93540254021354 0 -279.93540254021354 -1824.0474442700538 0 0 0 0 -152.83855985447462 -144.47007075135116 0 -144.47007075135116 -2369.5734321127238 0 0 0 0 -53.130881140765268 -157.29146965629479 0 -157.29146965629479 -1175.1247341233684 0 0 0 0 -9.3640895690768957 -2.3760835241992027 0 -2.3760835241992027 -500.24453106051806 0 0 0 0 -580.46999539784156 -951.15983254300954 0 -951.15983254300954 -955.71644015255151 0 0 0 0 10.314087177712736 -1.441576334965589 0 -1.441576334965589 -19.141535017154801 0 0 0 0 -11.975044869361 -8.6183750419869796 0 -8.6183750419869796 -10.469037796537847 0 0 0 0 -328.25155372859444 -713.19367581192637 0 -713.19367581192637 -2732.0753998682703 0 0 0 0 39.879553518083412 52.042882833469776 0 52.042882833469776 -2147.7048300183815 0 0 0 0 -663.77483380385092 -216.04697397857672 0 -216.04697397857672 -2217.2141380415414 0 0 0 0 -9.368376316004202 -16.409651396235546 0 -16.409651396235546 -247.85728196108539 0 0 0 0 -7.5525548582600095 -8.2805102582284178 0 -8.2805102582284178 -2.9850897602370488 0 0 0 0 222.1129789416882 -192.9354834121641 0 -192.9354834121641 -2900.5660482891399 0 0 0 0 185.41941556532402 -115.22012201903271 0 -115.22012201903271 -2367.4393916934787 0 0 0 0 4.6810694731383364 -1.5515180904024248 0 -1.5515180904024248 1.9774786272315161 0 0 0 0 89.99920379773539 15.372943348018453 0 15.372943348018453 94.677788161599892 0 0 0 0 -31.418110934115248 -110.17462636141863 0 -110.17462636141863 695.37862778204726 0 0 0 0 -201.72473569365684 -218.02262528527353 0 -218.02262528527353 349.55799416514856 0 0 0 0 262.32421957050246 -67.828115814745615 0 -67.828115814745615 -555.03240258990263 0 0 0 0 0.84969588409876451 -320.87244469832513 0 -320.87244469832513 -267.48972286340177 0 0 0 0 1.7859273106146247 2.7566853303523828 0 2.7566853303523828 0.4685764740458751 0 0 0 0 -215.35808065139281 -97.031638808599382 0 -97.031638808599382 1249.5294872460945 0 0 0 0 156.62929653035826 -179.53757931716245 0 -179.53757931716245 255.35322825100684 0 0 0 0 -76.203597466374049 -371.35638201732218 0 -371.35638201732218 -2450.5321066629549 0 0 0 0 -29.467258434509858 -190.09620765998261 0 -190.09620765998261 -290.21337690865403 0 0 0 0 49.92022821115097 -190.79918966983678 0 -190.79918966983678 -3855.5756564094831 0 0 0 0 -29.440529917274997 157.21138612645754 0 157.21138612645754 -64.66256819620321 0 0 0 0 -2.5848448981097363 -0.064743063206805118 0 -0.064743063206805118 -3.8829143009004223 0 0 0 0 -5.5273464369226515 -827.52539485505804 0 -827.52539485505804 -2803.7606030472816 0 0 0 0 6.5254744414676225 -2.3101282150464897 0 -2.3101282150464897 -10.181136229131141 0 0 0 0 -339.28915012661309 -894.32301359276244 0 -894.32301359276244 -2808.0809185119078 0 0 0 0 -381.10139884249656 -963.1543300091289 0 -963.1543300091289 -1368.0195720284173 0 0 0 0 2.8181534359173384 -8.881808443707996 0 -8.881808443707996 -28.330842103114264 0 0 0 0 -0.024476071979734115 -20.700116523381439 0 -20.700116523381439 -29.430024654197041 0 0 0 0 -2.3361505775387741 3.9840400940473728 0 3.9840400940473728 -0.52988650277154115 0 0 0 0 -10.776580720033962 -6.3249684479196731 0 -6.3249684479196731 5.2700090795697179 0 0 0 0 -13.578987489963765 -16.180777030840545 0 -16.180777030840545 35.678057694254676 0 0 0 0 0.01574666598753538 -18.73761702660704 0 -18.73761702660704 2.0772065116034355 0 0 0 0 -6.696695443513363 1.016468144566204 0 1.016468144566204 -0.78568242700009527 0 0 0 0 22.294572272512596 -128.9681092132887 0 -128.9681092132887 -660.76970950405303 0 0 0 0 9.5881337501092503 -3.6872514096159534 0 -3.6872514096159534 -10.465627419702116 0 0 0 0 -10.776580720026065 -21.816695313222521 0 -21.816695313222521 -7.0724515164038166 0 0 0 0 -49.578588003700133 -279.71824090215523 0 -279.71824090215523 -172.43395403269096 0 0 0 0 32.072988698462723 -166.68067024410993 0 -166.68067024410993 -448.66248395279399 0 0 0 0 -48.127107886539306 -358.56578899937449 0 -358.56578899937449 -204.0128706939322 0 0 0 0 -0.21221507148584351 -574.53889692324083 0 -574.53889692324083 -279.71865048486507 0 0 0 0 63.025306726165581 -179.79651211851888 0 -179.79651211851888 -1053.4573807289808 0 0 0 0 133.55460364937608 -147.99106027786183 0 -147.99106027786183 -758.05080134124728 0 0 0 0 2.4875767092847809 0.99924391679618907 0 0.99924391679618907 -1.0634032910333104 0 0 0 0 -246.83770452992758 -285.73436364691952 0 -285.73436364691952 -375.15014597478876 0 0 0 0 49.369722524075769 -132.64385474544542 0 -132.64385474544542 355.1630382564399 0 0 0 0 -114.70781558624003 -209.7469673420419 0 -209.7469673420419 -84.878908544691512 0 0 0 0 1.9536187519863688 -0.82073110485251277 0 -0.82073110485251277 -4.8150458740131228 0 0 0 0 -178.29904197150609 -81.145581060496625 0 -81.145581060496625 3.9962315887387376 0 0 0 0 410.77414425546885 -143.34369877139034 0 -143.34369877139034 802.83909253470483 0 0 0 0 -52.746828691160772 -567.76669868097815 0 -567.76669868097815 416.74618114563782 0 0 0 0 634.30657167227764 -415.29596932359709 0 -415.29596932359709 535.11766187667672 0 0 0 0 700.9952005710802 -344.0308693706902 0 -344.0308693706902 117.54946943372488 0 0 0 0 811.74916234533885 -273.33523793815402 0 -273.33523793815402 153.1391580648633 0 0 0 0 517.98691416760084 -632.96290476866943 0 -632.96290476866943 1978.6537604869372 0 0 0 0 1646.0765122025332 31.168154798229807 0 31.168154798229807 731.57302008068655 0 0 0 0 504.16136675148027 -402.20508648542 0 -402.20508648542 1079.3267377029697 0 0 0 0 59.642895710292578 -488.03488802843867 0 -488.03488802843867 428.69097283411247 0 0 0 0 91.923684892215533 -757.8155445321172 0 -757.8155445321172 797.48992973598831 0 0 0 0 24.934207068101387 -728.93814920300792 0 -728.93814920300792 737.02740732436359 0 0 0 0 -37.456678130285582 -1021.7959533251524 0 -1021.7959533251524 571.74253547951957 0 0 0 0 888.83775041990521 -1333.2218470123287 0 -1333.2218470123287 1561.7396646578272 0 0 0 0 874.47406264810706 -1122.8588503215433 0 -1122.8588503215433 820.30353160040613 0 0 0 0 -136.61393303971272 -533.11667017404397 0 -533.11667017404397 276.64771805095006 0 0 0 0 -225.15757494079298 -514.92739053676996 0 -514.92739053676996 301.11823820599238 0 0 0 0 -183.71560787051567 -420.02484515360266 0 -420.02484515360266 470.22808789366536 0 0 0 0 -108.97500620395294 -767.72422391877626 0 -767.72422391877626 786.42725483702816 0 0 0 0 177.06366665894166 -743.33900175945018 0 -743.33900175945018 389.33601727223868 0 0 0 0 339.11889646487543 -451.37605234523289 0 -451.37605234523289 564.67756342283246 0 0 0 0 -0.14118750907073263 -643.28514124767025 0 -643.28514124767025 469.18628710602934 0 0 0 0 0.7406526617705822 -471.10417502870587 0 -471.10417502870587 732.39609921241936 0 0 0 0 -7.6670003955915149 -3.8765719351551411 0 -3.8765719351551411 2.7674173639961168 0 0 0 0 -293.74843397777295 -935.65463451322285 0 -935.65463451322285 1139.1697230639693 0 0 0 0 540.38906511696405 -18.427041239217942 0 -18.427041239217942 773.9292280030877 0 0 0 0 448.67887980601517 -806.39561687608693 0 -806.39561687608693 304.68611321675417 0 0 0 0 10.605095536353474 -932.8278422473486 0 -932.8278422473486 318.74883038294502 0 0 0 0 935.78265468789323 -838.53227065799729 0 -838.53227065799729 34.772804889118561 0 0 0 0 954.95181211265663 -647.67522377140631 0 -647.67522377140631 248.12670788902324 0 0 0 0 -13.624524554589584 -24.940763589931748 0 -24.940763589931748 -16.869099718637756 0 0 0 0 -39.574815963715082 48.334410579616815 0 48.334410579616815 215.88023115938995 0 0 0 0 -270.54520147742005 -646.43294952183714 0 -646.43294952183714 748.98119046681313 0 0 0 0 -153.2910017513932 -663.83918757624997 0 -663.83918757624997 726.57993881475704 0 0 0 0 -4.1045213760226034 -428.98628254428331 0 -428.98628254428331 -1381.7718320874046 0 0 0 0 -9.1650126923835842 -7.9077406385812878 0 -7.9077406385812878 -7.6323720787489577 0 0 0 0 -248.47345508885337 -920.25619326398373 0 -920.25619326398373 -1517.3215924952183 0 0 0 0 -3.227585924609798 1.2965962358141496 0 1.2965962358141496 0.1958483671724025 0 0 0 0 21.175895213702461 -607.67493580089649 0 -607.67493580089649 -1760.9957847411315 0 0 0 0 139.94172171072569 11.247675800556863 0 11.247675800556863 -46.024767334114586 0 0 0 0 -263.81019952800125 -961.86566371345543 0 -961.86566371345543 -1081.683171343102 0 0 0 0 -301.44449252827326 -1116.8862965769295 0 -1116.8862965769295 -853.39252727059647 0 0 0 0 -290.52483341078914 -952.9964343232532 0 -952.9964343232532 -1074.1543696636581 0 0 0 0 -392.14127083052881 -1046.1680022581641 0 -1046.1680022581641 -781.73827227883157 0 0 0 0 -309.37086138193263 -939.68901034237933 0 -939.68901034237933 -749.85758178294054 0 0 0 0 -429.5801426031685 -1098.5785866011865 0 -1098.5785866011865 -1077.6387256485432 0 0 0 0 -326.28426834172569 -940.13640526906238 0 -940.13640526906238 -931.39746853847828 0 0 0 0 129.12877820568974 -948.42829655889727 0 -948.42829655889727 -1115.0628704264018 0 0 0 0 -354.30683489158218 -487.76183932423214 0 -487.76183932423214 -1500.4000893624616 0 0 0 0 115.84460156041678 -929.1447626808249 0 -929.1447626808249 -906.49539010787703 0 0 0 0 2.1488179606094491 -1212.2675647062642 0 -1212.2675647062642 -1347.2455355689526 0 0 0 0 -6.7850072554514327 -3.8506971856988059 0 -3.8506971856988059 1.6058716908740678 0 0 0 0 791.83637389735668 -1079.9573763417429 0 -1079.9573763417429 -1476.7394317396393 0 0 0 0 465.22500648238929 -1218.8610577406107 0 -1218.8610577406107 -1513.8119072976333 0 0 0 0 -319.05277398538783 -1415.9096387181044 0 -1415.9096387181044 -981.38143726400449 0 0 0 0 860.41248514672043 -726.93725878597616 0 -726.93725878597616 -1908.2311525932455 0 0 0 0 150.96606364447507 -262.76669160083475 0 -262.76669160083475 132.44245109778785 0 0 0 0 240.50920070472057 -182.45304948335252 0 -182.45304948335252 97.477113414170162 0 0 0 0 364.25195100868586 -350.55564114370645 0 -350.55564114370645 166.88912706034898 0 0 0 0 412.52990467545897 -127.2717380656577 0 -127.2717380656577 34.579646687954664 0 0 0 0 156.91173882505973 -135.678839176373 0 -135.678839176373 89.715702303750732 0 0 0 0 318.4994549358089 -631.97825091432969 0 -631.97825091432969 164.467377092682 0 0 0 0 197.52461931521248 -432.34861166602059 0 -432.34861166602059 516.37650296871652 0 0 0 0 508.92207016830798 -672.60922961168399 0 -672.60922961168399 25.870184174709721 0 0 0 0 535.36116315622348 -960.94454378740556 0 -960.94454378740556 -110.9313691855059 0 0 0 0 682.1395998779044 -679.65313414188495 0 -679.65313414188495 -1.4384560659491399 0 0 0 0 665.5519646461762 -435.49827068360719 0 -435.49827068360719 -6.7576060618885094 0 0 0 0 676.58587661941419 -51.172849463198872 0 -51.172849463198872 -94.938972605712479 0 0 0 0 572.36960407719016 -358.50263632430142 0 -358.50263632430142 -61.777565520678763 0 0 0 0 844.00692646356765 -71.95730853301211 0 -71.95730853301211 -102.9907361875521 0 0 0 0 894.39885845116805 -376.46200683633651 0 -376.46200683633651 -63.668869273715245 0 0 0 0 -150.24925058169902 -87.661035807295775 0 -87.661035807295775 -179.56966134941467 0 0 0 0 -168.32842302750214 -36.537833731806131 0 -36.537833731806131 285.57270017039991 0 0 0 0 -1031.2850380901946 -541.28360211975814 0 -541.28360211975814 -121.17412323367898 0 0 0 0 -759.33486951788655 -365.32535961279791 0 -365.32535961279791 -10.596118921450397 0 0 0 0 -266.67371099226875 -77.461837006041605 0 -77.461837006041605 -128.39348686637095 0 0 0 0 114.94817531574517 9.920988245132321 0 9.920988245132321 6.2564129758502531 0 0 0 0 -247.38573288748739 -780.71886434304906 0 -780.71886434304906 -628.9210143335622 0 0 0 0 -492.1519588381052 -928.86800075527572 0 -928.86800075527572 -563.87001320238051 0 0 0 0 -444.71154010327882 -628.27963140684369 0 -628.27963140684369 -369.24208944520797 0 0 0 0 -489.53304280532757 -680.48397350231244 0 -680.48397350231244 -429.89161028095623 0 0 0 0 -251.27281390532153 -434.43739817276946 0 -434.43739817276946 -591.65759268616239 0 0 0 0 -323.44096968171652 -902.82117716837092 0 -902.82117716837092 -821.05062266399909 0 0 0 0 -162.38387702923501 -264.63438967299589 0 -264.63438967299589 -72.144140855376463 0 0 0 0 -46.949597077560611 10.265810680080904 0 10.265810680080904 14.113550078182016 0 0 0 0 0.2009434587114356 -9.9313091201983354 0 -9.9313091201983354 7.0922774848646668 0 0 0 0 -106.66891871482949 -150.26892321055857 0 -150.26892321055857 -272.0034400186596 0 0 0 0 74.272528673667694 -359.00890697322393 0 -359.00890697322393 -934.9084854954217 0 0 0 0 11.554854763728613 -26.772407680461413 0 -26.772407680461413 -4.3369637130978447 0 0 0 0 -16.586388658237411 -145.11704559001737 0 -145.11704559001737 164.43659892588039 0 0 0 0 -3.0680969447816437 -21.803485387985006 0 -21.803485387985006 18.555647042262279 0 0 0 0 -44.234276506467722 -124.25872375996914 0 -124.25872375996914 -276.72229884297849 0 0 0 0 102.70542610170378 -192.72370045597381 0 -192.72370045597381 127.19925526522275 0 0 0 0 4.1844696889093029 -32.700210238346699 0 -32.700210238346699 62.86053592596727 0 0 0 0 -95.992149951474858 -111.63665140679223 0 -111.63665140679223 54.372092050376523 0 0 0 0 -11.119997053082841 -34.74268842108745 0 -34.74268842108745 60.330973885728184 0 0 0 0 -15.618125361565035 -42.692126007978004 0 -42.692126007978004 59.150446636471315 0 0 0 0 -41.694924454990542 24.215387843345525 0 24.215387843345525 38.66738745814655 0 0 0 0 -74.146687468441087 -9.6142047326593456 0 -9.6142047326593456 36.010223816861981 0 0 0 0 -88.830828704405576 -13.259944482299034 0 -13.259944482299034 35.420443859715306 0 0 0 0 -1.8177527042351755 -19.596892146336131 0 -19.596892146336131 65.598072402486792 0 0 0 0 -71.669739356584614 26.637934492762724 0 26.637934492762724 119.83809003928036 0 0 0 0 -154.28437855001539 -64.629690728601418 0 -64.629690728601418 113.86031556566741 0 0 0 0 -139.07324227609206 -36.135240574578347 0 -36.135240574578347 164.03296710570066 0 0 0 0 -3.3277560795249883 -162.16809324131464 0 -162.16809324131464 172.022621418776 0 0 0 0 28.10791691855411 -102.40780954917136 0 -102.40780954917136 49.354341567297524 0 0 0 0 -0.44147944330808286 -24.87646810058294 0 -24.87646810058294 59.457146044041565 0 0 0 0 -24.976049157208763 -21.652716384283849 0 -21.652716384283849 13.174851924457471 0 0 0 0 -113.31980501195358 -97.133969390790298 0 -97.133969390790298 -15.54841704795399 0 0 0 0 -140.0223334102775 -90.775489223349723 0 -90.775489223349723 63.935447569218013 0 0 0 0 -39.412299519244698 -272.87092887169274 0 -272.87092887169274 -364.81592306291714 0 0 0 0 -153.88524394802516 -104.80282065671418 0 -104.80282065671418 60.23891779623591 0 0 0 0 -41.310875257946918 -29.567770399795393 0 -29.567770399795393 2.6369507832091443 0 0 0 0 175.64989546133438 -194.62333783361828 0 -194.62333783361828 125.60796151354407 0 0 0 0 216.66852652085072 -568.90797441876566 0 -568.90797441876566 718.04376683153168 0 0 0 0 -24.399509633722801 -15.783669299786624 0 -15.783669299786624 -9.1776538194281727 0 0 0 0 32.441685301906546 -271.79722863286042 0 -271.79722863286042 -561.98302777059871 0 0 0 0 42.635149831945455 -541.20463334482247 0 -541.20463334482247 -214.30447745276615 0 0 0 0 -403.45729405492011 -227.09621743704696 0 -227.09621743704696 78.971431403137103 0 0 0 0 -409.13984037810587 -712.43463927214907 0 -712.43463927214907 -234.33247757596837 0 0 0 0 -507.58353011676809 -929.61586529196211 0 -929.61586529196211 -88.13255135853251 0 0 0 0 48.885881736860028 -861.9577516245372 0 -861.9577516245372 -131.70871002271451 0 0 0 0 -77.948767700436292 -724.54497631545382 0 -724.54497631545382 -241.13782505575728 0 0 0 0 -0.25886345822590329 -13.505161404990844 0 -13.505161404990844 12.129231050870573 0 0 0 0 2316.4209157539299 -852.87240126670804 0 -852.87240126670804 278.60163709603512 0 0 0 0 49.074534299390507 143.84763706138619 0 143.84763706138619 570.86248282190354 0 0 0 0 -8.1926586492724596 -16.841499782353935 0 -16.841499782353935 4.331125198259997 0 0 0 0 -207.2755912343564 -204.41603170654707 0 -204.41603170654707 -55.639530905280481 0 0 0 0 -247.89353680080967 -52.648888263924164 0 -52.648888263924164 58.070500422203622 0 0 0 0 287.7001870796521 -1089.1991845900375 0 -1089.1991845900375 290.3111665417091 0 0 0 0 -1627.0838238499709 -292.82792937987688 0 -292.82792937987688 81.898940454899275 0 0 0 0 -3.6890147617468187 -3.2320797846413711 0 -3.2320797846413711 -1.2899079531712232 0 0 0 0 340.72108071052935 -1386.3906933147737 0 -1386.3906933147737 1717.5691420045696 0 0 0 0 1882.2537648247308 -897.30904614196334 0 -897.30904614196334 180.63224277397967 0 0 0 0 387.10251884849276 -815.49034904166911 0 -815.49034904166911 -83.610589590112795 0 0 0 0 962.84539772396238 -1188.0999105835235 0 -1188.0999105835235 117.49358252306411 0 0 0 0 -567.88527800654992 -1410.1950765992297 0 -1410.1950765992297 792.91605180643091 0 0 0 0 312.13258184862207 -1335.4745216728988 0 -1335.4745216728988 111.02548743199441 0 0 0 0 -291.9976988476119 -815.40799838239036 0 -815.40799838239036 -121.99931065166311 0 0 0 0 -251.58549877630139 -1088.1341363117826 0 -1088.1341363117826 78.1091769199993 0 0 0 0 75.208517704159021 -1058.4355767341622 0 -1058.4355767341622 -306.75437841828898 0 0 0 0 -256.39017896276346 -1067.1916863314418 0 -1067.1916863314418 -3.849977551100892 0 0 0 0 -48.216889642440947 -845.51638560309948 0 -845.51638560309948 -83.81298920957488 0 0 0 0 -182.68475803021283 -973.52349367576244 0 -973.52349367576244 183.86300372677215 0 0 0 0 140.20415910420706 -757.77444256538365 0 -757.77444256538365 -119.71816149630467 0 0 0 0 -324.12355971199577 -845.14619506707822 0 -845.14619506707822 224.32854879867227 0 0 0 0 -384.83817620022455 -744.22236401106056 0 -744.22236401106056 -67.015270837134267 0 0 0 0 -768.80192774680472 -860.73124739300511 0 -860.73124739300511 324.12695922325656 0 0 0 0 -382.06177199201193 -1069.1963684802176 0 -1069.1963684802176 377.47512884096068 0 0 0 0 -448.83729790998041 -1028.9307701029902 0 -1028.9307701029902 410.39891129780153 0 0 0 0 -275.75241100200219 -907.70834037924214 0 -907.70834037924214 159.27110735637689 0 0 0 0 -314.3541756831255 -854.91518822747094 0 -854.91518822747094 201.89804763370194 0 0 0 0 105.47768148755131 -1126.4628639274997 0 -1126.4628639274997 370.71703456410614 0 0 0 0 -262.52450103322917 -782.90957530390733 0 -782.90957530390733 611.07494894374395 0 0 0 0 1194.5742402446631 -1610.8468707641805 0 -1610.8468707641805 929.68205925855 0 0 0 0 395.68194632817904 -811.84453927050527 0 -811.84453927050527 137.92474877918721 0 0 0 0 411.00443623086903 -1003.0859798536112 0 -1003.0859798536112 91.125315790390232 0 0 0 0 1145.9577569088433 -485.87679733829646 0 -485.87679733829646 -330.98322346132045 0 0 0 0 1055.2981069872621 -407.48396505971323 0 -407.48396505971323 -382.9849431347975 0 0 0 0 2700.7666390521917 -643.93270076641056 0 -643.93270076641056 -720.36725253290206 0 0 0 0 1297.1800428973365 639.25451052573771 0 639.25451052573771 -865.65636195965635 0 0 0 0 328.10150097584119 4.5126492621457146 0 4.5126492621457146 -320.69848242134321 0 0 0 0 387.07816815760452 -330.34792994664895 0 -330.34792994664895 -359.02997327729827 0 0 0 0 238.52739183058293 -553.2842045014695 0 -553.2842045014695 -691.65634122095071 0 0 0 0 178.89526967825077 -544.58724803338191 0 -544.58724803338191 -41.752735854272032 0 0 0 0 927.86895280249882 -60.491344663620112 0 -60.491344663620112 -660.17824330718577 0 0 0 0 981.94555616801517 -81.932626537871329 0 -81.932626537871329 -789.57227431033971 0 0 0 0 550.84523563874245 -692.22419297729357 0 -692.22419297729357 -1310.6084620468318 0 0 0 0 825.46379326437454 -73.616234486091344 0 -73.616234486091344 -560.28493471058027 0 0 0 0 925.67499537200524 75.612309531755955 0 75.612309531755955 -372.80474587120989 0 0 0 0 1230.9150766965613 136.89514418742692 0 136.89514418742692 -526.45372470832081 0 0 0 0 881.59229348157169 -123.99268745160134 0 -123.99268745160134 -348.69460861869447 0 0 0 0 831.06339018241852 -229.36168940094649 0 -229.36168940094649 401.60060714933206 0 0 0 0 853.65771133408998 187.51040782655764 0 187.51040782655764 -170.2370136035388 0 0 0 0 1949.9049533740326 -653.68906457546109 0 -653.68906457546109 -309.74985280713736 0 0 0 0 -10.47210754076616 -23.274089588552272 0 -23.274089588552272 -31.858868945788203 0 0 0 0 567.7595882362657 -555.55159198162073 0 -555.55159198162073 66.392680932756775 0 0 0 0 385.223729977326 -852.86940787446656 0 -852.86940787446656 -664.41768458027582 0 0 0 0 717.32710999788833 3.1066519114247058 0 3.1066519114247058 -415.28552184231739 0 0 0 0 56.394826141475278 -437.97688912652347 0 -437.97688912652347 -638.63060718872293 0 0 0 0 455.29249410555349 -649.76938222348326 0 -649.76938222348326 -537.68337273662837 0 0 0 0 264.93606279511005 -518.14434878511929 0 -518.14434878511929 -322.12355357666092 0 0 0 0 -50.802794593037106 -454.07151232389151 0 -454.07151232389151 -254.84449372910603 0 0 0 0 -191.92659652599104 -575.20475431056366 0 -575.20475431056366 -356.51694846265309 0 0 0 0 317.74895632782136 -445.04837051096547 0 -445.04837051096547 -282.8113303650025 0 0 0 0 -104.94544500380289 -653.84217011745204 0 -653.84217011745204 -285.58304602063436 0 0 0 0 -128.77704513516437 -288.26435627194769 0 -288.26435627194769 -84.652510330779478 0 0 0 0 -591.47410078547546 -484.14114203747522 0 -484.14114203747522 -162.1795225144815 0 0 0 0 -287.73506461839133 -192.40930610469877 0 -192.40930610469877 -137.20068057129538 0 0 0 0 -265.54924826936622 -122.79051554091711 0 -122.79051554091711 -21.752487457291863 0 0 0 0 91.803379792359408 -85.295590713908268 0 -85.295590713908268 27.265892625615891 0 0 0 0 -293.16959356983716 -269.62723127752542 0 -269.62723127752542 52.615588198154001 0 0 0 0 -359.74172321715741 -1231.8121428397171 0 -1231.8121428397171 -863.21511580556398 0 0 0 0 -1075.1373216609936 -614.67190072701487 0 -614.67190072701487 484.04865809278999 0 0 0 0 144.9710089128057 -157.87247581700467 0 -157.87247581700467 -1303.9238003562423 0 0 0 0 -595.07683150337834 -842.70440871586652 0 -842.70440871586652 -264.85256289115205 0 0 0 0 -675.86276030508452 -537.60162908288112 0 -537.60162908288112 229.21325211346993 0 0 0 0 -711.9300839422358 -714.38081920361219 0 -714.38081920361219 51.152837058281875 0 0 0 0 -5.8128360899785605 -10.591619256068498 0 -10.591619256068498 -11.683718665654368 0 0 0 0 167.76936871002545 -260.84537696198822 0 -260.84537696198822 75.000168152988408 0 0 0 0 -467.09097938635387 -548.95140949308552 0 -548.95140949308552 -248.73059877000924 0 0 0 0 -501.41817652000464 -592.50261892918388 0 -592.50261892918388 68.361699195134861 0 0 0 0 -611.3378383212621 -844.85369388080471 0 -844.85369388080471 -96.880210583600274 0 0 0 0 -442.06855408121191 -580.72811480171731 0 -580.72811480171731 -121.85606907738111 0 0 0 0 107.6777668636156 -105.95284846055222 0 -105.95284846055222 65.054575862938634 0 0 0 0 -753.01339556225867 -574.02953528729995 0 -574.02953528729995 338.49680717575393 0 0 0 0 -21.244207034877036 -154.07877277828811 0 -154.07877277828811 -139.34624204421561 0 0 0 0 -488.46609144956165 205.54951204785539 0 205.54951204785539 1370.9984451535274 0 0 0 0 -192.73141518648845 -93.075348520429543 0 -93.075348520429543 246.7348770875833 0 0 0 0 -4.507840258613605 -13.039110138306313 0 -13.039110138306313 10.246887261064103 0 0 0 0 937.22625251559657 -817.53028608628301 0 -817.53028608628301 -851.55560879944824 0 0 0 0 -136.92808456334751 -277.05962768926838 0 -277.05962768926838 519.46501720845481 0 0 0 0 418.1632106135512 -656.62408670382865 0 -656.62408670382865 278.06883571045182 0 0 0 0 815.6049650501227 -109.40506807850761 0 -109.40506807850761 -43.827267064581974 0 0 0 0 -52.499274867361237 -232.00040641370651 0 -232.00040641370651 -61.137277671747142 0 0 0 0 -5.2881463741941843 -300.91599399118422 0 -300.91599399118422 -18.50179382062197 0 0 0 0 -53.758397763988526 -110.74669534453608 0 -110.74669534453608 -37.037618628725298 0 0 0 0 -61.037341422910686 -69.806087878306244 0 -69.806087878306244 -98.738637418246071 0 0 0 0 -59.31254635201185 -86.998499927736702 0 -86.998499927736702 -65.720077477177256 0 0 0 0 -54.05693746034936 -76.602861614793113 0 -76.602861614793113 -100.86274156138381 0 0 0 0 -413.32015438856615 -517.56648893561214 0 -517.56648893561214 -187.1563999853679 0 0 0 0 -738.39870845503174 -438.93839739773102 0 -438.93839739773102 -136.30453442427097 0 0 0 0 -13.704302062007059 -143.14722990841869 0 -143.14722990841869 -33.611825429992606 0 0 0 0 45.46979195914173 -178.77818875210323 0 -178.77818875210323 -213.86665480221563 0 0 0 0 89.541408640288779 -121.16896869931887 0 -121.16896869931887 -40.706800045328663 0 0 0 0 78.432422801357461 -78.992307364402222 0 -78.992307364402222 -69.283424448542064 0 0 0 0 106.92146076418373 -148.22188716631194 0 -148.22188716631194 -97.624194576231375 0 0 0 0 848.36045674909838 23.063248147409467 0 23.063248147409467 -24.37800004100427 0 0 0 0 -809.29056663630763 -546.03822931120521 0 -546.03822931120521 -113.82445664059196 0 0 0 0 -177.62449583644047 -384.27667678857688 0 -384.27667678857688 208.33005052921362 0 0 0 0 -7.8423961998996674 -161.69154313017634 0 -161.69154313017634 -204.55971472197416 0 0 0 0 92.368439147802718 -137.56880559753043 0 -137.56880559753043 80.683807694373542 0 0 0 0 86.334040996999036 -59.163824812263613 0 -59.163824812263613 -120.11339494864544 0 0 0 0 -274.58080407176749 -130.69560749408993 0 -130.69560749408993 -450.07214090169873 0 0 0 0 -818.0412308696541 -493.19079967075231 0 -493.19079967075231 -186.87200606433726 0 0 0 0 0.45313974373709698 -5.8419675774184441 0 -5.8419675774184441 -5.2518179870605692 0 0 0 0 -776.82884966324491 -545.20974382048371 0 -545.20974382048371 -156.15603886070312 0 0 0 0 -818.1038485661993 -511.5416524544321 0 -511.5416524544321 -51.603588200625381 0 0 0 0 -607.15872876963113 -461.71312877789751 0 -461.71312877789751 -115.06642740249663 0 0 0 0 -61.698384579586445 -57.104852943495644 0 -57.104852943495644 -15.466846492428331 0 0 0 0 -995.43768994233687 -559.62111969982288 0 -559.62111969982288 -102.28710150161351 0 0 0 0 63.836573494874756 -105.94215578687908 0 -105.94215578687908 42.369602793667582 0 0 0 0 -904.27185208775336 -470.80917406449953 0 -470.80917406449953 -130.87618933581598 0 0 0 0 -9.7809827335350974 -12.972888282045972 0 -12.972888282045972 -6.0779682464174698 0 0 0 0 -910.53348648810061 -564.63284549002856 0 -564.63284549002856 -145.35018326819772 0 0 0 0 -300.4823052152351 -220.77097930998934 0 -220.77097930998934 183.03974829673098 0 0 0 0 -132.21509032980248 -275.70583823463312 0 -275.70583823463312 173.857313702385 0 0 0 0 -84.719779698818456 -266.86321677837623 0 -266.86321677837623 38.613447050971445 0 0 0 0 -557.22086222149665 -556.07484085833858 0 -556.07484085833858 10.156460015670746 0 0 0 0 -127.59637812832079 -284.30791198076258 0 -284.30791198076258 50.755120403649926 0 0 0 0 117.48189450878999 -455.72948372015162 0 -455.72948372015162 107.25834830974782 0 0 0 0 221.84492922693607 -447.51812122145384 0 -447.51812122145384 184.77520423175883 0 0 0 0 -69.922017584911373 -307.98923783619421 0 -307.98923783619421 188.73450994775339 0 0 0 0 -78.823008810402825 -231.20887618049164 0 -231.20887618049164 170.12150174999624 0 0 0 0 -58.340742841959582 -282.56919382234992 0 -282.56919382234992 52.675254066329217 0 0 0 0 -200.89573525302694 177.25963405678885 0 177.25963405678885 -184.19572273245649 0 0 0 0 72.477082710160175 -114.93823235814034 0 -114.93823235814034 67.464390476117842 0 0 0 0 33.618544574681437 -336.14451365925879 0 -336.14451365925879 -889.4779307740173 0 0 0 0 -845.89912270897184 -577.59044880643523 0 -577.59044880643523 -378.72340878927389 0 0 0 0 0.55314266022023162 -4.0538872297618127 0 -4.0538872297618127 -8.0394510079875658 0 0 0 0 -234.14503766433336 -268.50267824217372 0 -268.50267824217372 -850.77782984654186 0 0 0 0 -189.01435586169828 -124.65662182974484 0 -124.65662182974484 -2.921021158399526 0 0 0 0 -442.44267987177591 185.2806173396857 0 185.2806173396857 -352.95253394768952 0 0 0 0 -729.38160033160239 -278.26463424292524 0 -278.26463424292524 91.847269000150845 0 0 0 0 -177.48823246714892 -18.540488705559255 0 -18.540488705559255 84.487307214847533 0 0 0 0 -176.72893739084247 -91.26217977120541 0 -91.26217977120541 -11.543253458039544 0 0 0 0 -152.44930241440306 -34.865915429956658 0 -34.865915429956658 30.094331016327487 0 0 0 0 -368.84445207739191 -258.55661426776214 0 -258.55661426776214 -360.75966269367927 0 0 0 0 56.691023257968482 52.524755426500633 0 52.524755426500633 -365.06900312406651 0 0 0 0 11.924339386397421 -68.874076138619955 0 -68.874076138619955 -84.53042947074259 0 0 0 0 -178.82258569791702 -59.552013834064383 0 -59.552013834064383 88.163044585235184 0 0 0 0 -193.49721978229354 -98.978096001772428 0 -98.978096001772428 40.970692433780641 0 0 0 0 -267.41170729213627 -408.23653770093733 0 -408.23653770093733 -451.32465352204235 0 0 0 0 -158.84603334759595 -1.3365675215791271 0 -1.3365675215791271 -146.05758520698873 0 0 0 0 -404.30642659022124 222.62945376110474 0 222.62945376110474 -487.22458974756455 0 0 0 0 -702.22199152296525 -445.20108702034668 0 -445.20108702034668 -207.35315086665832 0 0 0 0 -123.78990836157288 -151.60671724623973 0 -151.60671724623973 44.230073777829936 0 0 0 0 -49.058255706751659 -10.974708008323177 0 -10.974708008323177 -43.383921975392163 0 0 0 0 -1992.3439272348915 -910.48339239539564 0 -910.48339239539564 175.09415788321348 0 0 0 0 -2117.3462786481614 -1485.3022604288624 0 -1485.3022604288624 -211.72948638058551 0 0 0 0 558.25712509063305 50.449872496559237 0 50.449872496559237 -682.56534541382462 0 0 0 0 -41.191637664625887 -1566.8022523568823 0 -1566.8022523568823 -3442.2617556734631 0 0 0 0 -256.12224572084233 -1065.0347057830736 0 -1065.0347057830736 -1796.9495856581871 0 0 0 0 -644.94735850000143 -475.96213798073541 0 -475.96213798073541 -399.31500210034937 0 0 0 0 -817.01414361252682 -135.77498339352223 0 -135.77498339352223 -277.53564546442794 0 0 0 0 -649.9613332831068 -423.40000492458785 0 -423.40000492458785 -119.80418856532015 0 0 0 0 -25.225352867326762 -55.201981047273591 0 -55.201981047273591 -50.312806806913606 0 0 0 0 281.25694202331943 -580.55971530492752 0 -580.55971530492752 1141.3983143966143 0 0 0 0 300.6351090274693 -569.50200050233616 0 -569.50200050233616 478.92721394640103 0 0 0 0 -35.176452585408697 -294.58385526757775 0 -294.58385526757775 -496.40851334841136 0 0 0 0 451.43061538974143 57.273193358676508 0 57.273193358676508 -1922.1558246930435 0 0 0 0 498.14080935297534 -1050.9770627415273 0 -1050.9770627415273 1620.3338294943132 0 0 0 0 -8.4696201406665068 -4.4373313558056964 0 -4.4373313558056964 -1.2435786943595986 0 0 0 0 1246.5388094203227 327.42963499406324 0 327.42963499406324 -86.482436186153791 0 0 0 0 213.10230990138371 -298.41608737685056 0 -298.41608737685056 254.31061152629991 0 0 0 0 658.80296974498197 -218.38925537754767 0 -218.38925537754767 108.7607988585878 0 0 0 0 -13.134492178682819 -27.05897240743343 0 -27.05897240743343 -31.612295305243634 0 0 0 0 1005.0006676305347 -930.17205073841615 0 -930.17205073841615 877.87395152861427 0 0 0 0 1085.8669266013458 -1474.804421538618 0 -1474.804421538618 278.58504065194074 0 0 0 0 1042.2350290918985 -635.66111502862259 0 -635.66111502862259 44.349326153173024 0 0 0 0 -11.507512506366567 -21.058296119214219 0 -21.058296119214219 -20.110161737987454 0 0 0 0 958.11671600816771 -254.60069759237012 0 -254.60069759237012 -88.926583637869044 0 0 0 0 482.77037890820066 -383.83330653054873 0 -383.83330653054873 -179.2710194487081 0 0 0 0 483.0824785787263 -397.31317745216438 0 -397.31317745216438 292.0439933480975 0 0 0 0 318.0755607932515 -140.07962580933781 0 -140.07962580933781 207.26526740647387 0 0 0 0 344.56188424772699 -79.685108551695521 0 -79.685108551695521 -353.8582354928767 0 0 0 0 624.65880939419731 -409.10320085909188 0 -409.10320085909188 245.99995057841443 0 0 0 0 1174.3486108454672 -603.94093976515705 0 -603.94093976515705 39.548985729343258 0 0 0 0 787.33717253236682 -462.49829312469956 0 -462.49829312469956 303.72989983037405 0 0 0 0 308.16244166622346 -475.73326904077203 0 -475.73326904077203 325.36158812275971 0 0 0 0 322.26363678737107 -596.69852353184206 0 -596.69852353184206 492.91370304534939 0 0 0 0 300.64932068251073 -391.715324307228 0 -391.715324307228 86.111280880289996 0 0 0 0 69.018862574186642 -857.00752384987754 0 -857.00752384987754 247.85156847826511 0 0 0 0 -278.47683375887573 -1249.1282458483674 0 -1249.1282458483674 -150.15983277537089 0 0 0 0 774.79056841446436 -752.91558920680109 0 -752.91558920680109 -570.62562993077881 0 0 0 0 89.597945481742499 -687.91671837115973 0 -687.91671837115973 -411.82728208758044 0 0 0 0 1099.0080536803289 -538.09520071413317 0 -538.09520071413317 -403.87658334961452 0 0 0 0 -1183.6413219561218 -401.81666888413019 0 -401.81666888413019 269.13427383546878 0 0 0 0 -6.210607374529161 -9.5864909433517482 0 -9.5864909433517482 -5.7430034565677346 0 0 0 0 442.83151634637034 -29.165054357477857 0 -29.165054357477857 -28.913274211574389 0 0 0 0 237.65233559783519 56.33595142975355 0 56.33595142975355 -73.283144938213809 0 0 0 0 316.29303272078687 -155.9646521633108 0 -155.9646521633108 -155.83079262486353 0 0 0 0 19.187396857480053 -234.72091914466364 0 -234.72091914466364 -133.0909965961223 0 0 0 0 256.44636313132651 -304.23176379785809 0 -304.23176379785809 -491.07186626625116 0 0 0 0 -128.07944754062919 -198.45227022884137 0 -198.45227022884137 -514.43385099396255 0 0 0 0 -25.596361749703647 -386.80539736759692 0 -386.80539736759692 -204.37297329656212 0 0 0 0 83.063960595194658 -91.618715115901068 0 -91.618715115901068 24.806327038284508 0 0 0 0 -3.5581527821855161 0.87151088625594753 0 0.87151088625594753 1.4918232859646068 0 0 0 0 98.622364250215469 -112.22227789632598 0 -112.22227789632598 -807.99510552927677 0 0 0 0 -94.647178105049534 -152.6483419633114 0 -152.6483419633114 -451.89514113738187 0 0 0 0 86.578096650075167 -216.04488606432278 0 -216.04488606432278 -451.33452874192341 0 0 0 0 -501.859114552557 -166.48047670137566 0 -166.48047670137566 -289.45260651930948 0 0 0 0 -273.61858430212305 -409.14492083710593 0 -409.14492083710593 -239.46611860556368 0 0 0 0 0.15745497343596071 -222.05606203418938 0 -222.05606203418938 -116.17723796233986 0 0 0 0 -418.0179658369816 -515.9266396628791 0 -515.9266396628791 -15.552219684406737 0 0 0 0 40.204572330228984 -170.03790583319096 0 -170.03790583319096 -58.689377292019344 0 0 0 0 -371.16107050367282 -579.7805770501036 0 -579.7805770501036 -305.82506010646284 0 0 0 0 -6.3860941617156186 -28.510020456559602 0 -28.510020456559602 -35.5511654058555 0 0 0 0 1028.9063939527841 717.44283060760972 0 717.44283060760972 -599.62268509557998 0 0 0 0 -560.39999499458645 456.09880607174 0 456.09880607174 -281.15800604612855 0 0 0 0 578.33448093484003 786.03650400571996 0 786.03650400571996 273.926998297512 0 0 0 0 580.96359318446594 786.9467541152311 0 786.9467541152311 -833.96192315598614 0 0 0 0 -245.22474174899253 194.31214094502252 0 194.31214094502252 -2477.6731850423671 0 0 0 0 -83.656259117822628 -442.50791601013407 0 -442.50791601013407 -78.720702228613618 0 0 0 0 -668.12500220672518 200.99431534215449 0 200.99431534215449 -334.53705902429874 0 0 0 0 -2000.3098605626146 915.76608834632839 0 915.76608834632839 -635.73206419201324 0 0 0 0 -108.56750927978419 -143.00335599576852 0 -143.00335599576852 33.121085899624681 0 0 0 0 981.09231851600271 -747.51813565749273 0 -747.51813565749273 -1027.706342406299 0 0 0 0 -405.37514861833188 -2914.1391111958119 0 -2914.1391111958119 -1548.1312652179545 0 0 0 0 -136.32704139343696 -35.86056699931396 0 -35.86056699931396 179.0573066437621 0 0 0 0 -663.52342829517147 -2068.6663673957983 0 -2068.6663673957983 1231.221087796494 0 0 0 0 55.069436722152432 -12.687298021950099 0 -12.687298021950099 -18.415691914443975 0 0 0 0 -780.94457143044565 1246.0612473452447 0 1246.0612473452447 408.79476301575528 0 0 0 0 -68.317460311809555 -5.324518330770843 0 -5.324518330770843 -1604.089032752705 0 0 0 0 105.84095475875074 222.11272120899685 0 222.11272120899685 -1476.1990855445329 0 0 0 0 1050.2197712342022 792.00691520473401 0 792.00691520473401 -4350.5434386688949 0 0 0 0 247.85512686066795 2641.1621388539661 0 2641.1621388539661 -2951.6121547031807 0 0 0 0 380.54976287714089 -307.00038662598035 0 -307.00038662598035 64.684919481387624 0 0 0 0 420.01496581829269 -408.58156339177367 0 -408.58156339177367 -305.00951890498436 0 0 0 0 383.29219804581953 -44.20968954406635 0 -44.20968954406635 -73.224486262603023 0 0 0 0 63.269194308712031 195.16263508378643 0 195.16263508378643 1112.358582482505 0 0 0 0 -58.830464724800549 -93.226302780647529 0 -93.226302780647529 -180.98952666301193 0 0 0 0 -46.906661306741398 -64.066742772117379 0 -64.066742772117379 -128.48476947831992 0 0 0 0 -217.25893764688226 -135.51963774296564 0 -135.51963774296564 -352.84669804433361 0 0 0 0 -131.3353119489766 -229.85574914608424 0 -229.85574914608424 -314.66645411153877 0 0 0 0 -329.52012447702873 -191.11616386976129 0 -191.11616386976129 -169.33334259877665 0 0 0 0 51.343366596658086 -156.547027127994 0 -156.547027127994 -101.71035908785066 0 0 0 0 -34.624301430797061 -65.905683584975577 0 -65.905683584975577 -53.262566491571455 0 0 0 0 329.45039538262063 115.32038277063657 0 115.32038277063657 374.63091482184609 0 0 0 0 -177.54770358900126 -115.63214923830468 0 -115.63214923830468 -90.859241374241066 0 0 0 0 -273.01321020293835 -156.92188717620593 0 -156.92188717620593 61.890465915914319 0 0 0 0 -122.90805345179979 -86.599259669677849 0 -86.599259669677849 -61.423107546606843 0 0 0 0 -311.46036371280206 -86.702427513172552 0 -86.702427513172552 -24.011583584048822 0 0 0 0 -96.644379338758 -85.404023424168628 0 -85.404023424168628 -22.283904884909326 0 0 0 0 -68.712980495626027 -53.396680350093902 0 -53.396680350093902 -13.095639786484938 0 0 0 0 -2.5287829484243787 -5.5489820464767377 0 -5.5489820464767377 -21.627926735667586 0 0 0 0 -43.636730712063581 10.626396395789016 0 10.626396395789016 -19.256961164603126 0 0 0 0 -282.05972159685916 -143.93598509220828 0 -143.93598509220828 -140.930482904987 0 0 0 0 -444.3654396868078 -221.01583751264207 0 -221.01583751264207 -141.85707751305745 0 0 0 0 30.346405437157955 63.215098739659879 0 63.215098739659879 -14.973978055328189 0 0 0 0 26.52606046164874 3.2009581222937413 0 3.2009581222937413 -51.25039619146628 0 0 0 0 43.180693625181448 -9.6913029393253964 0 -9.6913029393253964 -74.902900732027774 0 0 0 0 42.382778795465128 10.974715440625005 0 10.974715440625005 -43.522467788741778 0 0 0 0 -4.37462895548083 -0.43620048515123244 0 -0.43620048515123244 -7.1740039217800913 0 0 0 0 65.763814745976561 -133.22579587411383 0 -133.22579587411383 -382.86077573034345 0 0 0 0 222.42109001957579 -286.81017108402011 0 -286.81017108402011 -426.37356174273054 0 0 0 0 -85.494873028190341 649.70341081048537 0 649.70341081048537 -3009.9124331857674 0 0 0 0 -96.381685286350574 -114.41476840679897 0 -114.41476840679897 4.3002212749790942 0 0 0 0 -64.463428887387053 -4.8316735700515778 0 -4.8316735700515778 -31.908262973308815 0 0 0 0 -1062.7569136414095 820.74255774354333 0 820.74255774354333 1369.6522312604575 0 0 0 0 -214.30003960481554 -69.045258149914389 0 -69.045258149914389 -39.746982055214175 0 0 0 0 -45.024341968043984 -49.674469995953075 0 -49.674469995953075 -20.751236249922528 0 0 0 0 -58.343447246687248 -83.569926985137556 0 -83.569926985137556 -29.403006447468087 0 0 0 0 -78.520261377067072 -162.33087309638631 0 -162.33087309638631 -210.93353959870547 0 0 0 0 21.654449351204676 -576.00790331896314 0 -576.00790331896314 702.63193782129747 0 0 0 0 -96.664286420620556 -113.76880395216244 0 -113.76880395216244 -2.9063253400527174 0 0 0 0 -23.828667870174513 -1.6212810036202754 0 -1.6212810036202754 2.2488869840500509 0 0 0 0 -74.769244869530667 -746.2291803317421 0 -746.2291803317421 -853.56046092712859 0 0 0 0 -224.13198161683977 468.82373332530915 0 468.82373332530915 -318.72150472140856 0 0 0 0 -103.64868579441099 141.06438946508933 0 141.06438946508933 -402.46113206514156 0 0 0 0 -295.37917434290284 84.718450819612372 0 84.718450819612372 304.88594604722039 0 0 0 0 48.564667524959077 -71.110754849606565 0 -71.110754849606565 32.063044882168469 0 0 0 0 11.717601601209296 -24.467644584923192 0 -24.467644584923192 -6.3026872855951339 0 0 0 0 -251.62034767578734 53.461052328425012 0 53.461052328425012 -93.600127637806509 0 0 0 0 247.75205047529016 218.211197952156 0 218.211197952156 55.202375460195981 0 0 0 0 -269.53808324519196 199.53573392305543 0 199.53573392305543 453.94732053679445 0 0 0 0 654.1491745400308 -335.47317440780472 0 -335.47317440780472 21.949939217072824 0 0 0 0 -168.99503497839032 -202.81988978123445 0 -202.81988978123445 -374.86077967053279 0 0 0 0 63.467633273190586 -244.66350608254652 0 -244.66350608254652 -407.97620221586112 0 0 0 0 -59.120769844914321 -196.07215764405191 0 -196.07215764405191 -677.34983214476233 0 0 0 0 -109.69674017229408 -61.402414201271313 0 -61.402414201271313 -811.78762384237052 0 0 0 0 -256.432785326062 14.921569316609748 0 14.921569316609748 -766.69320217669883 0 0 0 0 -280.77035897073802 -115.75984618529401 0 -115.75984618529401 -779.56246816203566 0 0 0 0 -3.8474588236754812 2.4938130905399021 0 2.4938130905399021 0.6481181617709737 0 0 0 0 -637.54144710988476 -321.67819109700486 0 -321.67819109700486 -891.07079299794714 0 0 0 0 -293.58739187580068 -37.713756650184223 0 -37.713756650184223 -783.36670620222867 0 0 0 0 -185.15222386235837 -39.615641534313909 0 -39.615641534313909 -907.12650491273871 0 0 0 0 -250.62805278075393 -58.101386038139026 0 -58.101386038139026 -662.24359574522759 0 0 0 0 -180.48309237325157 24.443207575079214 0 24.443207575079214 -765.23828444667743 0 0 0 0 -185.98602416232461 60.154102630578564 0 60.154102630578564 -756.28184480231721 0 0 0 0 -162.72089113178663 192.64649475768238 0 192.64649475768238 -357.19391688255564 0 0 0 0 -242.3903782277921 42.771857826037376 0 42.771857826037376 -688.08311776712071 0 0 0 0 -215.62811910622986 -179.49916850528462 0 -179.49916850528462 -736.1807129446488 0 0 0 0 -239.30901329833432 141.44155390006017 0 141.44155390006017 377.61756651672476 0 0 0 0 -241.69317614848842 -1290.381010295303 0 -1290.381010295303 243.41134317854085 0 0 0 0 -271.69437661652046 -138.77202240851693 0 -138.77202240851693 -650.17928965469764 0 0 0 0 156.92837596019672 154.90356422764853 0 154.90356422764853 -1104.2223364097154 0 0 0 0 -205.32925835975038 42.978823867797473 0 42.978823867797473 -770.77933957514324 0 0 0 0 -265.22175712784519 -305.22818329192523 0 -305.22818329192523 -328.24405824729911 0 0 0 0 -366.07336502139515 -661.9361486797934 0 -661.9361486797934 -1357.981454541572 0 0 0 0 61.734250715788221 167.09536946569824 0 167.09536946569824 -1669.4340781132414 0 0 0 0 -1336.2832396147569 -234.34932832239429 0 -234.34932832239429 83.072950727451826 0 0 0 0 -373.88511127506354 -1119.0963673356925 0 -1119.0963673356925 -249.94433284209663 0 0 0 0 239.91045951211709 423.64470445922507 0 423.64470445922507 -459.09903585829306 0 0 0 0 -2.5246164894953438 2.9580235623609497 0 2.9580235623609497 -10.81842462952244 0 0 0 0 -2471.5593879399639 -611.06724085585256 0 -611.06724085585256 731.49925816217365 0 0 0 0 30.054407396120951 -204.87009206880248 0 -204.87009206880248 -294.77172371401139 0 0 0 0 346.42274963188538 -571.73606570165157 0 -571.73606570165157 -149.84882959593961 0 0 0 0 412.62311765176128 -367.1632975783823 0 -367.1632975783823 -275.71515375392119 0 0 0 0 -100.7388178367523 -103.76969890456169 0 -103.76969890456169 28.468313557516723 0 0 0 0 231.79873694333946 -21.24034107209809 0 -21.24034107209809 42.635249587419821 0 0 0 0 -70.516231080095167 350.9782243666823 0 350.9782243666823 -185.83024772402496 0 0 0 0 -152.49528749145975 31.671081897195108 0 31.671081897195108 131.61884876183103 0 0 0 0 -152.13584554908448 18.502318489783647 0 18.502318489783647 248.29519350408373 0 0 0 0 -467.34890206069394 110.7262591491799 0 110.7262591491799 223.23793313870374 0 0 0 0 -335.1784000675616 -1.4337016843974197 0 -1.4337016843974197 52.17267220020949 0 0 0 0 -540.29197551129982 -188.00816646026942 0 -188.00816646026942 330.6626927815887 0 0 0 0 -73.263409738108749 -275.78899604467369 0 -275.78899604467369 315.99723098494769 0 0 0 0 140.52152797195595 -680.92204439289708 0 -680.92204439289708 718.71093865712828 0 0 0 0 -63.756982390756434 -424.46898345151135 0 -424.46898345151135 43.102545115521934 0 0 0 0 -60.81712068025081 -197.27794109114438 0 -197.27794109114438 -275.60057195408262 0 0 0 0 -954.47893918312047 -529.87151735954376 0 -529.87151735954376 125.67975103293611 0 0 0 0 -956.747407105295 187.6664071488718 0 187.6664071488718 168.20973634745678 0 0 0 0 -12.329608913468576 -3.4673519299790883 0 -3.4673519299790883 0.61554086908009964 0 0 0 0 283.63879058700695 -852.96724860777613 0 -852.96724860777613 -537.18558777844009 0 0 0 0 -111.42837644144311 -303.53872775511263 0 -303.53872775511263 -783.39371450104773 0 0 0 0 -1314.6391532746493 -273.14538849783639 0 -273.14538849783639 -256.7234853507216 0 0 0 0 -127.53013357298914 -359.50601409262254 0 -359.50601409262254 -333.01833965757669 0 0 0 0 -45.491698124504182 -63.498735239224516 0 -63.498735239224516 -515.5191610049751 0 0 0 0 -6.5629667037137551 -147.20939835344871 0 -147.20939835344871 34.832960319159611 0 0 0 0 -224.95798992023037 -217.17816889249994 0 -217.17816889249994 264.75652100778098 0 0 0 0 -90.713116307239659 -84.394317247438721 0 -84.394317247438721 65.283430591720858 0 0 0 0 160.08883789888932 -464.52529837472821 0 -464.52529837472821 99.943995527273501 0 0 0 0 -224.69460908549081 -227.89874066991115 0 -227.89874066991115 289.19175283431832 0 0 0 0 -169.08537301639444 -257.04843445308734 0 -257.04843445308734 288.93588704193576 0 0 0 0 -196.14746485243086 -162.374530981926 0 -162.374530981926 338.90755361772153 0 0 0 0 -371.21762726482302 -79.711361137500887 0 -79.711361137500887 395.95140035032819 0 0 0 0 -405.64268224360421 -74.359406172142371 0 -74.359406172142371 456.18451838159939 0 0 0 0 -376.38215554997441 -220.35357089435365 0 -220.35357089435365 320.30945757717745 0 0 0 0 -401.92155969460146 -378.55933674298649 0 -378.55933674298649 126.68031565033547 0 0 0 0 -682.87715532434231 -197.01439584865784 0 -197.01439584865784 465.39288709517132 0 0 0 0 -394.92587152934721 117.39459302918158 0 117.39459302918158 165.91345531329898 0 0 0 0 -415.12673838321643 120.82949722781632 0 120.82949722781632 550.06273233306092 0 0 0 0 -468.83893531771901 31.481576487893562 0 31.481576487893562 424.93072456865957 0 0 0 0 -351.63589215956745 210.64893853108401 0 210.64893853108401 445.49289294576192 0 0 0 0 -333.19695515619242 184.27103438010454 0 184.27103438010454 451.44456591370454 0 0 0 0 143.79531347559532 -520.26430076908491 0 -520.26430076908491 726.80573186054016 0 0 0 0 -440.52707414384349 254.58650956753172 0 254.58650956753172 1246.7346320045631 0 0 0 0 -125.15190304910357 -113.54038362383562 0 -113.54038362383562 277.06184226714413 0 0 0 0 -134.38485680396843 -145.74359937976351 0 -145.74359937976351 397.80456671778802 0 0 0 0 -28.256216688900565 -10.092692790320939 0 -10.092692790320939 -1.5706989278299091 0 0 0 0 -266.60856973560294 -775.09569623864445 0 -775.09569623864445 696.39021386812237 0 0 0 0 330.837418451556 -668.68718759496005 0 -668.68718759496005 508.0816588469288 0 0 0 0 -194.13698910584208 -1589.8725670627682 0 -1589.8725670627682 -970.66686927960836 0 0 0 0 440.14612543501426 -651.69519738702911 0 -651.69519738702911 -530.22500349085021 0 0 0 0 204.54621682612924 -104.25261253467761 0 -104.25261253467761 226.93372831473243 0 0 0 0 85.619006420485675 91.367835423089673 0 91.367835423089673 -91.683300593052991 0 0 0 0 -13.901428403562022 -1.7113435648565343 0 -1.7113435648565343 -0.97562345768192671 0 0 0 0 108.13124186728965 -257.00142519506153 0 -257.00142519506153 402.03591281678928 0 0 0 0 -822.32576846962911 -667.73374338285612 0 -667.73374338285612 658.66180882195113 0 0 0 0 -280.93549091162186 -437.22665843589709 0 -437.22665843589709 1702.3533883210803 0 0 0 0 423.02864974536351 -1135.5464078608529 0 -1135.5464078608529 821.82713318610513 0 0 0 0 171.7880550326372 -1011.4750254697792 0 -1011.4750254697792 2159.9337818496451 0 0 0 0 433.71079962272779 -260.77630080435301 0 -260.77630080435301 -261.90360506212528 0 0 0 0 -246.32996970080421 -60.215383200107681 0 -60.215383200107681 2712.0144984239714 0 0 0 0 11.368095723517058 -4.1695451615282195 0 -4.1695451615282195 3.2569925496516596 0 0 0 0 578.33703372848686 -454.38692961765446 0 -454.38692961765446 -3.3209266672301965 0 0 0 0 34.322451886138879 -415.54211869587743 0 -415.54211869587743 1413.5888509826655 0 0 0 0 72.636882877763128 -568.07798895302767 0 -568.07798895302767 1425.1340288473584 0 0 0 0 -44.053758028399898 -622.31594084329117 0 -622.31594084329117 1226.8496803560283 0 0 0 0 -39.244710006097137 -18.933382464374802 0 -18.933382464374802 -0.068415930343523002 0 0 0 0 878.53883201099234 -287.32282433184628 0 -287.32282433184628 689.02650569857724 0 0 0 0 43.275354875455378 348.43473320534758 0 348.43473320534758 619.10619783957736 0 0 0 0 -888.88113251980394 -63.023006224834717 0 -63.023006224834717 2041.0048095853147 0 0 0 0 -633.42604158452014 -1104.2186310699035 0 -1104.2186310699035 1371.0857508944946 0 0 0 0 44.526526200079388 -113.08230800530498 0 -113.08230800530498 -17.509492014037278 0 0 0 0 14.061624156497658 -8.8062515440436044 0 -8.8062515440436044 -0.18724134491306987 0 0 0 0 -171.43414973505423 -625.93852947198502 0 -625.93852947198502 -375.68939489241257 0 0 0 0 -303.48883795028087 -74.757430066563757 0 -74.757430066563757 -648.46529596240816 0 0 0 0 79.417236022010911 -1074.308006434464 0 -1074.308006434464 415.09175292706095 0 0 0 0 -0.82005685271820994 -1.4100705472132518 0 -1.4100705472132518 8.9555624291314615 0 0 0 0 693.36338467762107 -295.76294183262326 0 -295.76294183262326 256.10773143023289 0 0 0 0 -587.88770754192956 -615.78171740253856 0 -615.78171740253856 426.45728818960015 0 0 0 0 -11.383435128668225 -21.305058544724893 0 -21.305058544724893 8.5300089666503141 0 0 0 0 -398.44883228716208 -744.43087067619854 0 -744.43087067619854 -429.74614601498547 0 0 0 0 -355.50888644804945 -757.66315754380548 0 -757.66315754380548 -604.54001418273492 0 0 0 0 -233.67057398406905 -603.13867342929325 0 -603.13867342929325 -847.5514829673009 0 0 0 0 596.82778352047899 -129.10082277326683 0 -129.10082277326683 -194.26725763996478 0 0 0 0 17.745632441240105 -8.1039314491984555 0 -8.1039314491984555 3.9810306218065428 0 0 0 0 -1460.793076097485 417.66255003154083 0 417.66255003154083 -110.26755640719603 0 0 0 0 0.8071569951496258 -7.3687361465832097 0 -7.3687361465832097 4.1196141100256742 0 0 0 0 -605.61273125941807 451.72858170091399 0 451.72858170091399 3207.0999743430266 0 0 0 0 2765.0247341974755 -1496.2287107854936 0 -1496.2287107854936 -2270.983943283522 0 0 0 0 156.32304184671375 193.28753028935262 0 193.28753028935262 1911.8145385294483 0 0 0 0 154.1319521937985 -557.31757162747817 0 -557.31757162747817 954.33809092025513 0 0 0 0 18.515486427626456 -78.616039448241281 0 -78.616039448241281 1376.2314474945742 0 0 0 0 128.38073724205606 -432.58382635265298 0 -432.58382635265298 985.04732334370055 0 0 0 0 -175.04195470397826 -557.0652698373633 0 -557.0652698373633 1614.3447157565952 0 0 0 0 -1.4921481246565236 -860.00104717194301 0 -860.00104717194301 307.79909206043624 0 0 0 0 118.0210818116102 -766.97417856187531 0 -766.97417856187531 375.48683105259863 0 0 0 0 495.07621800928609 -1088.7325774934375 0 -1088.7325774934375 134.07341372654048 0 0 0 0 -2415.5991905396804 -825.11862047063187 0 -825.11862047063187 2835.5952753496822 0 0 0 0 -211.99731056269957 -1299.9237953761549 0 -1299.9237953761549 88.823697042942968 0 0 0 0 -2.054695218432812 1.2107385491641764 0 1.2107385491641764 3.9846129832188009 0 0 0 0 -22.538740971307561 -882.86995822394931 0 -882.86995822394931 369.06852336422617 0 0 0 0 2860.7904287248966 -1040.1938911955258 0 -1040.1938911955258 324.74799466458262 0 0 0 0 134.52685714251129 214.77264723779626 0 214.77264723779626 -857.79760397899372 0 0 0 0 0.96707117072467663 -865.91765030486158 0 -865.91765030486158 308.6089432038716 0 0 0 0 -556.11425773144583 -495.76656472265768 0 -495.76656472265768 1622.7604463480075 0 0 0 0 -424.17176661459962 57.167346879539764 0 57.167346879539764 525.55946606436282 0 0 0 0 234.55167679808801 365.57935633217312 0 365.57935633217312 648.73031407206327 0 0 0 0 874.48429868876701 -153.86896167382383 0 -153.86896167382383 49.690660151052725 0 0 0 0 119.53607871866552 -529.9385130499677 0 -529.9385130499677 -126.88754558811343 0 0 0 0 -15.419801292274883 -8.3835172615085014 0 -8.3835172615085014 5.1394656897197244 0 0 0 0 485.33981186605524 -38.752812270717186 0 -38.752812270717186 -679.12889032246494 0 0 0 0 -101.51556529202935 -103.25137286046447 0 -103.25137286046447 63.674147175101098 0 0 0 0 41.417532018269412 58.925470218031478 0 58.925470218031478 -62.163476572895888 0 0 0 0 287.00556858134223 -165.91978852663306 0 -165.91978852663306 -191.97181696631196 0 0 0 0 131.44681869790656 -164.11576542198964 0 -164.11576542198964 336.91723108489168 0 0 0 0 303.21822999269352 -260.6797619024037 0 -260.6797619024037 55.878203671072697 0 0 0 0 -5.5055416150012206 2.720097280905506 0 2.720097280905506 0.26779504654255248 0 0 0 0 -0.080767238982367554 -331.18639930942351 0 -331.18639930942351 1749.5791475846636 0 0 0 0 236.78338140946289 213.08754754012625 0 213.08754754012625 671.76364760108845 0 0 0 0 -223.88655115768779 -259.01776919772237 0 -259.01776919772237 1904.5936263666372 0 0 0 0 -69.121818583342247 107.51071154660895 0 107.51071154660895 1167.7941958804513 0 0 0 0 -93.684632233751472 -683.26734828683038 0 -683.26734828683038 1794.9751684322837 0 0 0 0 -301.38900027819909 -533.51195282705521 0 -533.51195282705521 1927.3678152008069 0 0 0 0 -351.77295854187105 -435.53116193416645 0 -435.53116193416645 1782.1143839734214 0 0 0 0 270.90031074473518 132.24567246039624 0 132.24567246039624 2207.2118940618284 0 0 0 0 -218.98673713300377 -592.73672817417537 0 -592.73672817417537 1118.4896408268614 0 0 0 0 -0.39973468935465917 -1.4303096053555606 0 -1.4303096053555606 2.1240689764577354 0 0 0 0 445.9427092418191 -752.86759505730106 0 -752.86759505730106 520.85693355536205 0 0 0 0 13.161650824821436 -14.638670080037869 0 -14.638670080037869 3.3629834416187023 0 0 0 0 -10.071702088287566 78.144147515609802 0 78.144147515609802 1150.0246130081359 0 0 0 0 -270.76075881015277 38.261834322029245 0 38.261834322029245 387.22637248434444 0 0 0 0 -157.52160160923813 -113.48843027825706 0 -113.48843027825706 83.168049945617895 0 0 0 0 -247.55566760938382 -167.37100736187131 0 -167.37100736187131 791.75084508134387 0 0 0 0 -84.223128204263048 -338.63484206852991 0 -338.63484206852991 478.24986768224244 0 0 0 0 25.132786333975901 -19.301793654632569 0 -19.301793654632569 4.9098930883186434 0 0 0 0 -32.862676890014768 -9.8551217468621246 0 -9.8551217468621246 4.8345239115954364 0 0 0 0 -47.334568487509387 11.286931088765414 0 11.286931088765414 501.24646912481694 0 0 0 0 -96.219028264611552 -344.05600597173543 0 -344.05600597173543 -119.43749771361036 0 0 0 0 -366.75327166964416 -777.22906766516462 0 -777.22906766516462 -47.160578971015639 0 0 0 0 -208.93732024695782 -246.89156333515712 0 -246.89156333515712 678.60936798201874 0 0 0 0 50.093942566527403 86.338106646844153 0 86.338106646844153 965.92492249413044 0 0 0 0 -16.269629833404906 -152.52644350233822 0 -152.52644350233822 633.26484652125146 0 0 0 0 -41.83685582439648 -238.79877882617075 0 -238.79877882617075 723.67871903299238 0 0 0 0 -13.223143996685394 -80.697320208927522 0 -80.697320208927522 1202.9636047265085 0 0 0 0 -113.5440627700882 -466.87338059192916 0 -466.87338059192916 185.14402392828197 0 0 0 0 -115.21977195737418 -316.27331396930094 0 -316.27331396930094 838.41202398342648 0 0 0 0 -132.36134465166833 -670.46557309829586 0 -670.46557309829586 368.49085254856982 0 0 0 0 -73.481506944503053 -641.00895953981671 0 -641.00895953981671 42.269136607348628 0 0 0 0 -69.493075631587999 -488.92872115739465 0 -488.92872115739465 855.56372198770259 0 0 0 0 -53.268123652524082 -959.14371949300039 0 -959.14371949300039 289.04043039928501 0 0 0 0 -191.68986491247779 -1029.9435801699292 0 -1029.9435801699292 -79.565309239323142 0 0 0 0 -528.78499481145991 -1027.3563547361264 0 -1027.3563547361264 -290.9251354683729 0 0 0 0 -254.71182578589651 -732.03722306477721 0 -732.03722306477721 -349.41661043203203 0 0 0 0 -406.55944969446864 -703.44784829296987 0 -703.44784829296987 -157.92204426140233 0 0 0 0 -213.00635312090435 -808.58680423878707 0 -808.58680423878707 -230.71928235911764 0 0 0 0 -207.84600270816009 -623.42093476555601 0 -623.42093476555601 268.48753898713585 0 0 0 0 555.75864872956299 -231.59635347242147 0 -231.59635347242147 1481.7288322914137 0 0 0 0 257.39858780405484 -977.21142157380382 0 -977.21142157380382 1917.9503883815032 0 0 0 0 7.739911168784829 -0.80573641525615614 0 -0.80573641525615614 1.2184042043488432 0 0 0 0 -130.26857379137073 182.54868177537719 0 182.54868177537719 3087.2569776913097 0 0 0 0 105.7735132285743 -1.8470103739091428 0 -1.8470103739091428 1051.0555645425593 0 0 0 0 191.96484389746911 166.75812033478724 0 166.75812033478724 1345.2173415411526 0 0 0 0 -54.357918700610753 -339.87157664655388 0 -339.87157664655388 1752.5263710000545 0 0 0 0 -44.212884952197783 -448.56331412716827 0 -448.56331412716827 803.97375226611985 0 0 0 0 138.0428147977218 -935.5568217310356 0 -935.5568217310356 547.29528381717864 0 0 0 0 107.00160851242254 -771.2834840073665 0 -771.2834840073665 1122.656020053375 0 0 0 0 156.66006164759165 -723.68613480385466 0 -723.68613480385466 310.65644526515825 0 0 0 0 350.95135950780241 -503.13552950451322 0 -503.13552950451322 813.76247574503213 0 0 0 0 328.05460263165878 -617.51924727973892 0 -617.51924727973892 48.063313872178696 0 0 0 0 0.7299969206796959 -747.77866140889273 0 -747.77866140889273 1002.6659179242924 0 0 0 0 -0.48986532262642868 -1007.1516439175575 0 -1007.1516439175575 -107.16502635343113 0 0 0 0 251.18348819184757 -768.69545546120753 0 -768.69545546120753 -125.29169716674369 0 0 0 0 -69.216474221349927 -970.27666954428059 0 -970.27666954428059 -122.31535571078712 0 0 0 0 128.43228052274208 -782.00337385515195 0 -782.00337385515195 -1059.0822764578988 0 0 0 0 260.42329238477396 -961.20596763999765 0 -961.20596763999765 -767.24658119177548 0 0 0 0 90.566437895133276 -798.38167862989576 0 -798.38167862989576 -863.03810552041978 0 0 0 0 -256.77215193619486 -1163.8375956642849 0 -1163.8375956642849 -459.89846637114169 0 0 0 0 -326.71520108653931 -1073.7181662246076 0 -1073.7181662246076 -575.99948009650689 0 0 0 0 -522.77408183459193 -1091.8357338946334 0 -1091.8357338946334 -456.71213481928862 0 0 0 0 -356.66320518613793 -1156.5093397201999 0 -1156.5093397201999 -597.78448918069626 0 0 0 0 -281.95150997741439 -1064.124424245244 0 -1064.124424245244 -530.13365848934336 0 0 0 0 -237.7720095321929 -906.54382732412887 0 -906.54382732412887 -333.93745373772981 0 0 0 0 1.7468585060996702 -842.58375730621447 0 -842.58375730621447 -248.24379302385933 0 0 0 0 -176.50216463327524 -1081.4382733123639 0 -1081.4382733123639 -260.79933211632169 0 0 0 0 73.080001920432551 -961.89246839081534 0 -961.89246839081534 -607.67792935499892 0 0 0 0 -139.97478666060488 -1031.8348948414587 0 -1031.8348948414587 -590.03872746512207 0 0 0 0 -305.2202983921743 -1096.7930665144049 0 -1096.7930665144049 -562.59710978198564 0 0 0 0 -252.23192178292084 -1003.9732312781871 0 -1003.9732312781871 -601.16673224369879 0 0 0 0 -136.02232013741741 -1085.7542114972694 0 -1085.7542114972694 -846.05755211848737 0 0 0 0 -357.76390618726145 -1070.7936183554411 0 -1070.7936183554411 -758.93375805475807 0 0 0 0 -276.4581170679885 -1136.9788341538479 0 -1136.9788341538479 -716.7889976481747 0 0 0 0 -372.77372384944465 -1153.1434037238869 0 -1153.1434037238869 -578.29096512720571 0 0 0 0 -497.91163062676787 -1152.329394674387 0 -1152.329394674387 -580.72719145932206 0 0 0 0 -374.04933704872383 -1140.6789187913655 0 -1140.6789187913655 -662.52113137231208 0 0 0 0 -360.12376417953965 -1105.412647544943 0 -1105.412647544943 -709.44395515989163 0 0 0 0 -446.39080105983885 -1114.7262782184262 0 -1114.7262782184262 -671.80672776221036 0 0 0 0 -628.4922593247029 -992.74964120779623 0 -992.74964120779623 -555.40015897406556 0 0 0 0 -404.34589292455348 -1029.1780674866641 0 -1029.1780674866641 -672.32013202676899 0 0 0 0 -455.38142617880658 -1075.5294040949875 0 -1075.5294040949875 -645.70256092626369 0 0 0 0 -673.20619964535581 -770.22803631638817 0 -770.22803631638817 -388.44531483226638 0 0 0 0 -570.32628611644031 -975.94666773340214 0 -975.94666773340214 -565.97938017902197 0 0 0 0 -789.58957902068505 -873.48651837582656 0 -873.48651837582656 -440.83427202390158 0 0 0 0 -778.01103055127896 -1020.9152028785393 0 -1020.9152028785393 -565.15258463488135 0 0 0 0 -905.70916133245919 -875.05604651130307 0 -875.05604651130307 -440.83257649037114 0 0 0 0 -765.31026666057005 -1075.6819879562336 0 -1075.6819879562336 -551.6260431742412 0 0 0 0 -564.28258726350032 -1121.8716545025491 0 -1121.8716545025491 -611.11080257565482 0 0 0 0 -512.42208610672969 -1108.0177819817691 0 -1108.0177819817691 -622.97335750245838 0 0 0 0 -522.46468391275266 -1093.3942467115667 0 -1093.3942467115667 -635.09954268945876 0 0 0 0 -704.69061313534621 -1174.3967663279145 0 -1174.3967663279145 -567.76770785926055 0 0 0 0 -1009.3659967902349 -980.69621167767036 0 -980.69621167767036 -568.37015053375262 0 0 0 0 -964.19862516119611 -1137.2130735565443 0 -1137.2130735565443 -560.06827498682833 0 0 0 0 -526.5828966377303 -1014.9845640181848 0 -1014.9845640181848 -624.36484502885105 0 0 0 0 -825.6801610354305 -1184.0410760356262 0 -1184.0410760356262 -554.07573326542479 0 0 0 0 -2239.9582950379699 -418.68541275796088 0 -418.68541275796088 -415.32856957695913 0 0 0 0 -1051.7017480555223 -1047.4201747388961 0 -1047.4201747388961 -643.08610958138888 0 0 0 0 -1901.3266532523558 -1132.9284860730622 0 -1132.9284860730622 -474.7607149072428 0 0 0 0 -1443.1898015055922 -1065.0391891301369 0 -1065.0391891301369 -478.59111326513812 0 0 0 0 -1099.1538008409698 -881.14578719595193 0 -881.14578719595193 -504.90573567719548 0 0 0 0 -1428.394304874877 -539.11864928665091 0 -539.11864928665091 -638.24957561258634 0 0 0 0 7.6106720254016125 -20.329673554389387 0 -20.329673554389387 -4.1852289762012731 0 0 0 0 -1236.4466909575567 -776.78989927632756 0 -776.78989927632756 -383.58993686294707 0 0 0 0 10.290080119548065 -14.89794188123625 0 -14.89794188123625 10.385613606879517 0 0 0 0 995.34570458592498 -180.08400062108194 0 -180.08400062108194 -42.582119032937044 0 0 0 0 33.748824478680035 -101.18040770323205 0 -101.18040770323205 -328.21821904506942 0 0 0 0 -1231.086898469046 -745.41274702706141 0 -745.41274702706141 -207.3325531790033 0 0 0 0 -996.13975286774803 -966.90546669989271 0 -966.90546669989271 -488.57787810899026 0 0 0 0 930.31238996822503 -255.39078247795987 0 -255.39078247795987 47.119944751590083 0 0 0 0 1072.805711103807 -286.71136599381134 0 -286.71136599381134 -26.057216939087084 0 0 0 0 1576.9364853587758 96.378407897256693 0 96.378407897256693 171.15656267728264 0 0 0 0 764.41032552986871 -782.35061748277076 0 -782.35061748277076 -134.99145332245325 0 0 0 0 1081.9876274142321 -730.39191116653024 0 -730.39191116653024 -129.34447923958942 0 0 0 0 753.29064739064779 -757.64028037759272 0 -757.64028037759272 -41.476785148133786 0 0 0 0 1747.599056558829 -819.38830790746579 0 -819.38830790746579 -230.05394243264891 0 0 0 0 825.92794622833389 -494.78268708133419 0 -494.78268708133419 219.49520523956744 0 0 0 0 2020.5590092985949 -1120.6583148017908 0 -1120.6583148017908 139.17259577408186 0 0 0 0 6.2516238125351151 -6.9358258842509315 0 -6.9358258842509315 1.9205514026212569 0 0 0 0 186.19160650257254 347.85207844707475 0 347.85207844707475 823.45215936912427 0 0 0 0 3309.9748728469131 -36.147024352263543 0 -36.147024352263543 -399.9884225982496 0 0 0 0 1214.5679432572215 -363.17666593318791 0 -363.17666593318791 347.6863334580994 0 0 0 0 2794.6252032830962 -996.49304777468205 0 -996.49304777468205 -575.81585032436851 0 0 0 0 3.2994974649056417 -10.477667992805436 0 -10.477667992805436 -2.1122149592956703 0 0 0 0 2852.7625361435421 -845.27243282495783 0 -845.27243282495783 -402.69894273345562 0 0 0 0 932.94645876690629 -768.07529889712532 0 -768.07529889712532 -175.9738022202655 0 0 0 0 165.85106088548855 -768.12085555339149 0 -768.12085555339149 -504.68822333007483 0 0 0 0 842.0320415548631 -314.48389099519954 0 -314.48389099519954 -265.17148015313433 0 0 0 0 844.44667674941593 -1163.1827093005704 0 -1163.1827093005704 -430.47018809242854 0 0 0 0 212.61784769740188 -603.54039660791386 0 -603.54039660791386 -899.05261174824773 0 0 0 0 -1207.5760086680821 -1367.3826555629712 0 -1367.3826555629712 -558.33426514173698 0 0 0 0 -493.1955812072556 -1089.3013793568643 0 -1089.3013793568643 -1060.8027661704036 0 0 0 0 -774.03577217677957 -1888.0304765673382 0 -1888.0304765673382 -624.58485950491013 0 0 0 0 106.27949278204687 -541.38818362484108 0 -541.38818362484108 -632.84297974604124 0 0 0 0 -930.85868612464401 -1028.1057556284795 0 -1028.1057556284795 -290.24471116126915 0 0 0 0 -385.36000463744858 -957.22863574643634 0 -957.22863574643634 -554.08517893463431 0 0 0 0 -1063.6465396482599 -1079.22963865372 0 -1079.22963865372 -378.98236784551409 0 0 0 0 -1063.8096935339672 -1071.7263394846577 0 -1071.7263394846577 -632.3492320392761 0 0 0 0 -3453.0267163699318 -1497.9195652524959 0 -1497.9195652524959 70.313384628338099 0 0 0 0 -1930.8877306230133 -2027.3233743998971 0 -2027.3233743998971 -585.16261346310057 0 0 0 0 -865.30726621820213 -1184.0018338552645 0 -1184.0018338552645 -503.76713004547491 0 0 0 0 -1952.7793331186986 -1195.5754350420757 0 -1195.5754350420757 -341.60241827093705 0 0 0 0 -67.780904528506653 -781.26223516771461 0 -781.26223516771461 -67.334292119999873 0 0 0 0 -19.346573707349307 -955.6319248784821 0 -955.6319248784821 320.52994463713981 0 0 0 0 -0.37770017931791244 -4.5829557433629828 0 -4.5829557433629828 10.314424084693936 0 0 0 0 -3.2616813618533342 -8.1222598416873097 0 -8.1222598416873097 -22.355221152242962 0 0 0 0 -27.264255367079727 -133.30536996178299 0 -133.30536996178299 -168.40753020385637 0 0 0 0 -1409.8914183743527 150.97651656699145 0 150.97651656699145 216.24456431970793 0 0 0 0 -1777.6382374551904 -1636.8111956281928 0 -1636.8111956281928 -507.04027907681484 0 0 0 0 -929.31758373601224 -946.69683786187898 0 -946.69683786187898 40.71595598100248 0 0 0 0 4.7071187273904798 -1358.212027388905 0 -1358.212027388905 -951.3586630498537 0 0 0 0 58.233552513023824 -1167.5573209176716 0 -1167.5573209176716 -664.07783841062155 0 0 0 0 202.19266150304247 -659.8546252846304 0 -659.8546252846304 -511.50393841919686 0 0 0 0 594.34041015400362 -495.56821003975801 0 -495.56821003975801 -517.14184980251775 0 0 0 0 318.32620758409757 -824.79069353927662 0 -824.79069353927662 -287.17000307202488 0 0 0 0 84.102820607477042 -662.25333534190145 0 -662.25333534190145 7.9889243890554553 0 0 0 0 -59.929505697502464 -862.25755182077819 0 -862.25755182077819 -269.73815070886445 0 0 0 0 -214.02154470796813 -964.666760691322 0 -964.666760691322 291.92115484171291 0 0 0 0 -159.93256683553955 -580.98480307706313 0 -580.98480307706313 317.51616998726195 0 0 0 0 -147.41735206959493 -559.50837756266014 0 -559.50837756266014 212.38632913217003 0 0 0 0 -151.53782762261835 -531.68439253926499 0 -531.68439253926499 -2.7520465126694944 0 0 0 0 -147.16009374271744 -572.91460759713891 0 -572.91460759713891 108.701351225292 0 0 0 0 -146.56738828043672 -478.37171582761675 0 -478.37171582761675 -79.10242986492085 0 0 0 0 -92.677452608513704 -382.78461909918337 0 -382.78461909918337 53.787553577535164 0 0 0 0 -31.688292940718384 -420.22838998563475 0 -420.22838998563475 -65.039016800898025 0 0 0 0 99.918232122190602 -207.58354286049189 0 -207.58354286049189 221.13255292579606 0 0 0 0 95.031907996260998 -309.74943083885773 0 -309.74943083885773 -51.175573607376464 0 0 0 0 148.9236893607316 -479.60184969482873 0 -479.60184969482873 122.17163530223024 0 0 0 0 -65.137221241778207 -307.71228664151431 0 -307.71228664151431 1001.2952856232932 0 0 0 0 650.47170186617586 -336.33304918809358 0 -336.33304918809358 162.87601682758486 0 0 0 0 -40.959897710222862 -484.56707080165057 0 -484.56707080165057 247.35088399217511 0 0 0 0 -90.760818409637068 -107.88144892202422 0 -107.88144892202422 811.36061694678779 0 0 0 0 64.202328281809969 -721.83986591430676 0 -721.83986591430676 776.00767514162612 0 0 0 0 75.537007307094285 -570.24159190979367 0 -570.24159190979367 16.996040633284792 0 0 0 0 -218.21970580162687 -621.37201197821651 0 -621.37201197821651 195.68249869137026 0 0 0 0 -209.447788633627 -485.31919958793696 0 -485.31919958793696 261.48697032077007 0 0 0 0 30.050155430297309 -944.79176109625791 0 -944.79176109625791 229.20600444620686 0 0 0 0 -408.99514210224788 -714.5588188951524 0 -714.5588188951524 667.50283886978559 0 0 0 0 -360.65615244508331 -521.0324836759379 0 -521.0324836759379 127.54255223231667 0 0 0 0 -128.34860735284792 -561.60372407768955 0 -561.60372407768955 -167.48969533912759 0 0 0 0 -170.07985563015109 -521.14162067209918 0 -521.14162067209918 296.04574630167963 0 0 0 0 -127.60870908131164 -535.17365921859346 0 -535.17365921859346 253.15292670193617 0 0 0 0 -133.23021095974946 116.25354611373757 0 116.25354611373757 731.25736294986336 0 0 0 0 497.51250414541937 -935.4737119462834 0 -935.4737119462834 233.88853432371707 0 0 0 0 55.614333952104062 -575.57908767860613 0 -575.57908767860613 -52.071226887932312 0 0 0 0 -245.62588301899086 -689.36635245019033 0 -689.36635245019033 -83.69523038083878 0 0 0 0 94.633059294472787 -686.70389000747991 0 -686.70389000747991 -564.36080268061914 0 0 0 0 -143.09235371140858 -917.21731920064553 0 -917.21731920064553 -1242.9781623788504 0 0 0 0 -5.4718330016034287 -9.2125383188683152 0 -9.2125383188683152 -8.4087545749728712 0 0 0 0 197.1759090405285 -78.939924176012937 0 -78.939924176012937 -1777.4421530719037 0 0 0 0 -58.788814586553826 10.79479063075371 0 10.79479063075371 -474.08691140393421 0 0 0 0 166.00195826423624 -177.94709259260844 0 -177.94709259260844 -132.40072111248082 0 0 0 0 -141.38660367388366 -262.91305836809488 0 -262.91305836809488 362.53715055096745 0 0 0 0 -452.0803650320031 -823.21804868605045 0 -823.21804868605045 -212.15141014387609 0 0 0 0 -33.83367129187036 -136.99787469220701 0 -136.99787469220701 -51.615288201978728 0 0 0 0 -93.391187114283809 -58.295911790670459 0 -58.295911790670459 23.520179549685963 0 0 0 0 -14.556720972427456 -121.06742625267179 0 -121.06742625267179 -309.85735264248797 0 0 0 0 157.88413864610629 -143.19788676478584 0 -143.19788676478584 52.246067730784489 0 0 0 0 -20.363235619738333 -23.824710090046949 0 -23.824710090046949 -9.8799499791768923 0 0 0 0 -2.8205678654606352 -16.372294406874019 0 -16.372294406874019 8.5001578315833406 0 0 0 0 0.033068739012623638 -19.747827567150566 0 -19.747827567150566 14.138737472980186 0 0 0 0 -28.0191722338656 -24.635838677530803 0 -24.635838677530803 -7.0845136060732763 0 0 0 0 -42.02492798077219 -170.36016949007717 0 -170.36016949007717 -15.00905041610531 0 0 0 0 -21.435894085176301 -71.231684667081396 0 -71.231684667081396 5.8233490918555617 0 0 0 0 -192.19857636694724 93.037024893857051 0 93.037024893857051 -154.98595932947137 0 0 0 0 99.160660454419485 -89.705635779274417 0 -89.705635779274417 -917.12059980669073 0 0 0 0 -2.6249669074204576 -123.52462215639753 0 -123.52462215639753 -131.04400682552296 0 0 0 0 -59.029113446909605 146.13293117519785 0 146.13293117519785 -144.92706987696693 0 0 0 0 -97.299517257652042 -241.44909350904709 0 -241.44909350904709 -160.79169910219582 0 0 0 0 -45.603829333011163 -677.65343136227875 0 -677.65343136227875 -81.977398419285237 0 0 0 0 -6.4028032271917255 -539.59278895872467 0 -539.59278895872467 -641.61642067283174 0 0 0 0 -247.17428459796974 -754.59463724728812 0 -754.59463724728812 -726.77957488621814 0 0 0 0 -561.4319086154037 -1126.622254227962 0 -1126.622254227962 -859.01683404157302 0 0 0 0 -47.336210985033176 -841.84916003910166 0 -841.84916003910166 -924.62120817178584 0 0 0 0 38.666906873117114 -376.90240842301796 0 -376.90240842301796 -164.24825252890878 0 0 0 0 85.034834023521398 -499.2521741534074 0 -499.2521741534074 62.885280121920005 0 0 0 0 714.08793503803099 -78.246115574360374 0 -78.246115574360374 -117.46581279860038 0 0 0 0 -0.24218000892211222 -3.3874267189999543 0 -3.3874267189999543 6.5251183169003539 0 0 0 0 803.54156111742122 -428.41526030411569 0 -428.41526030411569 -653.34165735474562 0 0 0 0 223.79763466830263 -5.7906418901166035 0 -5.7906418901166035 118.1179782067461 0 0 0 0 122.86435966067802 -294.0222094619312 0 -294.0222094619312 -557.78644573846577 0 0 0 0 129.43143139464428 -202.52217269994208 0 -202.52217269994208 -557.60890131774977 0 0 0 0 -45.569626530472306 -466.22447584595102 0 -466.22447584595102 -620.04747899218819 0 0 0 0 265.47103668648015 -452.34891147920098 0 -452.34891147920098 -932.99335147974125 0 0 0 0 8.7652477278206788 -376.20891073106031 0 -376.20891073106031 -904.04872716929822 0 0 0 0 -682.59395070875325 -716.8351228851152 0 -716.8351228851152 -888.8012286504005 0 0 0 0 -654.92077416917527 -1129.4631525997261 0 -1129.4631525997261 -818.21224420603903 0 0 0 0 -11.539564539451758 -14.377521075145111 0 -14.377521075145111 24.318855688740591 0 0 0 0 -826.65010686272763 -881.22953887044059 0 -881.22953887044059 -798.09821631282557 0 0 0 0 -628.97495885132912 -1101.4768710855606 0 -1101.4768710855606 -810.99020350952014 0 0 0 0 -271.77009619540695 -900.55772581929432 0 -900.55772581929432 -830.24665575186009 0 0 0 0 -404.31932978294208 -857.22489176329873 0 -857.22489176329873 -574.05963888048291 0 0 0 0 121.14536894623598 -551.70933158082698 0 -551.70933158082698 -912.07098889695044 0 0 0 0 -458.39597408356713 -744.56954912476795 0 -744.56954912476795 -854.64070156868456 0 0 0 0 -328.71269462062628 -1120.0328803927332 0 -1120.0328803927332 -1390.6997167330417 0 0 0 0 -3.5419064761765924 -15.460019567637161 0 -15.460019567637161 19.699535200940247 0 0 0 0 -335.14429544482118 -684.37500670764803 0 -684.37500670764803 -1393.5615866063126 0 0 0 0 -154.61122080955556 -13.210897841776386 0 -13.210897841776386 -44.656604828856189 0 0 0 0 -73.574189071703586 -198.04128825103362 0 -198.04128825103362 -61.871508814085701 0 0 0 0 -33.654051345640255 -97.668262498224067 0 -97.668262498224067 -68.961450761785272 0 0 0 0 19.683266366074349 -58.55946503531959 0 -58.55946503531959 -81.313035832965397 0 0 0 0 6.623421253964807 -26.465421600762056 0 -26.465421600762056 -28.299321164009598 0 0 0 0 7.315650188040391 -15.300397915311116 0 -15.300397915311116 -8.4119117406923962 0 0 0 0 14.151476065748056 -31.001187912434034 0 -31.001187912434034 -25.664651917497395 0 0 0 0 -36.764020332335804 -54.043061719828984 0 -54.043061719828984 -28.941733396595737 0 0 0 0 -8.3782865225125533 -33.496305279802982 0 -33.496305279802982 -17.240682338655461 0 0 0 0 -39.020512475627129 -77.325936780521715 0 -77.325936780521715 -49.31121858582776 0 0 0 0 -20.955544379985639 -17.651543801158304 0 -17.651543801158304 18.369550140549109 0 0 0 0 -59.328988025635226 -45.638529426026253 0 -45.638529426026253 -40.541404858318856 0 0 0 0 -5.3690645043775476 -69.425290620350552 0 -69.425290620350552 -48.672560659046212 0 0 0 0 -396.00001550874481 -840.10148655278408 0 -840.10148655278408 -651.52892507956858 0 0 0 0 -566.45884493411745 -1649.9898741435882 0 -1649.9898741435882 -2065.3041061427029 0 0 0 0 -2010.8570867452609 -1384.0089788918376 0 -1384.0089788918376 -549.2118886576875 0 0 0 0 -7.8883816101175341 -11.072140008954449 0 -11.072140008954449 -7.7072121305534438 0 0 0 0 -1116.0075573748759 80.627202652623509 0 80.627202652623509 32.28226269359584 0 0 0 0 -585.63968622861648 -766.45585117996325 0 -766.45585117996325 -1839.2196487755537 0 0 0 0 -1755.1011303616506 -363.522720694702 0 -363.522720694702 58.527768870123055 0 0 0 0 303.1874544221846 1181.3562344715683 0 1181.3562344715683 288.17068388035841 0 0 0 0 -2517.3338801764698 -1763.4061281653831 0 -1763.4061281653831 -1983.1257788723633 0 0 0 0 -34.16066849028357 6.4738646474543202 0 6.4738646474543202 -2364.7897011704699 0 0 0 0 -424.87610606814633 -1884.4564308136505 0 -1884.4564308136505 -2420.6233692718488 0 0 0 0 -10.53679726772862 -11.055241438089908 0 -11.055241438089908 -8.2072146796255421 0 0 0 0 523.45532308215888 293.50478233268041 0 293.50478233268041 -2229.4345601164732 0 0 0 0 -1641.506631137152 -1830.7639827654875 0 -1830.7639827654875 -2183.4817054988271 0 0 0 0 706.84853444944747 -461.06958549247429 0 -461.06958549247429 -427.94656260519969 0 0 0 0 628.5771968506233 -441.12244689132876 0 -441.12244689132876 -432.72629335419333 0 0 0 0 779.57989102190186 -673.72709461330669 0 -673.72709461330669 -884.75354364959912 0 0 0 0 387.34546038201006 -1137.4567891961533 0 -1137.4567891961533 -1258.5503413966326 0 0 0 0 109.7164082551426 -952.92651333073809 0 -952.92651333073809 -948.04660930439559 0 0 0 0 297.77291668722319 -580.44290937212099 0 -580.44290937212099 -1550.5914920592732 0 0 0 0 512.6400899604123 17.269257304760686 0 17.269257304760686 -725.64725113401073 0 0 0 0 -10.174084948253618 -4.9730558693906133 0 -4.9730558693906133 1.2480817636170372 0 0 0 0 -115.6645257442251 -102.21206624564184 0 -102.21206624564184 3.7744257060112432 0 0 0 0 849.0446089662546 -247.3995211146339 0 -247.3995211146339 -131.2522519880913 0 0 0 0 -13.196898287803741 -11.936769551564101 0 -11.936769551564101 -0.215654004316022 0 0 0 0 -30.615389337585402 -43.941172524497105 0 -43.941172524497105 -27.309714805422963 0 0 0 0 -71.871290832998056 -35.570582902846581 0 -35.570582902846581 -35.277250847026153 0 0 0 0 596.82105797919212 -343.11552306923477 0 -343.11552306923477 153.37828263877964 0 0 0 0 579.88742332721085 -365.34667016922322 0 -365.34667016922322 -159.66499479268168 0 0 0 0 569.88583358303003 -469.87881724772524 0 -469.87881724772524 -165.27967417865148 0 0 0 0 -13.122442029213417 -26.398114089407585 0 -26.398114089407585 -27.087826145852752 0 0 0 0 501.00369111858163 -427.27503521639301 0 -427.27503521639301 164.14497294078706 0 0 0 0 -32.999265387156811 -54.964582117004284 0 -54.964582117004284 -38.382598462469105 0 0 0 0 -0.85207108162825662 -17.378139244074703 0 -17.378139244074703 -12.004179393063495 0 0 0 0 -19.096858720997261 -41.058912537053402 0 -41.058912537053402 -4.8879627965634427 0 0 0 0 -34.710621803342292 -37.606196670685677 0 -37.606196670685677 -24.219190326582975 0 0 0 0 -22.21247677462452 -24.864566276628466 0 -24.864566276628466 -13.129950749636919 0 0 0 0 717.02355914565123 -1051.2017060989565 0 -1051.2017060989565 765.05257849698478 0 0 0 0 -10.783778546610847 -42.989833290117531 0 -42.989833290117531 -12.715477646321233 0 0 0 0 -14.852907663737469 -27.512591035870727 0 -27.512591035870727 4.5454178237581386 0 0 0 0 -27.315527451473585 -27.373866229880562 0 -27.373866229880562 -16.195411896839175 0 0 0 0 459.35544295599902 -695.25630310389897 0 -695.25630310389897 775.28724362248613 0 0 0 0 753.68305816999055 -735.60059618061132 0 -735.60059618061132 -32.22929054150427 0 0 0 0 502.7185078318862 -448.74622351097685 0 -448.74622351097685 167.70112307734234 0 0 0 0 516.15482866643288 -342.70618564394135 0 -342.70618564394135 -532.33388245294736 0 0 0 0 581.22328702594677 -621.70294072829529 0 -621.70294072829529 -136.63455531178261 0 0 0 0 649.20888887223555 -530.9576377386129 0 -530.9576377386129 -37.798240120970149 0 0 0 0 620.78451069930452 -878.19366317666572 0 -878.19366317666572 413.56553329665621 0 0 0 0 609.88880719357826 -576.95594730170353 0 -576.95594730170353 101.11737960800383 0 0 0 0 522.41806721844478 -937.89018202681837 0 -937.89018202681837 420.65604300578707 0 0 0 0 445.7599728913483 -1560.9919782033212 0 -1560.9919782033212 1926.3117537540256 0 0 0 0 543.98563063274196 -727.28131362718705 0 -727.28131362718705 835.25423187037813 0 0 0 0 555.8352812421781 -840.84957751907086 0 -840.84957751907086 1084.1632832924224 0 0 0 0 637.8005006925523 -820.07249368233897 0 -820.07249368233897 1079.9768499443016 0 0 0 0 473.50570750213228 -900.02765020843799 0 -900.02765020843799 1523.5501698688022 0 0 0 0 471.59352566022426 -951.20567805126484 0 -951.20567805126484 1132.8975189402408 0 0 0 0 404.92842029625899 -977.49471970499144 0 -977.49471970499144 1380.1976580255432 0 0 0 0 427.23410633718595 -1060.9695058040597 0 -1060.9695058040597 1173.0891938755231 0 0 0 0 518.39911545196082 -1026.1456012920971 0 -1026.1456012920971 1000.7797845539462 0 0 0 0 885.87873634527205 -771.90619554036675 0 -771.90619554036675 442.6473953233799 0 0 0 0 845.26342887340434 -602.34403561436193 0 -602.34403561436193 1037.4109497639729 0 0 0 0 600.55479358552839 -609.93657250567048 0 -609.93657250567048 1714.4203178518219 0 0 0 0 325.98754686400935 -935.86883741353813 0 -935.86883741353813 2085.9239545760283 0 0 0 0 346.62830281010247 -1171.2179367805584 0 -1171.2179367805584 1524.2926610926224 0 0 0 0 464.90426278315135 -1130.9083680135009 0 -1130.9083680135009 1324.1832091527613 0 0 0 0 451.74739829351893 -1173.363869371271 0 -1173.363869371271 1512.5742855112476 0 0 0 0 811.9253741853463 -1610.5911343926018 0 -1610.5911343926018 1435.5939895057963 0 0 0 0 470.43890454914072 -1280.9694586845289 0 -1280.9694586845289 1269.3734075522516 0 0 0 0 367.94412594163441 -1145.5501612486551 0 -1145.5501612486551 1207.4883631484336 0 0 0 0 543.96781046157412 -1048.52631365876 0 -1048.52631365876 865.24811102116655 0 0 0 0 56.372063490998698 -942.17135627175958 0 -942.17135627175958 1341.753988667977 0 0 0 0 632.96387389811571 -696.03190233714668 0 -696.03190233714668 874.42060687276535 0 0 0 0 94.132990321595571 -519.06954228996619 0 -519.06954228996619 344.66567552462584 0 0 0 0 35.640876674937317 -921.3442117390332 0 -921.3442117390332 791.1001115474719 0 0 0 0 286.50677922002797 -1017.1968341284592 0 -1017.1968341284592 618.03427385987743 0 0 0 0 368.72943091922207 -822.84313024181029 0 -822.84313024181029 687.66639510872665 0 0 0 0 407.1777525023208 -1077.796069266522 0 -1077.796069266522 763.85777317897009 0 0 0 0 415.51921279231465 -944.0710254205228 0 -944.0710254205228 1015.2767226194119 0 0 0 0 317.87549785742885 -858.72494097725576 0 -858.72494097725576 935.18530056563031 0 0 0 0 -256.88425832937355 -5.6246592920761032 0 -5.6246592920761032 528.13014700833446 0 0 0 0 -306.88867356532137 -642.43302261521239 0 -642.43302261521239 1030.2498929696994 0 0 0 0 -264.90924543357323 -256.33745943876966 0 -256.33745943876966 605.53257483981724 0 0 0 0 -872.8066607251094 -459.92058028282918 0 -459.92058028282918 548.52094727995427 0 0 0 0 -2206.3688072298264 291.43436013753171 0 291.43436013753171 38.486526239059458 0 0 0 0 -731.1450376000048 214.92519845266543 0 214.92519845266543 -55.564144467905862 0 0 0 0 -610.61196661553549 -252.5923088389136 0 -252.5923088389136 -188.16352874327276 0 0 0 0 -612.03089000189425 -803.70716133891494 0 -803.70716133891494 235.88485217437119 0 0 0 0 -1874.9067472421302 -933.1063160272497 0 -933.1063160272497 -400.37674358873119 0 0 0 0 64.741686899840715 -762.09407768023448 0 -762.09407768023448 99.483939582407402 0 0 0 0 425.01844286048436 -707.68877509653066 0 -707.68877509653066 102.42602717023692 0 0 0 0 66.561973690695595 -753.97488850152877 0 -753.97488850152877 -683.15095724775165 0 0 0 0 23.420572823728435 -538.86261722025301 0 -538.86261722025301 -467.59580562393603 0 0 0 0 -48.057217276946176 -250.7992609967223 0 -250.7992609967223 -805.03928064359388 0 0 0 0 409.69094240346749 -518.00996271292752 0 -518.00996271292752 -536.80992229755066 0 0 0 0 440.43937057575386 -759.95278009726826 0 -759.95278009726826 -72.764549154548149 0 0 0 0 461.65783110969642 -500.37803791288752 0 -500.37803791288752 -873.08552717118801 0 0 0 0 -71.622636353971757 -131.23685226821635 0 -131.23685226821635 -766.59319153239267 0 0 0 0 91.015401571337861 71.100485531064805 0 71.100485531064805 -721.8015042385523 0 0 0 0 -2061.2542517033035 -68.205271898776118 0 -68.205271898776118 -308.71236746491559 0 0 0 0 -548.85274623899022 -938.6529369098007 0 -938.6529369098007 -1743.5408317829715 0 0 0 0 -551.22869807267853 534.98738986745775 0 534.98738986745775 -1686.7626447522937 0 0 0 0 -626.04339870210242 -512.78602248489733 0 -512.78602248489733 -172.56476622042101 0 0 0 0 -116.28326850913982 -87.454351093059358 0 -87.454351093059358 -205.4751412847163 0 0 0 0 -711.50750547872303 349.11040645446974 0 349.11040645446974 -523.64224039280134 0 0 0 0 232.46911862277557 -137.28860199859264 0 -137.28860199859264 -292.3780886644181 0 0 0 0 -49.548821031850821 118.32521548621025 0 118.32521548621025 -495.7280993501563 0 0 0 0 389.37943810260913 -206.68590414208302 0 -206.68590414208302 -600.06116604435965 0 0 0 0 554.76653919825912 -298.93098737132823 0 -298.93098737132823 -467.80775931372636 0 0 0 0 255.41608273277961 -139.18845780292031 0 -139.18845780292031 -428.63083737573334 0 0 0 0 407.95420665720303 -335.88698684076826 0 -335.88698684076826 -381.83537359425759 0 0 0 0 612.1423488772416 -398.68861878393363 0 -398.68861878393363 -387.11996172610316 0 0 0 0 485.12643767327245 -327.80255070558451 0 -327.80255070558451 -247.08526670882566 0 0 0 0 561.09983097517397 -537.74156518558266 0 -537.74156518558266 124.06417349677031 0 0 0 0 559.51346952173481 -473.00612890644697 0 -473.00612890644697 -7.5561014599618375 0 0 0 0 684.70084643573136 -485.56728010664756 0 -485.56728010664756 -273.23010044448529 0 0 0 0 667.04859321206823 -425.42822230894762 0 -425.42822230894762 -538.1274404525102 0 0 0 0 367.80506829399383 -201.18435857264558 0 -201.18435857264558 -380.9404047687276 0 0 0 0 408.53872312181193 -392.69064064032318 0 -392.69064064032318 14.948633576390421 0 0 0 0 -57.449290509888669 -422.62378087485195 0 -422.62378087485195 29.56278279991966 0 0 0 0 31.334357211067982 -221.69887569493767 0 -221.69887569493767 398.75236542808852 0 0 0 0 217.4064135314984 -177.50896146637615 0 -177.50896146637615 85.969173066680924 0 0 0 0 80.32469768292367 -36.029215118987793 0 -36.029215118987793 -64.717105045827793 0 0 0 0 353.47610986309974 -699.10641993367108 0 -699.10641993367108 393.28757969497747 0 0 0 0 584.36388925240317 -361.86095344090427 0 -361.86095344090427 -61.032814430305734 0 0 0 0 703.76890540667227 -569.09393322351025 0 -569.09393322351025 59.041768537092139 0 0 0 0 550.41079421294853 -274.98579567427896 0 -274.98579567427896 -419.21261514807702 0 0 0 0 450.69661244831514 -355.08854024663742 0 -355.08854024663742 -50.0140532292844 0 0 0 0 40.601006446508109 -134.79361552611772 0 -134.79361552611772 57.850677815047675 0 0 0 0 -463.11452935432317 468.11126325679652 0 468.11126325679652 -348.58104198412821 0 0 0 0 -21.028144219858632 -43.590375119810545 0 -43.590375119810545 -5.4402412322543086 0 0 0 0 4.1440326674117074 -18.589823039412806 0 -18.589823039412806 14.571532818702593 0 0 0 0 -561.65272081902367 132.34475533353634 0 132.34475533353634 358.11535051208193 0 0 0 0 -63.512350974567866 -70.914679558586002 0 -70.914679558586002 68.985695067633074 0 0 0 0 -460.53149127376673 159.29167491358203 0 159.29167491358203 -217.72509366627492 0 0 0 0 -558.14038797722606 378.2089172690703 0 378.2089172690703 -123.78030703599507 0 0 0 0 -581.63036019455467 138.66129247758727 0 138.66129247758727 487.03571796852339 0 0 0 0 -364.67135580095055 83.879866391165706 0 83.879866391165706 434.05316946449602 0 0 0 0 -742.35661670779518 -66.528154340965557 0 -66.528154340965557 549.35493008903177 0 0 0 0 -1249.0400997643374 1105.4893086201519 0 1105.4893086201519 -1049.5229184580821 0 0 0 0 -541.41342681870447 320.54615739769361 0 320.54615739769361 -178.81586884041099 0 0 0 0 -12.453706833715046 -8.6007567832289169 0 -8.6007567832289169 -8.2440581019934598 0 0 0 0 -207.86923252843189 -620.23176103225251 0 -620.23176103225251 -74.769675682124216 0 0 0 0 -497.30714433317917 -1197.1883953221277 0 -1197.1883953221277 -999.34684812719706 0 0 0 0 89.233434762441902 -95.105025893190032 0 -95.105025893190032 -1423.3682886603419 0 0 0 0 85.356223382860662 -67.930155822141614 0 -67.930155822141614 -275.71483601680666 0 0 0 0 534.98085373341019 -827.87228969042508 0 -827.87228969042508 -447.36366393813705 0 0 0 0 694.93533907194796 -189.40141943519848 0 -189.40141943519848 -703.7951750058055 0 0 0 0 845.36195434912952 -444.74868385741411 0 -444.74868385741411 -418.68314106205071 0 0 0 0 516.93767777992616 -702.85181517462388 0 -702.85181517462388 -375.19257715132153 0 0 0 0 41.308785254681425 -529.67047028935303 0 -529.67047028935303 -112.83103288915299 0 0 0 0 37.269759909911954 -137.08006121705967 0 -137.08006121705967 -154.84385590054262 0 0 0 0 2.526675018349323 -7.1376277998795938 0 -7.1376277998795938 4.0915256882236726 0 0 0 0 -13.516843576591782 -117.76476410085888 0 -117.76476410085888 -32.92232280272674 0 0 0 0 -73.221814102780627 -277.60184405685231 0 -277.60184405685231 -777.8344828803838 0 0 0 0 9.7390000540459596 -14.513778283930648 0 -14.513778283930648 4.1842413488828996 0 0 0 0 -16.405110021645669 -106.92149626209834 0 -106.92149626209834 -817.08321904352306 0 0 0 0 -144.81476552132517 -52.623675839133284 0 -52.623675839133284 66.679066354200586 0 0 0 0 13.804507673397893 -133.58901800191597 0 -133.58901800191597 -402.97858454498055 0 0 0 0 111.05411881281179 -217.31926813206883 0 -217.31926813206883 -758.14652399763872 0 0 0 0 -537.63937751558842 -207.07708334528138 0 -207.07708334528138 247.55329137660419 0 0 0 0 -510.29506148734072 -530.73374092600204 0 -530.73374092600204 -236.36117964079858 0 0 0 0 -316.34937889814501 -188.96067445632929 0 -188.96067445632929 44.922444916212044 0 0 0 0 -175.87386545319168 26.910456421695926 0 26.910456421695926 177.23108520483856 0 0 0 0 -282.55190353983016 -309.12763217282384 0 -309.12763217282384 -103.45639822185149 0 0 0 0 -496.39894662101869 -365.16635527591507 0 -365.16635527591507 16.83461018471553 0 0 0 0 -363.68668960881041 -454.99641727679796 0 -454.99641727679796 -322.13055036172403 0 0 0 0 -0.98276002339517277 0.29242192317373394 0 0.29242192317373394 6.659008605505452 0 0 0 0 -632.70675511952868 -927.010949109595 0 -927.010949109595 -279.96712126644081 0 0 0 0 15.81849560351111 -805.58099247638575 0 -805.58099247638575 -257.72535158584469 0 0 0 0 -150.70743214956474 -318.01783904852391 0 -318.01783904852391 -102.23379726343956 0 0 0 0 812.12769271860452 -35.181643843759218 0 -35.181643843759218 -97.465132746043992 0 0 0 0 212.46510501554076 -66.70608684460629 0 -66.70608684460629 -36.784935384675464 0 0 0 0 147.69871383882492 -168.15734334945273 0 -168.15734334945273 48.734668823753054 0 0 0 0 81.486608652194263 -82.371836137162063 0 -82.371836137162063 -4.6572955462474965 0 0 0 0 83.689842150386539 -80.063101974202254 0 -80.063101974202254 -11.625577948355385 0 0 0 0 84.701568709055209 -85.477693268003236 0 -85.477693268003236 -8.1669361917529386 0 0 0 0 83.469037903305434 -88.436282771246738 0 -88.436282771246738 -1.0429683111124746 0 0 0 0 -112.12265563315304 -268.53091065868648 0 -268.53091065868648 -742.28677662741211 0 0 0 0 -436.88779065952986 -662.78118817404618 0 -662.78118817404618 -514.22119692892966 0 0 0 0 -583.74290941292566 -533.47129398230561 0 -533.47129398230561 -225.00319960124443 0 0 0 0 -7.762603819961285 -11.27267267041384 0 -11.27267267041384 5.0087193487304491 0 0 0 0 -23.417314535755168 -17.352997534451532 0 -17.352997534451532 -6.8413089555969044 0 0 0 0 -1691.2640979702701 -1876.0472977586046 0 -1876.0472977586046 96.338921126908303 0 0 0 0 -1444.4570128249761 294.65785203541554 0 294.65785203541554 320.40342506401828 0 0 0 0 -270.86361593517358 -597.3087484175652 0 -597.3087484175652 -1407.1464268606569 0 0 0 0 -1867.1920553637319 -1061.6124330627676 0 -1061.6124330627676 -685.06344103942888 0 0 0 0 -513.34076409912086 -609.47987904916147 0 -609.47987904916147 -570.88295720427539 0 0 0 0 -936.27211381396046 -694.94910668228749 0 -694.94910668228749 -111.23873687633682 0 0 0 0 -86.670110401508282 -241.21814381863078 0 -241.21814381863078 8.3378378435517675 0 0 0 0 -77.390752843333757 -281.87480816048787 0 -281.87480816048787 -152.04933148819237 0 0 0 0 -4.6592747094182414 -510.24892896850611 0 -510.24892896850611 -236.17224238184366 0 0 0 0 51.721563542141666 -405.26079202614619 0 -405.26079202614619 -46.27803768621061 0 0 0 0 308.42478663500515 -488.80616789505621 0 -488.80616789505621 -236.32875932521168 0 0 0 0 141.37274730356148 -318.60624570267009 0 -318.60624570267009 -372.49939884723062 0 0 0 0 438.69928710105887 -303.96368138506659 0 -303.96368138506659 -371.9531384262682 0 0 0 0 151.89273445474828 -258.48557322134729 0 -258.48557322134729 -155.82949021869217 0 0 0 0 -19.153259754726605 -93.953728451729148 0 -93.953728451729148 -289.12717546683052 0 0 0 0 -95.76566395372538 -147.5976493170117 0 -147.5976493170117 -7.6589495047501259 0 0 0 0 -180.35261573959724 -25.039180737069273 0 -25.039180737069273 -176.98587674912642 0 0 0 0 -313.40522888852138 -439.99044705449978 0 -439.99044705449978 82.838195569877826 0 0 0 0 459.68394423472273 -433.78840599638102 0 -433.78840599638102 8.0004370711667434 0 0 0 0 -149.98858816320717 -301.62030320314284 0 -301.62030320314284 62.444858915919667 0 0 0 0 -101.11721989062789 -226.41135064232313 0 -226.41135064232313 -4.0054657307234418 0 0 0 0 296.91301775325974 -291.16725506561886 0 -291.16725506561886 -18.183770096535 0 0 0 0 37.921131233080814 -256.12391378548318 0 -256.12391378548318 -12.846925666291099 0 0 0 0 -121.78458302060062 -125.51275179892241 0 -125.51275179892241 38.778830559448579 0 0 0 0 -250.57846799291656 -336.45743671541277 0 -336.45743671541277 47.402679035523079 0 0 0 0 -224.31264181528604 -345.53790600724733 0 -345.53790600724733 23.139365434522006 0 0 0 0 -160.20491829841194 -294.24381928010007 0 -294.24381928010007 64.482439483301278 0 0 0 0 -179.49959381457347 -393.15380548008454 0 -393.15380548008454 -45.055104626958382 0 0 0 0 -102.96549465532735 -458.68569589060417 0 -458.68569589060417 9.506463226946039 0 0 0 0 -300.64957965238136 -465.22163653664757 0 -465.22163653664757 13.709674331874567 0 0 0 0 -147.70983207041718 -451.3282329201902 0 -451.3282329201902 -97.531273709025299 0 0 0 0 -319.89475781226884 -678.73867207781541 0 -678.73867207781541 -308.3708762890783 0 0 0 0 -150.63618096919163 -408.70353760627404 0 -408.70353760627404 -531.16794574419873 0 0 0 0 -30.289102257273044 -420.37903808827923 0 -420.37903808827923 -573.31123396476778 0 0 0 0 -150.6327514585173 -401.81112748041051 0 -401.81112748041051 -1485.5189942420038 0 0 0 0 -690.82082134979646 -832.11450562654591 0 -832.11450562654591 -357.92809988560657 0 0 0 0 -447.85128126229938 -478.85513682296255 0 -478.85513682296255 82.718644566701187 0 0 0 0 97.070463182979438 -186.96276026451415 0 -186.96276026451415 12.988525818529524 0 0 0 0 -2.4498272714336053 -20.925822399843128 0 -20.925822399843128 -592.76513603605417 0 0 0 0 46.532585754233878 -4.1833755230563838 0 -4.1833755230563838 -1934.6039341618725 0 0 0 0 -622.3897902012759 -226.23358606660804 0 -226.23358606660804 405.88607154466172 0 0 0 0 -4.3307493218339914 -11.578879273533747 0 -11.578879273533747 -11.1160794040941 0 0 0 0 -882.34873313152821 -1037.351322120222 0 -1037.351322120222 -860.04102262121887 0 0 0 0 -323.62324530165642 -401.26270352337087 0 -401.26270352337087 -443.41496284052118 0 0 0 0 255.39174054075556 -238.50877415197101 0 -238.50877415197101 -852.50641138930769 0 0 0 0 -337.82282399253745 -557.53582648646625 0 -557.53582648646625 -31.081951637799648 0 0 0 0 245.15809240652015 -1809.5222568525896 0 -1809.5222568525896 -1381.5911144418351 0 0 0 0 -6.0995345672678525 -9.0456977360462858 0 -9.0456977360462858 0.042037836430171005 0 0 0 0 -704.54461468440422 -459.42938795169175 0 -459.42938795169175 1292.7454704214906 0 0 0 0 207.50405564316316 11.115931115647982 0 11.115931115647982 228.24052415358346 0 0 0 0 17.629494269232964 -3338.6787525979744 0 -3338.6787525979744 -2753.5170340584536 0 0 0 0 -940.99753429144039 -1421.8299249432894 0 -1421.8299249432894 -1503.7687600388199 0 0 0 0 -782.84856014030811 -1016.4362059531504 0 -1016.4362059531504 -860.83619823260233 0 0 0 0 -936.04142913944088 -1148.5909620397433 0 -1148.5909620397433 -9.5357033796808537 0 0 0 0 240.12832396110753 -99.777957095593592 0 -99.777957095593592 -888.38420553306946 0 0 0 0 -52.515630972280633 -199.89614935670397 0 -199.89614935670397 -478.85563582515169 0 0 0 0 -215.73248460840841 -394.19974926348914 0 -394.19974926348914 -431.63499112823774 0 0 0 0 -366.51237775101981 -365.85454597755779 0 -365.85454597755779 -461.96387042658898 0 0 0 0 -196.37800575121946 -441.38381138314435 0 -441.38381138314435 -474.30321122921123 0 0 0 0 137.81735516857589 -126.75737447481515 0 -126.75737447481515 -21.254130854322284 0 0 0 0 -158.86645881943332 -252.0835274536048 0 -252.0835274536048 -218.15322377474513 0 0 0 0 10.780408833312322 13.074527663980007 0 13.074527663980007 -160.49309358469327 0 0 0 0 -109.92204412558931 -181.32010927554074 0 -181.32010927554074 -233.59094256525714 0 0 0 0 -123.15375814842264 8.2209721676099434 0 8.2209721676099434 -449.30690247001439 0 0 0 0 -4.8621798012076027 -6.6309852198100323 0 -6.6309852198100323 12.388504272778064 0 0 0 0 -4.6788499458117272 -6.1835087000120978 0 -6.1835087000120978 -5.7840225764678053 0 0 0 0 73.10240636333765 29.90082365584567 0 29.90082365584567 -141.31751186208567 0 0 0 0 83.551538636918849 -105.12591086105567 0 -105.12591086105567 -726.61835857686674 0 0 0 0 -11.346881007077172 -405.8386684134457 0 -405.8386684134457 -676.09553171640437 0 0 0 0 -1271.9250586778671 -264.22899472664358 0 -264.22899472664358 -535.50501008032734 0 0 0 0 -193.77190687500115 -383.41339737323324 0 -383.41339737323324 -535.84486872703383 0 0 0 0 -33.103750908825816 21.925358692605258 0 21.925358692605258 -54.734237645725173 0 0 0 0 -129.81296145758824 5.5155449457188297 0 5.5155449457188297 -89.237415270577003 0 0 0 0 -16.021433995985717 20.910332012561867 0 20.910332012561867 -206.89794076297585 0 0 0 0 -67.66819775631302 26.611609111431335 0 26.611609111431335 -177.75803114900185 0 0 0 0 -276.0440857863432 -47.390425128919389 0 -47.390425128919389 8.6287483053483811 0 0 0 0 -13.705986191638999 -5.0201784596229686 0 -5.0201784596229686 -10.46091963761366 0 0 0 0 -25.871582858613692 12.131612801486426 0 12.131612801486426 -36.184785483300402 0 0 0 0 -137.02131386099791 -25.934202581038335 0 -25.934202581038335 -178.117063830392 0 0 0 0 -152.26362796315516 -70.066087221437556 0 -70.066087221437556 12.576997259672225 0 0 0 0 -285.02718156359333 -60.307652490697365 0 -60.307652490697365 -176.35676956716713 0 0 0 0 -0.74077965468313778 -120.08127921460527 0 -120.08127921460527 -239.27933084850702 0 0 0 0 -159.85737240725484 -129.12788160686415 0 -129.12788160686415 -34.592615805944888 0 0 0 0 -37.895449014425736 -36.034237164576972 0 -36.034237164576972 -20.855128820794928 0 0 0 0 -80.861740072528846 -104.69645686044693 0 -104.69645686044693 -47.426015716176266 0 0 0 0 -22.317952500671311 -24.480779030266589 0 -24.480779030266589 -19.206124539986615 0 0 0 0 100.28950876500653 -283.77931023787113 0 -283.77931023787113 122.59274930232095 0 0 0 0 20.07568549617281 -170.99535739470411 0 -170.99535739470411 -496.42971120846596 0 0 0 0 78.456794829522551 -114.03340946546632 0 -114.03340946546632 -488.59561913346624 0 0 0 0 220.50974959132873 -305.07624437791492 0 -305.07624437791492 -474.24147189260111 0 0 0 0 75.398432890418917 -273.15523917958126 0 -273.15523917958126 -338.56241265053177 0 0 0 0 232.0863991357628 -362.53149336574529 0 -362.53149336574529 -287.64074064288434 0 0 0 0 183.04892320486761 -324.17216597441711 0 -324.17216597441711 -325.90518184555549 0 0 0 0 221.07087356509874 -223.92531069060715 0 -223.92531069060715 -245.56053496571985 0 0 0 0 336.62538734001646 -420.6258180626769 0 -420.6258180626769 -122.42122126088361 0 0 0 0 15.647038924757538 -18.88251305652561 0 -18.88251305652561 -10.870117246824467 0 0 0 0 18.488747260111268 -301.83782854208584 0 -301.83782854208584 343.99646228737038 0 0 0 0 -434.76364369579824 43.356705416517798 0 43.356705416517798 1096.5209344651266 0 0 0 0 -1233.318880278408 3764.1962503463492 0 3764.1962503463492 -3435.8128679472939 0 0 0 0 696.94661198672839 -3790.5319461878898 0 -3790.5319461878898 -5471.3036434018868 0 0 0 0 62.607976940693334 -43.29560756074352 0 -43.29560756074352 15.885172908478125 0 0 0 0 -5.6203951742342326 -3.3730941612342917 0 -3.3730941612342917 2.4464605056998892 0 0 0 0 -303.69555847372976 -206.61321719016087 0 -206.61321719016087 -386.29348659519076 0 0 0 0 129.32719390497368 -46.87741519449628 0 -46.87741519449628 -402.78046138489299 0 0 0 0 -94.222348959368219 -81.518980906499991 0 -81.518980906499991 -54.665171821508913 0 0 0 0 -435.1741608105076 35.456905054106755 0 35.456905054106755 118.2616290587971 0 0 0 0 -4.4566373603884131 -460.75659168463062 0 -460.75659168463062 -465.71162022174008 0 0 0 0 -300.35185793024721 -334.31354970889333 0 -334.31354970889333 -376.87447187667021 0 0 0 0 -248.2327063413104 -241.60161879799125 0 -241.60161879799125 -435.49524905788348 0 0 0 0 -98.5931275429175 -67.798245337146 0 -67.798245337146 -354.17280661365294 0 0 0 0 -743.24913381545048 -104.68420514589525 0 -104.68420514589525 -349.41195523417264 0 0 0 0 121.90889712201897 -20.344404150440823 0 -20.344404150440823 -739.11398762465092 0 0 0 0 -187.51955190389708 -318.59137210740118 0 -318.59137210740118 -682.41076668861933 0 0 0 0 -322.3890270080301 -187.05113984224954 0 -187.05113984224954 -336.13871590636188 0 0 0 0 -13.848960112921759 -79.475020709161953 0 -79.475020709161953 -68.194466889935512 0 0 0 0 -397.165320139713 41.442479649016605 0 41.442479649016605 75.63360498888369 0 0 0 0 -37.581574293858097 -1.0220419828597187 0 -1.0220419828597187 31.660704889078822 0 0 0 0 -823.429611400672 -69.148386762799419 0 -69.148386762799419 283.19846024457001 0 0 0 0 -94.801093741187799 -72.991107432213511 0 -72.991107432213511 -79.403926080370866 0 0 0 0 -131.80332847457612 -246.04211714432313 0 -246.04211714432313 -686.55519519117297 0 0 0 0 68.508735963987419 -511.4830151002152 0 -511.4830151002152 -768.6149451785459 0 0 0 0 20.763058404641924 -527.02367450878592 0 -527.02367450878592 34.819479680882068 0 0 0 0 -18.257065800340229 -80.433338952181501 0 -80.433338952181501 -53.575132536674069 0 0 0 0 -16.400232963613234 -112.94151001345017 0 -112.94151001345017 -230.18747532131238 0 0 0 0 -112.64407132554334 -158.68398924516805 0 -158.68398924516805 -21.123695138623589 0 0 0 0 -40.702892815162784 -83.359298324180088 0 -83.359298324180088 -41.513936079975807 0 0 0 0 -12.863754957041238 -81.627457122216583 0 -81.627457122216583 -122.40329994095646 0 0 0 0 -88.652907599698096 -140.24193794035926 0 -140.24193794035926 26.387194050420533 0 0 0 0 -49.265084421193137 -107.67361403308416 0 -107.67361403308416 -178.00498206153372 0 0 0 0 -197.20737837062188 -13.372082361845059 0 -13.372082361845059 -150.10084382719651 0 0 0 0 24.407370522563383 -94.703441782854952 0 -94.703441782854952 -118.9417972048949 0 0 0 0 -49.155690692568896 -125.61924338020799 0 -125.61924338020799 -135.188043709265 0 0 0 0 -10.433292594123401 -47.915028048209081 0 -47.915028048209081 -74.882233196485672 0 0 0 0 105.95871799516317 -217.08181762179265 0 -217.08181762179265 -347.64075802599109 0 0 0 0 53.734591976564843 -109.81820276800136 0 -109.81820276800136 -542.32249433236575 0 0 0 0 -73.458036217023619 -444.08705188371823 0 -444.08705188371823 59.745372948193108 0 0 0 0 -79.553785273630638 -199.78437900262361 0 -199.78437900262361 211.79193488036253 0 0 0 0 0.049500801193062216 -192.00641996066406 0 -192.00641996066406 140.45768429349118 0 0 0 0 10.773167291754362 -257.72726657540716 0 -257.72726657540716 187.04840025203885 0 0 0 0 -125.6851727205958 -175.97576502218544 0 -175.97576502218544 215.43692778956029 0 0 0 0 -85.549783421498432 -209.96755968940124 0 -209.96755968940124 225.47652969579212 0 0 0 0 -23.820829712321711 -45.360084341869367 0 -45.360084341869367 -27.64252739933363 0 0 0 0 -330.96064557036152 -29.006585858653125 0 -29.006585858653125 -142.53598078358846 0 0 0 0 -542.08383256691013 -349.88928392396792 0 -349.88928392396792 425.23257618391654 0 0 0 0 -3.14025074691844 -5.1512259094265573 0 -5.1512259094265573 -19.580340836898614 0 0 0 0 -2541.9417600228044 9.4784388464904623 0 9.4784388464904623 155.04428151433603 0 0 0 0 320.59634116780944 -461.28371223116119 0 -461.28371223116119 -783.9716673578514 0 0 0 0 427.70594294261537 -141.38250519952999 0 -141.38250519952999 -373.29533325906959 0 0 0 0 -1351.7367104463192 -1403.5947622729364 0 -1403.5947622729364 -525.1646296700419 0 0 0 0 239.4189659433323 -594.20889194951451 0 -594.20889194951451 -152.64843787647987 0 0 0 0 -432.65649221616331 -352.41004773881286 0 -352.41004773881286 -369.24123345442058 0 0 0 0 18.252535290191986 -91.729138881871748 0 -91.729138881871748 -112.47259715866355 0 0 0 0 -22.889927003055732 -61.257256124720982 0 -61.257256124720982 -55.601336379307952 0 0 0 0 -614.15833313101575 -1279.8462955258756 0 -1279.8462955258756 321.31016079844267 0 0 0 0 -79.232382985136013 -83.954358461362645 0 -83.954358461362645 -19.113182307770032 0 0 0 0 -350.21596014301394 -250.08898552398068 0 -250.08898552398068 -295.38515844679932 0 0 0 0 2122.4589335248311 -1053.9754579857217 0 -1053.9754579857217 -1813.6971573597984 0 0 0 0 -401.2396898396546 -402.42844315949878 0 -402.42844315949878 -346.37224328405864 0 0 0 0 -148.12162587277237 -182.52907042098099 0 -182.52907042098099 100.54730581845884 0 0 0 0 1995.6269551211008 -390.58356959802859 0 -390.58356959802859 -2812.831163202005 0 0 0 0 -766.76369764312403 843.73270289563516 0 843.73270289563516 -940.78990002648789 0 0 0 0 -934.55710426409496 -1656.4962497357119 0 -1656.4962497357119 -2787.2752893014722 0 0 0 0 -3217.9037523984152 -1444.3502102182392 0 -1444.3502102182392 -544.13005442012945 0 0 0 0 -11.808221586618288 -11.683312631787288 0 -11.683312631787288 15.116855847522777 0 0 0 0 -2712.3556057444075 -1813.2381699501784 0 -1813.2381699501784 -1582.3830290943952 0 0 0 0 -13.027436992980853 -89.725278926287288 0 -89.725278926287288 -7.4352367566123192 0 0 0 0 -304.98257774615922 383.53803629962476 0 383.53803629962476 -284.04249438615807 0 0 0 0 -1544.2495676140097 -3511.5582302988241 0 -3511.5582302988241 2222.5964462960801 0 0 0 0 -237.88941411820997 -149.20032946578431 0 -149.20032946578431 -283.13399067881255 0 0 0 0 611.41816663745703 -1090.6470462543457 0 -1090.6470462543457 -522.11593811531202 0 0 0 0 -47.84524948203935 -86.327102857047436 0 -86.327102857047436 -24.979156734675598 0 0 0 0 48.044858947063489 -105.16034012119887 0 -105.16034012119887 -146.90968627606571 0 0 0 0 1011.3351758952631 111.64404293087136 0 111.64404293087136 -176.54106997935742 0 0 0 0 767.16222386795562 -314.6663742549099 0 -314.6663742549099 -461.59939572807343 0 0 0 0 376.01236853210139 -335.57164412103884 0 -335.57164412103884 -34.721827690889768 0 0 0 0 606.61858241184382 249.90883999378275 0 249.90883999378275 -58.989865137733432 0 0 0 0 344.38613017326861 -499.13124812484602 0 -499.13124812484602 -179.94251911219908 0 0 0 0 801.53358606311667 -211.04950302348152 0 -211.04950302348152 -267.49174608978501 0 0 0 0 -210.71745688380906 -194.82524306896448 0 -194.82524306896448 -54.665035333819105 0 0 0 0 -179.3407239181397 -227.64948995932355 0 -227.64948995932355 -111.56552037227993 0 0 0 0 -426.54517303474131 203.08391473870506 0 203.08391473870506 -815.83214407739433 0 0 0 0 -1434.5118671626551 -335.02062862857201 0 -335.02062862857201 -66.403167379045044 0 0 0 0 250.9922622670274 -771.30821991176708 0 -771.30821991176708 -1393.8259319902863 0 0 0 0 -221.01782982406439 -1093.3542081830819 0 -1093.3542081830819 -899.47212584563385 0 0 0 0 -1101.5036339678263 -1136.5045605420892 0 -1136.5045605420892 -414.15799621032784 0 0 0 0 -297.33975745760836 -799.31486248811416 0 -799.31486248811416 -272.79291898607335 0 0 0 0 -663.93619306998153 -629.00947696742514 0 -629.00947696742514 -176.52407669939566 0 0 0 0 -316.2657577812206 -850.87876070812126 0 -850.87876070812126 -377.66539951585582 0 0 0 0 -224.67688893739978 -856.85693669729153 0 -856.85693669729153 -540.15114072496362 0 0 0 0 195.61937212536577 -625.6083714696797 0 -625.6083714696797 -545.4362679509652 0 0 0 0 -57.446672687423415 -33.21557427132575 0 -33.21557427132575 35.158465769227405 0 0 0 0 -7.0897670423176038 -13.398052792804201 0 -13.398052792804201 -15.322454447776138 0 0 0 0 5.4889017597716077 -13.802916133799727 0 -13.802916133799727 14.205366288756405 0 0 0 0 -17.152479542285633 -52.640311150108175 0 -52.640311150108175 38.921059518124174 0 0 0 0 -15.031006942489029 -74.209113394531002 0 -74.209113394531002 5.9158539470830505 0 0 0 0 -43.570089792876388 -85.314025341962406 0 -85.314025341962406 -11.712758428839152 0 0 0 0 -20.395814388015424 -53.87916579305238 0 -53.87916579305238 -73.091906455927528 0 0 0 0 -1.3695394312910025 -85.634804803758129 0 -85.634804803758129 11.52257702742456 0 0 0 0 20.499510272900807 -114.33740874280556 0 -114.33740874280556 24.878860618668114 0 0 0 0 27.336198128972072 -73.091630671001553 0 -73.091630671001553 22.002210252502273 0 0 0 0 89.882772584332997 -159.81334141135812 0 -159.81334141135812 -67.605723107335507 0 0 0 0 33.821007320717399 -180.51490194836447 0 -180.51490194836447 -142.13456316696829 0 0 0 0 9.0471391376440806 -13.769302393073872 0 -13.769302393073872 117.06031224590333 0 0 0 0 -17.138240562681638 -61.822585143674893 0 -61.822585143674893 -0.11826114219835659 0 0 0 0 16.790541008012951 -108.84733016449172 0 -108.84733016449172 -76.051901772349083 0 0 0 0 -1.2546235640893997 -64.411984349013295 0 -64.411984349013295 1.5894785613324627 0 0 0 0 -7.5513699820148759 -68.592875248017663 0 -68.592875248017663 3.2324932894771337 0 0 0 0 9.1298882094275911 -73.550875469972084 0 -73.550875469972084 -13.404559581473031 0 0 0 0 -31.113214765643548 -71.308834699069166 0 -71.308834699069166 20.77381475962703 0 0 0 0 -58.872025414055514 -72.901154194810388 0 -72.901154194810388 22.432922890760135 0 0 0 0 -193.83806785576598 -67.974758413249219 0 -67.974758413249219 245.23061989579219 0 0 0 0 46.626104187489545 -60.709366871344855 0 -60.709366871344855 -36.525425547869418 0 0 0 0 -378.0087540296081 -290.37223506249939 0 -290.37223506249939 169.57377916337504 0 0 0 0 -87.105176783508796 -184.64779839402763 0 -184.64779839402763 143.21993536376431 0 0 0 0 174.79901590519876 -0.73468006840994349 0 -0.73468006840994349 8.8180541805395478 0 0 0 0 27.033207342154299 -67.542889692628506 0 -67.542889692628506 15.599317978996098 0 0 0 0 -192.13925833901885 142.22731663144441 0 142.22731663144441 28.368266968551325 0 0 0 0 59.441988702834351 26.273028252537642 0 26.273028252537642 210.34735489503646 0 0 0 0 276.59113642957527 -16.188955321379581 0 -16.188955321379581 -367.8924357438209 0 0 0 0 105.88265676336596 -105.92181425638319 0 -105.92181425638319 71.238738583271697 0 0 0 0 -314.41928556570201 68.875364982815427 0 68.875364982815427 597.12932405333959 0 0 0 0 -1.1734988967131983 -73.246480994851552 0 -73.246480994851552 1.5534027168267421 0 0 0 0 -150.25638799740409 -313.05370108007992 0 -313.05370108007992 -534.10352278189384 0 0 0 0 -8.0510530515839775 -26.106503428005084 0 -26.106503428005084 4.5376204139513447 0 0 0 0 539.37595674098702 325.07567742734682 0 325.07567742734682 -6427.056666035618 0 0 0 0 401.28438712512434 -16.591474630076846 0 -16.591474630076846 -3644.5298788761029 0 0 0 0 -65.812643755508049 -25.834878513841531 0 -25.834878513841531 75.178439047977321 0 0 0 0 45.870949982549064 -429.94654142920899 0 -429.94654142920899 420.23330545396425 0 0 0 0 4.079062213474316 -83.178633751254111 0 -83.178633751254111 -103.07562998717547 0 0 0 0 -999.31169798245537 -366.93683229550516 0 -366.93683229550516 931.14392855779442 0 0 0 0 -18.968920167373057 -26.88205781974392 0 -26.88205781974392 19.796673536898766 0 0 0 0 -106.58767468588121 164.42031899072936 0 164.42031899072936 -380.73050190429058 0 0 0 0 -176.97214266825176 -332.35519626632959 0 -332.35519626632959 -67.116728790889283 0 0 0 0 -397.95349178896868 -57.621086933743754 0 -57.621086933743754 68.889008894742801 0 0 0 0 -2.3181004884827416 -114.84794583207804 0 -114.84794583207804 135.44323188748876 0 0 0 0 -83.236465905369442 -62.223116555782667 0 -62.223116555782667 65.085045230321413 0 0 0 0 -30.38464976096293 -244.24306892752065 0 -244.24306892752065 72.599834993824516 0 0 0 0 -108.36178185079189 -124.62383924153164 0 -124.62383924153164 81.122885188789724 0 0 0 0 -18.446715421064056 -29.979952403021787 0 -29.979952403021787 -28.087543777324754 0 0 0 0 -101.72087530585122 -107.30385005616927 0 -107.30385005616927 85.947547189993202 0 0 0 0 -60.817229323612992 -71.745466730797489 0 -71.745466730797489 -34.209039152563491 0 0 0 0 -1742.7332386629714 537.19783117180486 0 537.19783117180486 -127.62891719579056 0 0 0 0 -19.906067034737816 -87.89465955300372 0 -87.89465955300372 53.577327483795671 0 0 0 0 3.7755263508026076 -50.125186662338194 0 -50.125186662338194 35.18794110014619 0 0 0 0 -6.6749931268940657 -94.159048410798448 0 -94.159048410798448 -3.2982885803308761 0 0 0 0 -23.937452370465223 -87.312003388025971 0 -87.312003388025971 3.8563189996775407 0 0 0 0 34.484386779426131 -84.135671235635527 0 -84.135671235635527 55.77694713434903 0 0 0 0 -5.4566634904517457 -52.245714574968957 0 -52.245714574968957 -47.524030384151587 0 0 0 0 -10.968434987473302 -55.597742391692009 0 -55.597742391692009 -31.405286781984614 0 0 0 0 -49.497012597143566 -100.25299242758919 0 -100.25299242758919 -40.721487178679951 0 0 0 0 3144.7728742024628 -2094.2975675153721 0 -2094.2975675153721 -583.51558049766754 0 0 0 0 2.9929328949983756 -47.681499076124965 0 -47.681499076124965 7.590886953053996 0 0 0 0 2.2762071344041033 -41.845081657780611 0 -41.845081657780611 -1.3513758646440692 0 0 0 0 -14.459784304607098 -55.763189820982568 0 -55.763189820982568 -3.645952768773185 0 0 0 0 15.187323916532819 -64.827629860313721 0 -64.827629860313721 5.709177659046702 0 0 0 0 -43.52528780361402 -58.457367620231452 0 -58.457367620231452 -54.798749107140168 0 0 0 0 624.47403447638499 -103.08760385531787 0 -103.08760385531787 -733.98985408073349 0 0 0 0 -13.260271480935671 -24.036030669406749 0 -24.036030669406749 -10.67294100566275 0 0 0 0 8.1741255214146804 -229.48293386760633 0 -229.48293386760633 274.61048783434671 0 0 0 0 -19.176501230683044 -54.758341604992694 0 -54.758341604992694 -48.923881181250351 0 0 0 0 8.565938044746872 -215.43390525886934 0 -215.43390525886934 -89.827815614349674 0 0 0 0 280.32059192378074 -0.97796951787313446 0 -0.97796951787313446 -124.39069314520748 0 0 0 0 -32.792202932897908 -18.005119717252413 0 -18.005119717252413 8.1322147141530934 0 0 0 0 -0.59811626929251815 -36.73121184021155 0 -36.73121184021155 1.8395777869985466 0 0 0 0 -13.986469934148772 -32.452691553656223 0 -32.452691553656223 -107.49445091825328 0 0 0 0 -9.789489468181273 -59.213089472577849 0 -59.213089472577849 -57.057993550406536 0 0 0 0 -7.5334614372811473 -26.330013264704192 0 -26.330013264704192 -16.545159338626632 0 0 0 0 -33.916426433977904 -68.667570943907776 0 -68.667570943907776 -64.199443055713346 0 0 0 0 -128.47314885384549 -109.25837755298744 0 -109.25837755298744 -45.031736063305289 0 0 0 0 -21.124271737215849 -42.459173966105809 0 -42.459173966105809 -18.757671741593015 0 0 0 0 80.759567449960741 83.633820223367366 0 83.633820223367366 -296.49102134985151 0 0 0 0 5.6828165412338194 -7.3660417246659335 0 -7.3660417246659335 -3.3247692274770202 0 0 0 0 -19.682574977872719 -4.8191343231392239 0 -4.8191343231392239 19.130173191784706 0 0 0 0 -140.07758775477851 -116.84456430210412 0 -116.84456430210412 86.55907101646153 0 0 0 0 1.5054420734195446 -75.274933331058492 0 -75.274933331058492 21.696097101754276 0 0 0 0 -8.8443220581903006 -72.167437563861313 0 -72.167437563861313 37.132988668865437 0 0 0 0 -33.271878515275603 -60.077271968653804 0 -60.077271968653804 -14.706962859709165 0 0 0 0 -19.80779386626557 -41.580938904696509 0 -41.580938904696509 13.27922916759573 0 0 0 0 -43.147244783409405 -95.36596788179304 0 -95.36596788179304 -26.231534405931598 0 0 0 0 -7.549806812097259 -56.238316590472138 0 -56.238316590472138 -11.164750620792674 0 0 0 0 -22.410921142960433 -43.595380423073948 0 -43.595380423073948 -19.012666820606682 0 0 0 0 -28.964214852228736 -44.248823783492362 0 -44.248823783492362 5.0788830820198854 0 0 0 0 -11.830997736886872 -50.889915307952037 0 -50.889915307952037 -11.742325511493902 0 0 0 0 11.977252688171575 -62.147608877596213 0 -62.147608877596213 34.710226219060132 0 0 0 0 -13.658773578248656 -73.366485522899893 0 -73.366485522899893 57.630676669570676 0 0 0 0 -31.933179403074647 -33.454873974089338 0 -33.454873974089338 12.733515256231641 0 0 0 0 -17.382655359849196 -83.783714731053806 0 -83.783714731053806 159.18070388486376 0 0 0 0 -18.137830128552835 -60.457197179719152 0 -60.457197179719152 6.4030836997054337 0 0 0 0 47.246325046122649 -25.007168060837763 0 -25.007168060837763 -4.3565877045942898 0 0 0 0 40.103853650638484 -23.576686754207913 0 -23.576686754207913 -51.818970523811004 0 0 0 0 23.9776254629287 -7.8020396556530613 0 -7.8020396556530613 68.024408657132881 0 0 0 0 45.399207642811234 -31.26473468579934 0 -31.26473468579934 21.634179410233628 0 0 0 0 8.8377715303399782 -5.6772805619620499 0 -5.6772805619620499 -4.5522799683910193 0 0 0 0 -2.2618061625180417 -100.78040604868875 0 -100.78040604868875 -198.41923833129113 0 0 0 0 -3.6914144005104887 -16.879560564402709 0 -16.879560564402709 -17.671986830218827 0 0 0 0 -27.59281489449495 8.0434293830403476 0 8.0434293830403476 9.2297066112205357 0 0 0 0 89.577399885736668 -17.22352046299784 0 -17.22352046299784 14.930249930810533 0 0 0 0 -18.810380861548765 -74.459782732199528 0 -74.459782732199528 -17.385424115356727 0 0 0 0 -11.09175796482257 -6.9120173817074928 0 -6.9120173817074928 -1.8517483404286565 0 0 0 0 -1.761749892244552 -14.783085605351516 0 -14.783085605351516 161.03708009789989 0 0 0 0 -2.5149494760116795 -77.999786820459121 0 -77.999786820459121 -12.126764893677318 0 0 0 0 89.198799526751515 -748.44035114280621 0 -748.44035114280621 -8.3110221686001751 0 0 0 0 -438.56019354667797 -466.09582246758691 0 -466.09582246758691 -157.0444508601995 0 0 0 0 -49.016817608529564 -50.308844598450634 0 -50.308844598450634 -54.912464778347214 0 0 0 0 24.164781193641829 -125.20319487610323 0 -125.20319487610323 54.938161069825583 0 0 0 0 -38.976838856191293 -62.202451262755233 0 -62.202451262755233 -29.496079224796532 0 0 0 0 6.2672784010683245 -174.94857024264638 0 -174.94857024264638 174.28702945341661 0 0 0 0 -384.24752353527128 -403.82623380298901 0 -403.82623380298901 -308.29190826558261 0 0 0 0 -215.76328300246212 -464.49556013935762 0 -464.49556013935762 -628.18164665624136 0 0 0 0 -250.91505431896761 -166.90048660715365 0 -166.90048660715365 -25.460048049479155 0 0 0 0 -267.68576357079081 -463.48406151913372 0 -463.48406151913372 -281.2142485664881 0 0 0 0 -214.79832199907241 -346.38534612109106 0 -346.38534612109106 -169.04214883074746 0 0 0 0 -36.176360552750282 -283.58489350508125 0 -283.58489350508125 -245.3819484792366 0 0 0 0 -100.12003303111462 -133.22200718584781 0 -133.22200718584781 -12.938710662972881 0 0 0 0 299.75340064103511 -40.166530787348165 0 -40.166530787348165 -219.27138865113579 0 0 0 0 32.37525702339893 -61.084883512032405 0 -61.084883512032405 14.750499027866873 0 0 0 0 16.152752353409916 -82.078570630277298 0 -82.078570630277298 27.719377381306945 0 0 0 0 -131.89510584169784 -359.35894039960112 0 -359.35894039960112 -293.15690427260495 0 0 0 0 4.6347532569529566 -67.037264345881965 0 -67.037264345881965 24.819229979443129 0 0 0 0 25.968670557751238 -139.99150828663278 0 -139.99150828663278 4.485491697636462 0 0 0 0 38.999551101068363 -75.985771938337052 0 -75.985771938337052 36.060031831194031 0 0 0 0 31.071519895237316 -132.27478473127303 0 -132.27478473127303 -143.41753218785743 0 0 0 0 18.720029430201976 -102.99052328458856 0 -102.99052328458856 -60.63788616572765 0 0 0 0 24.440200894494851 -82.194594696843993 0 -82.194594696843993 -9.4512068755030576 0 0 0 0 10.92569997832743 -106.35698270417083 0 -106.35698270417083 12.525660517603683 0 0 0 0 34.054828597370943 -89.002254181862554 0 -89.002254181862554 -52.376694186656096 0 0 0 0 -9.8371154947817558 -58.374280994774381 0 -58.374280994774381 -144.4562988114194 0 0 0 0 -23.674584199594392 -84.771980594738125 0 -84.771980594738125 -163.64059492128763 0 0 0 0 50.451292408510199 -40.071271511345913 0 -40.071271511345913 -325.28799580080522 0 0 0 0 86.496693731369305 -319.97772847932356 0 -319.97772847932356 -418.41489026576966 0 0 0 0 31.84021154952643 -174.00624525001876 0 -174.00624525001876 -342.29979481653709 0 0 0 0 54.78714113717615 -174.21839143431589 0 -174.21839143431589 -415.18828177441901 0 0 0 0 118.5470768199084 -319.15714242960894 0 -319.15714242960894 -355.16136825316926 0 0 0 0 62.959758920647801 -289.03723612108479 0 -289.03723612108479 -348.46265857183607 0 0 0 0 -37.810643656506727 -104.6637566366644 0 -104.6637566366644 -190.24244100485885 0 0 0 0 -43.573199120438403 -130.10542798281494 0 -130.10542798281494 85.115406418419298 0 0 0 0 52.534517821670306 -256.55050527811727 0 -256.55050527811727 -169.12323839876626 0 0 0 0 -223.6836863794897 -254.39069535131785 0 -254.39069535131785 573.82205359969521 0 0 0 0 41.203142005728296 -416.11124874635425 0 -416.11124874635425 -37.616151879271456 0 0 0 0 -33.557510392550284 173.88135577057619 0 173.88135577057619 646.93390142453563 0 0 0 0 10.54889105067269 -67.97977245895791 0 -67.97977245895791 26.983577109854249 0 0 0 0 -4.3789067620530133 -5.3358567625496747 0 -5.3358567625496747 8.772769740236086 0 0 0 0 40.839243409429741 7.1605878255381867 0 7.1605878255381867 93.715940027588658 0 0 0 0 3.3362540062983044 -317.21793348941537 0 -317.21793348941537 42.623239380918676 0 0 0 0 -208.78779338622519 -485.14032484363099 0 -485.14032484363099 -471.65082473160146 0 0 0 0 34.885116821875272 -239.47413844826406 0 -239.47413844826406 -488.32076480933756 0 0 0 0 96.135612258693072 -475.08383807434802 0 -475.08383807434802 -530.17040672637268 0 0 0 0 123.06621935703697 -325.49921136555167 0 -325.49921136555167 -415.74206900580975 0 0 0 0 50.810117578919744 -356.63565782997921 0 -356.63565782997921 -330.89353872167976 0 0 0 0 87.283888760715854 -266.34920432707122 0 -266.34920432707122 -395.62390458638401 0 0 0 0 -184.66843440055982 -272.72891714720117 0 -272.72891714720117 -357.79018205073226 0 0 0 0 -15.16142233603523 -285.44324992796123 0 -285.44324992796123 -239.24800095446881 0 0 0 0 -64.365455671382335 -471.32596863421691 0 -471.32596863421691 -188.28616513749148 0 0 0 0 65.040408474756987 -409.82227367652922 0 -409.82227367652922 -120.32970869736528 0 0 0 0 151.70833594631404 -295.45610062264609 0 -295.45610062264609 -269.94245861771742 0 0 0 0 19.723818019861938 -331.69373769040612 0 -331.69373769040612 -65.464946649040684 0 0 0 0 -6.1100243365726783 -419.6555187003496 0 -419.6555187003496 -292.78120071203921 0 0 0 0 36.368318004027969 -353.98189108268889 0 -353.98189108268889 -278.02521876487708 0 0 0 0 -18.752311019734407 -456.15937976610257 0 -456.15937976610257 -462.42300692961362 0 0 0 0 58.888792975449178 -280.85717081495022 0 -280.85717081495022 -473.68307576375446 0 0 0 0 107.63801722740754 -293.96136254107751 0 -293.96136254107751 -403.34808176481238 0 0 0 0 92.912264229962602 -324.48579231827898 0 -324.48579231827898 -276.34981294974887 0 0 0 0 99.032093750844069 -346.59501756138252 0 -346.59501756138252 -414.05461492709946 0 0 0 0 378.98839176114598 -6.2324603516922252 0 -6.2324603516922252 -41.463103431970012 0 0 0 0 -6.6661256754323404 21.039158523126389 0 21.039158523126389 55.56315588619691 0 0 0 0 -4.0813930096373952 -78.014947667903471 0 -78.014947667903471 91.85608716328079 0 0 0 0 488.01405191917729 -588.85453951336467 0 -588.85453951336467 513.21312785190457 0 0 0 0 -176.89486212386328 -346.30973481751334 0 -346.30973481751334 1005.0896308010083 0 0 0 0 -115.97659617003774 -361.49941084712918 0 -361.49941084712918 1305.7486113364366 0 0 0 0 0.68758519220372705 -7.903833430538441 0 -7.903833430538441 11.568379896201293 0 0 0 0 84.065074047884991 -477.06039434582271 0 -477.06039434582271 152.57828471505672 0 0 0 0 -775.54033079247347 -255.89828475325885 0 -255.89828475325885 -51.407188150395086 0 0 0 0 7.3992558411438552 2.6328173553284344 0 2.6328173553284344 -4.5192438709486282 0 0 0 0 -221.54203317989459 -407.53249526261789 0 -407.53249526261789 -52.181510768962653 0 0 0 0 -443.15748285438076 -544.15032227238044 0 -544.15032227238044 121.38706390277639 0 0 0 0 -209.78501000310393 -421.92719665293862 0 -421.92719665293862 -156.54545894328839 0 0 0 0 -215.74263811540391 -324.68363880017387 0 -324.68363880017387 -316.90359495098346 0 0 0 0 -308.66371045442361 -422.99713920380782 0 -422.99713920380782 -156.35630602703645 0 0 0 0 -376.68924679776774 -316.551903825095 0 -316.551903825095 -165.14744318533849 0 0 0 0 -0.64192937582811993 -15.829990826415248 0 -15.829990826415248 13.850277973833443 0 0 0 0 21.548942089168122 -47.198504204766323 0 -47.198504204766323 72.782611842838378 0 0 0 0 -34.167219763401448 -34.681188997853766 0 -34.681188997853766 104.00013595820747 0 0 0 0 -33.331460562835218 19.620211098903383 0 19.620211098903383 164.78611582549092 0 0 0 0 -2.5525953684307368 -10.589003069296012 0 -10.589003069296012 14.766913659019927 0 0 0 0 -2.2863640396908949 -68.45453870328322 0 -68.45453870328322 57.575650604642163 0 0 0 0 -7.552233005351809 -81.908537186767944 0 -81.908537186767944 11.548494785851062 0 0 0 0 -30.289900699580585 -66.001628333370604 0 -66.001628333370604 38.373671532062332 0 0 0 0 16.613902438737568 -143.91211069121437 0 -143.91211069121437 61.158216497488866 0 0 0 0 -13.422136423187794 -95.33417659833151 0 -95.33417659833151 41.661409409548014 0 0 0 0 14.625349768937266 -12.087918863519363 0 -12.087918863519363 6.8070355630927182 0 0 0 0 -42.283243007754209 -265.62724319407062 0 -265.62724319407062 -28.08971592900798 0 0 0 0 240.07568170327431 -217.39073448993167 0 -217.39073448993167 -98.103768374459833 0 0 0 0 90.218874601633345 -78.110430712167101 0 -78.110430712167101 46.0462308113432 0 0 0 0 -139.7787190838244 -210.99964207461971 0 -210.99964207461971 165.496215698171 0 0 0 0 -118.8960321580962 -123.95594709041052 0 -123.95594709041052 280.98016537921831 0 0 0 0 -47.821692898083569 -79.88014287533305 0 -79.88014287533305 -49.304544109718748 0 0 0 0 -16.531210085238854 -790.89352274567864 0 -790.89352274567864 -2173.4284731181433 0 0 0 0 -7.1023414566820122 -21.23386404113602 0 -21.23386404113602 -4.1498900682236854 0 0 0 0 262.1019747900973 -36.09686303574199 0 -36.09686303574199 -1287.460345741878 0 0 0 0 -361.35440377257237 -370.05074526716999 0 -370.05074526716999 -816.26375965458283 0 0 0 0 -163.73289942311385 -587.43244127455182 0 -587.43244127455182 -351.31755586351937 0 0 0 0 106.47550172237061 -450.94564196820284 0 -450.94564196820284 -870.0214060988601 0 0 0 0 -554.54218707835389 -631.57511441623228 0 -631.57511441623228 -679.72501028808801 0 0 0 0 1.6056933060008305 -71.369413138532991 0 -71.369413138532991 -0.66932923040235437 0 0 0 0 -28.236242651288123 -74.021958960919022 0 -74.021958960919022 -0.49877886269323568 0 0 0 0 -37.033112305058239 -569.16544160348894 0 -569.16544160348894 -1074.0923697781618 0 0 0 0 -53.773516835051851 -426.48909196982095 0 -426.48909196982095 -857.1341121760488 0 0 0 0 -88.771784602144635 -395.74725838071663 0 -395.74725838071663 -275.85710152538013 0 0 0 0 -252.99202962728577 -499.62336427716764 0 -499.62336427716764 -331.54750116646392 0 0 0 0 -229.92134566447345 -499.79193233216074 0 -499.79193233216074 -337.58671957372644 0 0 0 0 -240.34189975908612 -590.78587884305125 0 -590.78587884305125 275.29549776494969 0 0 0 0 -271.65411328980144 -544.6981805085743 0 -544.6981805085743 -396.36120542033677 0 0 0 0 -178.56024769078704 -519.59005455540137 0 -519.59005455540137 -331.4233428339794 0 0 0 0 312.47655743945506 -129.84729837695477 0 -129.84729837695477 -390.53277146465189 0 0 0 0 -44.156261960760339 -72.086146917120658 0 -72.086146917120658 -55.382911755999771 0 0 0 0 190.92278583013558 -182.5144653915213 0 -182.5144653915213 -76.543762445071479 0 0 0 0 180.96944238315609 -710.92891183286156 0 -710.92891183286156 -356.89305441934857 0 0 0 0 309.36705664268084 -47.638193520953791 0 -47.638193520953791 -237.89735031612872 0 0 0 0 1000.7076068110655 -843.75284665947402 0 -843.75284665947402 -252.74242595110991 0 0 0 0 -185.21319763254178 -1117.5140151997639 0 -1117.5140151997639 1153.5349818336981 0 0 0 0 177.9787956018381 -43.233876296146263 0 -43.233876296146263 -240.66799895573968 0 0 0 0 -51.015700500800705 -71.507931728283566 0 -71.507931728283566 -49.400744002969475 0 0 0 0 21.948397139117276 -9.7517264852322256 0 -9.7517264852322256 -13.849440165972695 0 0 0 0 -644.85900257005414 -4.1655551721232769 0 -4.1655551721232769 943.6347267513338 0 0 0 0 -354.55717424960312 -57.687145384014002 0 -57.687145384014002 862.78143264034952 0 0 0 0 428.24824157591775 -300.8591787301084 0 -300.8591787301084 -1435.4026107300724 0 0 0 0 -882.86714742806362 -741.40378970361508 0 -741.40378970361508 705.65714424732141 0 0 0 0 3.9676529524263557 -104.82191633737054 0 -104.82191633737054 40.077131079963948 0 0 0 0 -55.29793853654337 -650.39877948598223 0 -650.39877948598223 -283.56939119604158 0 0 0 0 41.593649913944319 -140.19156352468417 0 -140.19156352468417 -30.554047022389568 0 0 0 0 -14.017908035010805 -153.65442614907442 0 -153.65442614907442 139.62042751505214 0 0 0 0 -43.636289884381767 -137.36724189101733 0 -137.36724189101733 94.866820053197443 0 0 0 0 -30.555444432880904 -149.16286876020604 0 -149.16286876020604 93.18392335709359 0 0 0 0 108.89081046652518 -260.89110938971317 0 -260.89110938971317 214.84827926753496 0 0 0 0 24.922230643822331 -74.642795649386244 0 -74.642795649386244 186.7204411871644 0 0 0 0 176.80095957107369 -231.98365857118915 0 -231.98365857118915 -46.973436688946094 0 0 0 0 -16.789948885949919 -135.00813022148401 0 -135.00813022148401 45.047822082995317 0 0 0 0 300.72015766866571 -78.183410000419826 0 -78.183410000419826 -625.25188102828179 0 0 0 0 13.760324335493134 -15.057201978685129 0 -15.057201978685129 -41.304769333780797 0 0 0 0 -23.378738980030903 -68.890924345811072 0 -68.890924345811072 264.2018181244639 0 0 0 0 -15.869583388160564 -138.7476334210873 0 -138.7476334210873 8.6451256722190557 0 0 0 0 -77.981039936719753 -172.23603861738957 0 -172.23603861738957 202.33150512033899 0 0 0 0 -56.753742778907963 -44.327166813112854 0 -44.327166813112854 -211.29969328155858 0 0 0 0 -212.36764336495617 -48.516584883866017 0 -48.516584883866017 320.3871416276379 0 0 0 0 -93.353707839905837 -141.61727520913701 0 -141.61727520913701 206.47027698752208 0 0 0 0 4.4525029274609551 -104.75418384918521 0 -104.75418384918521 369.50263801970141 0 0 0 0 -122.76326581133981 -250.68601119884988 0 -250.68601119884988 159.91404193795461 0 0 0 0 -79.441470801153628 -227.62119120893476 0 -227.62119120893476 70.092804945146781 0 0 0 0 -69.71530928770413 -49.885023932533443 0 -49.885023932533443 138.42847707408029 0 0 0 0 -170.25927071974411 -118.03838697187894 0 -118.03838697187894 295.18146761064418 0 0 0 0 -1.7246227038908586 -3.0088252635041783 0 -3.0088252635041783 40.761747525747353 0 0 0 0 -29.39018825297595 -97.215790424418245 0 -97.215790424418245 199.78253919894124 0 0 0 0 -19.683037763199536 -131.78239623643458 0 -131.78239623643458 -69.447510199249336 0 0 0 0 14.421098990962491 -63.440699883685738 0 -63.440699883685738 251.35656735386874 0 0 0 0 -21.90295773219259 -161.68004023636604 0 -161.68004023636604 139.99534434826637 0 0 0 0 -28.119642663154082 -161.26649548806017 0 -161.26649548806017 176.18454905939871 0 0 0 0 -62.654576014154372 -147.16532714510686 0 -147.16532714510686 186.47588077608088 0 0 0 0 65.771493799946256 -63.557051220668654 0 -63.557051220668654 211.71521870461584 0 0 0 0 17.548488989083125 -89.406020867740153 0 -89.406020867740153 181.2001618760878 0 0 0 0 -8.4503298630506833 -141.89125417118703 0 -141.89125417118703 100.69726653670659 0 0 0 0 21.732184071169499 -102.64676710661851 0 -102.64676710661851 36.626949833978784 0 0 0 0 -236.14705434247117 5.0768208827794297 0 5.0768208827794297 -168.96744834785022 0 0 0 0 -65.599221492746665 -234.19494918013879 0 -234.19494918013879 -1070.2662360569375 0 0 0 0 -167.21137882006002 -246.68213469839247 0 -246.68213469839247 -530.74098103349388 0 0 0 0 332.48072474783112 -748.49827337513125 0 -748.49827337513125 -1639.967959741618 0 0 0 0 -44.271185332119614 -65.488780397188833 0 -65.488780397188833 -36.275025536362861 0 0 0 0 -474.70792233190554 -384.37427481147824 0 -384.37427481147824 -633.68526522155355 0 0 0 0 -16.51329825545173 -16.720741037710248 0 -16.720741037710248 14.711996076947251 0 0 0 0 -223.19753613263339 -562.68358440583324 0 -562.68358440583324 -1175.6573814190633 0 0 0 0 37.212369464642052 -121.54304713049532 0 -121.54304713049532 221.72850836162979 0 0 0 0 27.796523688966989 -115.41753677182574 0 -115.41753677182574 39.265756361061293 0 0 0 0 -1001.0844647442864 116.48915861555724 0 116.48915861555724 -8.9660055293134064 0 0 0 0 -66.560549240184628 145.99386751379279 0 145.99386751379279 -105.77089818517561 0 0 0 0 -2.8755215725549732 -4.3392997506893209 0 -4.3392997506893209 -8.3686461374039141 0 0 0 0 -130.76914002924786 470.7233278793974 0 470.7233278793974 -1477.2802914579152 0 0 0 0 -1186.6428085743864 -959.66536141069082 0 -959.66536141069082 -18.915004049034906 0 0 0 0 -1156.6518878107308 -627.34116237861963 0 -627.34116237861963 -1391.3807912175398 0 0 0 0 -1123.4876181314085 -498.01649762831676 0 -498.01649762831676 -1009.3260851072264 0 0 0 0 -182.8744664988626 -194.64731760815266 0 -194.64731760815266 -975.38685098922724 0 0 0 0 -7.3185050154934288 -426.92955212313245 0 -426.92955212313245 -1835.2920087948187 0 0 0 0 246.60207336541498 -712.55297478056855 0 -712.55297478056855 -1117.7537281468685 0 0 0 0 142.34617559436811 -73.492833511154458 0 -73.492833511154458 -1002.0231974415801 0 0 0 0 -656.91980866254744 -991.64261413501663 0 -991.64261413501663 -452.70730633458152 0 0 0 0 184.73547243687062 -224.45866235886206 0 -224.45866235886206 98.797094511992327 0 0 0 0 -349.22536047358881 -152.96053398042204 0 -152.96053398042204 322.73464906380104 0 0 0 0 -1507.9769620641382 -178.45966254175801 0 -178.45966254175801 343.34021919212682 0 0 0 0 -540.83345580221794 -99.22341719767428 0 -99.22341719767428 501.02391388187243 0 0 0 0 -400.93396372004099 -208.88284865985406 0 -208.88284865985406 503.06807587073126 0 0 0 0 -401.77809683804298 -209.34368090268617 0 -209.34368090268617 507.32648474113375 0 0 0 0 -24.254049330500493 -791.31160156853912 0 -791.31160156853912 813.54367781872861 0 0 0 0 -36.080075577394638 -36.903293787971862 0 -36.903293787971862 -32.379241493866459 0 0 0 0 -774.49595223460528 -417.7824068708087 0 -417.7824068708087 787.6913778389644 0 0 0 0 -60.816020404336086 -114.25428811308211 0 -114.25428811308211 184.17545475294173 0 0 0 0 115.68732758262558 -142.0474188447115 0 -142.0474188447115 191.13390639342833 0 0 0 0 -82.026576835166651 -25.416783517311359 0 -25.416783517311359 113.38820855698978 0 0 0 0 -376.97158087060961 143.07436543303629 0 143.07436543303629 113.68047598794692 0 0 0 0 -132.81876224622101 44.723757901654608 0 44.723757901654608 84.16538890076481 0 0 0 0 -275.5046414145072 -344.83540441884179 0 -344.83540441884179 457.43530861747422 0 0 0 0 -402.34732448060095 -207.15569435201905 0 -207.15569435201905 504.71636863979802 0 0 0 0 80.482089088192879 -146.33544306484691 0 -146.33544306484691 190.68476107140941 0 0 0 0 117.27609019746887 74.57997872523265 0 74.57997872523265 855.96270129260665 0 0 0 0 -498.05971421185677 -386.26318009557872 0 -386.26318009557872 450.55709996614314 0 0 0 0 1234.2761149500875 -749.31512074042985 0 -749.31512074042985 501.62761309679263 0 0 0 0 166.42004690542672 -33.436338469386101 0 -33.436338469386101 -121.36831197210813 0 0 0 0 -1083.8642695556991 -1072.369212727659 0 -1072.369212727659 1589.5267739960764 0 0 0 0 -2333.6371640363068 2908.2632551370043 0 2908.2632551370043 -618.14270040321571 0 0 0 0 3.6795742885066289 -13.322464299242505 0 -13.322464299242505 -8.6323010888943088 0 0 0 0 307.30885491227127 -127.91091184704965 0 -127.91091184704965 -113.31315862867632 0 0 0 0 -17.398354017321253 -195.94230080694251 0 -195.94230080694251 -4.2702998466447752 0 0 0 0 440.95355572713015 -375.92042616226536 0 -375.92042616226536 42.170111538027413 0 0 0 0 -125.15187219680229 -358.59378052967804 0 -358.59378052967804 276.55852026012144 0 0 0 0 11.003829930633513 -22.363506237658385 0 -22.363506237658385 68.582431533351894 0 0 0 0 61.559308181613815 -172.49106758808722 0 -172.49106758808722 228.66942666398 0 0 0 0 -66.363323004452468 -612.91977168019093 0 -612.91977168019093 258.11866261331306 0 0 0 0 84.477533640600086 -109.05102043190709 0 -109.05102043190709 266.7417186267412 0 0 0 0 66.39879385453969 -658.37290981045953 0 -658.37290981045953 704.70073384209536 0 0 0 0 -1220.3230061997965 -315.29484970862904 0 -315.29484970862904 783.96652700752747 0 0 0 0 332.914150675766 -1159.1608519157744 0 -1159.1608519157744 807.7780407811515 0 0 0 0 -11.152887162862712 -13.878872636748099 0 -13.878872636748099 -15.214614301315294 0 0 0 0 -399.95282308206515 -208.89955819337774 0 -208.89955819337774 502.37228124641842 0 0 0 0 -426.23058653384578 -202.63143118948483 0 -202.63143118948483 500.91693828064308 0 0 0 0 -1839.582525745459 260.89509269916107 0 260.89509269916107 898.90807173333451 0 0 0 0 -5.2480867912710778 -16.374266855459993 0 -16.374266855459993 4.6815919881819497 0 0 0 0 1295.0011737502464 -859.90258970126524 0 -859.90258970126524 -282.51357556958101 0 0 0 0 1684.8669622428424 -815.47738073611981 0 -815.47738073611981 -1049.5029840342322 0 0 0 0 -418.05887136827369 -547.57941155668232 0 -547.57941155668232 -64.009999486428569 0 0 0 0 -284.24582873297913 -44.221635801612138 0 -44.221635801612138 95.089532285641326 0 0 0 0 -314.24046037173866 -404.087193947591 0 -404.087193947591 131.89478756437893 0 0 0 0 -28.0615981746285 -90.905060842437877 0 -90.905060842437877 114.89766513217421 0 0 0 0 -20.517619028170884 -156.2811680410814 0 -156.2811680410814 24.069189082132652 0 0 0 0 -117.63616034307051 -169.08136683412886 0 -169.08136683412886 185.52796787674015 0 0 0 0 -258.38246328250534 -506.58301794307408 0 -506.58301794307408 101.85249204502907 0 0 0 0 252.50176492752507 -926.23158626153599 0 -926.23158626153599 624.81066003380693 0 0 0 0 -120.85544884773844 -323.02923140569328 0 -323.02923140569328 163.75766661934904 0 0 0 0 23.287867659528274 137.85259800584754 0 137.85259800584754 566.41040814928783 0 0 0 0 41.339217264787294 -258.57253311687964 0 -258.57253311687964 254.34141871361498 0 0 0 0 -29.863001011606912 -38.175378201007106 0 -38.175378201007106 52.950778121535649 0 0 0 0 -397.09247571247761 420.23498764983742 0 420.23498764983742 670.89321556221694 0 0 0 0 -6.7763583232796236 -10.2480435837263 0 -10.2480435837263 53.171548516582988 0 0 0 0 -7.8778016144183027 -99.528425358345231 0 -99.528425358345231 82.879184249958044 0 0 0 0 -77.314062970457599 -126.22026894654118 0 -126.22026894654118 97.518345951510128 0 0 0 0 -31.982133687949741 -83.58941983582821 0 -83.58941983582821 69.011253988785199 0 0 0 0 -21.639989397248428 -90.704114325228147 0 -90.704114325228147 130.05637970443058 0 0 0 0 16.262570615421282 -79.803079618228367 0 -79.803079618228367 95.341430670880072 0 0 0 0 -12.652501390606631 -93.065337710009771 0 -93.065337710009771 125.06651618106116 0 0 0 0 -25.701573294601985 -119.69612217739632 0 -119.69612217739632 115.18965145529364 0 0 0 0 -30.808513165764907 -55.37461428019293 0 -55.37461428019293 70.208243292874528 0 0 0 0 7.8524394572369971 -88.770197527130449 0 -88.770197527130449 50.210781384111172 0 0 0 0 -24.473068134691857 -140.25674216907646 0 -140.25674216907646 -53.904392583615845 0 0 0 0 1.2267968825326534 -101.71041240422346 0 -101.71041240422346 40.031445912058189 0 0 0 0 1.3396110219164257 -91.147473878700112 0 -91.147473878700112 53.376339523063507 0 0 0 0 -13.919906829647886 -85.347865671147019 0 -85.347865671147019 -28.375214665500835 0 0 0 0 -0.85234161186235724 -100.05422274649027 0 -100.05422274649027 49.707873331550218 0 0 0 0 9.1847530441291667 -89.170935870932112 0 -89.170935870932112 32.730040205183172 0 0 0 0 -0.28063838233356364 -174.28023329486314 0 -174.28023329486314 -119.54523646953749 0 0 0 0 -24.531470834657114 -97.314946574985967 0 -97.314946574985967 84.676857175031898 0 0 0 0 -13.166552300288458 -148.18085063260514 0 -148.18085063260514 -163.53815316798864 0 0 0 0 -90.488654429122107 -54.427991909382399 0 -54.427991909382399 -2.9890620686928742 0 0 0 0 -29.743458480428671 -78.528046652441844 0 -78.528046652441844 103.17903971162741 0 0 0 0 -10.376459090742713 -65.850269146614608 0 -65.850269146614608 66.208600017565516 0 0 0 0 0.010110930976225063 -127.61979492331739 0 -127.61979492331739 144.70757528873105 0 0 0 0 -19.986234665455413 -21.930167019017972 0 -21.930167019017972 146.34202596981777 0 0 0 0 -17.458566111009986 129.83149052377848 0 129.83149052377848 53.309801883529872 0 0 0 0 -42.931312471119867 -18.127367664705332 0 -18.127367664705332 112.65597905995679 0 0 0 0 -269.63644515891519 7.531814775429666 0 7.531814775429666 225.51372367277509 0 0 0 0 51.782159542526642 -394.54530218248692 0 -394.54530218248692 -275.61757326047518 0 0 0 0 11.184405495599492 -114.57134982635216 0 -114.57134982635216 205.14982011906227 0 0 0 0 -18.607419609179487 -19.514556207985152 0 -19.514556207985152 69.618470676941797 0 0 0 0 12.047833628482707 -120.04551478433947 0 -120.04551478433947 173.03921022060689 0 0 0 0 10.559016901589693 -95.38824254711318 0 -95.38824254711318 95.896930057846362 0 0 0 0 -9.6271220573706415 -99.987505066237389 0 -99.987505066237389 36.187821687081509 0 0 0 0 -10.418514057188986 -104.86298722898573 0 -104.86298722898573 145.2576308362477 0 0 0 0 8.0736513231822755 -131.24646462255623 0 -131.24646462255623 128.11846868135035 0 0 0 0 -1.2453866984934052 -91.035285807967199 0 -91.035285807967199 62.455663873054561 0 0 0 0 -32.357128228424699 -40.67050914617721 0 -40.67050914617721 -74.175812243542168 0 0 0 0 -1.2998690066065848 -7.1434485718426401 0 -7.1434485718426401 -12.525556188282792 0 0 0 0 -17.966865301757935 -44.912231795009575 0 -44.912231795009575 94.441207058967848 0 0 0 0 10.526987582757016 -56.635460881394238 0 -56.635460881394238 36.074378531235141 0 0 0 0 -3.8478231397484706 -55.757194256755611 0 -55.757194256755611 29.515931202622596 0 0 0 0 2.0097356590540585 -93.932010572254512 0 -93.932010572254512 39.052891470259055 0 0 0 0 -19.448818715579222 -52.425147774592858 0 -52.425147774592858 45.124985531174445 0 0 0 0 -32.586003105447872 -33.535686689014454 0 -33.535686689014454 6.7148707894925224 0 0 0 0 -42.901190924249022 -82.778110936807934 0 -82.778110936807934 90.001328594080405 0 0 0 0 -13.838547341467347 -81.804839541189722 0 -81.804839541189722 72.796285755568533 0 0 0 0 -23.23221295199437 -39.168421759342891 0 -39.168421759342891 53.321533201786224 0 0 0 0 -64.666563343609866 -17.245782315011411 0 -17.245782315011411 24.11137531500836 0 0 0 0 -65.543455768779495 -104.9200892560184 0 -104.9200892560184 139.57285600272007 0 0 0 0 -0.39091120717239392 -43.397865383885801 0 -43.397865383885801 567.6314720447408 0 0 0 0 -7.2753058207801349 -19.714906203805299 0 -19.714906203805299 34.009606823228864 0 0 0 0 25.333330537019719 -34.193953401671024 0 -34.193953401671024 100.12734569232271 0 0 0 0 99.983788499112052 -250.32357978836808 0 -250.32357978836808 124.21310709041427 0 0 0 0 285.56606173743057 -425.06475878904166 0 -425.06475878904166 263.97837317809172 0 0 0 0 312.31270354914523 -197.62812402099371 0 -197.62812402099371 -101.14422850984556 0 0 0 0 61.932555863040761 -174.09534358298697 0 -174.09534358298697 222.47830387775321 0 0 0 0 3.3698237703483755 -133.73859317916504 0 -133.73859317916504 194.96793671266641 0 0 0 0 -29.493097386628051 -20.657995316913002 0 -20.657995316913002 55.472951247240417 0 0 0 0 -17.85737316811224 -17.318283291526484 0 -17.318283291526484 -3.0232221852947418 0 0 0 0 -15.62453545986773 -181.79851271277585 0 -181.79851271277585 372.94986076200439 0 0 0 0 -199.38338678137006 -4.8225849779119017 0 -4.8225849779119017 215.06045554402226 0 0 0 0 -212.64957177830274 -54.537194996074504 0 -54.537194996074504 727.63793989561964 0 0 0 0 -283.86702265212534 -349.39442259796488 0 -349.39442259796488 587.99316227620875 0 0 0 0 -227.59378277966107 -334.41501791666815 0 -334.41501791666815 517.7275011613674 0 0 0 0 -113.49503508814087 -338.64686928573065 0 -338.64686928573065 420.91645952616818 0 0 0 0 -168.93702278547244 -297.40746959854732 0 -297.40746959854732 442.51350470444595 0 0 0 0 -57.428247766369168 -266.33658320993709 0 -266.33658320993709 316.83918168669334 0 0 0 0 61.096358495072536 -342.53095490888518 0 -342.53095490888518 360.56725019574515 0 0 0 0 -105.91257699752987 -393.29967207512527 0 -393.29967207512527 577.07101281866198 0 0 0 0 71.228571314939472 -393.66650974185904 0 -393.66650974185904 346.804079024354 0 0 0 0 1.487354907552799 -623.18688793492038 0 -623.18688793492038 777.32762965802976 0 0 0 0 -205.96735309735232 -349.2830296101456 0 -349.2830296101456 588.80966599969543 0 0 0 0 -120.18138650488254 -344.54362371484967 0 -344.54362371484967 482.41758984816261 0 0 0 0 -251.30747942124253 -179.29694825004844 0 -179.29694825004844 555.77408966829535 0 0 0 0 -205.57686734013623 -107.86875434209651 0 -107.86875434209651 315.39759978672373 0 0 0 0 441.93190461881863 392.96258836379093 0 392.96258836379093 79.503697082662256 0 0 0 0 -220.66917321589062 -20.375795770494733 0 -20.375795770494733 1215.5263943658501 0 0 0 0 -647.96462017693284 -556.07520869575092 0 -556.07520869575092 59.249021521769464 0 0 0 0 137.8957417602706 -1493.9097701428391 0 -1493.9097701428391 1128.9181346344703 0 0 0 0 -1190.5710427486949 1184.7836462515697 0 1184.7836462515697 1737.049580047169 0 0 0 0 -59.309563663498288 -56.540201537501957 0 -56.540201537501957 102.61665889911728 0 0 0 0 -109.15849398645514 -162.44861432541802 0 -162.44861432541802 367.07293358991865 0 0 0 0 161.15808990149469 408.09803438690142 0 408.09803438690142 226.04875014687423 0 0 0 0 42.44479084566467 -189.89332375277189 0 -189.89332375277189 287.23032626705549 0 0 0 0 -446.57935617894509 240.77314602199476 0 240.77314602199476 954.15886362604215 0 0 0 0 906.58938358124624 -899.74301405295409 0 -899.74301405295409 156.61431324254954 0 0 0 0 184.22472684969034 -485.67006266131648 0 -485.67006266131648 110.88260629966499 0 0 0 0 195.04424758342248 -697.96960045504966 0 -697.96960045504966 517.92330518171184 0 0 0 0 6.0742601344679841 -2.4555419954278364 0 -2.4555419954278364 1.5975633757745413 0 0 0 0 -1181.7538624407134 1674.2116155476906 0 1674.2116155476906 533.5001466756803 0 0 0 0 10.11743246699063 -7.3788297533885157 0 -7.3788297533885157 1.2177624552824966 0 0 0 0 1387.0103462314109 -913.1803916542558 0 -913.1803916542558 -228.19204554089811 0 0 0 0 94.817524275661071 -435.92187277424091 0 -435.92187277424091 408.5939401043579 0 0 0 0 36.372189730280979 -558.82844163043774 0 -558.82844163043774 410.41162293741945 0 0 0 0 77.481685087346705 -587.64823366898781 0 -587.64823366898781 225.86138562650012 0 0 0 0 665.25448233474162 -393.34248489453239 0 -393.34248489453239 -325.97078570729354 0 0 0 0 842.31632604222978 -37.772017300456355 0 -37.772017300456355 -266.61732147901785 0 0 0 0 1066.2072301662411 -347.67752666308661 0 -347.67752666308661 -22.14301105539198 0 0 0 0 553.28491096576909 -115.55462936501135 0 -115.55462936501135 -107.54303719197196 0 0 0 0 789.63145264794002 188.85998879333783 0 188.85998879333783 -39.329203648267139 0 0 0 0 809.57834026476485 260.46688920364977 0 260.46688920364977 131.30532888189191 0 0 0 0 379.18470581193105 93.046444659565168 0 93.046444659565168 -60.9469589045475 0 0 0 0 322.3872972522804 -161.27584739448139 0 -161.27584739448139 -273.69758746851585 0 0 0 0 476.60377408629574 -202.47778266753085 0 -202.47778266753085 -389.05693744860764 0 0 0 0 144.82650090541574 -496.51097209851287 0 -496.51097209851287 -290.96387219777353 0 0 0 0 130.97790154915128 -625.22867238797699 0 -625.22867238797699 -591.25751656401553 0 0 0 0 64.292926878246362 -463.30190760771075 0 -463.30190760771075 -414.11475858824315 0 0 0 0 -196.69011199996748 -766.89628786634421 0 -766.89628786634421 -414.65809103391075 0 0 0 0 -204.54985411313828 -825.91355713316443 0 -825.91355713316443 -463.55928588729876 0 0 0 0 -138.38456081318873 -717.02694634438376 0 -717.02694634438376 -332.91382392919331 0 0 0 0 -34.033917589738849 -390.0732410488672 0 -390.0732410488672 -129.43545575589815 0 0 0 0 -238.83213535070536 -601.89997151167699 0 -601.89997151167699 -309.91442225904029 0 0 0 0 218.86776285672386 -314.50910413559541 0 -314.50910413559541 -288.1879548948491 0 0 0 0 114.84614482689358 -154.31774362236683 0 -154.31774362236683 -222.97520964404976 0 0 0 0 256.65437203255715 1.9589946802589111 0 1.9589946802589111 -64.90199016467227 0 0 0 0 -149.14238932731678 -276.71398326868803 0 -276.71398326868803 -73.215646765882866 0 0 0 0 216.11232041596668 -0.71475077076320304 0 -0.71475077076320304 -45.16460139726405 0 0 0 0 490.11698797848658 -259.92879635393911 0 -259.92879635393911 103.53357270637935 0 0 0 0 309.56688447890338 127.19467046387581 0 127.19467046387581 53.969404799215226 0 0 0 0 246.94695486701676 23.982024847882712 0 23.982024847882712 -114.00920514085738 0 0 0 0 94.036148491673828 -41.150674925276391 0 -41.150674925276391 1.6246118263034077 0 0 0 0 244.25859261033474 47.399386826051341 0 47.399386826051341 -117.60580953663793 0 0 0 0 287.17659240240573 -117.71404232784062 0 -117.71404232784062 -155.29545595911623 0 0 0 0 284.30500117439078 97.475886313859519 0 97.475886313859519 -58.838307795405854 0 0 0 0 504.21075501160522 8.0008566160286136 0 8.0008566160286136 -240.45094914452056 0 0 0 0 206.63657205374329 60.816185543830215 0 60.816185543830215 65.420600930523506 0 0 0 0 434.38802128526368 198.24177495890217 0 198.24177495890217 -8.6782847253634827 0 0 0 0 76.986220412902469 -39.434531203538597 0 -39.434531203538597 -5.6351193200627279 0 0 0 0 -243.38336214394076 -281.81139774569601 0 -281.81139774569601 -76.499406916841053 0 0 0 0 -347.18310534760531 -160.06554323336968 0 -160.06554323336968 137.16144338391314 0 0 0 0 -236.58941330917878 -191.06913906309637 0 -191.06913906309637 -79.370747436684951 0 0 0 0 -400.01209859954542 -228.74456292882678 0 -228.74456292882678 59.617088396906183 0 0 0 0 -406.0031982716464 -342.52231474470318 0 -342.52231474470318 126.42681478904342 0 0 0 0 -237.14693635595904 -463.43792319571367 0 -463.43792319571367 -298.84560178272932 0 0 0 0 -398.83286240800226 -365.30341562093963 0 -365.30341562093963 21.859883843135322 0 0 0 0 -665.63885714825301 -628.56135692358657 0 -628.56135692358657 -113.16245521476958 0 0 0 0 -283.52883957968879 -383.0904294153006 0 -383.0904294153006 -312.50679948447214 0 0 0 0 90.175961605098564 -297.18828999570178 0 -297.18828999570178 -50.952578627911862 0 0 0 0 554.87960733108775 -250.98334039117071 0 -250.98334039117071 -54.1300025357923 0 0 0 0 -51.138559032580815 -78.842608213570202 0 -78.842608213570202 -92.611000131601031 0 0 0 0 -24.346435757161089 -149.5474754343395 0 -149.5474754343395 -62.016491017813678 0 0 0 0 -37.174332979833707 -184.28132806815847 0 -184.28132806815847 133.47518405575101 0 0 0 0 691.04710268149938 -35.639297238185463 0 -35.639297238185463 -179.91071517247474 0 0 0 0 -8.1121853563018362 -6.8657567610833254 0 -6.8657567610833254 1.1635159690966077 0 0 0 0 152.93176644225605 -241.32339806776145 0 -241.32339806776145 -152.12475845743029 0 0 0 0 -56.306735938997008 -60.544449012078985 0 -60.544449012078985 81.314336056671891 0 0 0 0 -48.756225950925 -20.819202459650114 0 -20.819202459650114 -48.61651053231617 0 0 0 0 -29.555612803920212 -65.955792489247827 0 -65.955792489247827 -30.087730892285037 0 0 0 0 157.72735129483044 -293.08038662513718 0 -293.08038662513718 -151.4873742624186 0 0 0 0 14.971411986482451 -2.7513453884641308 0 -2.7513453884641308 -11.650945526540141 0 0 0 0 -193.52040225162636 99.313762981531909 0 99.313762981531909 9.2382872813032009 0 0 0 0 -10.055856471008155 -104.1374277515788 0 -104.1374277515788 -24.106482456147205 0 0 0 0 -19.326328247371322 -42.526901912106297 0 -42.526901912106297 -34.157093049993591 0 0 0 0 38.669262465096836 -56.389410110990866 0 -56.389410110990866 -0.78104274011275265 0 0 0 0 33.102761753980303 -137.22422803418885 0 -137.22422803418885 -134.40867965425059 0 0 0 0 12.704277920565801 -142.22324248363293 0 -142.22324248363293 -16.496472332568374 0 0 0 0 12.614119510195451 -127.26437113129941 0 -127.26437113129941 -62.852653488034775 0 0 0 0 -13.426785953008164 -46.096726860084402 0 -46.096726860084402 -28.323538838804865 0 0 0 0 -10.207480133631179 -105.35706592913175 0 -105.35706592913175 30.233079566503875 0 0 0 0 -19.804077289853012 -52.627576036727987 0 -52.627576036727987 -54.703597513682325 0 0 0 0 84.196932633480344 -60.596831728260881 0 -60.596831728260881 -2.0201158625915809 0 0 0 0 57.687300786667038 -41.923173278511968 0 -41.923173278511968 -7.2150600358727388 0 0 0 0 33.560043182147666 -48.625071618694733 0 -48.625071618694733 -39.21268535076743 0 0 0 0 -11.485001408815236 -64.577492784652122 0 -64.577492784652122 -29.275536225249539 0 0 0 0 -57.89674949968969 -95.576048847532746 0 -95.576048847532746 -21.564382142233569 0 0 0 0 -245.93186803690332 15.191660364216659 0 15.191660364216659 42.926660529497894 0 0 0 0 -73.961390567856142 -83.351358028055984 0 -83.351358028055984 -140.3640643756662 0 0 0 0 -92.3682726258412 -549.36374968909513 0 -549.36374968909513 -943.59873390116263 0 0 0 0 11.57122030085344 -10.671073144443113 0 -10.671073144443113 5.918240713427025 0 0 0 0 360.37729928738554 -689.36012690837379 0 -689.36012690837379 -522.83703028878449 0 0 0 0 -551.10256997232864 -822.26930664489191 0 -822.26930664489191 -533.0059779049916 0 0 0 0 -36.419963893197405 -58.468800011671277 0 -58.468800011671277 -47.024343379678442 0 0 0 0 -1.840758051010198 -104.20627211401916 0 -104.20627211401916 82.809529519552598 0 0 0 0 36.332398394772085 -39.074241063444823 0 -39.074241063444823 -5.7713382176459334 0 0 0 0 -83.89953998492274 -643.48552788250527 0 -643.48552788250527 -522.01360697875566 0 0 0 0 1049.8715812419541 -446.65022695359949 0 -446.65022695359949 -926.3051481002185 0 0 0 0 96.885027675620222 -267.38590948402998 0 -267.38590948402998 130.0768797735509 0 0 0 0 35.77002120011457 169.27724011857936 0 169.27724011857936 -650.90177696054889 0 0 0 0 68.221172830355499 -54.649769765852398 0 -54.649769765852398 -288.14818779402412 0 0 0 0 -475.77359972638078 390.38864463183563 0 390.38864463183563 -531.20021635992453 0 0 0 0 45.970174968853826 -40.69137843621138 0 -40.69137843621138 -456.95753246139793 0 0 0 0 42.694360306952149 -210.04863050294716 0 -210.04863050294716 -484.33817241180805 0 0 0 0 282.13506497719209 -144.50171174218849 0 -144.50171174218849 -1035.727670998247 0 0 0 0 373.076458411575 -336.47701925599176 0 -336.47701925599176 -669.99266092471953 0 0 0 0 127.1218705586507 -532.66422103909099 0 -532.66422103909099 -113.81504307992145 0 0 0 0 206.29191091638131 -230.3821963158116 0 -230.3821963158116 -630.75091283675283 0 0 0 0 -50.845087453555607 -576.314889416798 0 -576.314889416798 525.82287875823386 0 0 0 0 -49.795076343210653 -47.169131638324941 0 -47.169131638324941 -43.053983905018953 0 0 0 0 787.54996246811424 -1141.348439099067 0 -1141.348439099067 -65.352349353663158 0 0 0 0 -502.01129635427787 -292.91745470263413 0 -292.91745470263413 62.682378289660846 0 0 0 0 -439.1766002101358 -386.55583620226389 0 -386.55583620226389 250.44806201556639 0 0 0 0 -179.24617873117677 -283.24484624418983 0 -283.24484624418983 25.106115359816613 0 0 0 0 -252.65173790440895 -214.56292227620179 0 -214.56292227620179 207.21105708331743 0 0 0 0 -405.84028032934293 -187.90990104382217 0 -187.90990104382217 310.1046346559724 0 0 0 0 172.31374454612433 -63.636747545254366 0 -63.636747545254366 153.57730769203044 0 0 0 0 -225.03117505867704 -97.314236254918796 0 -97.314236254918796 599.1662087064833 0 0 0 0 -79.707831762978458 -144.98393547147134 0 -144.98393547147134 131.2594267428758 0 0 0 0 147.01434245199925 -137.06741325341136 0 -137.06741325341136 -740.87459370007127 0 0 0 0 -96.963910412290716 -214.78493320828056 0 -214.78493320828056 -91.042967990426405 0 0 0 0 -419.77454871767986 -144.41653450344529 0 -144.41653450344529 222.62238354090368 0 0 0 0 -243.9221976760673 -363.43483264999304 0 -363.43483264999304 -101.56132316356525 0 0 0 0 -417.02787090338097 -469.8850818328774 0 -469.8850818328774 -40.790901741078414 0 0 0 0 -86.456626508530462 -467.20903840206665 0 -467.20903840206665 -99.125618523146841 0 0 0 0 -219.7096550248134 -715.736316524004 0 -715.736316524004 -474.40276753575017 0 0 0 0 -97.872729214519495 -513.52984301764809 0 -513.52984301764809 -261.39425688119809 0 0 0 0 -339.60450353171655 -546.45883671486263 0 -546.45883671486263 101.26588328016805 0 0 0 0 -30.112016533879796 -70.118619532964658 0 -70.118619532964658 192.37291260959319 0 0 0 0 -161.98297920000914 -417.78017061649007 0 -417.78017061649007 -3.4039274141250644 0 0 0 0 -112.81660139637825 -256.69849478331889 0 -256.69849478331889 317.96555480654933 0 0 0 0 -117.11701881013869 -398.62025472698588 0 -398.62025472698588 -97.890513295008873 0 0 0 0 2.7538706510167685 -391.80099145814529 0 -391.80099145814529 -265.29080559100112 0 0 0 0 118.94567933022336 -151.632318788259 0 -151.632318788259 -19.924567881478652 0 0 0 0 23.226493407215457 -111.13599911228084 0 -111.13599911228084 15.855264799640281 0 0 0 0 -89.459179511439288 -99.183785451539734 0 -99.183785451539734 102.2977104887832 0 0 0 0 -13.860295546313239 -102.40216922621804 0 -102.40216922621804 62.091640456780141 0 0 0 0 -47.74766380562869 -184.27862564413954 0 -184.27862564413954 391.29089790975559 0 0 0 0 -16.440197741307145 -96.308388212605024 0 -96.308388212605024 125.53248176201525 0 0 0 0 109.57346230593976 145.10168218758554 0 145.10168218758554 95.295249722228618 0 0 0 0 577.7523921217944 -665.75785138036554 0 -665.75785138036554 -1329.2783919708963 0 0 0 0 6.4592181643529329 -193.73065784014761 0 -193.73065784014761 38.813478626369033 0 0 0 0 -335.37318418080758 -422.53713120476641 0 -422.53713120476641 -64.242037281605008 0 0 0 0 -284.71522132872633 -497.64439581190163 0 -497.64439581190163 -71.740140124391473 0 0 0 0 -4.822835428106174 -10.383129332762195 0 -10.383129332762195 -13.912018550276599 0 0 0 0 -1338.3361391684884 -937.7021718779215 0 -937.7021718779215 -129.97233863386282 0 0 0 0 -1604.7491968235508 302.32709181938026 0 302.32709181938026 -13.189842829684494 0 0 0 0 -328.26178691811219 -1132.9752056197412 0 -1132.9752056197412 -210.02393452891283 0 0 0 0 491.92581369446998 -1137.3839641131526 0 -1137.3839641131526 -223.24338049703147 0 0 0 0 456.96800951333421 -279.43853385701163 0 -279.43853385701163 609.77881536078348 0 0 0 0 -236.45214436508104 -8.1485119068111089 0 -8.1485119068111089 44.323227585598943 0 0 0 0 -283.86390191005557 -53.89544247475169 0 -53.89544247475169 55.458983864198672 0 0 0 0 -369.75446330016712 59.644687786105351 0 59.644687786105351 33.72655760330781 0 0 0 0 -776.38717817592624 -125.02208625225285 0 -125.02208625225285 143.18443837264931 0 0 0 0 -377.40691696192516 -128.32097403268563 0 -128.32097403268563 139.52924982265176 0 0 0 0 -408.93522210605443 -96.556887925078627 0 -96.556887925078627 118.74436726731801 0 0 0 0 -71.392186573590152 -88.764034486197488 0 -88.764034486197488 -43.266426132933702 0 0 0 0 -22.225048466862063 -107.26302097997541 0 -107.26302097997541 -40.060163077762809 0 0 0 0 -30.228993121039821 -145.79878892841953 0 -145.79878892841953 -25.274389952771685 0 0 0 0 -62.438645389780504 -131.3015828590801 0 -131.3015828590801 -25.560976881955867 0 0 0 0 -30.219848762347169 -44.170021465845394 0 -44.170021465845394 -29.59858032800274 0 0 0 0 251.43358682266626 397.61250985800234 0 397.61250985800234 482.9650348976138 0 0 0 0 25.396843521848837 -8.2448464826401846 0 -8.2448464826401846 -12.211259915210633 0 0 0 0 36.035798940511086 -106.15743769804317 0 -106.15743769804317 697.94201050734409 0 0 0 0 223.84583629466943 -657.47888953276197 0 -657.47888953276197 904.14658882435469 0 0 0 0 -28.03784975802219 -25.022626237934048 0 -25.022626237934048 -22.498865268849244 0 0 0 0 227.41517027563532 -907.64636522227738 0 -907.64636522227738 762.78438933104189 0 0 0 0 346.61640048389381 -762.52475323145518 0 -762.52475323145518 -187.16323502166051 0 0 0 0 163.57514187291963 -361.99364987676017 0 -361.99364987676017 226.80807578868553 0 0 0 0 568.20307645482535 -554.17064268712238 0 -554.17064268712238 -496.359804093805 0 0 0 0 395.63750103751954 -778.78283424287656 0 -778.78283424287656 548.72478052005317 0 0 0 0 680.92949694670824 -114.05550883356409 0 -114.05550883356409 -709.40687763569804 0 0 0 0 430.42653380355569 -441.34289125284135 0 -441.34289125284135 397.97731514521001 0 0 0 0 411.35273436194984 -720.62676800056215 0 -720.62676800056215 134.30925264817233 0 0 0 0 846.50160701599816 139.47638875758093 0 139.47638875758093 -420.57151157174303 0 0 0 0 344.47558646247489 -8.0902081911699497 0 -8.0902081911699497 329.34262956973544 0 0 0 0 974.63711966993287 -49.111749863790465 0 -49.111749863790465 293.42895204911656 0 0 0 0 1382.3764226385974 622.87056802588995 0 622.87056802588995 1352.6331974407658 0 0 0 0 -44.894671295209264 -174.15801433656452 0 -174.15801433656452 1428.1171114617609 0 0 0 0 497.61385191287263 -530.73003681203409 0 -530.73003681203409 848.79348072953871 0 0 0 0 507.99609253462404 -773.60098632030713 0 -773.60098632030713 2346.752184919198 0 0 0 0 6.7645098959264942 -328.58003492150874 0 -328.58003492150874 1610.7098682724754 0 0 0 0 1656.6298982763983 -1265.293676730882 0 -1265.293676730882 951.55732792245544 0 0 0 0 2353.406160113027 -1093.2269096749687 0 -1093.2269096749687 673.48897391289938 0 0 0 0 2048.4243163481588 465.94061949977186 0 465.94061949977186 250.42967112676706 0 0 0 0 -0.45088884061300405 -17.096585299263793 0 -17.096585299263793 10.500280090462894 0 0 0 0 1462.2146454826579 356.34046251300606 0 356.34046251300606 141.10793982342875 0 0 0 0 800.3288598494546 459.91731867613998 0 459.91731867613998 250.75064901575388 0 0 0 0 1536.8903566760127 -317.37818213220453 0 -317.37818213220453 -20.402946087400778 0 0 0 0 747.78192880185088 -415.89177545894199 0 -415.89177545894199 387.80611566065636 0 0 0 0 884.54592760294327 -666.76969276856835 0 -666.76969276856835 231.99457102798078 0 0 0 0 0.52268427082708513 -218.17834241089986 0 -218.17834241089986 -313.08885276893852 0 0 0 0 198.8516203869076 160.04935080331052 0 160.04935080331052 115.11617680656855 0 0 0 0 -316.80703884875402 -659.27928449572937 0 -659.27928449572937 532.15126571540168 0 0 0 0 -3.5410848588296346 -4.6631116823031391 0 -4.6631116823031391 6.0213999605936124 0 0 0 0 -44.145060559982085 -901.26823555705778 0 -901.26823555705778 392.70423544864752 0 0 0 0 1.0246786121329876 -4.9243827963658475 0 -4.9243827963658475 5.6515320581146398 0 0 0 0 394.24131389710965 148.2412906801037 0 148.2412906801037 9.7474627894116566 0 0 0 0 -60.48470117872057 1.4578830664977431 0 1.4578830664977431 -28.467911762592848 0 0 0 0 -129.30457965841924 -432.33715558175754 0 -432.33715558175754 296.41009004236548 0 0 0 0 766.10266190801485 -357.64317987924369 0 -357.64317987924369 -383.19656794585171 0 0 0 0 79.031590879242117 -135.71213968999396 0 -135.71213968999396 13.222051660267681 0 0 0 0 53.171345940408685 -132.22742331309584 0 -132.22742331309584 9.912139501991355 0 0 0 0 69.78442164566377 -188.62252821464131 0 -188.62252821464131 1.4063151042646496 0 0 0 0 -102.08651324797393 -16.040583568134025 0 -16.040583568134025 -710.64797317234843 0 0 0 0 402.2533091615187 93.056390211222606 0 93.056390211222606 -1207.6463021874406 0 0 0 0 370.63127295160666 -499.57423321479291 0 -499.57423321479291 -428.32822316388774 0 0 0 0 38.755271952599287 -163.11946370195074 0 -163.11946370195074 25.727618774035363 0 0 0 0 54.818327322837661 -145.82053290472777 0 -145.82053290472777 17.662262018033871 0 0 0 0 38.817359874469616 -126.31855756194466 0 -126.31855756194466 41.804290785571993 0 0 0 0 35.251185813482152 18.240429328172468 0 18.240429328172468 -265.73067574953166 0 0 0 0 116.0427411342971 -146.24387798575299 0 -146.24387798575299 -641.21144162525798 0 0 0 0 230.00165300154822 -585.56336689151772 0 -585.56336689151772 -1136.8488311220026 0 0 0 0 -163.06120797568292 -756.86474672716213 0 -756.86474672716213 -184.8053604266006 0 0 0 0 34.67344539003534 -144.28378043339762 0 -144.28378043339762 -58.185833284747787 0 0 0 0 37.228430412585851 -117.14890352293646 0 -117.14890352293646 80.671185292571238 0 0 0 0 0.41014788480333664 -13.439320553970617 0 -13.439320553970617 25.031927300966743 0 0 0 0 -410.26226904288342 -236.81672633058042 0 -236.81672633058042 99.372853662003763 0 0 0 0 -14.470786079138634 -455.66462761463481 0 -455.66462761463481 -1343.1257238096732 0 0 0 0 -362.56433226130321 -502.49257783008215 0 -502.49257783008215 38.796360402775463 0 0 0 0 -279.54331753579754 -521.31398851099948 0 -521.31398851099948 -315.64873683726182 0 0 0 0 -139.7821067958721 -280.53418482045527 0 -280.53418482045527 -505.29370807029773 0 0 0 0 -10.560803227577708 -429.56361354267574 0 -429.56361354267574 -755.51506995764794 0 0 0 0 14.677067205904365 -10.968783865435341 0 -10.968783865435341 -18.893709947491857 0 0 0 0 20.278757016552845 156.03650560211099 0 156.03650560211099 -266.18024765935843 0 0 0 0 -368.82331004286607 -303.96777062136607 0 -303.96777062136607 770.87769401780679 0 0 0 0 499.11326351611933 -322.87981157959439 0 -322.87981157959439 192.97863575830706 0 0 0 0 -260.67497409727366 -855.5425696735183 0 -855.5425696735183 583.50202675196488 0 0 0 0 -287.52561368628812 -742.86113263279549 0 -742.86113263279549 141.60003813920775 0 0 0 0 118.24507522958447 -771.81038956562406 0 -771.81038956562406 22.177392553421669 0 0 0 0 -380.79792358339364 -483.50639630688238 0 -483.50639630688238 44.554919409973081 0 0 0 0 -397.14597513989429 -570.22869501725654 0 -570.22869501725654 461.93354587862268 0 0 0 0 -365.29153939548996 -311.02643172125681 0 -311.02643172125681 -55.069252102985047 0 0 0 0 224.88236532360315 -3.3097639178740792 0 -3.3097639178740792 340.85110979806996 0 0 0 0 679.87699004501701 13.384715022257296 0 13.384715022257296 -132.90682082314743 0 0 0 0 295.98251063397402 -11.523027097689919 0 -11.523027097689919 -57.025823732779827 0 0 0 0 5.7296997277842365 -6.7634841939748753 0 -6.7634841939748753 4.3667683974243801 0 0 0 0 66.641083533817437 12.461640525667462 0 12.461640525667462 -20.979778636694391 0 0 0 0 449.51768061777693 29.258051717508351 0 29.258051717508351 -345.41337264183676 0 0 0 0 287.10864592395956 109.85640533335391 0 109.85640533335391 -111.34476453592652 0 0 0 0 161.99854744970798 67.710569691116689 0 67.710569691116689 -29.090901049494278 0 0 0 0 154.53315164954984 7.3046549071295885 0 7.3046549071295885 -88.61903951887507 0 0 0 0 189.86564863742387 1.5363910132873571 0 1.5363910132873571 -229.20329703018069 0 0 0 0 212.88216830338934 -62.672356997441966 0 -62.672356997441966 -217.35224509565887 0 0 0 0 173.74324440972123 -88.351339771557832 0 -88.351339771557832 -212.75594725838164 0 0 0 0 243.4588077540393 -45.414400703448337 0 -45.414400703448337 -294.60273808473721 0 0 0 0 261.68206184921291 -79.259557919649524 0 -79.259557919649524 -289.85186574375257 0 0 0 0 246.4339967064443 -125.41823759293766 0 -125.41823759293766 -405.76130704645766 0 0 0 0 86.023365178189124 -176.85542408298352 0 -176.85542408298352 -409.91309609569726 0 0 0 0 242.21192172807088 -234.61509241745762 0 -234.61509241745762 -412.13581705157412 0 0 0 0 -13.689129347738344 -203.32564878521953 0 -203.32564878521953 -110.8423681435761 0 0 0 0 409.97286536787942 -132.32297417042719 0 -132.32297417042719 -400.78427486628061 0 0 0 0 165.67493805675622 -250.71519564535993 0 -250.71519564535993 -381.63064796931576 0 0 0 0 93.435159529311932 -211.33272176713217 0 -211.33272176713217 -782.18194380140631 0 0 0 0 -594.72145096331224 -365.35236105116201 0 -365.35236105116201 -378.58033422526205 0 0 0 0 -186.32059556806053 -607.3717460471089 0 -607.3717460471089 -615.08416498285806 0 0 0 0 -55.194704407964309 -418.41026540627354 0 -418.41026540627354 -347.38270415406441 0 0 0 0 148.68227955921611 -331.4514949201257 0 -331.4514949201257 -567.79603512515314 0 0 0 0 -90.092759678867878 -458.12640355838812 0 -458.12640355838812 -368.43294547944242 0 0 0 0 14.137087737889033 -137.54306615767317 0 -137.54306615767317 116.0069112551036 0 0 0 0 7.7292293032514863 -185.59625530145422 0 -185.59625530145422 -71.986154201342288 0 0 0 0 282.99174723064061 -823.91963846661019 0 -823.91963846661019 -781.28196332879816 0 0 0 0 31.696400704703876 -118.29137399322164 0 -118.29137399322164 43.189971827846847 0 0 0 0 -323.71102800860535 -720.42360791406827 0 -720.42360791406827 -303.15682382666273 0 0 0 0 2.986722794963697 -123.14805665014295 0 -123.14805665014295 79.861453852269705 0 0 0 0 -1632.462226727599 37.229130929632447 0 37.229130929632447 707.02780530739619 0 0 0 0 4.3950272023212165 -160.64940727609792 0 -160.64940727609792 12.295788587711286 0 0 0 0 -518.84908636276668 -335.91021755975089 0 -335.91021755975089 297.69234006543411 0 0 0 0 598.45942378923792 -255.07852347765584 0 -255.07852347765584 -814.40700396010652 0 0 0 0 -3.9746602480026354 -103.58608684818873 0 -103.58608684818873 127.16519319706225 0 0 0 0 188.96267605946923 -298.96254828126985 0 -298.96254828126985 -160.47048763820203 0 0 0 0 215.48360505508026 -228.72652682143962 0 -228.72652682143962 -249.40770129759039 0 0 0 0 177.74586325949349 -246.08411662231083 0 -246.08411662231083 -173.11716843291651 0 0 0 0 278.38083113412722 -203.95343439315911 0 -203.95343439315911 -326.93799014741671 0 0 0 0 287.14919843713869 -35.862449038715567 0 -35.862449038715567 -61.488378105888842 0 0 0 0 348.75097415747587 -253.79122556603397 0 -253.79122556603397 -258.35612093296368 0 0 0 0 -86.147718211374013 -236.50221716467058 0 -236.50221716467058 -166.7391163999273 0 0 0 0 141.3436224533998 -194.52686668621936 0 -194.52686668621936 -320.83528492832556 0 0 0 0 194.99338147348317 -155.61864466912812 0 -155.61864466912812 -306.18866924248869 0 0 0 0 222.33505792316282 -174.03188701346517 0 -174.03188701346517 -238.20621509324701 0 0 0 0 219.6762523461075 -228.28631899229367 0 -228.28631899229367 -259.49535403342452 0 0 0 0 234.04799560429819 -173.63054240384372 0 -173.63054240384372 -333.30925957369618 0 0 0 0 180.37465467990842 -152.41506300127367 0 -152.41506300127367 -207.01133416080847 0 0 0 0 147.75429459047155 -167.18459416800761 0 -167.18459416800761 -161.89580642688088 0 0 0 0 110.96504753443878 -146.08060114376713 0 -146.08060114376713 -113.82692709729599 0 0 0 0 107.38626763888169 -190.45341592596378 0 -190.45341592596378 -114.87543772769277 0 0 0 0 67.749752455827547 -172.19665142364101 0 -172.19665142364101 -123.27881692984374 0 0 0 0 103.43372098045074 -205.41573319141753 0 -205.41573319141753 -170.81105079679401 0 0 0 0 13.750956462652539 -197.7691397544404 0 -197.7691397544404 -80.258508744795108 0 0 0 0 68.537477666483028 -87.509241214371286 0 -87.509241214371286 -56.941632775677135 0 0 0 0 49.019603221502621 -151.4536341613275 0 -151.4536341613275 -26.223203281217138 0 0 0 0 50.069562049902743 -199.35103181828163 0 -199.35103181828163 -99.454254746437073 0 0 0 0 -65.142926251981407 -220.51658481830964 0 -220.51658481830964 -99.720513776764165 0 0 0 0 100.32200033785193 -257.9422686274338 0 -257.9422686274338 -174.92094133187493 0 0 0 0 48.220091282040812 -224.39277848627535 0 -224.39277848627535 -131.85246441993513 0 0 0 0 73.770091061247513 -228.65890928864246 0 -228.65890928864246 -135.4836295840214 0 0 0 0 40.794160156263388 -266.45508581385366 0 -266.45508581385366 -162.02132933019675 0 0 0 0 -124.50071734387893 -184.23538827992161 0 -184.23538827992161 -453.44356825767318 0 0 0 0 6.0922129609164983 -8.2853671744651649 0 -8.2853671744651649 -18.362108765056689 0 0 0 0 -81.65391789592104 -213.82088428223506 0 -213.82088428223506 -145.71696359119233 0 0 0 0 41.474201216071378 -245.57087215044885 0 -245.57087215044885 -138.24273424700368 0 0 0 0 -14.121093473434541 -94.898894855900096 0 -94.898894855900096 89.306390647807945 0 0 0 0 -99.038358469369996 -66.495256855199841 0 -66.495256855199841 116.06984810894937 0 0 0 0 -10.07171713077696 -228.11955150145513 0 -228.11955150145513 -469.07695564138703 0 0 0 0 -77.075323059500079 -101.79079216110404 0 -101.79079216110404 -187.78063454595394 0 0 0 0 -1.4668018720483076 0.012105263286741774 0 0.012105263286741774 30.612263007596454 0 0 0 0 -56.393913803171017 -269.41760446794797 0 -269.41760446794797 -263.18545441830065 0 0 0 0 -53.808513258321909 -101.38619394006673 0 -101.38619394006673 -405.21658294991357 0 0 0 0 -155.59249436400205 -71.111546869797166 0 -71.111546869797166 -195.3339530499652 0 0 0 0 0.89209686222602613 -146.28372762529762 0 -146.28372762529762 -176.35390861015185 0 0 0 0 -66.910963621980045 -78.601077774343139 0 -78.601077774343139 -117.74863829219248 0 0 0 0 -6.2277374419023488 -4.5412440087168591 0 -4.5412440087168591 4.2020448356115594 0 0 0 0 -71.722551037790254 -60.823934071289841 0 -60.823934071289841 87.372080401852145 0 0 0 0 0.99375700771634001 -180.29895908999606 0 -180.29895908999606 -122.57305353024276 0 0 0 0 -15.63461529155029 -165.55949982340098 0 -165.55949982340098 65.359944149735384 0 0 0 0 81.595431420602836 -29.344623714394402 0 -29.344623714394402 8.2412804422201589 0 0 0 0 33.7473857272917 -25.418680967386038 0 -25.418680967386038 -16.698092764505134 0 0 0 0 71.848832776682684 -82.151613179739797 0 -82.151613179739797 -49.636149131518323 0 0 0 0 104.5802436980448 -74.959461448408547 0 -74.959461448408547 -82.444427566602826 0 0 0 0 100.41857909574173 -65.689155500469496 0 -65.689155500469496 -91.185692098079016 0 0 0 0 101.18452739628265 -68.524211192445364 0 -68.524211192445364 -89.458824543748051 0 0 0 0 98.242291299604403 -69.077983248003875 0 -69.077983248003875 -86.411561450862791 0 0 0 0 101.48590934590902 -41.82212829371565 0 -41.82212829371565 -78.678400639211759 0 0 0 0 56.520634508924559 -71.857928932178766 0 -71.857928932178766 -55.203802727395669 0 0 0 0 75.061141874728492 -62.418836069875397 0 -62.418836069875397 -84.357602384363418 0 0 0 0 77.834291460923851 -68.437979178299429 0 -68.437979178299429 -73.022771820542403 0 0 0 0 83.279454738541972 -60.148502181633376 0 -60.148502181633376 -62.686695771786617 0 0 0 0 145.37741557911795 -70.813260074413847 0 -70.813260074413847 -124.00021553860279 0 0 0 0 85.73476910230238 -86.439547408866929 0 -86.439547408866929 -78.497392617631704 0 0 0 0 97.64473801170243 -99.50726065953495 0 -99.50726065953495 -124.22654897777102 0 0 0 0 94.698964561750472 -46.911752636122401 0 -46.911752636122401 -75.848400417715311 0 0 0 0 95.162036372406874 -42.617584171297494 0 -42.617584171297494 -129.78336143159686 0 0 0 0 68.075900946103502 -5.7801727809128352 0 -5.7801727809128352 -86.449328690010589 0 0 0 0 51.346984196890844 -45.651921803713776 0 -45.651921803713776 -74.82883396546822 0 0 0 0 34.274445555754937 -41.101967972004786 0 -41.101967972004786 -41.601252517604735 0 0 0 0 79.436173210357083 -26.346586924570147 0 -26.346586924570147 -61.57714195351582 0 0 0 0 63.963116319500841 -69.672829375660513 0 -69.672829375660513 -70.935587254527491 0 0 0 0 73.999249539047014 -90.455527728598099 0 -90.455527728598099 -86.823016907437705 0 0 0 0 64.052998203027528 -68.290630168630742 0 -68.290630168630742 -72.81934502031072 0 0 0 0 62.609251250934904 -68.162892559310421 0 -68.162892559310421 -69.92890782863833 0 0 0 0 62.705389716953505 -69.847714319766965 0 -69.847714319766965 -68.228875899512786 0 0 0 0 -88.011722846626071 -99.290688779539778 0 -99.290688779539778 -24.783797128708102 0 0 0 0 10.822445754776709 -94.889003984222654 0 -94.889003984222654 -78.817472562805051 0 0 0 0 6.4061238786471932 -0.47220602769675679 0 -0.47220602769675679 -0.43362725658175805 0 0 0 0 217.66120901191607 -94.758580660331063 0 -94.758580660331063 -103.52632080280455 0 0 0 0 26.365179147782328 -17.598737877669919 0 -17.598737877669919 -4.3691503399750218 0 0 0 0 65.371576061545056 -48.497476658085361 0 -48.497476658085361 10.122026711585931 0 0 0 0 34.286400303347669 7.7558342692051951 0 7.7558342692051951 -8.0935663437749099 0 0 0 0 -9.4758581559581216 -56.978694234741852 0 -56.978694234741852 -19.460742741557624 0 0 0 0 17.819164896544905 -19.033681384775591 0 -19.033681384775591 3.9443816943008869 0 0 0 0 -10.119581884297077 -48.9466819728259 0 -48.9466819728259 -42.918369116974645 0 0 0 0 33.474581134977598 -24.79337079875063 0 -24.79337079875063 -8.2564959830785369 0 0 0 0 15.302922581286367 -22.94786619584022 0 -22.94786619584022 -21.698682742684042 0 0 0 0 30.130668122015777 -42.647732163582987 0 -42.647732163582987 -43.909179591020802 0 0 0 0 33.883058764433372 -35.082090752417571 0 -35.082090752417571 -50.477883739906247 0 0 0 0 43.13386609916779 -30.395990436954889 0 -30.395990436954889 -13.932815418491373 0 0 0 0 8.6533996759440583 -8.5630295274615662 0 -8.5630295274615662 -21.904681301150276 0 0 0 0 91.283348886754538 -198.46378700038804 0 -198.46378700038804 -31.656792592926649 0 0 0 0 25.870721789026788 -28.012129015796418 0 -28.012129015796418 26.039849740558282 0 0 0 0 6.2848434188035043 -8.142273607237172 0 -8.142273607237172 2.5956210976535203 0 0 0 0 72.028594407394849 -90.189379618037492 0 -90.189379618037492 -58.404081313085044 0 0 0 0 40.773919164967083 19.715501465310808 0 19.715501465310808 -38.149706841111765 0 0 0 0 -117.0981755707835 -169.91201403331434 0 -169.91201403331434 65.626489679620136 0 0 0 0 -3.7660470889728259 2.1127323410402283 0 2.1127323410402283 6.970242759557209 0 0 0 0 -63.416884115796165 -9.6894341523347975 0 -9.6894341523347975 24.42900001257658 0 0 0 0 107.56737363821594 -32.801564292269177 0 -32.801564292269177 14.88788793302956 0 0 0 0 1.8768776142168377 1.627637434918455 0 1.627637434918455 -14.249282384016851 0 0 0 0 156.90215369089037 -46.561523977195975 0 -46.561523977195975 -7.837975935311988 0 0 0 0 161.48647222777799 -71.751149669842562 0 -71.751149669842562 -1.4419602862908505 0 0 0 0 101.4701612426943 -70.828182042561821 0 -70.828182042561821 18.883032631827518 0 0 0 0 176.41682142071659 -116.35902671080112 0 -116.35902671080112 35.889621360343881 0 0 0 0 287.3942707810711 -12.515250171316438 0 -12.515250171316438 -10.189284999039955 0 0 0 0 206.79642341739964 -62.115513553027995 0 -62.115513553027995 -0.014019833994098008 0 0 0 0 -1.9735259905248768 -0.85670408640714868 0 -0.85670408640714868 1.2793129059035095 0 0 0 0 121.38066774347681 -69.33510316995671 0 -69.33510316995671 45.086845769488718 0 0 0 0 115.28861269071422 -46.612661846065748 0 -46.612661846065748 -35.622288029961055 0 0 0 0 113.67941385744052 -128.70235916823731 0 -128.70235916823731 -24.895977787993615 0 0 0 0 107.59978735484037 -105.32061255564622 0 -105.32061255564622 33.425652384932619 0 0 0 0 1.5787456063117133 -95.276502340522711 0 -95.276502340522711 43.320953829796053 0 0 0 0 43.229261329372093 -185.51328321056644 0 -185.51328321056644 50.782062207581475 0 0 0 0 123.06391789150985 17.704287810923233 0 17.704287810923233 -161.02429957929417 0 0 0 0 153.20759888425528 -161.48786622010812 0 -161.48786622010812 1.0988075447530719 0 0 0 0 26.878348320067744 -61.929282653691189 0 -61.929282653691189 -0.026585967410937883 0 0 0 0 4.6029989762404853 -4.11537596917006 0 -4.11537596917006 7.106468028661709 0 0 0 0 -198.77868371036857 -164.33269543174538 0 -164.33269543174538 -44.989850881975144 0 0 0 0 -165.79542892574682 16.822823160327971 0 16.822823160327971 2.1393545337341493 0 0 0 0 584.9015094907445 166.12321461706597 0 166.12321461706597 470.38461299653864 0 0 0 0 1023.3885551349795 84.810362224619894 0 84.810362224619894 -61.066652565845288 0 0 0 0 1048.034061698143 208.1828842275645 0 208.1828842275645 -144.24940532070468 0 0 0 0 16.298303530389688 -17.347696503152292 0 -17.347696503152292 17.111219030863651 0 0 0 0 -65.967742237684433 -417.48657882692351 0 -417.48657882692351 149.05082359351218 0 0 0 0 218.69545367578394 325.7365391100102 0 325.7365391100102 -184.93815950874705 0 0 0 0 71.1319176456891 -192.53591223995318 0 -192.53591223995318 123.43100239080377 0 0 0 0 686.2987944103661 58.139613032893976 0 58.139613032893976 -113.05642541544876 0 0 0 0 100.21480559263364 -25.765280915054973 0 -25.765280915054973 213.93973246228416 0 0 0 0 1172.8444402360965 -9.6442343833241466 0 -9.6442343833241466 -419.38937917686417 0 0 0 0 610.72880141345377 -301.20558130729478 0 -301.20558130729478 246.0421995068391 0 0 0 0 1115.46925107688 -217.62227633450311 0 -217.62227633450311 -98.586437773425132 0 0 0 0 -578.40269350935705 -915.66233695125266 0 -915.66233695125266 23.192049847861313 0 0 0 0 3.7127033496826982 -4.4328450775215487 0 -4.4328450775215487 3.4554861228071445 0 0 0 0 -667.82202550445072 -548.30081269076618 0 -548.30081269076618 57.120565982564585 0 0 0 0 -230.16462394456903 -358.00332846860692 0 -358.00332846860692 -585.9625445069978 0 0 0 0 -1.1363466083202809 -6.6294584517916633 0 -6.6294584517916633 1.6814980583948511 0 0 0 0 -180.92629151023721 -383.55232079981215 0 -383.55232079981215 -614.67214636984863 0 0 0 0 7.1475683943733088 -8.5765951774704092 0 -8.5765951774704092 6.1693508564877675 0 0 0 0 -146.7060668004633 -378.46126958496461 0 -378.46126958496461 -585.04569672594425 0 0 0 0 484.54067313721316 351.18492701445939 0 351.18492701445939 129.44662118222914 0 0 0 0 880.59863745447365 318.00509787818009 0 318.00509787818009 -439.28433404315729 0 0 0 0 268.84186936849073 -840.41228434076402 0 -840.41228434076402 -634.08054106525378 0 0 0 0 1499.980588293065 -901.11683346125574 0 -901.11683346125574 302.93130853725597 0 0 0 0 2054.6250771607156 190.03069125593174 0 190.03069125593174 -0.23322429723339155 0 0 0 0 2120.5170034793409 1119.0659150083957 0 1119.0659150083957 -129.52682597609237 0 0 0 0 -553.40206845620196 -910.76116560694572 0 -910.76116560694572 -103.3730358142202 0 0 0 0 455.27828146238971 386.05016497776523 0 386.05016497776523 -60.553144481964409 0 0 0 0 -321.45900444911967 -294.99933263182174 0 -294.99933263182174 -235.58703655046338 0 0 0 0 696.24502114333154 92.669617429855862 0 92.669617429855862 -428.08642460469491 0 0 0 0 1.121206790050735 -3.431608140576202 0 -3.431608140576202 5.0273206281590319 0 0 0 0 189.84634959691903 -422.67380619858159 0 -422.67380619858159 1.0289925356482854 0 0 0 0 371.52028189655175 -927.42356596578247 0 -927.42356596578247 -466.30748250259785 0 0 0 0 -417.92618271322863 -521.38988413213519 0 -521.38988413213519 551.33238500621519 0 0 0 0 -719.75187246012501 -935.96021970026777 0 -935.96021970026777 -0.52675935393613715 0 0 0 0 -768.98248970057466 -1096.676895772398 0 -1096.676895772398 -541.48950258650802 0 0 0 0 -110.28120586710429 -533.70688612118101 0 -533.70688612118101 -621.69547141520889 0 0 0 0 11.777717876456904 -13.136116063665881 0 -13.136116063665881 7.7624391502420735 0 0 0 0 71.296647400362872 -22.906446837488147 0 -22.906446837488147 -8.2792828175588511 0 0 0 0 273.47018867213774 -177.27092429747063 0 -177.27092429747063 21.163472321379231 0 0 0 0 -166.21160914634584 -472.45202441435777 0 -472.45202441435777 -508.53830221928365 0 0 0 0 -255.28622634110798 -406.16255371448642 0 -406.16255371448642 -539.5197766719939 0 0 0 0 13.244605406841657 -16.232552505088222 0 -16.232552505088222 6.3171818638826949 0 0 0 0 -17.218538118592278 -8.2544193323752211 0 -8.2544193323752211 2.534401985863056 0 0 0 0 -37.311799457922461 -46.554861764554516 0 -46.554861764554516 54.872628123441245 0 0 0 0 2.8768066768066802 -11.354872950960232 0 -11.354872950960232 -31.51026338781719 0 0 0 0 -943.00132210388483 -483.89756978761579 0 -483.89756978761579 -252.00179786079752 0 0 0 0 -1287.1650020764428 -633.94026196976483 0 -633.94026196976483 -260.10396196780493 0 0 0 0 32.063246208381315 -37.138146360171959 0 -37.138146360171959 -40.461285393685102 0 0 0 0 -16.274613180029888 -8.6213174524758642 0 -8.6213174524758642 3.3510326652498748 0 0 0 0 44.230666900484884 -87.010648380416555 0 -87.010648380416555 -35.282989783595895 0 0 0 0 -97.495040510022648 -124.25177720438933 0 -124.25177720438933 -104.40300869828206 0 0 0 0 6.038546090476224 -29.14498989003215 0 -29.14498989003215 26.396315688722211 0 0 0 0 -50.522104031100753 -138.13344776281156 0 -138.13344776281156 -108.62564803671557 0 0 0 0 34.161776511577045 -37.955990276299417 0 -37.955990276299417 13.221018445343361 0 0 0 0 2.7362220767935455 -25.124303406347849 0 -25.124303406347849 24.739981196439771 0 0 0 0 20.375273102454713 -123.45901810914461 0 -123.45901810914461 -77.390712461754447 0 0 0 0 -164.04491020990645 -250.52937715074222 0 -250.52937715074222 -87.570520781796404 0 0 0 0 -1708.6901396590738 -501.84516500223253 0 -501.84516500223253 -167.44057595019694 0 0 0 0 -1146.0494534182321 -563.3239055242027 0 -563.3239055242027 -268.25558969163103 0 0 0 0 -1781.8883519008837 -1113.794916783052 0 -1113.794916783052 -349.47561164294893 0 0 0 0 -1300.5967595007467 -941.2945021258347 0 -941.2945021258347 -238.98214825324249 0 0 0 0 -1262.8906563759929 -864.11482302634977 0 -864.11482302634977 -240.30318510555662 0 0 0 0 -792.67628083682052 -909.67428038312937 0 -909.67428038312937 -402.96947108613676 0 0 0 0 -1036.4145984512838 -1041.2722100711544 0 -1041.2722100711544 -586.8875211137929 0 0 0 0 -872.89319345535932 -802.24355270856177 0 -802.24355270856177 -315.03884718660265 0 0 0 0 -799.5647757675215 -911.21246388305735 0 -911.21246388305735 -340.58123940631049 0 0 0 0 -1053.2382326091647 -938.62287657661363 0 -938.62287657661363 -290.59752138483236 0 0 0 0 -892.88022471046804 -841.22295967582613 0 -841.22295967582613 -292.04880188364768 0 0 0 0 -1087.6396911513152 -998.12862150440924 0 -998.12862150440924 -348.13724705472123 0 0 0 0 -1115.9249562700775 -953.12932607281982 0 -953.12932607281982 -351.90311016136548 0 0 0 0 -1123.0118164045377 -891.77187156834771 0 -891.77187156834771 -314.88024669513106 0 0 0 0 -949.46351675306505 -950.37703388929367 0 -950.37703388929367 -366.69506896886742 0 0 0 0 -1007.0506669755532 -886.48821030306863 0 -886.48821030306863 -411.52419119240949 0 0 0 0 -1240.2034217943515 -856.70022242798586 0 -856.70022242798586 -257.73097387645976 0 0 0 0 -1151.4766070426892 -920.57204397728492 0 -920.57204397728492 -273.00125693972223 0 0 0 0 -1169.2425588129429 -910.66241521053598 0 -910.66241521053598 -276.70916421571746 0 0 0 0 -1151.3093920648089 -890.01716215463239 0 -890.01716215463239 -396.69989663513843 0 0 0 0 -1116.6439072989001 -932.17527256693575 0 -932.17527256693575 -533.84294128970942 0 0 0 0 -1195.6225052027678 -865.58277209839434 0 -865.58277209839434 -306.5577918216004 0 0 0 0 -1020.9135817043148 -791.06669894521474 0 -791.06669894521474 -326.2187755773557 0 0 0 0 -789.79194568884532 -807.26519380012178 0 -807.26519380012178 -665.08944072760642 0 0 0 0 -859.19548415726081 -951.85686278641515 0 -951.85686278641515 -940.89486024796497 0 0 0 0 -1075.5011133993719 -905.29390018654522 0 -905.29390018654522 -536.69234760654945 0 0 0 0 -1103.4314521459271 -1001.9897266335975 0 -1001.9897266335975 -737.08642411103938 0 0 0 0 -1057.1066702761627 -1016.6227118085371 0 -1016.6227118085371 -733.86306924052769 0 0 0 0 -1129.4515905968647 -940.37945448219398 0 -940.37945448219398 -569.98627955617849 0 0 0 0 -964.22710341322602 -1161.4930778017078 0 -1161.4930778017078 -1117.4388872188283 0 0 0 0 -1031.90914957515 -1268.875136461691 0 -1268.875136461691 -1067.6854336975375 0 0 0 0 -943.88290093221826 -1093.6841619524057 0 -1093.6841619524057 -950.56507298815995 0 0 0 0 -1020.0928552142868 -1203.1267823274247 0 -1203.1267823274247 -1043.4374110791832 0 0 0 0 -1143.2730197253245 -1042.3717699062327 0 -1042.3717699062327 -707.43890508322511 0 0 0 0 -1127.5079554987747 -1118.7700021931087 0 -1118.7700021931087 -842.86709700233769 0 0 0 0 -1093.3750926105211 -1122.603767231456 0 -1122.603767231456 -847.11612713220529 0 0 0 0 -1126.6184630748094 -1274.7611096259207 0 -1274.7611096259207 -966.50083303783322 0 0 0 0 -1218.6060546234366 -1221.0123471985571 0 -1221.0123471985571 -878.6935517413076 0 0 0 0 -1194.6940492249262 -1147.4265198460198 0 -1147.4265198460198 -816.55155298684258 0 0 0 0 313.82723868223638 145.62757841208077 0 145.62757841208077 -146.00145128928125 0 0 0 0 -237.43557462060568 -203.70900796336355 0 -203.70900796336355 176.18543714028783 0 0 0 0 414.3807827849414 -20.399629160063341 0 -20.399629160063341 -414.08211197762284 0 0 0 0 -1011.7611271226817 -829.78138003551794 0 -829.78138003551794 -531.54119822056964 0 0 0 0 -1129.072001877098 -926.39195635501528 0 -926.39195635501528 -388.39760258352908 0 0 0 0 -1036.5320762218025 -962.04030909843277 0 -962.04030909843277 -541.4095266975346 0 0 0 0 -1103.8264757260231 -904.96272214702913 0 -904.96272214702913 -589.71668264968321 0 0 0 0 -1191.7301092989173 -1000.899526784895 0 -1000.899526784895 -539.29948617697301 0 0 0 0 -1094.7855437461662 -917.16082422467298 0 -917.16082422467298 -536.08957539719995 0 0 0 0 -1148.4335232652274 -1004.0072352368734 0 -1004.0072352368734 -498.23221109464066 0 0 0 0 -1140.0393365449404 -991.67104168163496 0 -991.67104168163496 -680.91224967490416 0 0 0 0 -1177.5963322641192 -1060.968809127342 0 -1060.968809127342 -677.08708135742927 0 0 0 0 -1221.5948777679287 -1145.1256468953216 0 -1145.1256468953216 -808.03368802164914 0 0 0 0 -1245.8500499892978 -1042.5338714253739 0 -1042.5338714253739 -668.93824768089689 0 0 0 0 -1314.7419603755043 -1225.0382789135911 0 -1225.0382789135911 -859.72071957116714 0 0 0 0 -1286.4666329789143 -1120.8826924665482 0 -1120.8826924665482 -845.45950732007623 0 0 0 0 -1277.5602203967392 -974.34126818843652 0 -974.34126818843652 -833.92255426582415 0 0 0 0 -1213.6777933938974 -1068.6711990484037 0 -1068.6711990484037 -759.47304507577792 0 0 0 0 -1373.0630036462862 -1083.5160711532808 0 -1083.5160711532808 -753.20923658179527 0 0 0 0 -1221.6326041217926 -947.81209895755819 0 -947.81209895755819 -691.96093445201404 0 0 0 0 -1196.3775075935082 -996.15290187875507 0 -996.15290187875507 -627.9485434651142 0 0 0 0 -1064.7201303959064 -914.77358253672719 0 -914.77358253672719 -727.60718486236874 0 0 0 0 -1226.9165950532024 -903.91874081949936 0 -903.91874081949936 -722.84373733968823 0 0 0 0 -1235.6482798529232 -1029.0601394810947 0 -1029.0601394810947 -773.92003830661997 0 0 0 0 -1064.6710900766238 -951.3333605316293 0 -951.3333605316293 -550.32290379266487 0 0 0 0 -6.073046736586754 -0.74789343507779904 0 -0.74789343507779904 2.814673931055836 0 0 0 0 -888.51682045921734 -994.94216880926979 0 -994.94216880926979 -1449.6601821003569 0 0 0 0 1113.801744163849 309.09960665848484 0 309.09960665848484 -418.03124067815952 0 0 0 0 -1387.9634827175232 -762.777788380743 0 -762.777788380743 -1135.8836724674838 0 0 0 0 -1067.1652559370668 -1022.0864523340242 0 -1022.0864523340242 -917.31719622644596 0 0 0 0 -1172.4517838884312 -867.81710638280492 0 -867.81710638280492 -1117.9597050546436 0 0 0 0 -1871.0548761193804 -82.993635952836485 0 -82.993635952836485 1329.1778490896977 0 0 0 0 -1513.8266857257368 -1164.5907737415982 0 -1164.5907737415982 -867.1019011355238 0 0 0 0 -1626.8171604371146 -997.6023705623229 0 -997.6023705623229 -924.23498830455355 0 0 0 0 -1625.6587253076596 -920.41781794372946 0 -920.41781794372946 -932.57228931126883 0 0 0 0 -1380.9189815358532 -1024.9308540740167 0 -1024.9308540740167 -853.47331789659802 0 0 0 0 -1463.2063258368971 -1116.8840207469475 0 -1116.8840207469475 -850.64060554653406 0 0 0 0 -1474.1813185385527 -924.85196824895684 0 -924.85196824895684 -960.21402851905441 0 0 0 0 -1362.9158071084712 -1230.8728254607413 0 -1230.8728254607413 -851.89580320287496 0 0 0 0 -1467.9950159569853 -1106.886595868622 0 -1106.886595868622 -832.82665327389259 0 0 0 0 -1268.3415436319538 -1293.8157329763053 0 -1293.8157329763053 -957.1960380692035 0 0 0 0 -161.60773674288066 280.14766335312743 0 280.14766335312743 306.80123406578787 0 0 0 0 -13.732445920784269 -2.9336551402486464 0 -2.9336551402486464 14.190474704670692 0 0 0 0 -74.380418708426078 -147.36845677884412 0 -147.36845677884412 -28.707173739676364 0 0 0 0 111.92387150729337 -185.11390987649793 0 -185.11390987649793 -226.2637859354727 0 0 0 0 65.610934369903362 7.3463750358787365 0 7.3463750358787365 104.23658859729767 0 0 0 0 -79.857872028283964 -167.98301141307456 0 -167.98301141307456 -72.329927039929316 0 0 0 0 -301.03094491839147 -209.03845158597687 0 -209.03845158597687 24.109282512392383 0 0 0 0 -11.149605309774415 -115.54792156492476 0 -115.54792156492476 -88.132468663039617 0 0 0 0 -6.6724348023571061 -4.8031308492723497 0 -4.8031308492723497 -2.9593693592204886 0 0 0 0 -8.5257131204247969 2.4967157770645372 0 2.4967157770645372 2.7179967482807115 0 0 0 0 -17.978231964476084 -13.588096915536024 0 -13.588096915536024 36.981851694407737 0 0 0 0 12.071109386502032 -14.065687633366679 0 -14.065687633366679 -0.10808545957144133 0 0 0 0 -116.61277489187353 -32.335569830647728 0 -32.335569830647728 19.260517137445277 0 0 0 0 -17.243854916331202 -40.3305125996485 0 -40.3305125996485 -6.9274003374302993 0 0 0 0 -43.136122118330846 -137.00797478816821 0 -137.00797478816821 -130.82815809079329 0 0 0 0 -37.364286244261336 -91.719899002935563 0 -91.719899002935563 -16.725968193321023 0 0 0 0 -2.7013444450530066 -34.941548899433641 0 -34.941548899433641 6.7598205122957324 0 0 0 0 -73.954100281292995 -16.008159317192622 0 -16.008159317192622 64.50799196632579 0 0 0 0 -19.349452463768255 -15.936923870539658 0 -15.936923870539658 18.447517698228864 0 0 0 0 -120.74703664900812 -48.442837989074178 0 -48.442837989074178 145.17294497025432 0 0 0 0 22.206702220919738 -63.337378981160896 0 -63.337378981160896 -9.8634924534708261 0 0 0 0 -16.906106456994166 -95.261390341882361 0 -95.261390341882361 38.788683655358909 0 0 0 0 -32.59777645987316 -54.077961276672113 0 -54.077961276672113 70.433116569620324 0 0 0 0 -28.746557638408149 -29.014036094327423 0 -29.014036094327423 -12.118700162046821 0 0 0 0 -27.056705402665102 -49.164772052150511 0 -49.164772052150511 47.311068895265635 0 0 0 0 -33.697808689310477 -43.58655838532286 0 -43.58655838532286 36.755699949193513 0 0 0 0 -11.450159634017837 -51.844104308314854 0 -51.844104308314854 20.638478050488629 0 0 0 0 1.8689919182629211 1.7464098610826113 0 1.7464098610826113 -4.8508906469363069 0 0 0 0 -180.18261418028851 -44.218762688920833 0 -44.218762688920833 22.644183955972039 0 0 0 0 53.640993208534383 -39.11722645469041 0 -39.11722645469041 4.8144406574751883 0 0 0 0 85.859148100978928 -76.240275761665544 0 -76.240275761665544 -85.695632039190968 0 0 0 0 -77.216072460192663 -162.54658451995056 0 -162.54658451995056 -141.45055340486579 0 0 0 0 -62.343839372508228 -146.90372179920087 0 -146.90372179920087 -147.10224333363294 0 0 0 0 -52.625202529816306 -208.36889094731305 0 -208.36889094731305 -123.08824249426834 0 0 0 0 -66.353469974943437 -221.25899945458514 0 -221.25899945458514 -6.5098636410712061 0 0 0 0 12.872164479420007 -0.93198891437393172 0 -0.93198891437393172 -4.2907132109295389 0 0 0 0 56.727205209877866 -38.380750475669629 0 -38.380750475669629 8.0827844175073551 0 0 0 0 12.046345806146604 -7.133570104353339 0 -7.133570104353339 -2.5469881504507157 0 0 0 0 64.973849914622406 -56.84631622411689 0 -56.84631622411689 14.615638054383453 0 0 0 0 47.556907679456344 -41.270059039467014 0 -41.270059039467014 7.8470897719162167 0 0 0 0 55.332076542967116 -44.481299553248391 0 -44.481299553248391 -2.2009439535322599 0 0 0 0 35.82263649497277 -26.544924045766408 0 -26.544924045766408 2.7252916766883573 0 0 0 0 49.794685910659609 -26.109996052691713 0 -26.109996052691713 -16.870006869183271 0 0 0 0 28.155080495929724 -45.567150668117392 0 -45.567150668117392 -26.347354346697102 0 0 0 0 45.607054609372426 -60.020700977096567 0 -60.020700977096567 -11.859537532087415 0 0 0 0 27.956699375921744 -33.884031539215357 0 -33.884031539215357 -36.685769781332056 0 0 0 0 5.3746265123954799 -106.44753228130503 0 -106.44753228130503 -95.330621196510037 0 0 0 0 95.63109970685764 -44.541596964954806 0 -44.541596964954806 -76.814752074569697 0 0 0 0 0.99189038662734674 -110.88684221667063 0 -110.88684221667063 -69.339223416829554 0 0 0 0 -99.288884984398464 -95.366795395093504 0 -95.366795395093504 32.591822151123779 0 0 0 0 11.720541237223358 -19.644096012008617 0 -19.644096012008617 25.64996335726812 0 0 0 0 -125.7896583993861 -98.134743514063302 0 -98.134743514063302 -50.046530958614312 0 0 0 0 -15.611328050013981 65.91726487519918 0 65.91726487519918 23.458293722564122 0 0 0 0 -152.20979579067398 20.739097330689219 0 20.739097330689219 -234.52525987257832 0 0 0 0 -27.637341894675046 -96.725924080121331 0 -96.725924080121331 -81.056937843153719 0 0 0 0 2.3591819671203496 -17.918304742092914 0 -17.918304742092914 30.085561233217334 0 0 0 0 5.9608814625032096 -21.551893095739047 0 -21.551893095739047 16.74476937435594 0 0 0 0 -72.137042032874888 -80.251527102722321 0 -80.251527102722321 -42.176349498273339 0 0 0 0 0.36291304149926873 -25.170017988057225 0 -25.170017988057225 66.354192299178976 0 0 0 0 -11.766966733557638 -21.524571056419518 0 -21.524571056419518 -16.580976029959857 0 0 0 0 -15.037762707521324 -44.490007479500491 0 -44.490007479500491 -58.144137551746098 0 0 0 0 -2.9161653267005931 -27.716792778630463 0 -27.716792778630463 18.572908133161206 0 0 0 0 -6.0285948999753742 -20.743974330150792 0 -20.743974330150792 29.818810580869922 0 0 0 0 -223.73026972547086 -275.48715422184614 0 -275.48715422184614 -240.79078758919786 0 0 0 0 -222.81117669236664 -266.18468632610893 0 -266.18468632610893 -220.04012075233913 0 0 0 0 -206.25197407765882 -405.38335600281425 0 -405.38335600281425 -421.73652414263051 0 0 0 0 -444.26944964608811 -512.10045938841358 0 -512.10045938841358 -350.63341123035389 0 0 0 0 9.6726047092233784 -15.79972637706669 0 -15.79972637706669 -7.5509309318149462 0 0 0 0 7.0697598131446284 -21.829721963527845 0 -21.829721963527845 -4.7150591159006581 0 0 0 0 -6.962159062453793 -67.513282575005178 0 -67.513282575005178 5.1915782762225717 0 0 0 0 10.898114292926039 -25.711844262375962 0 -25.711844262375962 -13.971666594792623 0 0 0 0 5.8812987469539735 -23.409079091312037 0 -23.409079091312037 -10.909419426510254 0 0 0 0 -1.3518748510968379 -2.8330045708678426 0 -2.8330045708678426 -4.8408450936653367 0 0 0 0 0.74989760205789935 -37.924970215477515 0 -37.924970215477515 -5.8281048993230797 0 0 0 0 10.799250104979421 -14.642530730578926 0 -14.642530730578926 11.179870496253102 0 0 0 0 -10.413273215708614 -26.706813441996928 0 -26.706813441996928 -5.0119507677154616 0 0 0 0 13.905951827651734 -23.112853874001303 0 -23.112853874001303 -5.1320611569026369 0 0 0 0 9.4971312243142165 -16.558008356558275 0 -16.558008356558275 -9.3951166745537193 0 0 0 0 -239.82501807792141 -169.15120906264929 0 -169.15120906264929 -85.69740459966124 0 0 0 0 2.811037645869618 -7.3224518185773775 0 -7.3224518185773775 9.7402863498589909 0 0 0 0 -226.12137760760129 -301.84010482297526 0 -301.84010482297526 -268.61955405431218 0 0 0 0 -441.54549224261064 -421.46289844093553 0 -421.46289844093553 -148.1711826182509 0 0 0 0 -369.94504236027205 -316.5942962270492 0 -316.5942962270492 0.058310225344030187 0 0 0 0 3.368926870431487 2.914803137045169 0 2.914803137045169 -3.2713249381506557 0 0 0 0 108.12110539929199 -88.960404631470738 0 -88.960404631470738 68.243843341973843 0 0 0 0 -453.09378172915603 -227.28615349305619 0 -227.28615349305619 -95.685151592508191 0 0 0 0 -699.9351925070041 -617.9554639957787 0 -617.9554639957787 -188.33638579249964 0 0 0 0 -469.3779081581406 -403.9768952423874 0 -403.9768952423874 -0.44680054440686945 0 0 0 0 -988.47699074461161 -597.31063914280094 0 -597.31063914280094 0.17222102409868967 0 0 0 0 -697.05822103218861 -632.04683432923957 0 -632.04683432923957 -229.45119208807591 0 0 0 0 -1202.3383393230979 -745.53243130493502 0 -745.53243130493502 -56.116790493979352 0 0 0 0 -1217.7979408824535 -476.65234190413889 0 -476.65234190413889 -140.42927074660838 0 0 0 0 -882.65961310743842 -781.67788243268296 0 -781.67788243268296 -283.84460335504264 0 0 0 0 -391.35340376677772 -1003.2075835393148 0 -1003.2075835393148 -947.55941888177767 0 0 0 0 -1513.8393715554885 -796.53087299686013 0 -796.53087299686013 -276.39941398099108 0 0 0 0 -1401.1211613651303 -320.97582722912557 0 -320.97582722912557 -678.04905846755719 0 0 0 0 -1.8491119088509049 1.6677216214842829 0 1.6677216214842829 -11.385668758128759 0 0 0 0 -1463.4523900652371 -1159.7202490271738 0 -1159.7202490271738 -1519.8434029099008 0 0 0 0 -3385.9017440114867 -1265.7276465248535 0 -1265.7276465248535 -333.35974981065374 0 0 0 0 375.27246948014908 -39.186984271233086 0 -39.186984271233086 -1007.9776780587272 0 0 0 0 -768.19140926295245 -525.23965967362165 0 -525.23965967362165 -513.21502962247905 0 0 0 0 -657.23133791653061 -587.52118863525538 0 -587.52118863525538 -275.46021381003084 0 0 0 0 -1009.5321292813226 -774.83742707611236 0 -774.83742707611236 -406.03588322106225 0 0 0 0 -797.64536581439529 -856.955693117583 0 -856.955693117583 -607.01511163945543 0 0 0 0 -1236.8852269323661 -599.02726759393408 0 -599.02726759393408 -602.16410411996185 0 0 0 0 -1063.7050826348836 -978.73661015367543 0 -978.73661015367543 -973.06688940126332 0 0 0 0 -964.56086485407684 -759.91599013321684 0 -759.91599013321684 -618.65779410817777 0 0 0 0 -1015.0397823088852 -373.88964908377966 0 -373.88964908377966 -483.00216085654029 0 0 0 0 -645.78418258986994 -702.58587128954241 0 -702.58587128954241 -363.12548397501814 0 0 0 0 -166.50347462660602 -476.53132371178071 0 -476.53132371178071 -498.94494910322828 0 0 0 0 1.6237067141321244 -5.0562130483929195 0 -5.0562130483929195 -4.1834839581948984 0 0 0 0 -825.29496844466189 -661.38804720004919 0 -661.38804720004919 -349.35752623644657 0 0 0 0 -54.102808638744136 -420.30083054858551 0 -420.30083054858551 -531.49605655806954 0 0 0 0 -1325.4959731255667 -590.46927106977091 0 -590.46927106977091 -172.28618703172833 0 0 0 0 -907.3865098000274 -696.03743770969595 0 -696.03743770969595 0.052261789067415521 0 0 0 0 -881.35641045822058 -437.47412503523537 0 -437.47412503523537 443.27484401471156 0 0 0 0 211.67535823143135 -192.43446232152928 0 -192.43446232152928 0.31902931454533245 0 0 0 0 334.58813597128938 -453.1346932710585 0 -453.1346932710585 588.47110732240253 0 0 0 0 2.0861318416538381 -5.62706639916928 0 -5.62706639916928 -4.0312045141873227 0 0 0 0 211.55763000953664 -193.55220095598042 0 -193.55220095598042 0.27522248947934713 0 0 0 0 131.15962202924584 -90.815464984050777 0 -90.815464984050777 336.56808225935674 0 0 0 0 464.104325935632 -389.70520123174356 0 -389.70520123174356 -29.988470298456377 0 0 0 0 337.37082375045702 -191.29868950806849 0 -191.29868950806849 -254.89170733460924 0 0 0 0 252.76250958605124 -393.22371564310743 0 -393.22371564310743 -436.37329308595508 0 0 0 0 197.14103214244528 -40.354611117603781 0 -40.354611117603781 -120.48619243930443 0 0 0 0 352.70558599336437 -501.9646518090376 0 -501.9646518090376 709.68049135048932 0 0 0 0 864.94240862373044 -689.85691696919821 0 -689.85691696919821 1.2524356087087654 0 0 0 0 225.4552278856354 -603.80499181312916 0 -603.80499181312916 387.09482434250094 0 0 0 0 1134.9674620854275 -871.0001176824444 0 -871.0001176824444 239.81124623221694 0 0 0 0 471.76654229880489 -306.63171183309532 0 -306.63171183309532 -202.48077809196548 0 0 0 0 285.79143713528902 -1016.9517859085754 0 -1016.9517859085754 1456.5215775530814 0 0 0 0 1013.4149806353344 -59.480863740376662 0 -59.480863740376662 -2288.9656261572236 0 0 0 0 1.8983464390798019 -10.085093397683181 0 -10.085093397683181 -2.7831983692040581 0 0 0 0 1141.6541508027367 -987.50671674020123 0 -987.50671674020123 -1086.0238834586344 0 0 0 0 2013.7425989264066 -284.01326477772454 0 -284.01326477772454 -781.26589558745036 0 0 0 0 1384.5586304388416 -663.9645281205303 0 -663.9645281205303 -261.78901362436591 0 0 0 0 1268.4986396068052 -210.22840370537597 0 -210.22840370537597 -346.16448171628872 0 0 0 0 1076.901145132595 -379.11285217857221 0 -379.11285217857221 -482.21643911174033 0 0 0 0 622.26970107140005 -478.94793787744857 0 -478.94793787744857 -440.98434547858778 0 0 0 0 659.28668843384548 -394.70689912688977 0 -394.70689912688977 -249.36968466777762 0 0 0 0 676.85429539992401 -259.42700558376964 0 -259.42700558376964 -243.89941644098144 0 0 0 0 660.60345005607905 -298.83425255988186 0 -298.83425255988186 -47.634036623057909 0 0 0 0 1130.1114604070644 -249.11074574801023 0 -249.11074574801023 34.109429474716308 0 0 0 0 1129.0328953849494 -233.09663464146433 0 -233.09663464146433 -127.02624243166065 0 0 0 0 1069.9859367375539 -239.80520159387379 0 -239.80520159387379 -263.02001142782683 0 0 0 0 1071.461232279592 -368.78461377441636 0 -368.78461377441636 -176.48936218360905 0 0 0 0 -0.56451653077578179 0.32543878865315889 0 0.32543878865315889 2.5863315135454741 0 0 0 0 1842.146773492389 -957.76918524345092 0 -957.76918524345092 -1265.6074507938465 0 0 0 0 2.2825105649226387 0.22709479550266565 0 0.22709479550266565 2.7802177605194629 0 0 0 0 2962.1314490490322 112.26898763390636 0 112.26898763390636 -485.52187960836454 0 0 0 0 368.17342263522005 436.21753922729113 0 436.21753922729113 1039.8824498665053 0 0 0 0 2064.7083290086703 -719.76099005216383 0 -719.76099005216383 -392.73662065496319 0 0 0 0 1693.9858050239527 -133.38232543432969 0 -133.38232543432969 -199.00249888258986 0 0 0 0 174.82397289814071 -283.34842209456838 0 -283.34842209456838 -369.74006414023461 0 0 0 0 19.203673277072994 -555.15401292876049 0 -555.15401292876049 -394.0736472997869 0 0 0 0 -169.59514213682928 -479.83664847193359 0 -479.83664847193359 -299.80976449133595 0 0 0 0 378.65957915213039 -413.47400341213506 0 -413.47400341213506 -351.83277242975601 0 0 0 0 465.4383728123521 -255.95521454424306 0 -255.95521454424306 -330.7002073629119 0 0 0 0 667.3205018866222 -296.11127947498244 0 -296.11127947498244 -362.8262901181879 0 0 0 0 285.83929391258926 -287.85408811175148 0 -287.85408811175148 -220.4166902161669 0 0 0 0 307.10204625832375 -336.56096852684277 0 -336.56096852684277 -183.96685924634221 0 0 0 0 661.83881489932651 -295.98496879382219 0 -295.98496879382219 -229.86844290670706 0 0 0 0 341.06669746397893 -392.80897455848753 0 -392.80897455848753 -20.708075458591338 0 0 0 0 333.05795655941256 -349.84154102364846 0 -349.84154102364846 -238.26428304926958 0 0 0 0 -97.698142348982401 -448.25659219635418 0 -448.25659219635418 -154.07086021831492 0 0 0 0 121.09335910448954 -528.03114273321989 0 -528.03114273321989 -289.00710195308784 0 0 0 0 -317.75765347942297 -692.52436631933961 0 -692.52436631933961 -578.30523406984867 0 0 0 0 -260.95611986898007 -452.66487907670671 0 -452.66487907670671 -197.52952055912465 0 0 0 0 -150.52756961481555 -599.11003739657463 0 -599.11003739657463 -434.52628595015267 0 0 0 0 -539.05143310003223 -746.69134515564656 0 -746.69134515564656 -220.03238837677054 0 0 0 0 -513.77859310715758 -775.57327262253966 0 -775.57327262253966 -230.99959087312163 0 0 0 0 -285.94950603206939 -638.06742297189703 0 -638.06742297189703 -158.16624581819633 0 0 0 0 -285.00348957377128 -632.37975286191795 0 -632.37975286191795 -283.12634334986797 0 0 0 0 -556.97865665181098 -690.85189870356407 0 -690.85189870356407 -287.80980463081505 0 0 0 0 -579.86600888721568 -702.6798841200216 0 -702.6798841200216 -272.29902344493894 0 0 0 0 -546.37719946654215 -819.07246946793748 0 -819.07246946793748 -356.76329821231775 0 0 0 0 -276.8319407419076 -652.45610322101857 0 -652.45610322101857 -275.91210186399985 0 0 0 0 -536.59885097298752 -701.30565634854247 0 -701.30565634854247 -219.91924218187341 0 0 0 0 -283.64189127782447 -714.42611116945045 0 -714.42611116945045 -336.24465725384653 0 0 0 0 -554.39356226196833 -743.25899416569155 0 -743.25899416569155 -288.84497909483616 0 0 0 0 -543.88702208540599 -731.05886891562841 0 -731.05886891562841 -417.57295089913532 0 0 0 0 -850.39184367909684 -780.88044631017692 0 -780.88044631017692 -384.78739531669999 0 0 0 0 -806.09491193042413 -851.23969876088086 0 -851.23969876088086 -284.96826449106447 0 0 0 0 -24.227528561321378 -637.49227659686585 0 -637.49227659686585 -163.1765366870095 0 0 0 0 0.52441054365226591 -677.88386628116132 0 -677.88386628116132 -344.8476761461061 0 0 0 0 -301.91863884628401 -665.40630131171201 0 -665.40630131171201 -192.79961285088211 0 0 0 0 -278.8401210986176 -670.48985914999503 0 -670.48985914999503 -159.52312430931488 0 0 0 0 10.101157956301904 -626.66790303905145 0 -626.66790303905145 -273.13618639580091 0 0 0 0 -12.375320397361065 -590.668564683554 0 -590.668564683554 -110.75796056952095 0 0 0 0 274.04297327727545 -594.57317868692917 0 -594.57317868692917 -262.40611255413387 0 0 0 0 -11.651353844370533 -574.64195440709591 0 -574.64195440709591 -81.679223954532063 0 0 0 0 300.86119849058059 -523.53753493264958 0 -523.53753493264958 -212.18185742164496 0 0 0 0 -2.0152371813892387 -575.34684150389512 0 -575.34684150389512 -246.32702366571175 0 0 0 0 35.988525887655442 -477.86569379510729 0 -477.86569379510729 -67.136476098676212 0 0 0 0 41.74626377686036 -514.63263544847723 0 -514.63263544847723 -311.22341885557398 0 0 0 0 313.62586708870003 -479.6211281629221 0 -479.6211281629221 -202.17991372657707 0 0 0 0 304.66623516897107 -454.81040416836186 0 -454.81040416836186 -4.7283533581066877 0 0 0 0 657.71916763043919 -319.95152769354172 0 -319.95152769354172 -159.32076319790212 0 0 0 0 651.12792510079271 -312.35447651451614 0 -312.35447651451614 73.010950632276945 0 0 0 0 1083.8047268862174 -310.49639126210241 0 -310.49639126210241 -84.280222420260543 0 0 0 0 1038.0663598090823 -136.2417041195331 0 -136.2417041195331 160.00873205094831 0 0 0 0 1036.5243022587092 -341.43768674772582 0 -341.43768674772582 -112.79780958103947 0 0 0 0 608.39363409527141 -376.87041100070928 0 -376.87041100070928 60.731698000978213 0 0 0 0 280.05861326165632 -501.71274595618161 0 -501.71274595618161 -21.817509836109821 0 0 0 0 632.07321599969146 -419.71330467393273 0 -419.71330467393273 -148.08973521896405 0 0 0 0 1822.4167934490688 -125.96060509825475 0 -125.96060509825475 -97.109926905366592 0 0 0 0 1715.4750760476963 389.86034036145429 0 389.86034036145429 295.93004270468373 0 0 0 0 974.0797250825126 -203.71065108766197 0 -203.71065108766197 100.17979727400234 0 0 0 0 1471.2890461806674 -192.4973150715814 0 -192.4973150715814 -15.498529815871734 0 0 0 0 1306.1829856053919 -37.506239226524485 0 -37.506239226524485 433.62807015130238 0 0 0 0 1714.7115793369539 -42.45998010673793 0 -42.45998010673793 -77.041249381669331 0 0 0 0 1446.2172954419789 163.66920404417942 0 163.66920404417942 -72.36033174287877 0 0 0 0 856.13577166083269 -217.03696597227827 0 -217.03696597227827 -12.17572097023367 0 0 0 0 1333.6012387226233 -306.65282955220755 0 -306.65282955220755 -71.189173096325248 0 0 0 0 1147.1776125509568 -222.99667659812258 0 -222.99667659812258 -129.41783908978687 0 0 0 0 697.33547659001124 -269.06190064750263 0 -269.06190064750263 -2.2534276961523574 0 0 0 0 1001.0449887697173 140.33250341633538 0 140.33250341633538 159.35474742064252 0 0 0 0 597.297677271461 -479.09996024516295 0 -479.09996024516295 -183.43765055644326 0 0 0 0 247.28045448713237 -532.11612672547926 0 -532.11612672547926 -78.737924797518644 0 0 0 0 900.18058102999566 -393.89486649030005 0 -393.89486649030005 -154.9574857953121 0 0 0 0 568.86141415162365 -373.68398698059536 0 -373.68398698059536 -8.2737136103678495 0 0 0 0 473.04236712784041 -420.56970132605056 0 -420.56970132605056 -52.666705769777764 0 0 0 0 789.60253523157917 -391.95628585582017 0 -391.95628585582017 -211.4364158003882 0 0 0 0 525.07612722498652 -510.82833168286015 0 -510.82833168286015 -256.67533567355713 0 0 0 0 199.62407917770543 -560.40231391281122 0 -560.40231391281122 -141.77631576804561 0 0 0 0 420.54736579999735 -590.67574264551513 0 -590.67574264551513 -332.88217178333434 0 0 0 0 373.14828712738972 -447.22791382899595 0 -447.22791382899595 -100.31641331926221 0 0 0 0 224.29565344354887 -510.86000891900039 0 -510.86000891900039 -125.4655852655269 0 0 0 0 88.38849353104888 -663.41616053623147 0 -663.41616053623147 -196.47663491641288 0 0 0 0 804.22671530732259 -178.8268852866604 0 -178.8268852866604 -19.644633302348666 0 0 0 0 796.19189621263922 -66.764415467383515 0 -66.764415467383515 162.89018363313517 0 0 0 0 561.34100135154222 -327.60576081002364 0 -327.60576081002364 -78.595556385218515 0 0 0 0 897.10824471389424 -214.56904992248019 0 -214.56904992248019 -114.55895666376455 0 0 0 0 632.92796111076495 -402.1882381059113 0 -402.1882381059113 -194.4187464134011 0 0 0 0 753.0572848548818 -124.37228565188707 0 -124.37228565188707 -72.426311973831616 0 0 0 0 538.24078874489351 -254.30150638351915 0 -254.30150638351915 -119.73501243666396 0 0 0 0 333.11484158413441 -237.42559881854686 0 -237.42559881854686 36.67842524923617 0 0 0 0 355.26976592621577 -310.2996693738387 0 -310.2996693738387 -95.928406914055813 0 0 0 0 381.48918805321864 -500.10634446901531 0 -500.10634446901531 -185.26156877877656 0 0 0 0 112.30428560924884 -514.61311365262009 0 -514.61311365262009 -58.687175292230677 0 0 0 0 -54.425775271465682 -608.89238150327583 0 -608.89238150327583 -64.808505049863015 0 0 0 0 190.89305574389073 -306.8992084794445 0 -306.8992084794445 -78.099159602192231 0 0 0 0 70.721845086955 -338.92328797448135 0 -338.92328797448135 -20.45413437084062 0 0 0 0 -64.730041124417767 -865.92139314721862 0 -865.92139314721862 -260.2444058212277 0 0 0 0 261.59735323232962 -659.39830458795768 0 -659.39830458795768 -317.07505196129205 0 0 0 0 55.6767143867296 -773.45211147572991 0 -773.45211147572991 -223.02038612376782 0 0 0 0 -36.904847344606651 -953.66138212810984 0 -953.66138212810984 -518.55336362397065 0 0 0 0 -287.52187010810121 -1018.3932877506159 0 -1018.3932877506159 -333.82052020383708 0 0 0 0 -304.80663203116455 -1098.9684538110741 0 -1098.9684538110741 -694.20801313842821 0 0 0 0 -137.82937209183183 -796.84201940800995 0 -796.84201940800995 -325.3603432335949 0 0 0 0 -204.8111980788035 -968.00740555435186 0 -968.00740555435186 -623.74088558062795 0 0 0 0 -546.3816257586077 -816.07347848644713 0 -816.07347848644713 -559.7773782905133 0 0 0 0 -1382.858922411594 -1836.5959813471563 0 -1836.5959813471563 -1146.4270052635184 0 0 0 0 -850.06685527824629 -1209.4388812022517 0 -1209.4388812022517 -1159.0967134695093 0 0 0 0 -1055.5738862449903 -917.45017343801919 0 -917.45017343801919 -735.20772845827742 0 0 0 0 -891.99267196939218 -1092.2780198609835 0 -1092.2780198609835 -633.95499606453814 0 0 0 0 -435.00763450626982 -888.66779711956042 0 -888.66779711956042 -533.09390109195374 0 0 0 0 -603.24766983260088 -729.43745957128704 0 -729.43745957128704 -624.20583440513474 0 0 0 0 -871.99953889246262 -935.62530910797068 0 -935.62530910797068 -520.36727966525359 0 0 0 0 -864.66517946332351 -889.82065285474528 0 -889.82065285474528 -766.92644038204162 0 0 0 0 -773.01509750262676 -745.00026005703694 0 -745.00026005703694 -510.96466598234838 0 0 0 0 -900.46562950858424 -947.74470657372149 0 -947.74470657372149 -411.34172326419502 0 0 0 0 -567.72017826847696 -706.66161859070417 0 -706.66161859070417 -378.0749232932576 0 0 0 0 -635.17680966693661 -876.91699504241114 0 -876.91699504241114 -399.00434884958668 0 0 0 0 -292.25581452542974 -658.04696347566642 0 -658.04696347566642 -288.81018292123917 0 0 0 0 -75.91106718051924 -821.24867328931578 0 -821.24867328931578 -433.24455346043396 0 0 0 0 -263.94086924972908 -761.69261328782886 0 -761.69261328782886 -399.9200535195414 0 0 0 0 -59.822275666027053 -681.41422068446991 0 -681.41422068446991 -228.85378176425002 0 0 0 0 215.71808752742777 -660.46865218675157 0 -660.46865218675157 -367.72063979780069 0 0 0 0 76.820780338288728 -803.85358476191686 0 -803.85358476191686 -489.41585005144589 0 0 0 0 -321.40757947566635 -694.86828373302706 0 -694.86828373302706 -427.7767083037179 0 0 0 0 -223.98248615078228 -206.55010554034197 0 -206.55010554034197 81.44191542614135 0 0 0 0 -16.31294024399962 -26.841122832582059 0 -26.841122832582059 -45.15281125250624 0 0 0 0 -295.15675021296192 -326.59514406997187 0 -326.59514406997187 9.3090618800852099 0 0 0 0 -587.21513347249856 -379.04563636377861 0 -379.04563636377861 72.55070940341102 0 0 0 0 -263.94459072056634 -372.03218268921773 0 -372.03218268921773 -206.34987048091716 0 0 0 0 -204.84080024690775 -217.13643105511437 0 -217.13643105511437 -125.14117281993822 0 0 0 0 -82.43773487688668 -235.92516772301315 0 -235.92516772301315 -266.67764917344903 0 0 0 0 64.745413065262255 -55.036375422307174 0 -55.036375422307174 -126.06207990364055 0 0 0 0 -19.132112072706889 -41.652634939596936 0 -41.652634939596936 -62.627137239559772 0 0 0 0 182.78155533785321 -198.72343966180051 0 -198.72343966180051 -35.110117757809348 0 0 0 0 184.26654345453335 -197.41951003608483 0 -197.41951003608483 -123.75984898477327 0 0 0 0 -62.641518783613719 -212.93930164644553 0 -212.93930164644553 50.94873434352985 0 0 0 0 223.92016500915815 -158.10531413993158 0 -158.10531413993158 -43.447181246243417 0 0 0 0 -39.300829231895477 -21.156909524288494 0 -21.156909524288494 -216.21793143023388 0 0 0 0 -10.579215566126637 -22.301303122491831 0 -22.301303122491831 29.71829327666137 0 0 0 0 151.05515098444448 -203.77903298765887 0 -203.77903298765887 33.619309203786543 0 0 0 0 295.02057118833409 -52.56429143236528 0 -52.56429143236528 152.28809151327005 0 0 0 0 677.84812840978338 89.323426503622613 0 89.323426503622613 44.73464604181936 0 0 0 0 -209.49732176774887 -69.363305790182494 0 -69.363305790182494 350.49559516733279 0 0 0 0 911.02292776975446 -14.936342692104517 0 -14.936342692104517 -108.6407925306703 0 0 0 0 5.1262004396643466 -11.864429307996645 0 -11.864429307996645 14.93801867606021 0 0 0 0 -331.35252628570015 -116.0902770117973 0 -116.0902770117973 97.844248516194057 0 0 0 0 -23.310306537943688 -3.2957565463439096 0 -3.2957565463439096 -515.80793144315248 0 0 0 0 3.7108138231244787 -7.8899375531905775 0 -7.8899375531905775 19.777621960634065 0 0 0 0 272.46215568248044 -300.18247114180122 0 -300.18247114180122 -38.603048398348619 0 0 0 0 -97.526620242344507 28.139135962046566 0 28.139135962046566 41.902524135312888 0 0 0 0 -112.86594522531504 -272.69678996501898 0 -272.69678996501898 42.162762736697914 0 0 0 0 3.7387367316878475 -6.7628439836994829 0 -6.7628439836994829 7.6915716626181165 0 0 0 0 -196.01828203741752 -30.128568973450456 0 -30.128568973450456 642.06657555641141 0 0 0 0 -184.75332497625004 -48.289171312419057 0 -48.289171312419057 -30.263433211919619 0 0 0 0 207.03067915981592 -116.50888443972508 0 -116.50888443972508 -809.29008497245377 0 0 0 0 -448.14556776624886 -195.54968109363836 0 -195.54968109363836 -176.44023193957401 0 0 0 0 -321.18241208827385 -193.31612609603326 0 -193.31612609603326 -268.74479415573296 0 0 0 0 1.3646958346164233 -5.3644784769034857 0 -5.3644784769034857 7.9107656545512555 0 0 0 0 -371.80020791547577 -82.059668474685168 0 -82.059668474685168 -34.953457910232828 0 0 0 0 -188.10163862099944 -134.94028412676562 0 -134.94028412676562 -5.964761608542176 0 0 0 0 -165.39572191813204 -155.66148877711385 0 -155.66148877711385 -283.47783334003179 0 0 0 0 -353.56191525737086 -244.65908056992339 0 -244.65908056992339 -312.59794211072585 0 0 0 0 177.19216404522012 -59.574253253245843 0 -59.574253253245843 -447.47178859726409 0 0 0 0 355.69893724868598 -427.92213435663143 0 -427.92213435663143 -1512.5639207174827 0 0 0 0 -384.7828694089676 -268.78060277676923 0 -268.78060277676923 125.05458186856413 0 0 0 0 -5.1438842949638115 -9.1974116166535964 0 -9.1974116166535964 -18.203276936949578 0 0 0 0 -1911.5434720764788 -337.60840746615577 0 -337.60840746615577 141.55447136984731 0 0 0 0 -1585.0878875389353 -100.39391911492567 0 -100.39391911492567 179.92560062150005 0 0 0 0 -576.10591372077761 668.89766549551132 0 668.89766549551132 -1017.7463974665443 0 0 0 0 -516.32065977025923 -1127.3904429352406 0 -1127.3904429352406 -872.60777254457935 0 0 0 0 -252.42620037615598 -779.45718081849918 0 -779.45718081849918 -558.17899178530206 0 0 0 0 -682.79606588836032 -206.84604013674834 0 -206.84604013674834 113.64577501435997 0 0 0 0 -824.64670384037527 -477.6874770855502 0 -477.6874770855502 -361.57765275763813 0 0 0 0 -1343.8215246159489 -992.6291974639098 0 -992.6291974639098 -457.11868887091987 0 0 0 0 -152.01691573970675 -685.84175533834787 0 -685.84175533834787 -766.99347836046945 0 0 0 0 -12.706458867214678 -354.26138804074435 0 -354.26138804074435 -856.48308039622498 0 0 0 0 -73.142120014788816 -603.544663546214 0 -603.544663546214 -925.95629748826468 0 0 0 0 -144.77585113912937 -421.51622976732324 0 -421.51622976732324 -361.48156298626418 0 0 0 0 -138.29141886517641 -733.63926383868852 0 -733.63926383868852 -645.66848077156465 0 0 0 0 -409.38576687858586 -591.52222960793006 0 -591.52222960793006 -713.79534802660055 0 0 0 0 -159.35884826906477 -640.18255406471144 0 -640.18255406471144 -829.77687737737142 0 0 0 0 -473.29705037220992 -1017.2476446194487 0 -1017.2476446194487 -950.37874928247766 0 0 0 0 -342.5053883848268 -446.15233625432302 0 -446.15233625432302 -429.84915442708007 0 0 0 0 -197.30969547863788 -582.17540633538738 0 -582.17540633538738 -331.9285833004833 0 0 0 0 144.72009892071219 -270.98639911522332 0 -270.98639911522332 357.34701215922541 0 0 0 0 -0.54915401977541478 -17.383153866011924 0 -17.383153866011924 -3.9316301508693812 0 0 0 0 265.78373819970511 -185.09419907342817 0 -185.09419907342817 0.19565225102996919 0 0 0 0 47.730439863295032 -133.8892394944196 0 -133.8892394944196 206.8513086806488 0 0 0 0 336.21926528462973 -296.33522220835584 0 -296.33522220835584 131.3426439458417 0 0 0 0 43.593364815576933 126.82381836189597 0 126.82381836189597 252.77188089641277 0 0 0 0 25.490698461522697 -57.994853624957614 0 -57.994853624957614 62.952602662029676 0 0 0 0 -479.43136720770417 -219.30862526219425 0 -219.30862526219425 617.25676765432581 0 0 0 0 295.75552354729734 -313.2699026158225 0 -313.2699026158225 -461.72533024266158 0 0 0 0 -3.8863738225027191 -16.389766484087261 0 -16.389766484087261 -3.2478973064208247 0 0 0 0 43.969739465461316 -43.099270851867914 0 -43.099270851867914 0.33132680994458497 0 0 0 0 59.863357764141256 -65.487307301533292 0 -65.487307301533292 30.165372373303398 0 0 0 0 -5.0720277321524918 -25.899765771187958 0 -25.899765771187958 40.059216266439762 0 0 0 0 14.031480611431107 19.80009179856097 0 19.80009179856097 96.544585228271899 0 0 0 0 -0.21960684466466773 -40.544124717824161 0 -40.544124717824161 53.961377588188043 0 0 0 0 134.34599273510685 118.06171669907053 0 118.06171669907053 -0.59403870189271402 0 0 0 0 -0.37557558600877883 -17.02014456664682 0 -17.02014456664682 -2.8810787825991184 0 0 0 0 -87.171185839975806 74.213971229677554 0 74.213971229677554 437.46301347338886 0 0 0 0 0.95340451351391664 -17.838002128326352 0 -17.838002128326352 5.0665078161969177 0 0 0 0 470.96733516318636 346.01390322564839 0 346.01390322564839 127.79735917554353 0 0 0 0 -30.513908994049416 48.67364941474807 0 48.67364941474807 -150.82457909612276 0 0 0 0 -400.62467870489127 -489.75202667077247 0 -489.75202667077247 -542.32948320447758 0 0 0 0 -4.3630123155373255 -2.6578850471312592 0 -2.6578850471312592 -0.20353720427908684 0 0 0 0 119.60046136163692 251.62927797426892 0 251.62927797426892 299.7403620435507 0 0 0 0 -2588.359840325531 -490.39639594440814 0 -490.39639594440814 -0.027020427703973837 0 0 0 0 -17.599875974599456 -8.0232833581687828 0 -8.0232833581687828 1.3674573172934572 0 0 0 0 -2017.1202839066027 -252.64798334064108 0 -252.64798334064108 -833.69830839009956 0 0 0 0 -1351.2133219720854 -1471.4439241555956 0 -1471.4439241555956 -614.54502616634272 0 0 0 0 -707.89803069248592 -1597.9265177686138 0 -1597.9265177686138 -12.609319741502986 0 0 0 0 -1273.7360927256959 -403.87201091881434 0 -403.87201091881434 354.03640632230963 0 0 0 0 -1126.0761464272509 454.44282437038783 0 454.44282437038783 -156.50258637569277 0 0 0 0 -2393.4360280983637 -724.90943008421164 0 -724.90943008421164 276.57142168987775 0 0 0 0 -814.1529459930407 -45.256157093244838 0 -45.256157093244838 184.23517655633623 0 0 0 0 -695.02954480069457 -555.20308354764711 0 -555.20308354764711 358.16129077179357 0 0 0 0 -644.02012491956702 -680.25671156462704 0 -680.25671156462704 94.23831916123163 0 0 0 0 1135.2794696367273 277.97938162738137 0 277.97938162738137 -912.44209498315467 0 0 0 0 6.3640564449511032 -18.568958147366644 0 -18.568958147366644 -6.219514724925034 0 0 0 0 -83.165828448829416 -139.77273524174234 0 -139.77273524174234 54.448628225647553 0 0 0 0 157.59735096099394 -174.04979662311962 0 -174.04979662311962 -106.12243665791175 0 0 0 0 89.101458574707067 507.6911209758473 0 507.6911209758473 119.72516312310472 0 0 0 0 -800.67227715811168 -1179.5616081419721 0 -1179.5616081419721 61.554010289415601 0 0 0 0 -427.34938491356661 -728.086449690476 0 -728.086449690476 -89.137505349339335 0 0 0 0 -1163.2633167905042 -1286.5862575333813 0 -1286.5862575333813 0.35603796596114989 0 0 0 0 -1106.6109742568369 -797.92901087079008 0 -797.92901087079008 -411.04538521447103 0 0 0 0 -1806.6255370897852 -1683.7909504646668 0 -1683.7909504646668 -225.12395763230143 0 0 0 0 -986.06121985024947 -1273.2990462666494 0 -1273.2990462666494 -208.40669129167509 0 0 0 0 -798.55094767868286 -1006.9090886500635 0 -1006.9090886500635 -201.62968880435801 0 0 0 0 -1364.2527861651033 -1016.259280211998 0 -1016.259280211998 -0.923050172146759 0 0 0 0 -1541.2973597853488 -1281.3524729908822 0 -1281.3524729908822 164.87317523011006 0 0 0 0 834.72288997254509 -809.59883950420772 0 -809.59883950420772 -163.03266873277607 0 0 0 0 -985.64467967207747 -756.18382769497111 0 -756.18382769497111 -31.21122901167837 0 0 0 0 -646.84363717602355 -655.91775381472507 0 -655.91775381472507 -85.437528454363928 0 0 0 0 1.2824117582044465 -12.111549595346844 0 -12.111549595346844 1.48357886664121 0 0 0 0 -1140.6806873327878 -1031.5350494353697 0 -1031.5350494353697 -283.68465330858089 0 0 0 0 -1656.9578250552877 -598.52021325923852 0 -598.52021325923852 -393.25510669680079 0 0 0 0 -0.95137674021641061 -5.2266163583963419 0 -5.2266163583963419 2.1165184118375464 0 0 0 0 -3419.7880305773651 -1251.962899915372 0 -1251.962899915372 200.85410539514851 0 0 0 0 -1101.8490530138879 -1305.1315425656248 0 -1305.1315425656248 -340.37289798670099 0 0 0 0 -758.69885160261765 -1198.9387409445917 0 -1198.9387409445917 -342.04861321598946 0 0 0 0 -208.73954794533347 -1305.9352751044571 0 -1305.9352751044571 -451.50875004200498 0 0 0 0 -577.67586474151176 -996.44536523001443 0 -996.44536523001443 -407.10381249227794 0 0 0 0 -829.95794195128838 -267.04729251089157 0 -267.04729251089157 -555.6149937765731 0 0 0 0 -439.5275197420633 -557.75601438258309 0 -557.75601438258309 -346.36008985029184 0 0 0 0 -506.11018346726087 -1096.0798053399794 0 -1096.0798053399794 -371.17250770927058 0 0 0 0 -753.33912859928387 -857.63394417642849 0 -857.63394417642849 -573.05578023956332 0 0 0 0 -1085.5326596050945 -909.56859970932055 0 -909.56859970932055 -23.913777169756941 0 0 0 0 -704.28057558155251 -577.46832800043285 0 -577.46832800043285 181.33614507285529 0 0 0 0 69.561900176769996 -259.49675631528953 0 -259.49675631528953 -61.97708134802815 0 0 0 0 -831.2771805825472 -669.67688413702967 0 -669.67688413702967 -174.23857720778324 0 0 0 0 -919.13665354726254 17.438617000734666 0 17.438617000734666 -646.31120264012134 0 0 0 0 2049.3935240296996 -945.46654198160832 0 -945.46654198160832 -1206.0207971406635 0 0 0 0 -2572.8967747225033 -1131.6014645987962 0 -1131.6014645987962 67.318243647343479 0 0 0 0 0.23645516388798171 -4.1715784592741443 0 -4.1715784592741443 0.34073171155034743 0 0 0 0 -616.75131230529223 -624.95199018824496 0 -624.95199018824496 -304.72599123798136 0 0 0 0 -839.46246534655802 -370.26975376412156 0 -370.26975376412156 -448.61676214431645 0 0 0 0 -1718.8236536756449 -360.49601117055863 0 -360.49601117055863 -62.877893900957133 0 0 0 0 -1215.2925847380775 -507.6474054678074 0 -507.6474054678074 -293.31245500966907 0 0 0 0 -132.4691191806487 -278.67052839833195 0 -278.67052839833195 -287.82010469639044 0 0 0 0 -972.19104757884543 -278.88247092986421 0 -278.88247092986421 391.44312042256934 0 0 0 0 -189.60912522787112 -550.28604441792413 0 -550.28604441792413 8.5447912324307254 0 0 0 0 -81.808421005887794 -295.68232754232304 0 -295.68232754232304 604.66096251242561 0 0 0 0 2154.3368488976412 -210.91577157239954 0 -210.91577157239954 -378.51166416855995 0 0 0 0 2618.9777338453423 -2010.3039337328482 0 -2010.3039337328482 -138.82008225092432 0 0 0 0 -162.01615635556709 -1316.6370093400822 0 -1316.6370093400822 -563.2810507385293 0 0 0 0 -1029.2223687904589 -1514.7697346730274 0 -1514.7697346730274 -553.35824667528505 0 0 0 0 43.879514596657827 -3337.7610732421454 0 -3337.7610732421454 -646.0245912799146 0 0 0 0 -593.69580541494361 -459.07343627860246 0 -459.07343627860246 -1551.5219688094221 0 0 0 0 -2628.6537142143789 -1637.3034707303377 0 -1637.3034707303377 -929.84848243652959 0 0 0 0 -5.7159363661253906 -13.02777726094817 0 -13.02777726094817 -14.928656623964798 0 0 0 0 -5132.7764744392807 60.403445498319343 0 60.403445498319343 637.45298738204292 0 0 0 0 -1725.5704066555045 618.97705093251716 0 618.97705093251716 -470.5598116810288 0 0 0 0 -1101.8466898032784 -0.14812987005279865 0 -0.14812987005279865 -211.5618600871021 0 0 0 0 -1392.7496817080537 -1383.0713485614397 0 -1383.0713485614397 276.12890998582589 0 0 0 0 139.00677964621718 -1046.9694464087661 0 -1046.9694464087661 -445.05828534890315 0 0 0 0 -438.75885019421548 -225.76632276814053 0 -225.76632276814053 -581.11739858891815 0 0 0 0 -978.03940114181023 -554.20577742357273 0 -554.20577742357273 -588.28483929348295 0 0 0 0 145.76700509192233 -497.03471589209948 0 -497.03471589209948 -232.34484584497113 0 0 0 0 5.9328368405375222 -21.660060273609446 0 -21.660060273609446 -2.3903543127723879 0 0 0 0 -341.86260261664484 -413.2424892768413 0 -413.2424892768413 224.3554748109309 0 0 0 0 -554.15943302021697 -1135.9717524870503 0 -1135.9717524870503 -1263.3387349781715 0 0 0 0 -217.21965029989224 -227.33657825341652 0 -227.33657825341652 18.485324824752752 0 0 0 0 -118.8895008308682 -529.63416554160358 0 -529.63416554160358 -144.26423398635234 0 0 0 0 -608.97994989245944 -721.68898579211373 0 -721.68898579211373 -115.58306566203828 0 0 0 0 470.24867863261898 -550.13346147745324 0 -550.13346147745324 -362.90473111959727 0 0 0 0 -736.9268821627611 -773.41512279134258 0 -773.41512279134258 183.10847484137048 0 0 0 0 403.29300912129111 -149.44122066785349 0 -149.44122066785349 -111.98635968510644 0 0 0 0 219.16789914589208 -144.53080769217195 0 -144.53080769217195 216.54557956170174 0 0 0 0 2208.6915569032426 -816.21669926268805 0 -816.21669926268805 -43.883144563325914 0 0 0 0 2902.3307917524508 -335.52731245089672 0 -335.52731245089672 -242.36783820932033 0 0 0 0 0.36090357566845332 -5.3525001477317034 0 -5.3525001477317034 7.2891711767762217 0 0 0 0 -1963.5989459361954 -313.86382427127683 0 -313.86382427127683 108.31608697726915 0 0 0 0 -902.11057191596501 111.39599714801625 0 111.39599714801625 -136.51617025147425 0 0 0 0 -903.59010479717108 -475.62342835888558 0 -475.62342835888558 -152.42209154122247 0 0 0 0 1344.1738829870919 -489.13581929774955 0 -489.13581929774955 386.22863446656265 0 0 0 0 1939.5329474591053 112.6213099960878 0 112.6213099960878 181.58291908193496 0 0 0 0 5.0982708343818643 -19.914271693692967 0 -19.914271693692967 6.2623648903842195 0 0 0 0 -1053.549449672304 -719.43963259424345 0 -719.43963259424345 -138.95645741434419 0 0 0 0 -726.76097480300086 -672.59369246505958 0 -672.59369246505958 -434.51659581616696 0 0 0 0 -804.98935513945253 -513.29105561832694 0 -513.29105561832694 -41.271728168823756 0 0 0 0 -680.1189691841173 -606.7764963992413 0 -606.7764963992413 -156.58131974298158 0 0 0 0 -521.19037520134589 -417.61783650922007 0 -417.61783650922007 -169.5063701576737 0 0 0 0 -360.00823953616418 -448.31688451561058 0 -448.31688451561058 -380.62092622939963 0 0 0 0 -340.54135218670126 -475.70312477712287 0 -475.70312477712287 -791.84449542022776 0 0 0 0 -434.00777870071579 -526.85182352055563 0 -526.85182352055563 1906.0164471531461 0 0 0 0 8.0729343168974026 -4.4597142111631456 0 -4.4597142111631456 -0.69635911817377405 0 0 0 0 -254.81832208349806 -605.85252308844065 0 -605.85252308844065 192.99849957233528 0 0 0 0 -257.76236209474155 -598.04926599758619 0 -598.04926599758619 172.46281994384481 0 0 0 0 -2410.0075494428384 -816.80556017049821 0 -816.80556017049821 881.1203862313123 0 0 0 0 -400.63113863075705 -459.43422630814894 0 -459.43422630814894 -399.16553124345228 0 0 0 0 2.3228324879305511 -7.8640953351046932 0 -7.8640953351046932 4.6858323854900163 0 0 0 0 2229.4376884161757 -154.8035365796386 0 -154.8035365796386 71.020999249194574 0 0 0 0 -1408.5840232475603 -302.40002841263777 0 -302.40002841263777 291.2535607109312 0 0 0 0 1.8479441947992976 -16.12025776456889 0 -16.12025776456889 19.666548687402269 0 0 0 0 -912.52832663913432 6.9632333337576711 0 6.9632333337576711 19.649273714661831 0 0 0 0 -411.15960397133313 -234.61066735758504 0 -234.61066735758504 -103.10450104649499 0 0 0 0 298.91484213694639 146.36031337245367 0 146.36031337245367 387.85857360785303 0 0 0 0 3406.4754561880254 -939.29767854326929 0 -939.29767854326929 -303.32945175349596 0 0 0 0 -3.2548755693424027 -146.0873718176299 0 -146.0873718176299 129.75022958166664 0 0 0 0 270.29014896514332 -489.97133423730747 0 -489.97133423730747 121.38803488641861 0 0 0 0 -479.50954996658402 -235.10613209660369 0 -235.10613209660369 -32.75249842517951 0 0 0 0 -14.095505257151919 -27.932645622883371 0 -27.932645622883371 19.637240560263535 0 0 0 0 -288.63054715054022 -138.09310065212776 0 -138.09310065212776 -59.420847542787669 0 0 0 0 -99.356963262936915 -268.56399352468725 0 -268.56399352468725 -1538.0559568131744 0 0 0 0 -102.21964880234185 -64.049324860581294 0 -64.049324860581294 -9.0997873434433778 0 0 0 0 99.33034885780944 -152.70863693745923 0 -152.70863693745923 49.162598266862915 0 0 0 0 -169.254919543695 -279.46987794237793 0 -279.46987794237793 -1882.1149294748566 0 0 0 0 -3.8421012426687469 -20.775114377674015 0 -20.775114377674015 -8.2470719147680054 0 0 0 0 -323.78597941346015 -296.87347635961487 0 -296.87347635961487 -1599.9994056261494 0 0 0 0 -350.91177695934311 -370.56405114130757 0 -370.56405114130757 -1018.2576877411047 0 0 0 0 -242.72664973256906 -36.500135278300149 0 -36.500135278300149 -673.96862228067766 0 0 0 0 13.091762855379784 -451.0352614485746 0 -451.0352614485746 -854.62107764964458 0 0 0 0 -486.7760483352904 -95.949127804895397 0 -95.949127804895397 -975.2813790810178 0 0 0 0 -458.71524823050277 -361.30815631784208 0 -361.30815631784208 131.06643862393685 0 0 0 0 -421.42802377773478 -690.72854228578217 0 -690.72854228578217 152.50640934167313 0 0 0 0 825.10324607099756 -3087.7596223592482 0 -3087.7596223592482 1693.2203243360564 0 0 0 0 -286.24797274170851 -246.24413597377134 0 -246.24413597377134 1442.5664477821265 0 0 0 0 -2210.1184474269394 -803.02943566877366 0 -803.02943566877366 691.89225721416733 0 0 0 0 -942.17262043336814 -583.63235578523017 0 -583.63235578523017 -119.57708071439993 0 0 0 0 -26.286759048030945 -1058.2427863569465 0 -1058.2427863569465 -324.37753694911225 0 0 0 0 144.97305738041905 -275.07772532154922 0 -275.07772532154922 -88.086374670616351 0 0 0 0 -12.709266112361732 -36.445571729402189 0 -36.445571729402189 -47.012891405195774 0 0 0 0 1110.1747260546617 -626.18341050830713 0 -626.18341050830713 -177.16230200082646 0 0 0 0 299.37388461113733 -835.27385088495794 0 -835.27385088495794 267.12328721325321 0 0 0 0 -721.5469574653107 -190.58128947563819 0 -190.58128947563819 245.21410323132295 0 0 0 0 -609.64494173085768 -536.61345092344709 0 -536.61345092344709 98.943218612199416 0 0 0 0 -333.44331190664525 -281.30602665043261 0 -281.30602665043261 144.85197887333925 0 0 0 0 -101.62106260212022 -537.52846504983609 0 -537.52846504983609 -34.983390310924733 0 0 0 0 -422.5764697262548 -384.5794320068062 0 -384.5794320068062 -30.275869093893562 0 0 0 0 -57.449109620691161 -386.39703769946937 0 -386.39703769946937 -128.65523147766362 0 0 0 0 -71.538035243051127 -353.928718563242 0 -353.928718563242 -162.10940043296432 0 0 0 0 -205.70125035849924 -262.15095456138079 0 -262.15095456138079 -211.62963013787521 0 0 0 0 -152.84365786213311 -192.94273270307167 0 -192.94273270307167 -1303.571080644615 0 0 0 0 -321.07219880766934 -524.08845324165304 0 -524.08845324165304 -946.83080983615491 0 0 0 0 -84.592959042331756 -51.176877685526279 0 -51.176877685526279 -10.417747236037641 0 0 0 0 4.2137253731343662 -218.77632663035183 0 -218.77632663035183 -460.57572658360004 0 0 0 0 -49.806842447127565 -259.99876919263625 0 -259.99876919263625 -1710.1103610872233 0 0 0 0 3.6444034552497442 -7.3963118363337799 0 -7.3963118363337799 -21.085392903404383 0 0 0 0 -168.42468120483682 -218.32951020079781 0 -218.32951020079781 -140.29471747507341 0 0 0 0 107.43905172991435 376.06484043250748 0 376.06484043250748 -1003.2319167940004 0 0 0 0 -20.978846898241216 -23.206632681386736 0 -23.206632681386736 8.3094051352625797 0 0 0 0 246.57477396182367 -609.33121219740133 0 -609.33121219740133 -1381.4103696482998 0 0 0 0 -248.15735264382238 -292.14170762202593 0 -292.14170762202593 -699.33564081421355 0 0 0 0 145.69375968228269 -364.477596336641 0 -364.477596336641 -313.28092813395779 0 0 0 0 -18.61688424756872 -54.073573736623821 0 -54.073573736623821 -82.325396834230673 0 0 0 0 195.6398377573787 -731.77754539264424 0 -731.77754539264424 -721.66074363068037 0 0 0 0 550.19457961300213 -203.56298458876699 0 -203.56298458876699 -1343.9806585834158 0 0 0 0 125.13638729443483 -602.68389739103441 0 -602.68389739103441 -640.57329291955102 0 0 0 0 310.78054115104896 -363.1239816285306 0 -363.1239816285306 -1010.1675856645161 0 0 0 0 34.134831790797762 -1161.110594133097 0 -1161.110594133097 -914.67140895790362 0 0 0 0 240.27880232386087 -768.69275575445863 0 -768.69275575445863 -1324.1251161078399 0 0 0 0 187.78143153848941 -319.9072493131971 0 -319.9072493131971 580.87873441733245 0 0 0 0 427.28344240217848 -1304.7958062097059 0 -1304.7958062097059 -59.271577817635261 0 0 0 0 967.05931935063563 -967.79129857809312 0 -967.79129857809312 -1679.1309690695343 0 0 0 0 637.32764543841768 -122.25385488385655 0 -122.25385488385655 -3180.9941339115903 0 0 0 0 137.31922948296415 -1139.2214205842611 0 -1139.2214205842611 3682.0508359435398 0 0 0 0 11.27349170009586 -4.6614550829745838 0 -4.6614550829745838 0.45316849041982721 0 0 0 0 1308.3388836125014 -676.45915393297764 0 -676.45915393297764 165.16551202986739 0 0 0 0 45.054375458799768 -606.17378640662355 0 -606.17378640662355 2135.600787911716 0 0 0 0 407.58273136409844 -464.95249167619113 0 -464.95249167619113 762.22033019455557 0 0 0 0 -213.66727965916652 -590.67299191663187 0 -590.67299191663187 -1775.4704033116286 0 0 0 0 85.702955692002433 -517.93358749612526 0 -517.93358749612526 -2562.2803331442556 0 0 0 0 -131.88003869980457 -282.7411849181517 0 -282.7411849181517 -1626.3177630045539 0 0 0 0 -32.323008504230529 -196.67013946971565 0 -196.67013946971565 -2019.0594176367449 0 0 0 0 -165.02124636885492 -514.94707393020508 0 -514.94707393020508 -1673.7402341878042 0 0 0 0 -71.900435235947953 -272.15156367839518 0 -272.15156367839518 -1709.4382992436003 0 0 0 0 145.14378220023832 -300.91090636009534 0 -300.91090636009534 953.96636665725964 0 0 0 0 143.20517673001484 -492.78902328236347 0 -492.78902328236347 828.02851134844241 0 0 0 0 31.964960015436532 -14.811545050574807 0 -14.811545050574807 2.0983451754650275 0 0 0 0 103.66957486962929 -659.05467358822352 0 -659.05467358822352 816.62812408045284 0 0 0 0 139.97918892902089 -550.8346121522045 0 -550.8346121522045 67.889265887550209 0 0 0 0 265.01545260625426 -365.40826135548559 0 -365.40826135548559 -383.93751213690848 0 0 0 0 180.57877580187778 -607.3872882883079 0 -607.3872882883079 57.384566908614943 0 0 0 0 270.0952102115989 -745.48064878144942 0 -745.48064878144942 32.573490967653925 0 0 0 0 64.415894551133533 -469.0838506646287 0 -469.0838506646287 763.13181884701771 0 0 0 0 300.51966783541502 134.60831624357888 0 134.60831624357888 -51.653610968060093 0 0 0 0 706.01243546696787 -528.67587214231753 0 -528.67587214231753 -901.64751917708782 0 0 0 0 -134.37849888816709 -1082.2401380142401 0 -1082.2401380142401 -1097.7758465723637 0 0 0 0 355.85306514463446 -213.38821384152106 0 -213.38821384152106 -674.22427678137319 0 0 0 0 88.378301880642539 22.399986129254103 0 22.399986129254103 -245.66675122987363 0 0 0 0 -112.33078568255587 -104.85785211079929 0 -104.85785211079929 -689.24593160677614 0 0 0 0 401.90876857103285 -164.66794692037729 0 -164.66794692037729 -279.39378307163133 0 0 0 0 188.7012539095158 -368.12240114340966 0 -368.12240114340966 512.3816749693724 0 0 0 0 -300.92497845218168 -186.91900110994902 0 -186.91900110994902 116.06359186206828 0 0 0 0 -326.78442572039785 -273.01416107871773 0 -273.01416107871773 554.12149148568278 0 0 0 0 -286.2397966102435 -198.21969001855905 0 -198.21969001855905 90.080574298641295 0 0 0 0 -235.55968730319 -202.1374197037585 0 -202.1374197037585 71.758200020558434 0 0 0 0 -391.47439305445005 -149.47503387041797 0 -149.47503387041797 95.626025122346618 0 0 0 0 -108.64516579131919 -100.92871258946576 0 -100.92871258946576 0.80320831181903429 0 0 0 0 -757.59870982507709 -447.57505295117153 0 -447.57505295117153 -1922.9032442078751 0 0 0 0 -171.98287499772414 -56.568876759076375 0 -56.568876759076375 -2065.9839203392476 0 0 0 0 -672.25330171912992 -799.45362603721151 0 -799.45362603721151 -2875.3272314508213 0 0 0 0 -595.76199242107577 198.93083888071851 0 198.93083888071851 -1557.8757162953843 0 0 0 0 -293.46267070461272 19.076914826184293 0 19.076914826184293 -1482.7312098768889 0 0 0 0 -257.54958539435756 -216.55433599982643 0 -216.55433599982643 -1423.6267801374197 0 0 0 0 -304.45796759398945 -197.06791909023013 0 -197.06791909023013 -1666.9305312906654 0 0 0 0 -307.93726771023682 -69.412879316440694 0 -69.412879316440694 -1633.162301998469 0 0 0 0 -30.130528728041099 -169.03299925469037 0 -169.03299925469037 -1802.2416508137103 0 0 0 0 -185.93883509540319 -85.131539910922584 0 -85.131539910922584 -1795.7740823005006 0 0 0 0 -76.71018140338856 -221.72444246245868 0 -221.72444246245868 -1699.0238295909803 0 0 0 0 -11.274302499850656 -90.02790133133847 0 -90.02790133133847 -97.008323201511757 0 0 0 0 -28.357421681044798 -259.16553427742474 0 -259.16553427742474 -1867.9113605836028 0 0 0 0 50.093854662488525 -41.643448396147733 0 -41.643448396147733 -23.943462100480737 0 0 0 0 -8.2404227596125565 -361.29627654631622 0 -361.29627654631622 1327.2084771257869 0 0 0 0 -9.0045169989277092 -48.857075496522526 0 -48.857075496522526 2.479158600313724 0 0 0 0 157.29398505486461 -463.1151050911335 0 -463.1151050911335 1349.4857066176482 0 0 0 0 86.943145815690514 -220.26037158413237 0 -220.26037158413237 1199.1767806699499 0 0 0 0 120.95722061934066 -380.29604475839005 0 -380.29604475839005 695.91054260337842 0 0 0 0 49.70458785558003 -441.96905127055652 0 -441.96905127055652 1231.4102727632126 0 0 0 0 -97.448030855441544 -101.86275695663863 0 -101.86275695663863 3.3403721483543727 0 0 0 0 -222.90106494502106 -324.92696850564971 0 -324.92696850564971 523.16342952037212 0 0 0 0 -257.94707957078799 -97.132949291766636 0 -97.132949291766636 1501.8193416229915 0 0 0 0 195.31185233304132 -367.94779023979208 0 -367.94779023979208 579.61531908874167 0 0 0 0 -97.561621740474948 -200.30879103428742 0 -200.30879103428742 640.73325579441735 0 0 0 0 -193.57046604232164 -519.90461340559705 0 -519.90461340559705 615.74125856165392 0 0 0 0 -50.106014459146536 -458.45967699328321 0 -458.45967699328321 451.49261016587843 0 0 0 0 -51.754507718316745 -494.69271096833108 0 -494.69271096833108 688.29975866714085 0 0 0 0 -101.27772502605512 -612.20015883956512 0 -612.20015883956512 413.47835288486021 0 0 0 0 -137.06665265040647 -514.39205738853343 0 -514.39205738853343 223.74452461091278 0 0 0 0 184.88207358526415 -348.39252549732919 0 -348.39252549732919 592.83731540196459 0 0 0 0 31.210264795983676 -432.23233232690836 0 -432.23233232690836 718.0350673767025 0 0 0 0 119.1381716945325 -479.76027350855293 0 -479.76027350855293 445.42383435423835 0 0 0 0 -64.173631502315402 -468.77737663137668 0 -468.77737663137668 453.44552508909692 0 0 0 0 24.089588534276118 -539.96949185327685 0 -539.96949185327685 565.00241928318792 0 0 0 0 -49.163373559713364 -487.0313053780992 0 -487.0313053780992 136.40360777622118 0 0 0 0 201.59056417107058 -493.50174869247712 0 -493.50174869247712 -290.90787490885123 0 0 0 0 126.98361742551788 -561.15864555066582 0 -561.15864555066582 153.26524687337223 0 0 0 0 -11.423663455578208 -472.69137799197051 0 -472.69137799197051 -180.50262447321438 0 0 0 0 -231.41294862427458 -510.85742495198792 0 -510.85742495198792 225.79537123794944 0 0 0 0 -284.30470938431245 -553.19257231935626 0 -553.19257231935626 258.97910758477519 0 0 0 0 -194.16007044058642 -544.52843957289588 0 -544.52843957289588 157.66647535660013 0 0 0 0 -226.04447441008233 -554.71243049389886 0 -554.71243049389886 361.54275500346557 0 0 0 0 -200.68555171600747 -555.85208949343723 0 -555.85208949343723 259.01298135325487 0 0 0 0 -212.06368878906505 -440.95447196925488 0 -440.95447196925488 313.66391504913918 0 0 0 0 -289.48185649701918 -252.00369419020717 0 -252.00369419020717 219.93528930118191 0 0 0 0 -51.346174242571578 -477.29579327582906 0 -477.29579327582906 148.98400638394378 0 0 0 0 -194.19546213121794 -687.06711824743979 0 -687.06711824743979 454.6434332717763 0 0 0 0 115.50309691175062 -584.94676921679638 0 -584.94676921679638 -38.48837133358029 0 0 0 0 3.6355309761458159 -5.5229669598224405 0 -5.5229669598224405 14.125446041551868 0 0 0 0 -140.59319170703748 439.56149442872811 0 439.56149442872811 968.30792638819548 0 0 0 0 93.046117917114316 -82.289975262403459 0 -82.289975262403459 110.06844771066972 0 0 0 0 -130.35558994566236 -104.55364118420403 0 -104.55364118420403 337.91443804789742 0 0 0 0 -64.932323804532643 -59.218470530497143 0 -59.218470530497143 106.72496299006161 0 0 0 0 0.61401255953526857 -34.091777551951509 0 -34.091777551951509 15.203092510945623 0 0 0 0 -235.48644939508085 -84.294768244501029 0 -84.294768244501029 16.257500936510041 0 0 0 0 -146.43912113155238 -301.29560579341342 0 -301.29560579341342 -155.23018651064194 0 0 0 0 -285.79415176175826 -133.94885514948692 0 -133.94885514948692 -16.586891671991907 0 0 0 0 -63.376120507508858 -49.637615065780665 0 -49.637615065780665 6.8227988001704887 0 0 0 0 -365.93401650212763 -38.422831722447881 0 -38.422831722447881 5.4773073364194715 0 0 0 0 -202.65633666193571 -219.46193248369855 0 -219.46193248369855 -88.137843155796872 0 0 0 0 -156.48255110836908 -68.641927879158175 0 -68.641927879158175 136.01836091892619 0 0 0 0 -54.681718777711012 -69.630064859099406 0 -69.630064859099406 -25.841152415205585 0 0 0 0 -19.680617800389882 -52.291776164951443 0 -52.291776164951443 -33.456872577313334 0 0 0 0 -118.30917357935232 -524.22177836929768 0 -524.22177836929768 -804.32260574991233 0 0 0 0 59.437712263417779 -177.28789827690343 0 -177.28789827690343 -1283.1175747795787 0 0 0 0 -5.7592385251773521 -483.84703454867122 0 -483.84703454867122 -1692.4096339535899 0 0 0 0 -70.18450392995166 -71.072449267442408 0 -71.072449267442408 -10.554246944922262 0 0 0 0 -336.3312412269006 -115.21787286258768 0 -115.21787286258768 -1492.4926443266886 0 0 0 0 -30.504719467986035 22.281450032301564 0 22.281450032301564 57.537395683262957 0 0 0 0 -12.93084778620323 -273.74426668823435 0 -273.74426668823435 306.73690152649942 0 0 0 0 -301.38117731610328 -347.1611706121621 0 -347.1611706121621 -98.733995790447807 0 0 0 0 -12.345989232629343 -25.298264509895546 0 -25.298264509895546 -34.038518859484839 0 0 0 0 -79.575218888815414 -70.812348170315545 0 -70.812348170315545 12.80094289354647 0 0 0 0 -121.95132133144944 -526.28024028183427 0 -526.28024028183427 -795.12727911939328 0 0 0 0 -130.19235533563187 -145.01472416255274 0 -145.01472416255274 -22.783288899030595 0 0 0 0 -63.711241029712255 -133.4300810128334 0 -133.4300810128334 -1.1179705951362848 0 0 0 0 -3.7607145306588166 -63.851548086056937 0 -63.851548086056937 -3.4484612103493646 0 0 0 0 -47.481139278315823 -118.38034454431909 0 -118.38034454431909 -42.311703208863037 0 0 0 0 6.3998924719448951 -73.956061191122217 0 -73.956061191122217 104.72386613514772 0 0 0 0 -100.86279834144807 -202.25482603652927 0 -202.25482603652927 32.016614004664007 0 0 0 0 -113.99458028894151 -150.11324911247357 0 -150.11324911247357 114.90978673239442 0 0 0 0 -57.683824019747391 -70.102231843462135 0 -70.102231843462135 -6.4733546670046849 0 0 0 0 -61.726417501937249 -69.011643736441329 0 -69.011643736441329 73.270780361795914 0 0 0 0 23.005612279918978 -102.30367959404242 0 -102.30367959404242 77.265524299055215 0 0 0 0 -122.91143612827727 -200.25905562088155 0 -200.25905562088155 36.925185472224257 0 0 0 0 -22.428907442481432 -135.97205964529712 0 -135.97205964529712 7.5920716222317424 0 0 0 0 -35.554724088397052 -97.153153906787338 0 -97.153153906787338 79.579177946394339 0 0 0 0 -26.868621839738495 -96.193260562422296 0 -96.193260562422296 46.670660753206356 0 0 0 0 -35.541476436505036 -110.81077702643961 0 -110.81077702643961 99.450969316461851 0 0 0 0 -25.708674885099754 -126.19614666294365 0 -126.19614666294365 64.457037371801562 0 0 0 0 -22.493264990607031 -53.951249388139615 0 -53.951249388139615 -26.804173627743751 0 0 0 0 -24.627112204034347 -120.1878620780044 0 -120.1878620780044 84.197609626422491 0 0 0 0 -54.861522735028828 -110.02456939735831 0 -110.02456939735831 44.599469679650952 0 0 0 0 -10.42908162563981 -124.74804588161351 0 -124.74804588161351 85.468474832421634 0 0 0 0 -38.496884376676462 -110.7618136240344 0 -110.7618136240344 86.010932380064332 0 0 0 0 -84.014653582897154 -80.57637165558117 0 -80.57637165558117 66.142737189977197 0 0 0 0 -0.32705084876533341 -55.471500782676287 0 -55.471500782676287 49.340502899177636 0 0 0 0 -66.863643397962733 -141.06719714315659 0 -141.06719714315659 94.997175534503185 0 0 0 0 -57.536037357536514 -70.64087114898183 0 -70.64087114898183 -4.743664806450937 0 0 0 0 -90.522174329267727 -171.25870977967134 0 -171.25870977967134 43.990746045223204 0 0 0 0 -52.561295218369196 -169.5420923293641 0 -169.5420923293641 -69.60390125077538 0 0 0 0 -32.63898444577454 -113.50494013590523 0 -113.50494013590523 21.718278731412738 0 0 0 0 -81.135863394568048 -46.640505017052377 0 -46.640505017052377 15.180083507287577 0 0 0 0 236.15340259563891 -930.04493071795514 0 -930.04493071795514 -679.13701730674802 0 0 0 0 -594.03063682041829 -188.52231899928302 0 -188.52231899928302 -317.40733266355528 0 0 0 0 1962.0471365499543 -801.19694237222575 0 -801.19694237222575 703.38549838797735 0 0 0 0 -19.36407755137796 -11.444522589114266 0 -11.444522589114266 11.810286426088027 0 0 0 0 -64.404453040425452 -80.041146944038616 0 -80.041146944038616 6.5023226349986096 0 0 0 0 -405.27619240967033 -218.76135854854874 0 -218.76135854854874 33.795391734764962 0 0 0 0 -73.655690122148371 -114.38072744893634 0 -114.38072744893634 47.252248661869089 0 0 0 0 -56.546569858729868 -80.500714067280938 0 -80.500714067280938 36.696881605392818 0 0 0 0 -125.27335305925226 -97.7668177698215 0 -97.7668177698215 -38.3206003158557 0 0 0 0 -141.78579529731542 -130.29380613985268 0 -130.29380613985268 11.813828312195255 0 0 0 0 -128.82726967998224 -97.47263302176907 0 -97.47263302176907 13.910435308309388 0 0 0 0 -149.44311534671942 -124.28273050260759 0 -124.28273050260759 51.427344189942232 0 0 0 0 -30.718878313547975 -112.31703280135844 0 -112.31703280135844 11.249152252989006 0 0 0 0 -90.854938922528163 -172.88684096494399 0 -172.88684096494399 116.29982111273421 0 0 0 0 -51.993336325326709 -183.36846610880821 0 -183.36846610880821 184.74838971146528 0 0 0 0 0.45074223697702109 -138.81551411592227 0 -138.81551411592227 128.94509312804439 0 0 0 0 -30.401518604623107 -96.034887528139734 0 -96.034887528139734 56.839056976255961 0 0 0 0 -45.115185224816742 -167.76203297574102 0 -167.76203297574102 136.11765935027506 0 0 0 0 -77.613811531822648 -122.3139560397758 0 -122.3139560397758 258.11657370023022 0 0 0 0 -18.101625086752222 -142.35498107341974 0 -142.35498107341974 24.289228585483798 0 0 0 0 -12.521358693116493 -44.775189497778193 0 -44.775189497778193 17.422789284639407 0 0 0 0 -1.3487336757343655 -166.59903284777829 0 -166.59903284777829 -47.921017326822039 0 0 0 0 64.107143790282862 -108.83276567730354 0 -108.83276567730354 -210.13535824233259 0 0 0 0 -85.159335295443498 -88.533662503286905 0 -88.533662503286905 -14.841094171511941 0 0 0 0 -57.131093377771322 -233.92775991714734 0 -233.92775991714734 138.9680290549295 0 0 0 0 -50.097113885192812 -112.03209132926713 0 -112.03209132926713 -19.061839131696615 0 0 0 0 -58.54599963435976 -133.71432141423429 0 -133.71432141423429 -56.80133422857034 0 0 0 0 1.9036370617601648 -57.315277160115386 0 -57.315277160115386 7.9897861105654897 0 0 0 0 -108.81034690775414 -170.47126361020491 0 -170.47126361020491 -17.624268422056275 0 0 0 0 12.253852028678757 -64.374792209725399 0 -64.374792209725399 50.934184022227441 0 0 0 0 -103.16172590129372 -142.44717079342445 0 -142.44717079342445 -0.46703524087206461 0 0 0 0 -7.7338823987216649 -85.393508208546351 0 -85.393508208546351 77.305649086992503 0 0 0 0 -94.162405485694762 -134.89120456075761 0 -134.89120456075761 -24.817301359318662 0 0 0 0 27.691130247396359 -155.96054941610782 0 -155.96054941610782 -205.31340283400277 0 0 0 0 -86.476288926324429 -109.17733485595656 0 -109.17733485595656 42.6185855021048 0 0 0 0 -278.7556882587287 -51.097180458207731 0 -51.097180458207731 736.39574610179989 0 0 0 0 -98.575924103908619 376.46976397986873 0 376.46976397986873 919.2723832547199 0 0 0 0 -11.256665578053248 -32.641186173906164 0 -32.641186173906164 -38.086756390047469 0 0 0 0 -125.7535777575722 -65.497386865579756 0 -65.497386865579756 325.68601882504299 0 0 0 0 -65.1738316986104 -90.148065385824509 0 -90.148065385824509 16.403729054727378 0 0 0 0 -477.55221488995448 -286.15328371580108 0 -286.15328371580108 353.0486300058983 0 0 0 0 -618.81651249593779 -630.13195073809038 0 -630.13195073809038 -239.16603686794406 0 0 0 0 -726.04999387976932 -623.9096255384211 0 -623.9096255384211 -236.32716031203017 0 0 0 0 -246.2004992163711 -243.01895505828725 0 -243.01895505828725 -72.357757129269885 0 0 0 0 -825.52425072308324 -249.10533599676273 0 -249.10533599676273 456.32131201290758 0 0 0 0 -265.63607925165888 -284.14237704037805 0 -284.14237704037805 330.9787323687051 0 0 0 0 100.7105194485448 258.02852563295892 0 258.02852563295892 -105.33116030215751 0 0 0 0 293.37896129352703 201.5431483425491 0 201.5431483425491 -250.81924950701068 0 0 0 0 -514.38996213931296 -147.51882869032124 0 -147.51882869032124 440.35662486185902 0 0 0 0 360.89117530099065 -1257.7571975497121 0 -1257.7571975497121 -480.13380732144287 0 0 0 0 -549.55490598097458 134.49763765597527 0 134.49763765597527 -1293.1485161402379 0 0 0 0 -1486.5833320221536 -1413.8328603668961 0 -1413.8328603668961 -959.78249330085237 0 0 0 0 -980.92920255843399 -1066.5946899763831 0 -1066.5946899763831 -870.00918262783671 0 0 0 0 -1859.6256273454728 -594.03305372774776 0 -594.03305372774776 -390.98578685533721 0 0 0 0 -947.67789948443169 -45.119311637186911 0 -45.119311637186911 -106.92213213068317 0 0 0 0 -146.72207707497364 -155.6342116107553 0 -155.6342116107553 147.84534716361122 0 0 0 0 126.98611343148696 -267.53339723867248 0 -267.53339723867248 92.977731845225208 0 0 0 0 -89.160888202673959 -286.99523156089708 0 -286.99523156089708 411.59022542351158 0 0 0 0 47.566004495620746 -94.048318474120606 0 -94.048318474120606 35.201149366039317 0 0 0 0 -1.1428017795676748 8.4255474231427314 0 8.4255474231427314 11.196862589278112 0 0 0 0 28.445316947415449 -462.71170502057066 0 -462.71170502057066 580.57452787412331 0 0 0 0 -72.779688060205444 -246.93253774875484 0 -246.93253774875484 550.35045154887484 0 0 0 0 599.8667870246245 -372.76430173883273 0 -372.76430173883273 175.61089347433881 0 0 0 0 -218.07076545968812 -315.53060876135714 0 -315.53060876135714 516.41369118959119 0 0 0 0 -123.80218697346936 -284.10861125976226 0 -284.10861125976226 411.3510936855746 0 0 0 0 -480.53270340563085 -638.32279996221769 0 -638.32279996221769 305.15884123951582 0 0 0 0 -97.239129935763231 -333.35600142799376 0 -333.35600142799376 331.90996310766786 0 0 0 0 844.88980173674463 -515.34764137744787 0 -515.34764137744787 -282.65839077919372 0 0 0 0 -57.930164814986711 -877.80993983545341 0 -877.80993983545341 -133.25630020047538 0 0 0 0 -242.56981759651171 -1051.4629409998452 0 -1051.4629409998452 -286.2787699381297 0 0 0 0 -97.050913024600959 -1057.9531509388617 0 -1057.9531509388617 -387.92246684140991 0 0 0 0 -143.91320803019221 -739.62506724637933 0 -739.62506724637933 -141.42730475103599 0 0 0 0 -1209.1308693321225 -1048.9625916245568 0 -1048.9625916245568 -206.08955434791278 0 0 0 0 -686.02570152557564 -928.55491439643083 0 -928.55491439643083 7.6969253660131471 0 0 0 0 -264.13837620323466 76.885967406953569 0 76.885967406953569 -1.3626055599888787 0 0 0 0 -1489.8106315799155 -14.776088905244251 0 -14.776088905244251 195.30649525480112 0 0 0 0 -2240.0751539505295 -1363.6651459264467 0 -1363.6651459264467 4.2127825185889378 0 0 0 0 -574.11438767838081 -1641.4140359514276 0 -1641.4140359514276 -1513.9459461649349 0 0 0 0 -345.25709145131259 -1084.1555990085326 0 -1084.1555990085326 -303.53593561192974 0 0 0 0 94.75625036462452 -1266.4691647473119 0 -1266.4691647473119 -495.65708630697918 0 0 0 0 -646.02812256874722 -933.62669539618946 0 -933.62669539618946 -64.595125401392579 0 0 0 0 -499.80353267578903 -1283.813966977119 0 -1283.813966977119 -333.65264741959982 0 0 0 0 -158.08689136379235 -1113.4305144480386 0 -1113.4305144480386 -253.59717347082915 0 0 0 0 -196.4848091881513 -787.69810985587537 0 -787.69810985587537 -78.870592017949093 0 0 0 0 -373.2716926994708 -972.33507379709044 0 -972.33507379709044 -209.1029609649413 0 0 0 0 -337.17370340485104 -670.05137359266519 0 -670.05137359266519 -66.458704861120168 0 0 0 0 -1071.3939764887573 -314.11190561908006 0 -314.11190561908006 190.46419958194019 0 0 0 0 -209.50524054388188 -343.42734048442799 0 -343.42734048442799 32.169436313750339 0 0 0 0 -158.16349584050658 -333.16088521361962 0 -333.16088521361962 20.496754764055368 0 0 0 0 -188.82586381490387 -78.94539409974459 0 -78.94539409974459 52.259122703806497 0 0 0 0 269.55918727112203 -15.942791722733091 0 -15.942791722733091 -86.586716486257501 0 0 0 0 -99.584332788912434 -58.811923203873448 0 -58.811923203873448 59.451837231172249 0 0 0 0 -3.155636065198351 -19.824617399696535 0 -19.824617399696535 21.780166028779263 0 0 0 0 -2.0092269364848505 -63.625582785617922 0 -63.625582785617922 -30.980373040547079 0 0 0 0 -171.65002675031428 -150.21495002832671 0 -150.21495002832671 -0.36773720267228782 0 0 0 0 -6.0805960122925171 64.498556812002789 0 64.498556812002789 49.875075571879279 0 0 0 0 -232.57407319215417 56.769375047879294 0 56.769375047879294 -65.948473539654515 0 0 0 0 -17.150995362301266 -17.045127113748094 0 -17.045127113748094 -2.4909688166795974 0 0 0 0 -13.231547798295651 -188.95317573045031 0 -188.95317573045031 2.8834945646303822 0 0 0 0 19.939488866002367 -4.0843882445340682 0 -4.0843882445340682 0.1321658846874243 0 0 0 0 63.393997652514372 -88.326396936485253 0 -88.326396936485253 -71.82805327459937 0 0 0 0 7.4069799048687237 -61.378297186845558 0 -61.378297186845558 -15.2491935677632 0 0 0 0 119.60945011858666 -18.638964675108582 0 -18.638964675108582 -57.007290390843991 0 0 0 0 56.818712374741466 -13.077338908124943 0 -13.077338908124943 -8.4910544770783929 0 0 0 0 129.5917464012382 -49.243689983879449 0 -49.243689983879449 -141.39407026048866 0 0 0 0 357.92792102877138 -371.15017763648939 0 -371.15017763648939 479.97137189665955 0 0 0 0 116.92833073377551 -28.303910890157567 0 -28.303910890157567 -99.379686178581323 0 0 0 0 158.04727967782947 -13.053761506991577 0 -13.053761506991577 -165.62251162269968 0 0 0 0 -20.363439257703277 -16.147132679446258 0 -16.147132679446258 -5.8133593788822964 0 0 0 0 183.16399529715272 -143.96215710089018 0 -143.96215710089018 -73.716015949423308 0 0 0 0 346.41587553736827 -29.901282052622264 0 -29.901282052622264 -66.008084384084214 0 0 0 0 8.8789345232798951 -24.97191346285399 0 -24.97191346285399 -83.272458832681878 0 0 0 0 -112.56633293528284 -74.690304905539961 0 -74.690304905539961 -153.86142044976441 0 0 0 0 -101.74257079844392 -162.69159599472187 0 -162.69159599472187 -386.39160743782372 0 0 0 0 -182.20711023369222 -729.31609919338371 0 -729.31609919338371 1467.7702254149335 0 0 0 0 10.826715183917258 -43.262184677572805 0 -43.262184677572805 -275.56998135146569 0 0 0 0 27.237480048029042 -5.2168101512318685 0 -5.2168101512318685 -1.0027461838974858 0 0 0 0 209.10525815997585 -319.71546427686644 0 -319.71546427686644 487.95764376365696 0 0 0 0 299.51777477485302 -759.4824655460834 0 -759.4824655460834 -336.70032750579412 0 0 0 0 351.21520759526175 -674.96842833451956 0 -674.96842833451956 336.7909849382122 0 0 0 0 -68.717651844468492 -226.03384581433784 0 -226.03384581433784 117.91465768469789 0 0 0 0 -275.5612405662032 -671.14580051055236 0 -671.14580051055236 -275.06303284934256 0 0 0 0 62.35440612052389 -712.5384868675319 0 -712.5384868675319 -986.46858972229529 0 0 0 0 -266.6914221629504 -597.39061383706576 0 -597.39061383706576 -1244.0131522840238 0 0 0 0 -84.033818501862697 -267.64516980970802 0 -267.64516980970802 -793.67964544284041 0 0 0 0 362.82188038929235 -684.37821414203063 0 -684.37821414203063 -870.16196080757072 0 0 0 0 36.26495401536522 -435.29129850675236 0 -435.29129850675236 -448.81054352199135 0 0 0 0 -20.354859776020021 -980.5966996438292 0 -980.5966996438292 -710.25658135412959 0 0 0 0 -69.570176215689571 -815.00459203195351 0 -815.00459203195351 -496.62034774100175 0 0 0 0 -285.47365772509147 -907.35663773209671 0 -907.35663773209671 -343.94474397451268 0 0 0 0 -340.22200855126357 -212.03097221735516 0 -212.03097221735516 242.8175825481012 0 0 0 0 -753.20495162623774 -1282.7272662568284 0 -1282.7272662568284 -666.1310953149441 0 0 0 0 2.5687498627970378 0.59335566214804203 0 0.59335566214804203 -3.4147768183394192 0 0 0 0 -621.61406337697554 -1090.6534875992511 0 -1090.6534875992511 -1772.0343344025387 0 0 0 0 -860.96405156824767 -985.46133589442616 0 -985.46133589442616 -1071.8916743247537 0 0 0 0 188.25416668809999 -615.37582183466748 0 -615.37582183466748 136.70482998224907 0 0 0 0 731.70432384341257 -469.09095707676897 0 -469.09095707676897 -471.05536854732782 0 0 0 0 832.31974635772349 -278.14075515355944 0 -278.14075515355944 -111.76238095079316 0 0 0 0 -24.735715168924798 -15.33531785706063 0 -15.33531785706063 -5.8838513445625864 0 0 0 0 17.410094302846119 -204.18364801499411 0 -204.18364801499411 263.73329106887104 0 0 0 0 -24.564297226781491 -139.16115701668605 0 -139.16115701668605 356.34246915553376 0 0 0 0 -34.608482956595253 -235.41018696823448 0 -235.41018696823448 404.79551890982111 0 0 0 0 55.642081717829569 -273.46141334593267 0 -273.46141334593267 261.22412650418119 0 0 0 0 -60.264542918885127 -17.451644132408546 0 -17.451644132408546 716.13769372968818 0 0 0 0 -0.02198384351504501 -180.45676706993254 0 -180.45676706993254 533.04196459631203 0 0 0 0 210.11874344421085 -240.76898347222595 0 -240.76898347222595 203.21329513256205 0 0 0 0 0.91551811856459153 -4.0636931917786114 0 -4.0636931917786114 -6.6093150445194055 0 0 0 0 -42.355623626615852 -245.13338059496891 0 -245.13338059496891 501.84188792167697 0 0 0 0 21.735243791394169 -184.31994258312625 0 -184.31994258312625 178.73049593936594 0 0 0 0 -51.703971923794597 -257.40436603786657 0 -257.40436603786657 250.20960826647206 0 0 0 0 288.96086801961064 -240.64045836059086 0 -240.64045836059086 109.4937378585164 0 0 0 0 -8.3427543335407623 -11.543208790091796 0 -11.543208790091796 2.3025063804548722 0 0 0 0 80.298370862161391 -330.34450560196274 0 -330.34450560196274 139.57104775612243 0 0 0 0 -142.41475424281089 -89.464887362097215 0 -89.464887362097215 149.82878489517316 0 0 0 0 -176.93092304970196 -28.448380273235671 0 -28.448380273235671 48.240097638161387 0 0 0 0 -166.63759660204232 -59.074828607081145 0 -59.074828607081145 112.79924769693753 0 0 0 0 -102.13440170706599 -48.167469736996281 0 -48.167469736996281 1.1638248220551759 0 0 0 0 -55.403656313384317 -44.708509912183843 0 -44.708509912183843 15.327159589120868 0 0 0 0 -100.3564524067915 -51.598369999497663 0 -51.598369999497663 2.8673714921751525 0 0 0 0 -102.80350336799165 -50.697337485980825 0 -50.697337485980825 2.5656769493361935 0 0 0 0 -94.08240594615927 -48.506673831987428 0 -48.506673831987428 0.78682593262055889 0 0 0 0 -7.3035616298053014 -9.2056068155700927 0 -9.2056068155700927 -7.9506610534238007 0 0 0 0 -85.231310575152747 -29.181208541122032 0 -29.181208541122032 -58.726982101972681 0 0 0 0 -43.233954139339971 -41.943937182660818 0 -41.943937182660818 -11.226565325770025 0 0 0 0 -33.399836835087626 -58.868246965947037 0 -58.868246965947037 -53.700595148315188 0 0 0 0 -29.65148132329341 -48.646880482832785 0 -48.646880482832785 -32.693969645770267 0 0 0 0 -260.42454444235773 -73.593974379371502 0 -73.593974379371502 3.1656172559887636 0 0 0 0 -3.0919775936266092 -60.946580691550963 0 -60.946580691550963 -55.355028058684638 0 0 0 0 -10.916359759343322 -77.730630195088452 0 -77.730630195088452 9.7896968173663481 0 0 0 0 -16.968319539871175 -54.965135733845614 0 -54.965135733845614 -22.775814523418262 0 0 0 0 -21.349664351626416 -41.590624539945566 0 -41.590624539945566 -361.08879906049697 0 0 0 0 -24.102883938535228 -17.405538712539567 0 -17.405538712539567 -6.706311624699552 0 0 0 0 -26.286789418722037 -30.935553791146958 0 -30.935553791146958 -8.5760824149147084 0 0 0 0 63.709908006065234 -147.97406974670594 0 -147.97406974670594 100.77093802568561 0 0 0 0 -9.5363894687146615 -27.658686764791867 0 -27.658686764791867 -22.614974695933256 0 0 0 0 -26.250950674308115 -17.24442170970724 0 -17.24442170970724 -29.389578586808057 0 0 0 0 -87.381884563088533 -181.83041022122052 0 -181.83041022122052 -2.737348487455165 0 0 0 0 -19.478532993525732 -47.803819912485778 0 -47.803819912485778 -55.537774262076709 0 0 0 0 -19.47619089103506 -40.373885518831287 0 -40.373885518831287 -53.900674827082526 0 0 0 0 -20.611764088069322 -49.846190096999635 0 -49.846190096999635 -57.693609008820204 0 0 0 0 -40.293510272284038 -33.90655249444535 0 -33.90655249444535 -4.9816646970575675 0 0 0 0 11.19510900543537 -10.29139003813907 0 -10.29139003813907 -60.543756816943642 0 0 0 0 152.82386826712172 -22.654921200155513 0 -22.654921200155513 -222.97582743212115 0 0 0 0 201.14589102228638 -115.02627474242763 0 -115.02627474242763 -143.96179829747416 0 0 0 0 -6.0324978051685889 -22.684429289605021 0 -22.684429289605021 -34.098316346545516 0 0 0 0 82.202910423278809 -79.896705004677642 0 -79.896705004677642 -12.628323337710754 0 0 0 0 -171.22979664776358 -13.686950844508829 0 -13.686950844508829 2.3034239810076542 0 0 0 0 0.92889764548453968 47.834806163933536 0 47.834806163933536 -149.98358866712078 0 0 0 0 -8.5689142313975282 -23.055547170749719 0 -23.055547170749719 -33.777884073134828 0 0 0 0 -23.545309710765423 -38.047311145180174 0 -38.047311145180174 -48.930023007036652 0 0 0 0 -35.30562007665867 -36.908583902113605 0 -36.908583902113605 -47.819970869124518 0 0 0 0 13.744580488088445 -1.551257954684047 0 -1.551257954684047 -25.576747382386259 0 0 0 0 -29.251248455488167 -37.123542850388731 0 -37.123542850388731 -37.772680968802888 0 0 0 0 -2.6960135751869529 -816.83244274550088 0 -816.83244274550088 -1992.270185540583 0 0 0 0 -0.74844063410523631 -0.36067839340162777 0 -0.36067839340162777 -14.373101555169768 0 0 0 0 -328.23205737480021 -1474.4483470545347 0 -1474.4483470545347 -2017.8496518117172 0 0 0 0 -1139.1484753797995 -2195.9134821773405 0 -2195.9134821773405 -2479.4317427374845 0 0 0 0 1.1292562580929371 -2119.3324311657998 0 -2119.3324311657998 -3411.8408286886115 0 0 0 0 -1565.8575497145648 -2923.7299636795869 0 -2923.7299636795869 -3002.5312389066094 0 0 0 0 -142.47498401597841 -2055.2021116190299 0 -2055.2021116190299 -4583.752523342584 0 0 0 0 -1960.3977331162896 -3028.1762191762973 0 -3028.1762191762973 -3030.1128972752049 0 0 0 0 -1895.2059033268015 -2711.8189468351193 0 -2711.8189468351193 -3091.4573300663033 0 0 0 0 -409.81031833513407 -1807.8560374347508 0 -1807.8560374347508 -2513.4393798059609 0 0 0 0 0.73822944982384797 -1907.4000187779457 0 -1907.4000187779457 237.12948712894286 0 0 0 0 867.99622490967158 -1031.5942495998897 0 -1031.5942495998897 -2742.6236970828613 0 0 0 0 -275.05411329417257 -189.34144229502999 0 -189.34144229502999 -1.4636415640488849 0 0 0 0 -1766.3820246137911 -1506.971410206781 0 -1506.971410206781 -2485.5577441570931 0 0 0 0 39.192705798894167 -1803.0379970338763 0 -1803.0379970338763 -2621.1768475404824 0 0 0 0 -657.97384361941658 -1585.6337719133662 0 -1585.6337719133662 -249.34929568305961 0 0 0 0 969.36157581376028 -814.39286505483324 0 -814.39286505483324 -470.30740036958377 0 0 0 0 -1059.5877478173788 -1400.0183918715993 0 -1400.0183918715993 2028.9947707311076 0 0 0 0 -13.170694991393248 -9.2202737811857389 0 -9.2202737811857389 1.2266742623953206 0 0 0 0 -667.02427072543651 -413.79088888971455 0 -413.79088888971455 3831.5674429829523 0 0 0 0 12.764113118755631 -5404.0761742321192 0 -5404.0761742321192 -2223.4691103587829 0 0 0 0 -14.199839081002949 -15.354131512696824 0 -15.354131512696824 -3.5940899326749047 0 0 0 0 -1066.426893357886 -3717.6036079855403 0 -3717.6036079855403 -5905.5003761904663 0 0 0 0 -714.42644396393734 -524.71044834273926 0 -524.71044834273926 2081.7957255735964 0 0 0 0 -3027.6545902413782 -4578.4548918004584 0 -4578.4548918004584 -4113.1939271707379 0 0 0 0 486.33746825432172 -292.45411255041836 0 -292.45411255041836 11.596178135761875 0 0 0 0 -27.953107455900181 -20.298414476386 0 -20.298414476386 -1.1508357878131648 0 0 0 0 38.52636729949154 95.602022267979919 0 95.602022267979919 -608.76523905911017 0 0 0 0 262.83407509830431 -2110.6696357295295 0 -2110.6696357295295 -4078.9383513385255 0 0 0 0 -2081.1704190340824 -3922.336449667986 0 -3922.336449667986 -3112.0809599065833 0 0 0 0 -890.62703111435985 -2319.7044995694014 0 -2319.7044995694014 -2417.0965236565098 0 0 0 0 -1543.0687313124363 -3886.6392599870378 0 -3886.6392599870378 -3226.0237844104413 0 0 0 0 -1528.044626517978 -2632.6297822544584 0 -2632.6297822544584 -1193.5744421470517 0 0 0 0 -1626.9585563411238 -3014.4379107248969 0 -3014.4379107248969 -3125.6044791303866 0 0 0 0 -2085.7770939441689 -4243.9029131329225 0 -4243.9029131329225 -3304.9664478292107 0 0 0 0 -2773.8254133329028 -4132.7751188286347 0 -4132.7751188286347 -3300.8766619317466 0 0 0 0 -2753.5318361261161 -3129.7197049842507 0 -3129.7197049842507 -2430.2891823964369 0 0 0 0 -2182.5980965829804 -3864.140434037603 0 -3864.140434037603 -2962.9009607976477 0 0 0 0 -2344.0649772939068 -4170.7038201196556 0 -4170.7038201196556 -3336.2714302564273 0 0 0 0 -2191.3781474632269 -3758.6320447877661 0 -3758.6320447877661 -3310.586974059057 0 0 0 0 -1301.3764154364108 -2717.3926934749252 0 -2717.3926934749252 -3266.7770675427746 0 0 0 0 -1856.9261718007328 -4220.2108193245367 0 -4220.2108193245367 -3654.3304427182884 0 0 0 0 -1848.4533686619834 -4088.5377895041311 0 -4088.5377895041311 -4334.5031170282746 0 0 0 0 -2187.9761321847327 -4668.6016767036926 0 -4668.6016767036926 -4019.8838462345302 0 0 0 0 -3641.0290625547059 -3580.6076247352175 0 -3580.6076247352175 -3513.3483198289759 0 0 0 0 -1.7238426015214827 -8.0322958083015124 0 -8.0322958083015124 -5.134576547075028 0 0 0 0 0.48684404937572889 0.33084061179397395 0 0.33084061179397395 1.7077244606056183 0 0 0 0 670.70609426307601 155.66091401334779 0 155.66091401334779 -96.087059250858147 0 0 0 0 -1734.0662410011282 -2616.4171744649066 0 -2616.4171744649066 -4554.4249888409977 0 0 0 0 -4417.3294349157368 -2504.3115214945283 0 -2504.3115214945283 -3187.5545594712021 0 0 0 0 -2970.8342935035471 -4504.4906741555606 0 -4504.4906741555606 -3758.5544748854009 0 0 0 0 -4215.0037279570242 -4411.2216010313714 0 -4411.2216010313714 -3755.4926708597341 0 0 0 0 -1848.3994550215336 -4738.0099817385499 0 -4738.0099817385499 -6325.8479244983755 0 0 0 0 -2957.1007879640092 -5851.0147015124385 0 -5851.0147015124385 -7357.154885561089 0 0 0 0 1437.8689449497033 -1304.9403113217559 0 -1304.9403113217559 -5573.1348734109197 0 0 0 0 -6004.804507761437 -5807.1148077099351 0 -5807.1148077099351 -4843.7114421501174 0 0 0 0 -5287.6955587870907 -1303.3526927168714 0 -1303.3526927168714 -4974.2435614461137 0 0 0 0 -1982.8841357726642 -3670.4981992103994 0 -3670.4981992103994 -6217.5101695570047 0 0 0 0 -2212.225846968533 -1698.549838663399 0 -1698.549838663399 -1568.8125777932873 0 0 0 0 1.6066685634141322 -8.9737730341003044 0 -8.9737730341003044 -14.496305838867556 0 0 0 0 2.6498158315075671 -4.5180909535105229 0 -4.5180909535105229 -19.335289608281812 0 0 0 0 -6374.7054887233244 -4170.7487620955653 0 -4170.7487620955653 -1760.232195860357 0 0 0 0 -3.4624351042534158 -12.524016498672097 0 -12.524016498672097 -20.705377094826986 0 0 0 0 -608.65601795344264 1194.9923042474256 0 1194.9923042474256 -2568.3700715376763 0 0 0 0 -22.029481366922141 -26.587440845199467 0 -26.587440845199467 -5.1562382663436779 0 0 0 0 -0.85515602419221182 -16.027630940560584 0 -16.027630940560584 -25.430629849100683 0 0 0 0 -4.2752271879920158 -18.196337523410591 0 -18.196337523410591 -24.555066375683055 0 0 0 0 196.86272723481079 -55.674044701585899 0 -55.674044701585899 -42.447637575154658 0 0 0 0 28.413635129720205 -84.753726877635927 0 -84.753726877635927 21.450826561806025 0 0 0 0 93.525749821274076 -117.54411803069524 0 -117.54411803069524 -36.925777601180016 0 0 0 0 72.085100616095588 -13.441957723582163 0 -13.441957723582163 0.56325672781531466 0 0 0 0 23.198748835944571 -87.955005580450234 0 -87.955005580450234 19.544069147028495 0 0 0 0 -39.738048964387417 -280.24437595153722 0 -280.24437595153722 142.71788505095174 0 0 0 0 -3383.0882763082191 -3394.4735499250164 0 -3394.4735499250164 0.94660792333888821 0 0 0 0 -51.030884770996636 -27.292029488940898 0 -27.292029488940898 -2.9345982359809568 0 0 0 0 -39.832666780625004 453.34911789526814 0 453.34911789526814 -249.05921479797689 0 0 0 0 7.579762666754192 -17.222484988381552 0 -17.222484988381552 7.9455291233313119 0 0 0 0 -42.204670089558931 -49.604323333813227 0 -49.604323333813227 -18.30778415754321 0 0 0 0 -46.195624702610075 -39.42185978541238 0 -39.42185978541238 -15.92005276348209 0 0 0 0 3.1745833169710806 -11.350987866347396 0 -11.350987866347396 0.4735551676865839 0 0 0 0 -652.29793425370008 -490.09481696803414 0 -490.09481696803414 70.89681127568474 0 0 0 0 551.40350162474169 -527.43628043721128 0 -527.43628043721128 -493.41248239108245 0 0 0 0 -1475.8422546319925 -1249.4242106724705 0 -1249.4242106724705 -701.21507363757701 0 0 0 0 -3168.5833060419245 -2251.902177177195 0 -2251.902177177195 -1069.9468246460601 0 0 0 0 -4266.1055876877508 -3041.1498624968808 0 -3041.1498624968808 -3234.4234794766417 0 0 0 0 -1329.8003606424973 19.029321127407457 0 19.029321127407457 83.471624132042052 0 0 0 0 -13.14153645410272 -13.053493615543772 0 -13.053493615543772 -7.2541347711906496 0 0 0 0 -388.27717007443425 -835.6479176304274 0 -835.6479176304274 -2396.2108265062416 0 0 0 0 -4100.4401076724753 -2384.4027217323455 0 -2384.4027217323455 -1147.6182679837875 0 0 0 0 24.849887999553175 -182.76595201304735 0 -182.76595201304735 -0.041936667752452195 0 0 0 0 -3.9894870422165525 3.2719080151376261 0 3.2719080151376261 4.0302396959554017 0 0 0 0 269.57745517730655 31.811456119998184 0 31.811456119998184 -55.707234434899874 0 0 0 0 26.052664550879854 -337.16574868150929 0 -337.16574868150929 -1.9230987641314701 0 0 0 0 -4.0933145648735092 1.4693704252373436 0 1.4693704252373436 1.519647651351363 0 0 0 0 -672.55962212229497 -1253.7986204777262 0 -1253.7986204777262 -1026.03440832661 0 0 0 0 -133.58842786634341 86.697835854429286 0 86.697835854429286 22.592535103613045 0 0 0 0 76.045772128840326 -34.712174023508851 0 -34.712174023508851 -33.189152156075579 0 0 0 0 -28.66458536798018 -21.751253460723092 0 -21.751253460723092 -26.737012081721332 0 0 0 0 2.6249898614769336 -125.19333279818238 0 -125.19333279818238 -83.079647605998616 0 0 0 0 134.7197624015389 147.89037400527741 0 147.89037400527741 -905.59946393498103 0 0 0 0 -4.1590675711689755 -2.6648243185351816 0 -2.6648243185351816 -2.8068779657653522 0 0 0 0 -9.2792825011507034 -5.2936410041464228 0 -5.2936410041464228 -1.8947529679510353 0 0 0 0 39.923183035389229 -38.839563067042036 0 -38.839563067042036 -49.223407918267185 0 0 0 0 30.508460772150329 -69.204434914830017 0 -69.204434914830017 -42.817919907771284 0 0 0 0 35.977093356865225 -45.121313382667722 0 -45.121313382667722 -13.140104095509741 0 0 0 0 29.306929326863155 -34.944061246839283 0 -34.944061246839283 -22.573038761474891 0 0 0 0 5.064967724075359 -30.241813484751589 0 -30.241813484751589 -14.804555801989636 0 0 0 0 -8.5347778306168038 -48.446111691300757 0 -48.446111691300757 -5.681274159665918 0 0 0 0 -6.0566773030150216 -42.38706834972254 0 -42.38706834972254 9.017049120622687 0 0 0 0 5.4846278159096187 -24.267300996984716 0 -24.267300996984716 -18.860188057015364 0 0 0 0 -9.9293934994317965 -31.694314675676708 0 -31.694314675676708 -9.4940484115827246 0 0 0 0 -4.6007761952641886 -46.539715213279123 0 -46.539715213279123 -4.1032677525799954 0 0 0 0 -8.7901347225997597 -33.364518256188603 0 -33.364518256188603 -12.398248952529684 0 0 0 0 17.47156921349233 -41.069290007042582 0 -41.069290007042582 -23.177841352066025 0 0 0 0 13.740723350667395 -46.635488543077372 0 -46.635488543077372 -8.0308658369758632 0 0 0 0 3.7749349480436649 -42.125239594373852 0 -42.125239594373852 -11.008810230283416 0 0 0 0 -12.248802037151108 -37.034486497343096 0 -37.034486497343096 -4.3640217546198983 0 0 0 0 33.118836086214287 -27.082136946963146 0 -27.082136946963146 25.980791756679537 0 0 0 0 -39.859078723789935 -23.501396825688829 0 -23.501396825688829 -5.7516873052480832 0 0 0 0 22.850812966911633 -25.606586840604677 0 -25.606586840604677 3.8844400686795382 0 0 0 0 -271.36976832419168 -143.25151845779328 0 -143.25151845779328 341.91922793546109 0 0 0 0 -12.900198974151863 -210.14778864136315 0 -210.14778864136315 25.795979810733115 0 0 0 0 98.486833374714479 -423.1072121867328 0 -423.1072121867328 3.1877188781218138 0 0 0 0 -223.94497631749255 100.16144415896269 0 100.16144415896269 194.16476023753057 0 0 0 0 -131.91410323511809 140.21300594854984 0 140.21300594854984 209.53836039837915 0 0 0 0 -12.097337566908266 -11.713178841351294 0 -11.713178841351294 -0.32650410365073412 0 0 0 0 -12.607528993779852 -39.306583961022625 0 -39.306583961022625 -18.646735328933573 0 0 0 0 0.6480744517246535 -13.415236840557839 0 -13.415236840557839 -0.61501825124207699 0 0 0 0 -42.45349822465505 -43.861259081539174 0 -43.861259081539174 -9.3356339382298756 0 0 0 0 -48.361382294900977 -37.884385194069182 0 -37.884385194069182 -4.1046413204167038 0 0 0 0 4.8292548022933488 -10.273985689329891 0 -10.273985689329891 3.6600041988716612 0 0 0 0 -206.0539708857832 -174.51788917191152 0 -174.51788917191152 79.728255849840934 0 0 0 0 -166.3904746027838 -181.0964477583766 0 -181.0964477583766 -269.42406282643788 0 0 0 0 -28.822905157873151 -33.091283169475219 0 -33.091283169475219 -0.39381041370171488 0 0 0 0 0.10225699598527171 -1.6362252796679684 0 -1.6362252796679684 2.0682582631702644 0 0 0 0 78.518813910777681 -97.080572093327646 0 -97.080572093327646 -173.12939246708993 0 0 0 0 -24.785509923847172 -7.6524714607977558 0 -7.6524714607977558 21.627273917882178 0 0 0 0 -99.077820071543101 -129.84087772099883 0 -129.84087772099883 3.1076340214931406 0 0 0 0 -108.17600749206031 -60.630862115431228 0 -60.630862115431228 -14.348534585966263 0 0 0 0 -162.68264393424033 -46.289378708490403 0 -46.289378708490403 18.416276575473603 0 0 0 0 -25.488564261322608 -38.838602980831638 0 -38.838602980831638 -43.735079618207237 0 0 0 0 -12.814012254642563 -8.5820213368524492 0 -8.5820213368524492 -4.713975370846299 0 0 0 0 -30.46844909684495 -32.162406663346275 0 -32.162406663346275 -10.087474580238421 0 0 0 0 -66.877637239347678 -54.619316767159034 0 -54.619316767159034 -30.515104210273421 0 0 0 0 -18.074601479092962 -4.7433695132276625 0 -4.7433695132276625 -59.888339986733627 0 0 0 0 -97.323583741032053 -150.97460960115495 0 -150.97460960115495 -16.803612475690898 0 0 0 0 10.12948122266971 131.98495641353657 0 131.98495641353657 -152.5617103034383 0 0 0 0 22.705330802340143 -123.68951511817045 0 -123.68951511817045 -58.835648518765709 0 0 0 0 -67.300238514289958 -186.00684472905414 0 -186.00684472905414 -182.22800305558485 0 0 0 0 -26.691189312601637 -28.636931757962884 0 -28.636931757962884 -272.83553707168903 0 0 0 0 -5.704331743740056 -4.699788002567459 0 -4.699788002567459 4.869267422163972 0 0 0 0 -41.59802505231346 -135.807346984162 0 -135.807346984162 215.41228908533049 0 0 0 0 -81.308660185459303 -94.721969453206839 0 -94.721969453206839 83.724329870892689 0 0 0 0 -51.295224694996477 -53.539283821743652 0 -53.539283821743652 82.14721741879157 0 0 0 0 31.217448832845548 -144.94292918316387 0 -144.94292918316387 154.6213185689121 0 0 0 0 -354.29775826174591 -296.17529238602219 0 -296.17529238602219 370.77389615630091 0 0 0 0 -10.162725790729041 -128.96056614018832 0 -128.96056614018832 -52.656290929632704 0 0 0 0 -49.948554125701776 -239.56091844621551 0 -239.56091844621551 234.25217253525989 0 0 0 0 -313.68452373953187 -274.25014647646458 0 -274.25014647646458 -154.36478964507114 0 0 0 0 -576.6576646050089 -475.43959542055381 0 -475.43959542055381 -235.92312977478286 0 0 0 0 -450.67088901071111 -160.67420119960298 0 -160.67420119960298 -222.70721541810781 0 0 0 0 -180.56474083823559 -335.18886431246938 0 -335.18886431246938 -624.74971753294813 0 0 0 0 -249.79569804479252 -126.35622490098467 0 -126.35622490098467 20.926467894692905 0 0 0 0 -73.092869857267942 -141.9349713321426 0 -141.9349713321426 -402.77120689465664 0 0 0 0 -119.45584086370945 -8.9580103118350962 0 -8.9580103118350962 -199.062705352786 0 0 0 0 16.508135564770782 179.42478995019337 0 179.42478995019337 -113.5556225112814 0 0 0 0 -97.1028988341277 159.47801488202822 0 159.47801488202822 -601.97336318227462 0 0 0 0 29.556889483035775 -140.01516918458219 0 -140.01516918458219 -339.91402093911893 0 0 0 0 -225.14947036185185 -1225.7017387011074 0 -1225.7017387011074 -1856.805931250914 0 0 0 0 -1002.4760019341047 -504.2803094106057 0 -504.2803094106057 521.72707888643345 0 0 0 0 -1354.5824414803938 -2020.7910775086202 0 -2020.7910775086202 7.9394513979787007 0 0 0 0 -789.33554204643588 -773.66401917385519 0 -773.66401917385519 -581.53438264149008 0 0 0 0 -244.62150956777623 -450.61574183290941 0 -450.61574183290941 -734.8755030569082 0 0 0 0 -3.2533085434115492 101.79600110132014 0 101.79600110132014 -93.986680227913894 0 0 0 0 43.640991099557141 -144.12649920888362 0 -144.12649920888362 -483.83980441313179 0 0 0 0 -186.03011058407719 -187.3322918486374 0 -187.3322918486374 -367.2721752023208 0 0 0 0 -156.09340069610334 -472.1665259675201 0 -472.1665259675201 -707.45085755229229 0 0 0 0 -710.15190544705547 -483.39738257550925 0 -483.39738257550925 -524.99817549779254 0 0 0 0 -45.370770876855204 -137.07600370054968 0 -137.07600370054968 -52.932379422698517 0 0 0 0 -359.83222689419927 -323.65292383200722 0 -323.65292383200722 -588.21761259816412 0 0 0 0 -35.352071197565465 -159.68000924286687 0 -159.68000924286687 -68.842243732812918 0 0 0 0 -35.678289761715718 -20.691895767190601 0 -20.691895767190601 -36.843750909209575 0 0 0 0 -2036.4434402633342 -861.0124631801591 0 -861.0124631801591 -358.59333680471173 0 0 0 0 -2548.9247867316881 -1030.7159659455501 0 -1030.7159659455501 -151.91347070175107 0 0 0 0 9.0992124891868258 -32.608033250843505 0 -32.608033250843505 -4.3393611839067034 0 0 0 0 -1532.8779363738431 -461.86972355426406 0 -461.86972355426406 -293.66827277113043 0 0 0 0 1103.4017443586927 -762.40555691900227 0 -762.40555691900227 317.91279953614867 0 0 0 0 438.90886961269098 -544.05001888014522 0 -544.05001888014522 295.24225508223753 0 0 0 0 -322.75744050979847 -259.27358374900723 0 -259.27358374900723 -591.99691581292427 0 0 0 0 116.99287497696059 -973.27921286523633 0 -973.27921286523633 458.21262237985502 0 0 0 0 -2146.2927768705413 -536.0205769629174 0 -536.0205769629174 7.4457906036986969 0 0 0 0 -234.92415181122851 300.84507125947493 0 300.84507125947493 -1978.0362458830059 0 0 0 0 -1795.6614039443521 -2738.7231610948511 0 -2738.7231610948511 -504.97960435938876 0 0 0 0 -1311.9861967668985 -737.45386363414582 0 -737.45386363414582 166.22143764951034 0 0 0 0 -17.115283274052302 8.2544879457927891 0 8.2544879457927891 11.262374050636367 0 0 0 0 -1268.2784107719926 -860.32287442339293 0 -860.32287442339293 159.38507235760335 0 0 0 0 255.01049003825756 -514.11916843937979 0 -514.11916843937979 -855.90559874207247 0 0 0 0 139.87397140382382 -1066.3108118736418 0 -1066.3108118736418 -1434.8492865755252 0 0 0 0 -1227.4123281176144 -1073.1705114785145 0 -1073.1705114785145 -817.12825978911133 0 0 0 0 -934.68005966578494 -692.24786967074033 0 -692.24786967074033 -601.36841894756071 0 0 0 0 -121.46226126668626 -994.5793088634091 0 -994.5793088634091 -939.58779158230755 0 0 0 0 -22.680002514083753 -611.52244703327415 0 -611.52244703327415 -632.97657752266969 0 0 0 0 -5.5150019198221116 -3.648623091913521 0 -3.648623091913521 2.1634914137557359 0 0 0 0 -1047.8294472285779 -1290.4886781349778 0 -1290.4886781349778 -1150.6558979202141 0 0 0 0 -1664.5212591644377 -76.902804319281131 0 -76.902804319281131 515.21456791460514 0 0 0 0 -1178.9740476231091 -824.60302871756721 0 -824.60302871756721 -566.84325065943995 0 0 0 0 -856.83034464187222 -1116.0466812796367 0 -1116.0466812796367 -1148.5378125951975 0 0 0 0 -1289.1151434935309 -1055.5138529431497 0 -1055.5138529431497 -366.08136840356747 0 0 0 0 -1720.157636923017 -1152.4501813494717 0 -1152.4501813494717 -654.09804079800233 0 0 0 0 -1103.5338520083606 -180.57074841042049 0 -180.57074841042049 -1428.6291187453317 0 0 0 0 -314.47551445895442 -23.817792459703924 0 -23.817792459703924 -108.47017837513704 0 0 0 0 -208.1572598022467 -448.47678909712704 0 -448.47678909712704 -613.92778900967096 0 0 0 0 -1095.0891225743981 -879.89709875368862 0 -879.89709875368862 -349.36050571748638 0 0 0 0 -649.06799466800294 -452.80662721721455 0 -452.80662721721455 59.317246560414787 0 0 0 0 -425.70851896656677 -6.8191828496637754 0 -6.8191828496637754 153.37351035664324 0 0 0 0 -758.65464493053878 -136.96080526548758 0 -136.96080526548758 102.95008244307246 0 0 0 0 -1012.2324775496527 -239.40250456350623 0 -239.40250456350623 209.40936367691029 0 0 0 0 -1369.05985144632 -630.08757529468858 0 -630.08757529468858 124.8970216246089 0 0 0 0 -14.701826732101722 -11.15469891307788 0 -11.15469891307788 -5.5968064383838794 0 0 0 0 -622.26798590150429 19.648523617914179 0 19.648523617914179 381.30253957639798 0 0 0 0 -264.96020088945806 -153.64335400619893 0 -153.64335400619893 -133.85004837010638 0 0 0 0 419.61181086825673 482.08695350278867 0 482.08695350278867 -156.82326375495177 0 0 0 0 -83.124734238706878 -86.203241803232231 0 -86.203241803232231 -117.50847917053034 0 0 0 0 138.06255176881677 -47.857586218306096 0 -47.857586218306096 -329.86667758093972 0 0 0 0 3.2399254678317106 -1.620613730050394 0 -1.620613730050394 -2.0307718205776837 0 0 0 0 -11.385260868393459 -7.5313795394464478 0 -7.5313795394464478 6.0166569734107043 0 0 0 0 4.9967143136964296 -44.819364593044156 0 -44.819364593044156 47.350869168440113 0 0 0 0 -5.5722115895259776 -48.792934403914842 0 -48.792934403914842 0.99458818836137652 0 0 0 0 -7.5299248080734174 -20.677175846368101 0 -20.677175846368101 2.8078040984229062 0 0 0 0 7.0186990170511123 -21.481234555053135 0 -21.481234555053135 9.2858466061300078 0 0 0 0 -11.174817031446423 -7.2707376626707969 0 -7.2707376626707969 -1.9318060935569292 0 0 0 0 77.823001938199013 -138.78028623359023 0 -138.78028623359023 35.943239149783039 0 0 0 0 24.213306822241066 50.975881125270007 0 50.975881125270007 131.19900488923304 0 0 0 0 33.481923260874282 -39.505647307906656 0 -39.505647307906656 9.0082475829112809 0 0 0 0 2.1957873949104396 104.04232442982175 0 104.04232442982175 9.6694491750968155 0 0 0 0 -3.6585314979893155 -71.781165250722552 0 -71.781165250722552 17.21042010543897 0 0 0 0 3.4655376538757992 -40.861254787847429 0 -40.861254787847429 55.020743607368786 0 0 0 0 31.164779004900311 -37.096961112650661 0 -37.096961112650661 24.253484070962031 0 0 0 0 113.58601166932203 -95.894735345740628 0 -95.894735345740628 -88.03304190246854 0 0 0 0 5.820499438218846 -4.7529344384639387 0 -4.7529344384639387 -1.3303463949764591 0 0 0 0 -33.108497766792425 -72.667960677907104 0 -72.667960677907104 11.464053101328318 0 0 0 0 -12.852974143472238 -168.37243497110126 0 -168.37243497110126 -63.555297299346421 0 0 0 0 -5.1062821270606946 1.5095553420833312 0 1.5095553420833312 43.887688368355157 0 0 0 0 78.342757789461757 -109.63428360978287 0 -109.63428360978287 0.13769528696138877 0 0 0 0 308.72571963058726 -17.612375959550263 0 -17.612375959550263 -74.619445351636386 0 0 0 0 -263.14653218413878 -89.104552718803461 0 -89.104552718803461 63.887780187127646 0 0 0 0 -1.5901914734161409 5.7278664470848923 0 5.7278664470848923 1.0579992657770845 0 0 0 0 3876.2151947709062 -96.996206092022476 0 -96.996206092022476 -616.30447562341578 0 0 0 0 9.0527427568974872 -7.6228346689341606 0 -7.6228346689341606 8.014231707351712 0 0 0 0 -82.628522654733388 -90.540915177465649 0 -90.540915177465649 -0.13278738400549628 0 0 0 0 -31.322580593827297 -33.435619651107118 0 -33.435619651107118 -30.479184807732963 0 0 0 0 319.491343468384 -301.28716172462737 0 -301.28716172462737 -59.585892177536152 0 0 0 0 25.566741696364659 -21.231550545275411 0 -21.231550545275411 18.701231930077313 0 0 0 0 1643.6785702691705 -355.69630609211163 0 -355.69630609211163 -416.53558592892659 0 0 0 0 204.6828602522437 -467.82204316924617 0 -467.82204316924617 -299.91811704795691 0 0 0 0 613.98925407414208 -684.58109262913058 0 -684.58109262913058 -239.70221261007828 0 0 0 0 110.98260503661004 -722.68208247251459 0 -722.68208247251459 141.41946655296488 0 0 0 0 -180.71715469750779 -754.09951420367724 0 -754.09951420367724 29.866990104230354 0 0 0 0 191.16796501184581 -568.48831765972136 0 -568.48831765972136 55.811225151584949 0 0 0 0 -316.52670037359348 -183.67237639622181 0 -183.67237639622181 84.717073205421912 0 0 0 0 -40.201409957342548 -319.1726127093425 0 -319.1726127093425 -37.821989551528532 0 0 0 0 -389.38893866242142 -229.75003199023195 0 -229.75003199023195 123.17279578784655 0 0 0 0 -501.70525169640314 -35.065730934176827 0 -35.065730934176827 60.829717769716808 0 0 0 0 -6.8888885495373984 -2.1892395706402112 0 -2.1892395706402112 -1.1515881709866562 0 0 0 0 -839.06338016560767 84.223537697485881 0 84.223537697485881 81.242140819311317 0 0 0 0 -852.27439746624441 -302.47165626267088 0 -302.47165626267088 208.91022929511382 0 0 0 0 -541.31623399781165 -256.6587031252111 0 -256.6587031252111 152.9760950783384 0 0 0 0 -638.88579173894686 -851.13691606356588 0 -851.13691606356588 -165.1422129154671 0 0 0 0 -1467.5659491891274 -582.7670223210298 0 -582.7670223210298 109.27684882294852 0 0 0 0 -959.31070391456888 -1013.345114572774 0 -1013.345114572774 -428.19417752965819 0 0 0 0 -927.93707033526152 -1086.9908014919783 0 -1086.9908014919783 -423.37607480888255 0 0 0 0 -1001.2348952812172 -1133.7651474708255 0 -1133.7651474708255 -322.30073758843355 0 0 0 0 -711.13371303112945 -1414.9850654028705 0 -1414.9850654028705 -56.080466858809814 0 0 0 0 -28.425946092582308 -644.10998811016907 0 -644.10998811016907 -413.88949013518868 0 0 0 0 -552.69028049032204 -720.09033930508303 0 -720.09033930508303 28.9370419358047 0 0 0 0 -350.55868954230391 -1049.6490999628004 0 -1049.6490999628004 -880.35507276881253 0 0 0 0 -663.36165723373415 -759.20917691488285 0 -759.20917691488285 -209.97049327337299 0 0 0 0 214.82514589165658 -1083.3762828041872 0 -1083.3762828041872 -543.24019081372535 0 0 0 0 649.10355399866967 -598.88966505799181 0 -598.88966505799181 -7.2779856267297873 0 0 0 0 1302.7433242385159 -892.05203207086015 0 -892.05203207086015 -597.17295749916957 0 0 0 0 1260.6944453850447 -706.90697161531716 0 -706.90697161531716 -352.25193465026678 0 0 0 0 1200.1479250331304 -1173.2573394398096 0 -1173.2573394398096 285.62181953451363 0 0 0 0 71.241963492968353 -284.62371448084014 0 -284.62371448084014 812.96126180578722 0 0 0 0 1075.0382900448894 -1430.1301345376269 0 -1430.1301345376269 169.08807432426693 0 0 0 0 357.20526514933954 -1111.1976205253886 0 -1111.1976205253886 375.41168018759345 0 0 0 0 564.2739790562191 -1886.5827249132126 0 -1886.5827249132126 -229.59446411272802 0 0 0 0 1815.5601911374833 -1907.4521791229927 0 -1907.4521791229927 -524.35455744342471 0 0 0 0 568.39176841250833 -1353.6151393533239 0 -1353.6151393533239 -314.97755397093715 0 0 0 0 -1.2956315093522619 -9.1518396615894062 0 -9.1518396615894062 9.0100407436206638 0 0 0 0 -201.69720138540288 -2175.5891782779399 0 -2175.5891782779399 -2.1248610453912988 0 0 0 0 -3053.2285733810277 -611.61746979271993 0 -611.61746979271993 -15.288617095502559 0 0 0 0 1784.0259894914925 -2258.7070028695016 0 -2258.7070028695016 1.3253396195321911 0 0 0 0 113.65641727163893 -1452.4701830029335 0 -1452.4701830029335 -126.5545242241642 0 0 0 0 1961.9523871305355 158.68094149717217 0 158.68094149717217 -158.5989863241266 0 0 0 0 520.8782911407834 -1346.3364997229801 0 -1346.3364997229801 0.40301852518610831 0 0 0 0 3.7687869952351321 -51.831462314046803 0 -51.831462314046803 -0.086831792596547316 0 0 0 0 -0.47678202539029257 -6.3635712297805753 0 -6.3635712297805753 4.4386311878964193 0 0 0 0 0.88416798719239864 -3.7018720102872464 0 -3.7018720102872464 -7.6626647163736834 0 0 0 0 618.09426567771879 -522.58016624957236 0 -522.58016624957236 -349.55382486680901 0 0 0 0 145.10375118896445 -353.19400075282101 0 -353.19400075282101 13.81341017044906 0 0 0 0 1.478718447161441 -10.275121014545206 0 -10.275121014545206 -24.963471131345159 0 0 0 0 -0.4262338689406775 -3.1028652024923815 0 -3.1028652024923815 -10.01209992678605 0 0 0 0 -1075.2697906982066 -1081.3351910862402 0 -1081.3351910862402 -277.59101419348735 0 0 0 0 -511.92673858726721 -1149.8290742136969 0 -1149.8290742136969 -867.79897900536889 0 0 0 0 -392.38805376735218 -710.72209698013285 0 -710.72209698013285 -899.53630797719234 0 0 0 0 246.41780483171897 -443.65402836118301 0 -443.65402836118301 -893.17306537603145 0 0 0 0 1173.9975662552897 -1254.40297877173 0 -1254.40297877173 -1106.0538513645306 0 0 0 0 571.86665951352916 -1351.0739615543935 0 -1351.0739615543935 -696.25137197438744 0 0 0 0 1541.3608975943025 -861.7273033003712 0 -861.7273033003712 -1078.2378973413433 0 0 0 0 1263.9747566143778 -879.56998568680865 0 -879.56998568680865 -1023.3318208357668 0 0 0 0 874.93184640097024 -618.23951476356888 0 -618.23951476356888 -612.6338273493775 0 0 0 0 709.90959625806136 -938.78831109355815 0 -938.78831109355815 -1038.0060766012175 0 0 0 0 767.34984178977902 -873.1202935381516 0 -873.1202935381516 -633.9201565370895 0 0 0 0 1030.0319892742118 -913.55619669298176 0 -913.55619669298176 -996.20204840957012 0 0 0 0 771.96251555450726 -777.60113163337519 0 -777.60113163337519 -646.48376284373808 0 0 0 0 769.77926443585966 -821.77215906865968 0 -821.77215906865968 -11.125977519754088 0 0 0 0 686.04924652082991 -1061.3259263184955 0 -1061.3259263184955 -70.890563520297292 0 0 0 0 252.37019066621906 -521.6716034531928 0 -521.6716034531928 -76.599071339267539 0 0 0 0 392.95745343827002 -596.01615543919615 0 -596.01615543919615 879.4366814462046 0 0 0 0 417.45913963669591 -1010.2875953416587 0 -1010.2875953416587 710.39717819282669 0 0 0 0 548.14618926627736 -1366.445583757537 0 -1366.445583757537 1094.5220572622056 0 0 0 0 1054.4919997699617 -1202.7795021583297 0 -1202.7795021583297 -192.24951259235968 0 0 0 0 697.83314115020039 -1938.5358317164646 0 -1938.5358317164646 1062.999879972398 0 0 0 0 215.26725512197299 -595.10365503370122 0 -595.10365503370122 425.86558362175856 0 0 0 0 45.242612773217843 -716.28217777286773 0 -716.28217777286773 -251.54614278522786 0 0 0 0 -33.543945828067081 -758.05669655629026 0 -758.05669655629026 -1760.0163239376561 0 0 0 0 111.48050932188926 -147.4073569731263 0 -147.4073569731263 -2385.8112822400508 0 0 0 0 302.68689211257515 -846.66502610626776 0 -846.66502610626776 -4289.4879892527824 0 0 0 0 11.963085902218722 -7.7623502830722089 0 -7.7623502830722089 -1.4833667993057418 0 0 0 0 1029.0321395686769 -608.24089338129488 0 -608.24089338129488 2348.5381881678186 0 0 0 0 -666.11700237750483 -2421.2606188894424 0 -2421.2606188894424 6092.8639975292244 0 0 0 0 370.20988960486648 -1691.7492897215961 0 -1691.7492897215961 3046.932438269534 0 0 0 0 44.982991503362854 -24.011939713259153 0 -24.011939713259153 -10.383399881705259 0 0 0 0 647.4511006471439 -656.35721303873288 0 -656.35721303873288 1298.6896965268897 0 0 0 0 44.3847944220106 -180.43941194066429 0 -180.43941194066429 -983.91280015154189 0 0 0 0 83.095478782521866 -22.484915937892907 0 -22.484915937892907 -9.5264220279271257 0 0 0 0 333.52032331860028 -1054.1030559068458 0 -1054.1030559068458 1579.6985615729645 0 0 0 0 104.95872243675694 -119.89186944290122 0 -119.89186944290122 -1103.0648119101534 0 0 0 0 -55.985635713703232 -619.43459677952342 0 -619.43459677952342 -1163.9515985351154 0 0 0 0 -106.76534438999079 -561.54822337257792 0 -561.54822337257792 -1228.5647878682503 0 0 0 0 -75.485289061369258 -864.44920375946822 0 -864.44920375946822 -1193.0992543692555 0 0 0 0 33.70833450995633 -449.11941248832954 0 -449.11941248832954 -851.23341685757623 0 0 0 0 -256.89130044097692 -835.30191807827941 0 -835.30191807827941 -845.30922450176149 0 0 0 0 -173.31821373325511 -741.65918815282566 0 -741.65918815282566 -769.58937822790176 0 0 0 0 -131.71985229506026 -793.74993183199695 0 -793.74993183199695 -987.28515908034751 0 0 0 0 -142.87905122722441 -883.87260633015831 0 -883.87260633015831 -963.31377741247343 0 0 0 0 -162.0773477449402 -864.95970479730022 0 -864.95970479730022 -995.89070145659207 0 0 0 0 115.58742879987403 -833.35041642290889 0 -833.35041642290889 -1614.4480053272746 0 0 0 0 -228.14253296679453 -582.02659604955988 0 -582.02659604955988 -1540.6889011724852 0 0 0 0 -168.90004100332953 -993.33926767967569 0 -993.33926767967569 -1008.0467207236943 0 0 0 0 -136.73664434910825 -961.37684647747665 0 -961.37684647747665 -410.94616809756553 0 0 0 0 192.80500346729241 -754.15773774342961 0 -754.15773774342961 -917.33219264702348 0 0 0 0 -65.250042776213377 -875.15063585823373 0 -875.15063585823373 -1000.662567888121 0 0 0 0 -126.12288034090489 -571.3051631705348 0 -571.3051631705348 -717.03303097514436 0 0 0 0 -106.32265095885668 -451.82783403992653 0 -451.82783403992653 -140.16337397698953 0 0 0 0 -1.8842850989603903 -668.02490877313539 0 -668.02490877313539 -56.011131130333524 0 0 0 0 -1.0596062265394721 -585.60212175209017 0 -585.60212175209017 -472.06199716006813 0 0 0 0 11.66912231722381 -57.427746065055544 0 -57.427746065055544 -253.30726274853805 0 0 0 0 25.95376191016112 -123.75462044211599 0 -123.75462044211599 257.66751323824428 0 0 0 0 -20.372683569072251 -310.50766109242977 0 -310.50766109242977 -495.00977926270571 0 0 0 0 -34.403324623344815 -227.23114018368506 0 -227.23114018368506 -439.00308685064374 0 0 0 0 27.559705433843192 15.534602124847879 0 15.534602124847879 -548.40953726849693 0 0 0 0 -9.9112604481051676 -152.64079154290994 0 -152.64079154290994 -673.09289359411923 0 0 0 0 168.37738092163636 -3.190309893223457 0 -3.190309893223457 -627.11933652970765 0 0 0 0 -88.157351662994188 -202.04545605083695 0 -202.04545605083695 -929.51551711676439 0 0 0 0 26.038580102118431 -34.116883515765949 0 -34.116883515765949 -731.78478003306373 0 0 0 0 -69.991251729290525 -361.36721432846389 0 -361.36721432846389 -922.90805471388012 0 0 0 0 -84.406932195513946 -420.85807925617337 0 -420.85807925617337 -765.68326098905527 0 0 0 0 -170.53380217518861 -184.00225311230315 0 -184.00225311230315 -911.89503467997565 0 0 0 0 -104.75305882545217 -534.57484633653621 0 -534.57484633653621 -1391.8025744871411 0 0 0 0 -135.20338946913398 -726.34425231657224 0 -726.34425231657224 -1044.0710887167588 0 0 0 0 -106.7386698778937 -618.14574525121861 0 -618.14574525121861 -632.8548697946826 0 0 0 0 -152.87193609755923 -913.79491774124472 0 -913.79491774124472 -792.20834138710052 0 0 0 0 -216.73139699320018 -871.24804201249935 0 -871.24804201249935 -1155.0744845456211 0 0 0 0 -138.05704678826442 -859.68213307796395 0 -859.68213307796395 -897.88568753092841 0 0 0 0 -198.56011583613144 -775.50091514206724 0 -775.50091514206724 -862.31204940578027 0 0 0 0 -328.09322694262664 -850.22532035237236 0 -850.22532035237236 -1119.6091716836672 0 0 0 0 -362.24888516926148 -850.24784592335345 0 -850.24784592335345 -855.06268213387375 0 0 0 0 -489.43596177574364 -708.67803982454643 0 -708.67803982454643 -982.88355900503666 0 0 0 0 -583.16532813324739 -796.01339258324879 0 -796.01339258324879 -646.33775995561155 0 0 0 0 -948.81761473162624 -992.80740576538665 0 -992.80740576538665 -1101.5388855941528 0 0 0 0 -496.01686138390869 -912.07777006533797 0 -912.07777006533797 -1930.684927844748 0 0 0 0 -241.08202447457006 -729.61035503147286 0 -729.61035503147286 -1590.7618650309887 0 0 0 0 -228.45746901114035 -633.02660761470906 0 -633.02660761470906 -1027.5743708884766 0 0 0 0 -527.36429696751657 -789.77618622949376 0 -789.77618622949376 -1076.3034019648621 0 0 0 0 -151.8910378687433 -260.37812978612783 0 -260.37812978612783 -1628.6473909534834 0 0 0 0 -549.71531892991334 -562.20732455526013 0 -562.20732455526013 -1301.7289259882818 0 0 0 0 -80.791851394210241 -150.34382018570108 0 -150.34382018570108 -22.165797206021352 0 0 0 0 -1261.7554208466972 -186.69917260982766 0 -186.69917260982766 -1475.9326253359613 0 0 0 0 -565.1630635161921 -259.40741361535493 0 -259.40741361535493 -1978.4554836790339 0 0 0 0 -504.86213075645355 -511.76493902185757 0 -511.76493902185757 -1588.7976954986225 0 0 0 0 -374.82720553600666 264.69613563108578 0 264.69613563108578 -1137.0203314497085 0 0 0 0 -747.09207627744763 -795.08297118500923 0 -795.08297118500923 -1226.4334293893426 0 0 0 0 -2489.6045816689875 -1097.5062424558782 0 -1097.5062424558782 -1166.6998181000235 0 0 0 0 -317.54967883384961 216.19993538505514 0 216.19993538505514 -1843.1944962028574 0 0 0 0 539.89618620542751 -1034.6483104974686 0 -1034.6483104974686 -1947.0920515571015 0 0 0 0 -329.1212505088115 525.37880952570413 0 525.37880952570413 -4565.6636711317406 0 0 0 0 -511.2729196380169 432.88408824128419 0 432.88408824128419 -2999.917686878427 0 0 0 0 -1032.1883289997204 417.57284205268661 0 417.57284205268661 -1063.2922981918528 0 0 0 0 -12.028907621014923 1.0930377241098199 0 1.0930377241098199 -36.89548401925606 0 0 0 0 -67.005795185880174 -150.4969375939913 0 -150.4969375939913 -14.710833215424259 0 0 0 0 -2267.0149425072887 -2394.7885190349843 0 -2394.7885190349843 -1025.7588175609126 0 0 0 0 -102.34098028301378 -647.27992678654846 0 -647.27992678654846 -1181.2966318151448 0 0 0 0 -1078.9220718143042 -692.95699096192402 0 -692.95699096192402 -814.21174525734386 0 0 0 0 -81.673054008246339 -8.2493121038731374 0 -8.2493121038731374 -86.594145387774006 0 0 0 0 -546.36330015223939 -450.12230387150339 0 -450.12230387150339 -354.13570050848648 0 0 0 0 -745.21387083364243 -395.72083538048901 0 -395.72083538048901 -562.26281312876381 0 0 0 0 -1100.7218323073466 -412.07936718577548 0 -412.07936718577548 36.404571989172837 0 0 0 0 -867.83460694534006 -845.11978330901184 0 -845.11978330901184 -310.14950960674469 0 0 0 0 -1025.1097242977412 -723.51572655437485 0 -723.51572655437485 -357.11712703775265 0 0 0 0 -1093.7571698447573 -787.83195555901329 0 -787.83195555901329 -387.88891100646288 0 0 0 0 -973.1557727776526 -872.84641402938723 0 -872.84641402938723 -335.86339463942568 0 0 0 0 -1232.1031702849232 -643.33328222932414 0 -643.33328222932414 -350.2819428795483 0 0 0 0 -1208.2425844975842 -805.18369852071828 0 -805.18369852071828 -258.69760255180881 0 0 0 0 72.943546982520388 -106.485284897415 0 -106.485284897415 -136.80787854156705 0 0 0 0 -1532.4152585542906 -813.39351853038534 0 -813.39351853038534 -341.99787496812496 0 0 0 0 -1053.9698818597026 -715.76740664818317 0 -715.76740664818317 -370.00282031524694 0 0 0 0 -34.557946290951804 -459.07968381306273 0 -459.07968381306273 -603.61519172668341 0 0 0 0 -1107.1253263840626 -688.48720707027678 0 -688.48720707027678 -381.6718270486308 0 0 0 0 47.080754483162309 -120.13782313371445 0 -120.13782313371445 -106.24140197100053 0 0 0 0 -487.92611887874591 -571.76241066023795 0 -571.76241066023795 -255.21100118075265 0 0 0 0 -261.12196871422202 -536.35180893039797 0 -536.35180893039797 -591.33601416748206 0 0 0 0 -191.65285631197185 -761.98526043179299 0 -761.98526043179299 -816.25313013436971 0 0 0 0 94.953058149440039 -190.221713459905 0 -190.221713459905 -452.13395596266128 0 0 0 0 -40.559977403208904 -178.06916998319502 0 -178.06916998319502 -277.12378471058037 0 0 0 0 92.781426557399755 -12.250261937986579 0 -12.250261937986579 -509.5110410337802 0 0 0 0 -52.414907656282594 -420.45115815158351 0 -420.45115815158351 -802.36477077641757 0 0 0 0 115.7318058655801 -61.882822067411325 0 -61.882822067411325 -437.70099486858817 0 0 0 0 134.3007390929281 -35.889462205575171 0 -35.889462205575171 -43.778019999334518 0 0 0 0 81.326976181701781 -106.03968892601125 0 -106.03968892601125 -179.34982889526015 0 0 0 0 289.76100332328497 61.205524427379714 0 61.205524427379714 -531.10330700806662 0 0 0 0 -1899.4427850229913 -694.57096280333826 0 -694.57096280333826 -428.20789954649808 0 0 0 0 -1516.2720510802174 -668.49307608136587 0 -668.49307608136587 -594.80917222793505 0 0 0 0 -774.68419075859128 -584.50652501922013 0 -584.50652501922013 -150.1388020390732 0 0 0 0 -2.4092302750622139 -34.839288721538196 0 -34.839288721538196 -30.695064504292617 0 0 0 0 -1491.6818212110666 -608.16680938562422 0 -608.16680938562422 -474.15278165602649 0 0 0 0 -1192.0605396872343 -826.3913433061316 0 -826.3913433061316 -463.46067723305896 0 0 0 0 -1442.9109842779289 -547.94806763603265 0 -547.94806763603265 -507.7255798271035 0 0 0 0 -540.42347855056869 -742.06843375773315 0 -742.06843375773315 -162.23442615696695 0 0 0 0 -537.2394431096036 -480.35542596240703 0 -480.35542596240703 -520.37130987873024 0 0 0 0 -458.92885286681121 -579.88961948647921 0 -579.88961948647921 -481.32621377881151 0 0 0 0 -4.6186913436115447 1.2106393329909224 0 1.2106393329909224 11.50109127210726 0 0 0 0 -968.31329328578431 -570.33741956574522 0 -570.33741956574522 -247.51762126268295 0 0 0 0 -569.35309286281699 -641.31409104332852 0 -641.31409104332852 -443.66746007077381 0 0 0 0 -679.72231789218495 -395.29922758483372 0 -395.29922758483372 -81.63806402766204 0 0 0 0 -26.53108531338512 22.580258518428309 0 22.580258518428309 492.24036838389293 0 0 0 0 -545.41949668340021 -845.69325230112781 0 -845.69325230112781 -687.38922120188363 0 0 0 0 -0.34061076656553269 -0.9496433370850923 0 -0.9496433370850923 0.58956879545669949 0 0 0 0 -69.916853586561047 1.7317794344926369 0 1.7317794344926369 122.62378861939942 0 0 0 0 -27.955663381077102 -4.6266779738407422 0 -4.6266779738407422 87.716551379417069 0 0 0 0 -83.164954518259037 -15.24827698442823 0 -15.24827698442823 105.94557941110543 0 0 0 0 -30.164496178495142 -53.193839765534989 0 -53.193839765534989 44.569701395291702 0 0 0 0 71.389521705248626 -132.33200741720066 0 -132.33200741720066 14.147135306113341 0 0 0 0 35.76420138143294 -132.61323833294955 0 -132.61323833294955 15.45392991740664 0 0 0 0 -18.240204163984458 -7.5833458598309562 0 -7.5833458598309562 16.117798736517585 0 0 0 0 -68.782357202842832 -35.383985323111119 0 -35.383985323111119 71.644386169362406 0 0 0 0 -432.13073491715477 -256.38129503782693 0 -256.38129503782693 -148.64940705912886 0 0 0 0 4.1462972019696736 -5.6330451617336337 0 -5.6330451617336337 3.611748301731609 0 0 0 0 -533.85653353840462 -516.1541497365979 0 -516.1541497365979 -227.90196595519956 0 0 0 0 -499.83966226957273 -531.53973189849057 0 -531.53973189849057 -160.59192799718494 0 0 0 0 -727.55227202665992 -440.68733086173597 0 -440.68733086173597 -70.755537755831028 0 0 0 0 -297.29583789547905 -434.82727128447004 0 -434.82727128447004 -222.17266687509255 0 0 0 0 -495.38076822806033 -358.34437455333682 0 -358.34437455333682 -123.30645513130003 0 0 0 0 -329.95639474596192 -81.895055816466538 0 -81.895055816466538 21.282701625619666 0 0 0 0 85.01593491225259 -52.987030300376603 0 -52.987030300376603 17.87452972357454 0 0 0 0 17.83269522790215 -113.24388018016907 0 -113.24388018016907 -78.255035401962232 0 0 0 0 -285.72921666393813 -358.56606125120015 0 -358.56606125120015 -86.425931451798533 0 0 0 0 -534.99118889008241 -183.67906163833686 0 -183.67906163833686 -165.87439802614972 0 0 0 0 -938.30350573910982 -513.35052742881089 0 -513.35052742881089 -75.524700282006961 0 0 0 0 -716.25902342054178 -717.89689970484324 0 -717.89689970484324 -505.49750264445902 0 0 0 0 -737.19301638343859 -572.4938833714541 0 -572.4938833714541 -77.433699699977296 0 0 0 0 -700.1667229274608 -490.45377180661308 0 -490.45377180661308 -191.71396710331464 0 0 0 0 -981.10148833561107 -921.97359729917662 0 -921.97359729917662 -233.39238696662733 0 0 0 0 -595.41551291246651 -840.8977288459937 0 -840.8977288459937 -437.1100874657277 0 0 0 0 -928.75181650472223 -781.65212032265845 0 -781.65212032265845 -444.64644953746392 0 0 0 0 -898.71585960668745 -739.87704069499159 0 -739.87704069499159 -433.84814337919306 0 0 0 0 -964.3900374363875 -673.19234478975341 0 -673.19234478975341 -635.67441263236105 0 0 0 0 -858.13616081268992 -421.02809901711589 0 -421.02809901711589 -1124.6156455798555 0 0 0 0 -850.58094590296969 -565.79267032336793 0 -565.79267032336793 -595.43142399670614 0 0 0 0 -1170.7994152969586 17.552907734850123 0 17.552907734850123 -1265.6994419664552 0 0 0 0 -749.18723803227476 -760.62868427071589 0 -760.62868427071589 -836.93013428115228 0 0 0 0 -851.51404287543846 -682.757485671209 0 -682.757485671209 -514.36384756066764 0 0 0 0 -509.78386288664478 -721.81610339982581 0 -721.81610339982581 -1979.7507051307766 0 0 0 0 -513.49767108005472 -636.93660443671615 0 -636.93660443671615 -1361.7341894685524 0 0 0 0 -11.267246163595701 -602.56430595104757 0 -602.56430595104757 -1989.7502751334396 0 0 0 0 -493.94269439614436 -329.19634900185338 0 -329.19634900185338 -1569.3411525297997 0 0 0 0 -488.82620930913254 -344.30588878799608 0 -344.30588878799608 -1830.9436477623094 0 0 0 0 -387.46231336148048 -741.99576565642928 0 -741.99576565642928 -1576.1304416809144 0 0 0 0 -616.4040520839626 -1369.1838518274817 0 -1369.1838518274817 -3155.267361969165 0 0 0 0 -225.24180448145489 -375.7870273372173 0 -375.7870273372173 -2218.2310710934835 0 0 0 0 -211.5152235594287 -632.33543340170581 0 -632.33543340170581 -2153.9456130649451 0 0 0 0 -221.83192182946368 -411.24257847540139 0 -411.24257847540139 -1412.2416043704143 0 0 0 0 -387.44292708266585 -677.62786170967593 0 -677.62786170967593 -1311.0529325571551 0 0 0 0 -493.90322985663079 -684.3530407050639 0 -684.3530407050639 -934.51843182058656 0 0 0 0 -490.20153472502716 -878.76207850163337 0 -878.76207850163337 -1612.575756129263 0 0 0 0 132.27656733049662 -662.73899503088614 0 -662.73899503088614 -794.64804234800977 0 0 0 0 -131.31154805310507 -983.61378214067372 0 -983.61378214067372 -1079.6845611404569 0 0 0 0 -90.130172410899831 -1068.5686659661696 0 -1068.5686659661696 -264.62050378601998 0 0 0 0 -199.68936166074127 -1135.492667647588 0 -1135.492667647588 -259.89326316567895 0 0 0 0 293.55334203812527 -786.77748554495338 0 -786.77748554495338 -942.34408681248897 0 0 0 0 -274.02706863597268 -345.5309911507502 0 -345.5309911507502 -724.03351541147276 0 0 0 0 -524.02950765879359 -264.38558825178188 0 -264.38558825178188 -1061.2710444190707 0 0 0 0 -105.92461800921592 -465.70942098348314 0 -465.70942098348314 -1948.1492959939933 0 0 0 0 -28.251478143414715 -731.29849056097737 0 -731.29849056097737 -2746.7659493519604 0 0 0 0 -41.439414063032018 -154.39598310666042 0 -154.39598310666042 -2182.3791565916254 0 0 0 0 -22.111645976944601 -415.00704797932804 0 -415.00704797932804 -3668.0466040878964 0 0 0 0 -1198.0941601574596 235.32212440863805 0 235.32212440863805 -1575.9525958828708 0 0 0 0 -30.224859327616286 -2719.8932484844972 0 -2719.8932484844972 -3262.6830439658079 0 0 0 0 -610.44821484290878 -1903.2327080093455 0 -1903.2327080093455 -3523.6187330918119 0 0 0 0 -2451.869809568474 -1385.9956616296804 0 -1385.9956616296804 -392.25175831907836 0 0 0 0 -538.30417243363627 -880.43334284453886 0 -880.43334284453886 -1294.1108668214583 0 0 0 0 -451.83238129326492 -1371.0112868833603 0 -1371.0112868833603 -2040.8452936343674 0 0 0 0 -806.73419650190044 -1019.3417938983839 0 -1019.3417938983839 -1215.9296250632106 0 0 0 0 -1334.5306723593967 -658.49386222637258 0 -658.49386222637258 -189.32055879537165 0 0 0 0 -455.2934163409227 30.956874739313207 0 30.956874739313207 -65.204721853719093 0 0 0 0 84.337120796422823 -282.55248717774884 0 -282.55248717774884 -168.20716099334823 0 0 0 0 -18.681647119299498 -40.377002533562703 0 -40.377002533562703 -30.37177831002839 0 0 0 0 272.85292968474096 -825.60537967443815 0 -825.60537967443815 1666.7981103817674 0 0 0 0 -291.07559921874781 -1255.4061278230583 0 -1255.4061278230583 -1002.464309732386 0 0 0 0 -723.33428549402743 -462.16907793006976 0 -462.16907793006976 1724.3832438307072 0 0 0 0 -1488.0245777744567 -1401.5124526040017 0 -1401.5124526040017 -947.37922125022305 0 0 0 0 1013.7767533862789 -2451.5926926551329 0 -2451.5926926551329 -3465.1127130911045 0 0 0 0 -11.901454032012225 -14.525605284934073 0 -14.525605284934073 -18.847311047618149 0 0 0 0 1444.8354685705854 -817.98524416424698 0 -817.98524416424698 -2720.7329816595739 0 0 0 0 -3591.2982378618326 -4872.5880565434636 0 -4872.5880565434636 -4528.5724092698656 0 0 0 0 2811.0938590786827 945.65360824362142 0 945.65360824362142 -444.49708635616116 0 0 0 0 681.79196047715959 -2789.5144447827697 0 -2789.5144447827697 -5500.1790950090071 0 0 0 0 0.8938374170612633 -4.9379114532319477 0 -4.9379114532319477 -20.804985977608624 0 0 0 0 3011.0790895664541 -157.63114345143549 0 -157.63114345143549 -1469.1195513774874 0 0 0 0 -2363.9108152436092 -5010.9349204240571 0 -5010.9349204240571 -5019.2291370359198 0 0 0 0 -158.54839783807984 -1442.2193078075215 0 -1442.2193078075215 -3170.3407591177674 0 0 0 0 -2356.3598889803106 -1907.3536569751013 0 -1907.3536569751013 -2902.5178286297014 0 0 0 0 -2806.4350561276078 -3306.8640119938646 0 -3306.8640119938646 -4167.2123288222429 0 0 0 0 -1379.9676193147898 -2337.0509392100503 0 -2337.0509392100503 -3880.5343641062209 0 0 0 0 -1593.3678806318785 -2853.6154646893119 0 -2853.6154646893119 -5775.5435688878642 0 0 0 0 -83.381772658671252 -76.425909987898194 0 -76.425909987898194 -36.100054840895609 0 0 0 0 -3049.2057437535768 -750.52071683959002 0 -750.52071683959002 -2412.5897166412906 0 0 0 0 14.146103838691488 -22.440672110387823 0 -22.440672110387823 -17.941254616831429 0 0 0 0 14.456975881464189 -22.746878197636249 0 -22.746878197636249 -60.201703782990876 0 0 0 0 0.032346222733053764 -28.04522868733153 0 -28.04522868733153 -23.656777029895437 0 0 0 0 -3299.69405168716 -1527.4763606377965 0 -1527.4763606377965 -3564.4494177804154 0 0 0 0 -5020.7680887022871 -4126.4215901801654 0 -4126.4215901801654 -1550.2009035847732 0 0 0 0 -3126.335554981546 -3868.9884479823377 0 -3868.9884479823377 -5154.2396724583814 0 0 0 0 -1745.8529294828768 -3286.4398660763982 0 -3286.4398660763982 -6849.8704306604923 0 0 0 0 -2.1082301259828 -6.5837446080082387 0 -6.5837446080082387 -0.76396393764110826 0 0 0 0 -2162.7036273897393 -1587.1774377887486 0 -1587.1774377887486 -1307.0748224738345 0 0 0 0 2.8332426594403728 -40.139029190232733 0 -40.139029190232733 -16.778627567468078 0 0 0 0 954.37034238397609 -905.01113324949984 0 -905.01113324949984 229.86204666588765 0 0 0 0 735.60316933792637 -216.97642437459035 0 -216.97642437459035 133.37867274512246 0 0 0 0 793.20225003705127 -1271.2622578092996 0 -1271.2622578092996 -385.58528821073924 0 0 0 0 1559.6249183524633 -1229.1074710410176 0 -1229.1074710410176 -1317.1243564818869 0 0 0 0 1725.052663102746 99.525930492469342 0 99.525930492469342 234.61755605877261 0 0 0 0 -398.14866340913431 -1377.3200373739073 0 -1377.3200373739073 -2033.3275958558952 0 0 0 0 0.71729617592063732 -1153.3830798814852 0 -1153.3830798814852 -2557.7321259757591 0 0 0 0 -379.45219845607062 -1457.0931642530704 0 -1457.0931642530704 -2248.5316635645577 0 0 0 0 -1271.322084488158 -2261.504293860271 0 -2261.504293860271 -2967.1016077663517 0 0 0 0 -765.10896628693445 -1654.6790999889145 0 -1654.6790999889145 -2895.2433218192455 0 0 0 0 -804.01877491699997 -1956.0227456592984 0 -1956.0227456592984 -4645.9354235429055 0 0 0 0 143.8237346012902 -1420.4917149773464 0 -1420.4917149773464 -3485.5337937240256 0 0 0 0 -532.38259685377125 -1648.7448954590072 0 -1648.7448954590072 -3781.3970443103171 0 0 0 0 -771.92949662770843 -1237.2656767541339 0 -1237.2656767541339 -2642.5040031576646 0 0 0 0 629.37559724014136 -1001.924654281851 0 -1001.924654281851 -2690.1497448795471 0 0 0 0 656.13056808017427 15.572195017426566 0 15.572195017426566 -1996.8459070594054 0 0 0 0 24.985805640997569 -915.91709668303065 0 -915.91709668303065 -2136.7698241544131 0 0 0 0 0.30936381510400679 -890.07102842128734 0 -890.07102842128734 -444.19026400316216 0 0 0 0 790.04491501270468 684.32043665511083 0 684.32043665511083 1647.2665975874843 0 0 0 0 725.7028441784787 -1565.0310516315294 0 -1565.0310516315294 608.94110840657959 0 0 0 0 757.63781209883746 -644.03325041450444 0 -644.03325041450444 -1189.2876615768764 0 0 0 0 -444.21337391236739 -276.85040635241785 0 -276.85040635241785 1002.6437336021918 0 0 0 0 -713.46279280033923 -1060.9242848054746 0 -1060.9242848054746 -1232.8844571222871 0 0 0 0 11.917314319566685 -17.074453535328018 0 -17.074453535328018 5.8581880600498835 0 0 0 0 -472.51047156486311 -1294.1545669946936 0 -1294.1545669946936 2621.0904580901552 0 0 0 0 -280.24993802467361 350.71275616811909 0 350.71275616811909 2957.9295619555141 0 0 0 0 450.40561901667388 -1169.381608254429 0 -1169.381608254429 2016.6948124370283 0 0 0 0 -0.0026678831647680714 -297.05832621052627 0 -297.05832621052627 642.83165920630563 0 0 0 0 0.19401379990449641 -200.43531249387161 0 -200.43531249387161 -21.490637751558097 0 0 0 0 138.08520782907726 -503.71614732416492 0 -503.71614732416492 417.26179520161531 0 0 0 0 47.718669798050541 -81.721293424139731 0 -81.721293424139731 -2.1325999438922736 0 0 0 0 -6.6605877913373774 -2.0839433754119909 0 -2.0839433754119909 2.3493829542336471 0 0 0 0 417.79134698343114 -197.55722735246673 0 -197.55722735246673 -64.515511353365582 0 0 0 0 478.95973228094772 -163.04641984664374 0 -163.04641984664374 19.002340719031054 0 0 0 0 67.67670884465042 105.53596210152682 0 105.53596210152682 55.86999003427627 0 0 0 0 2.6932306489836719 -12.914148051531612 0 -12.914148051531612 1.383640840167061 0 0 0 0 54.280765556555707 62.214622133134981 0 62.214622133134981 -92.767230903982636 0 0 0 0 72.958538598199311 -37.903943015464961 0 -37.903943015464961 2.9907025254965447 0 0 0 0 97.699961179168895 -72.073134944628691 0 -72.073134944628691 -68.990672608102614 0 0 0 0 63.279984947526827 -48.133083359636657 0 -48.133083359636657 -50.1843471473112 0 0 0 0 91.233142939920072 -47.369980950643367 0 -47.369980950643367 -74.048440424594446 0 0 0 0 55.702029949767166 -22.68120780481695 0 -22.68120780481695 -84.103149623188074 0 0 0 0 84.687433412138489 -56.709293529675051 0 -56.709293529675051 -87.101261746807722 0 0 0 0 86.829848828230752 -216.94640684276237 0 -216.94640684276237 144.52556517758057 0 0 0 0 184.10521903302288 -157.23918821655388 0 -157.23918821655388 -94.321878386405388 0 0 0 0 48.280123989476124 -156.9474053914455 0 -156.9474053914455 140.73112223374483 0 0 0 0 60.754782766336575 -236.36423710707459 0 -236.36423710707459 -210.95424420936615 0 0 0 0 2.324097489414271 -144.67321270880348 0 -144.67321270880348 -72.865845354215708 0 0 0 0 -118.36447568581207 -246.51368384560919 0 -246.51368384560919 151.5482184618013 0 0 0 0 -0.029115821511368267 -227.94106478476897 0 -227.94106478476897 -91.382071701416862 0 0 0 0 -156.88467145655886 -253.42890695029928 0 -253.42890695029928 -135.28383359565487 0 0 0 0 78.080971199669875 -294.27298071811674 0 -294.27298071811674 -517.23539866154897 0 0 0 0 -135.45185173786012 -28.114837130415253 0 -28.114837130415253 -331.41739042158588 0 0 0 0 31.791668125100841 88.401573459432257 0 88.401573459432257 -375.12307767465245 0 0 0 0 -3.8223164706432726 -297.29839260636072 0 -297.29839260636072 -254.8810196131235 0 0 0 0 77.826781233161455 38.541202525771951 0 38.541202525771951 459.31066123881828 0 0 0 0 -192.17798277371912 -325.42810308859771 0 -325.42810308859771 246.16368977065576 0 0 0 0 0.13661383365979418 -468.67323689867408 0 -468.67323689867408 484.7336236110641 0 0 0 0 225.88453312833735 -130.81411252970429 0 -130.81411252970429 -224.87761310852147 0 0 0 0 -236.39115927624516 -224.72103050573787 0 -224.72103050573787 -242.58316438273232 0 0 0 0 -230.16486299657845 -246.10380069010353 0 -246.10380069010353 -440.90338303570388 0 0 0 0 -27.267467036668677 -352.09369946130755 0 -352.09369946130755 -426.84290339386916 0 0 0 0 -150.14531103562331 -316.23643613029344 0 -316.23643613029344 -697.41953193885274 0 0 0 0 30.944821531913476 14.819749338272231 0 14.819749338272231 -98.834656906365126 0 0 0 0 -347.07456230703974 -604.23546866600009 0 -604.23546866600009 -749.35018070232036 0 0 0 0 3.748762803137538 -1.1234728391403905 0 -1.1234728391403905 -9.522781505549986 0 0 0 0 -202.47790824441472 -405.1833048806584 0 -405.1833048806584 -259.79994753531355 0 0 0 0 -252.55291224917164 -216.31540932642383 0 -216.31540932642383 -444.38991665324284 0 0 0 0 -181.54341088823276 -316.13920948062878 0 -316.13920948062878 -211.50531035251333 0 0 0 0 -299.4051801414098 -438.71125914509594 0 -438.71125914509594 -309.1144933081232 0 0 0 0 -166.41162921945579 -384.59367095910784 0 -384.59367095910784 -150.37070977428812 0 0 0 0 -188.08053695283888 -196.54975309683005 0 -196.54975309683005 42.848262491563219 0 0 0 0 -147.93205323867733 -337.64332549564642 0 -337.64332549564642 219.6327571386646 0 0 0 0 -265.1819831103785 -229.5942528576561 0 -229.5942528576561 284.71404793605325 0 0 0 0 -246.21844107558718 -214.68495233573412 0 -214.68495233573412 67.307705809340405 0 0 0 0 -20.312043467594776 -145.57343794705594 0 -145.57343794705594 65.585506417521742 0 0 0 0 -55.435012876536348 -255.7264819919219 0 -255.7264819919219 562.68596771034936 0 0 0 0 -237.7485125073872 -62.974583397985043 0 -62.974583397985043 1022.6111724656876 0 0 0 0 -7.8388425283110337 -305.56502147090373 0 -305.56502147090373 306.82561693659227 0 0 0 0 -22.27854128240142 -6.8206658869130479 0 -6.8206658869130479 565.21215981661953 0 0 0 0 -88.768159886141802 -455.14331517483788 0 -455.14331517483788 -2307.9928808034165 0 0 0 0 -10.091182484074466 -2.8607234719908696 0 -2.8607234719908696 22.524864417661476 0 0 0 0 -127.09958637823001 -762.92256717573764 0 -762.92256717573764 -4771.0731491021143 0 0 0 0 -21.959531846637333 -19.925284363567272 0 -19.925284363567272 9.3167374388997075 0 0 0 0 -1337.5524056027934 -1730.4727210328347 0 -1730.4727210328347 -2138.2391178936778 0 0 0 0 -794.35882437045802 -1108.4312970766114 0 -1108.4312970766114 -3402.6236561947626 0 0 0 0 -278.44545430963626 -1708.5005132134174 0 -1708.5005132134174 -5412.8664595617593 0 0 0 0 630.82162375492044 -1277.5686238561357 0 -1277.5686238561357 -5215.4766152065167 0 0 0 0 -8.9497467145758947 -6.1471127133925165 0 -6.1471127133925165 -1.6564757314490706 0 0 0 0 -226.51916202934081 24.050761439386406 0 24.050761439386406 1573.2067664251081 0 0 0 0 -0.65054240053282253 -1333.9792860529958 0 -1333.9792860529958 -1631.4734480521438 0 0 0 0 1708.4973877962329 -1570.9326171218272 0 -1570.9326171218272 -5167.1137526439561 0 0 0 0 788.42324101587292 -416.94908992487035 0 -416.94908992487035 -1317.7993957309664 0 0 0 0 4.5735402206522053 -8.4957378497539935 0 -8.4957378497539935 -14.664249496173625 0 0 0 0 2485.7563297604356 166.85701454873015 0 166.85701454873015 -1404.1629372284515 0 0 0 0 -2140.1432229479542 -2241.956147736877 0 -2241.956147736877 -2950.1636997125461 0 0 0 0 829.91933067530044 2.6035368115699384 0 2.6035368115699384 360.07054832807626 0 0 0 0 386.6279733123738 -317.98361291878246 0 -317.98361291878246 285.44667461242352 0 0 0 0 236.87017209123587 -541.29373116754869 0 -541.29373116754869 192.62458326745946 0 0 0 0 183.45073722209781 -938.39905762470153 0 -938.39905762470153 -120.72331867756293 0 0 0 0 0.4045619172975421 -676.13249017429189 0 -676.13249017429189 556.08222729194677 0 0 0 0 261.29998565561255 -658.80770190096518 0 -658.80770190096518 559.16570808060351 0 0 0 0 -232.55267469829414 -1249.4831111030799 0 -1249.4831111030799 73.9136834687597 0 0 0 0 4.7707212399864147 -3.3523373142797368 0 -3.3523373142797368 0.6039042029182724 0 0 0 0 -337.06998999369534 -887.29034509069425 0 -887.29034509069425 -962.95060691538674 0 0 0 0 -0.67990635754540563 -878.37909203546951 0 -878.37909203546951 -1237.7854310969196 0 0 0 0 13.448303070443217 -334.07788904143672 0 -334.07788904143672 485.70872906921431 0 0 0 0 -39.803664483519242 62.320171338803902 0 62.320171338803902 -46.246898987461464 0 0 0 0 -1598.3676683953381 -1460.0767105850391 0 -1460.0767105850391 -1555.5882144125935 0 0 0 0 -642.63822029301082 -876.55836100169836 0 -876.55836100169836 -923.49708025231666 0 0 0 0 -1487.4456335999712 -1695.0702168808712 0 -1695.0702168808712 -1716.4714813668688 0 0 0 0 -143.77047277375823 -1227.5575864678103 0 -1227.5575864678103 -1999.5556912936008 0 0 0 0 -9.4548543946889936 -47.598810483208368 0 -47.598810483208368 -70.787089803385101 0 0 0 0 -77.468736839160556 -303.92411042648018 0 -303.92411042648018 -246.94075113050349 0 0 0 0 -428.84230676735751 -468.12710198765853 0 -468.12710198765853 -202.66266503559928 0 0 0 0 4.9210550585683279 -26.140603714870679 0 -26.140603714870679 -7.4709853654263441 0 0 0 0 -55.660954510763986 -25.702418730317731 0 -25.702418730317731 -161.64281875158485 0 0 0 0 42.883302351088787 -28.516222808912062 0 -28.516222808912062 -182.77762456006894 0 0 0 0 -2.5792278447482317 -13.312804631445374 0 -13.312804631445374 5.8975948798172055 0 0 0 0 -352.91033113366211 -25.025552268248248 0 -25.025552268248248 140.69549400648975 0 0 0 0 -735.16049987645238 -357.93691601146566 0 -357.93691601146566 170.30378519372744 0 0 0 0 -717.67442404711619 -495.78744855210971 0 -495.78744855210971 19.27586189979047 0 0 0 0 -626.92584475700278 -590.9401255066623 0 -590.9401255066623 -270.60980674625898 0 0 0 0 -631.22946162997687 -574.61232971878417 0 -574.61232971878417 -204.7785072093975 0 0 0 0 -1118.0654315867578 -1150.7744044504434 0 -1150.7744044504434 -995.87497391775105 0 0 0 0 -928.09839891767479 -761.78652033120852 0 -761.78652033120852 -290.39737317683466 0 0 0 0 -791.06480911694234 -494.18375989621563 0 -494.18375989621563 -323.51779948244803 0 0 0 0 -282.54748217664019 -114.64540356824364 0 -114.64540356824364 -337.00524993939325 0 0 0 0 9.0494801383283914 -12.780624703368801 0 -12.780624703368801 -19.334256164348943 0 0 0 0 -1430.6686930703872 -103.32756264305499 0 -103.32756264305499 298.5976498674936 0 0 0 0 -1984.008654306992 -1695.575225084709 0 -1695.575225084709 -1089.1387431126932 0 0 0 0 -1512.200661113824 -1877.7832828805203 0 -1877.7832828805203 -2217.8174207434204 0 0 0 0 -1371.4723005850683 -1072.491248462793 0 -1072.491248462793 -3326.7304858448551 0 0 0 0 -532.10122940918518 -1138.4403456396849 0 -1138.4403456396849 -2107.4405455466331 0 0 0 0 -829.52860560719273 -751.70341342979373 0 -751.70341342979373 -1513.3843696267068 0 0 0 0 -379.61268529394874 -556.71488601775127 0 -556.71488601775127 -1142.5971608383697 0 0 0 0 64.730721438478213 -638.14302940631023 0 -638.14302940631023 -2314.3695841702502 0 0 0 0 -102.18601829450927 -304.10517095145042 0 -304.10517095145042 -1944.7495296866764 0 0 0 0 -115.17708159424365 -559.82933246747416 0 -559.82933246747416 -1801.368242328841 0 0 0 0 -36.526414407603625 -51.209151779728458 0 -51.209151779728458 -50.297271334275962 0 0 0 0 -338.67174827298732 54.703248207548313 0 54.703248207548313 -592.75546444867359 0 0 0 0 -342.9694792066457 -783.25081713747704 0 -783.25081713747704 -285.40198830479494 0 0 0 0 -384.66953805374214 -409.12910351663231 0 -409.12910351663231 -491.25742308960616 0 0 0 0 -506.59231194664608 -788.62067535975075 0 -788.62067535975075 -1103.9841067308207 0 0 0 0 -29.995530668669403 -57.264395178226735 0 -57.264395178226735 -66.312403495935797 0 0 0 0 2518.5600551787938 -1828.5543208802992 0 -1828.5543208802992 164.68849583082192 0 0 0 0 -733.4333852989439 -732.02601269591651 0 -732.02601269591651 22.355775531832478 0 0 0 0 -1390.5242444632167 -5051.5813867074321 0 -5051.5813867074321 1974.9176906330104 0 0 0 0 -1732.5613051776891 -1121.6379248404992 0 -1121.6379248404992 386.24786134745227 0 0 0 0 -121.74716839275789 223.46367474246654 0 223.46367474246654 1185.1799166521578 0 0 0 0 477.14768518574783 -306.20604331216964 0 -306.20604331216964 -194.6060192577861 0 0 0 0 101.02600936227827 -1510.8727048461878 0 -1510.8727048461878 375.54222650596421 0 0 0 0 142.87184640706982 -840.17899830454553 0 -840.17899830454553 -80.2333085671562 0 0 0 0 -862.30843518952315 -954.43160381208872 0 -954.43160381208872 -471.08740230747208 0 0 0 0 -467.78586095594801 -1045.8514782145503 0 -1045.8514782145503 -490.40558357951704 0 0 0 0 -887.66745851906308 -1201.8484378018256 0 -1201.8484378018256 -984.1125394506671 0 0 0 0 -591.01344889320899 -894.39405930839712 0 -894.39405930839712 -986.02337417982562 0 0 0 0 -583.28550576450652 -808.94575199631799 0 -808.94575199631799 -432.50897817067744 0 0 0 0 -184.00634258496575 -959.85771163459867 0 -959.85771163459867 -819.38491881066921 0 0 0 0 -933.16119476717722 -1452.5328148279259 0 -1452.5328148279259 -786.73327887176129 0 0 0 0 154.84076101300889 -395.18260922111222 0 -395.18260922111222 -296.70399121435184 0 0 0 0 -468.31601263472112 -940.98650145053398 0 -940.98650145053398 -709.35015978831507 0 0 0 0 171.18879661490791 -1428.4865932724351 0 -1428.4865932724351 2563.34333523035 0 0 0 0 -223.6616566856901 -2.7698742755455896 0 -2.7698742755455896 361.75530443093157 0 0 0 0 1699.7427912573912 -614.8078512083448 0 -614.8078512083448 2630.2762679431617 0 0 0 0 -25.453641984592139 -17.037255485894818 0 -17.037255485894818 -13.943026535038939 0 0 0 0 250.92354845564114 -984.73576351640077 0 -984.73576351640077 -1874.7537050974206 0 0 0 0 -19.0753911829392 -19.165486901194477 0 -19.165486901194477 -17.264084529221861 0 0 0 0 765.43393325258512 804.22338019681774 0 804.22338019681774 -4341.035506372602 0 0 0 0 147.72325075807748 459.21473390603205 0 459.21473390603205 -2160.0826701979968 0 0 0 0 -1803.2662637078538 723.05469806333713 0 723.05469806333713 107.72541790660762 0 0 0 0 2050.5617431748542 -1548.5964641828323 0 -1548.5964641828323 -5109.9923772319999 0 0 0 0 -12.748799777255044 -110.9816144435863 0 -110.9816144435863 201.48922487349773 0 0 0 0 9.6736159359643352 -55.185691486281939 0 -55.185691486281939 70.398555210274935 0 0 0 0 64.98546896877815 -83.355673673588171 0 -83.355673673588171 -58.375501650218212 0 0 0 0 35.455644319357816 -174.09001297260693 0 -174.09001297260693 159.89393647424004 0 0 0 0 65.817964281057357 -164.35154171274917 0 -164.35154171274917 145.33429109202552 0 0 0 0 143.23725648823893 -237.43763041515558 0 -237.43763041515558 164.40255599425745 0 0 0 0 -62.651424572090036 -44.203445605557135 0 -44.203445605557135 127.33636790599121 0 0 0 0 -66.544179749789237 -20.323855641359529 0 -20.323855641359529 4.856764981147407 0 0 0 0 730.56411341184867 47.727037019067211 0 47.727037019067211 231.01000789042155 0 0 0 0 -102.54822898644488 -40.250215879841562 0 -40.250215879841562 186.1541452390411 0 0 0 0 -13.456245357770683 -2.9715815655222571 0 -2.9715815655222571 3.4121051004747756 0 0 0 0 17.011103827157513 -64.69494994373926 0 -64.69494994373926 24.931807256232723 0 0 0 0 60.000070591981057 -172.22933695478423 0 -172.22933695478423 95.763006762441364 0 0 0 0 28.515592938958434 -102.01138514580816 0 -102.01138514580816 9.6275488688424957 0 0 0 0 -20.444859435083345 -68.630785564771941 0 -68.630785564771941 141.19457433008211 0 0 0 0 -2.4575065930437177 -58.247235900054747 0 -58.247235900054747 17.908703232989168 0 0 0 0 14.715851196553558 -500.2331778006992 0 -500.2331778006992 -2345.000832513404 0 0 0 0 -23.252845674171112 -58.468428708267311 0 -58.468428708267311 159.99194544566308 0 0 0 0 -39.935870807074537 -0.043319857927784255 0 -0.043319857927784255 19.228947115943249 0 0 0 0 -217.87314408257953 -403.12583837727652 0 -403.12583837727652 551.47196453858851 0 0 0 0 -174.80507984359429 -266.94923898156776 0 -266.94923898156776 314.50487592915306 0 0 0 0 -123.13430436130147 -387.10683477707425 0 -387.10683477707425 334.16629426407599 0 0 0 0 729.61229558335617 -150.94759213267935 0 -150.94759213267935 -135.00723874747928 0 0 0 0 -258.63581101724412 -336.27913620315667 0 -336.27913620315667 329.98134548025109 0 0 0 0 442.0857260087796 283.39394093371448 0 283.39394093371448 85.222880849840294 0 0 0 0 7.0496176827089698 -2.6325414040581734 0 -2.6325414040581734 -0.20062692194920828 0 0 0 0 -325.46191214531427 -231.00961166070192 0 -231.00961166070192 327.05969115951484 0 0 0 0 -195.30095114475989 -188.96960592159667 0 -188.96960592159667 -223.46382159292261 0 0 0 0 16.960776716258408 -8.424146949258926 0 -8.424146949258926 -1.8092302693080882 0 0 0 0 -142.48417410172988 -378.58810197242383 0 -378.58810197242383 -382.41085325134918 0 0 0 0 1.8828328344335432 -0.017914285758109827 0 -0.017914285758109827 -3.2463320867980556 0 0 0 0 117.46827991132159 -40.175839425763115 0 -40.175839425763115 -5.6146262937982101 0 0 0 0 -35.637539223418571 189.19970576172636 0 189.19970576172636 -129.80587055037904 0 0 0 0 -120.29200621129712 -418.34910704049526 0 -418.34910704049526 -359.41270051160973 0 0 0 0 329.13920765655348 -60.059187248261878 0 -60.059187248261878 -408.68383664552312 0 0 0 0 23.980084605602315 -77.028232600543561 0 -77.028232600543561 -93.567331749945879 0 0 0 0 114.17968840338472 4.1190973787643088 0 4.1190973787643088 -103.19588952944468 0 0 0 0 109.60821604036028 -224.60525358846644 0 -224.60525358846644 67.760064523630717 0 0 0 0 132.14135941173532 -73.415265273406149 0 -73.415265273406149 6.3268683042765135 0 0 0 0 171.74186244478915 -273.29780744950313 0 -273.29780744950313 -160.11293004140316 0 0 0 0 7.5796430912103006 -38.21393503926933 0 -38.21393503926933 20.090380295405311 0 0 0 0 14.298174946743529 -70.8649867127574 0 -70.8649867127574 60.00906999853396 0 0 0 0 17.592025855724103 -47.377056993218851 0 -47.377056993218851 -7.2736324469262996 0 0 0 0 -23.835303074522415 -57.615523433400995 0 -57.615523433400995 49.072400040561618 0 0 0 0 49.239299007429508 -111.15415359675899 0 -111.15415359675899 121.6142673868726 0 0 0 0 198.58255624893354 -594.39783572964552 0 -594.39783572964552 267.18323953522486 0 0 0 0 -204.01295083574951 -211.45274372506174 0 -211.45274372506174 105.0273772228029 0 0 0 0 -119.39611631268053 -134.55810183527774 0 -134.55810183527774 192.71466186858834 0 0 0 0 -138.52156047914468 -168.27149929638745 0 -168.27149929638745 217.94242110109485 0 0 0 0 -62.9365747923855 -38.415144293073567 0 -38.415144293073567 34.481820166145624 0 0 0 0 -52.047484576329452 -9.2402656570229453 0 -9.2402656570229453 56.060396086204307 0 0 0 0 42.12181409449974 -102.73893425875607 0 -102.73893425875607 133.63700584861149 0 0 0 0 -8.5229775347229406 -262.89659230476343 0 -262.89659230476343 281.95979458889633 0 0 0 0 -12.29533266130602 -80.480690727265028 0 -80.480690727265028 297.70618616743741 0 0 0 0 10.3562102279393 -55.38371979823205 0 -55.38371979823205 39.521823745977599 0 0 0 0 -8.6481594720171415 -43.412115969524621 0 -43.412115969524621 144.67775159027042 0 0 0 0 9.6985457737562228 -40.675516210609203 0 -40.675516210609203 51.811474703029901 0 0 0 0 -2.6252561156494494 -11.383664344217507 0 -11.383664344217507 11.217824325180246 0 0 0 0 -32.265201290370896 -63.534116968468879 0 -63.534116968468879 -35.969898894260041 0 0 0 0 -36.238827032939298 -103.80067693877754 0 -103.80067693877754 42.254681346083999 0 0 0 0 -73.008518509683199 -79.358444946530653 0 -79.358444946530653 180.90831030021945 0 0 0 0 31.186428784305463 101.47335378530306 0 101.47335378530306 223.92754691994423 0 0 0 0 -72.956262421734493 -9.1035583894010443 0 -9.1035583894010443 12.666471529483928 0 0 0 0 14.831368370039854 -55.207838799067758 0 -55.207838799067758 51.76764169346643 0 0 0 0 150.99373671990179 -279.48609179022196 0 -279.48609179022196 97.390318029013997 0 0 0 0 -82.912117937559401 -19.706671248195683 0 -19.706671248195683 6.2455293091105197 0 0 0 0 37.66723828134127 87.373574505188571 0 87.373574505188571 -62.715083532219523 0 0 0 0 -148.05612856261723 -131.27429133001806 0 -131.27429133001806 498.68111568484255 0 0 0 0 -18.973244414476142 -8.845616905758618 0 -8.845616905758618 12.476791524616388 0 0 0 0 325.90068078055629 -380.60321518390663 0 -380.60321518390663 1445.9345462802983 0 0 0 0 117.44867486900694 -572.05143225607412 0 -572.05143225607412 592.66715860369004 0 0 0 0 -253.88910737400874 -922.78016763343749 0 -922.78016763343749 1130.1916550381525 0 0 0 0 -439.53491059321095 -362.71375472134059 0 -362.71375472134059 1428.5298682416214 0 0 0 0 -177.55087574696518 -95.818860687579445 0 -95.818860687579445 477.80448008316398 0 0 0 0 -47.945012870302889 302.1525381215688 0 302.1525381215688 1003.7946088359731 0 0 0 0 -134.43789331419975 -223.54102207389042 0 -223.54102207389042 783.68790403383355 0 0 0 0 -37.801260757347336 -755.80268604728099 0 -755.80268604728099 163.75462133333713 0 0 0 0 -134.26764832032495 -318.46981325629986 0 -318.46981325629986 336.92736651858149 0 0 0 0 -129.837834808568 -296.8981114750718 0 -296.8981114750718 316.90775863206636 0 0 0 0 -207.20856269204523 -119.01116586800995 0 -119.01116586800995 -197.98914818988416 0 0 0 0 40.736985406867461 -454.23626762144477 0 -454.23626762144477 -75.110689325654675 0 0 0 0 -6.3837799959437689 -434.23755808888927 0 -434.23755808888927 33.002323581438759 0 0 0 0 176.64101370616117 -67.097987909187395 0 -67.097987909187395 178.03106986695821 0 0 0 0 884.29570086774766 -346.56139969065475 0 -346.56139969065475 -1248.7492297537519 0 0 0 0 265.97787502072606 251.84876140970403 0 251.84876140970403 -1019.9919971434538 0 0 0 0 1.8227047064085582 -17.264503779213968 0 -17.264503779213968 9.3301940618321382 0 0 0 0 13.138417785985808 -21.818889866732306 0 -21.818889866732306 13.691846642287071 0 0 0 0 -47.182304856833071 -104.48974940454605 0 -104.48974940454605 65.0094072775737 0 0 0 0 149.52018999969005 -179.57334234407017 0 -179.57334234407017 81.143245386408125 0 0 0 0 58.501804912759894 -79.454938977318776 0 -79.454938977318776 65.739275547260021 0 0 0 0 83.391029309947044 -29.747835034993841 0 -29.747835034993841 90.658617703003983 0 0 0 0 65.475260178391181 -141.64260113521959 0 -141.64260113521959 68.734645694188657 0 0 0 0 79.525501087540761 -140.736795301651 0 -140.736795301651 58.098020359317161 0 0 0 0 53.717460318053782 -116.25146262002909 0 -116.25146262002909 48.275505669189442 0 0 0 0 27.677916834100813 -72.482698426362958 0 -72.482698426362958 28.745496919633098 0 0 0 0 4.6173704127577366 -71.825767222276227 0 -71.825767222276227 40.822985786116988 0 0 0 0 19.801973393885419 -75.628003405618074 0 -75.628003405618074 3.2046000670998183 0 0 0 0 32.998595250071958 -100.41605874220113 0 -100.41605874220113 28.035264988866402 0 0 0 0 -102.81948631317937 -307.90756812680149 0 -307.90756812680149 -8.5504257337602212 0 0 0 0 35.251788290095476 -51.569259681249264 0 -51.569259681249264 41.000924310989419 0 0 0 0 -73.201944450811425 -283.48009594004986 0 -283.48009594004986 -15.218740449642155 0 0 0 0 38.273379278697007 -64.35244314342583 0 -64.35244314342583 71.905660194343511 0 0 0 0 31.916868304309901 -96.021726155209763 0 -96.021726155209763 88.188567838937161 0 0 0 0 96.986966357566416 -210.97937475916842 0 -210.97937475916842 166.10464625184977 0 0 0 0 201.60281738548656 -103.65714930418108 0 -103.65714930418108 54.700632213163772 0 0 0 0 76.215475608347333 -128.64425752638817 0 -128.64425752638817 64.357509947411017 0 0 0 0 27.809276697546011 -148.25521422320526 0 -148.25521422320526 117.54708173441759 0 0 0 0 46.945761837007012 -71.437641772157804 0 -71.437641772157804 36.717649281596096 0 0 0 0 29.631668296147836 -122.10503366480043 0 -122.10503366480043 -26.221400848051417 0 0 0 0 55.304376818048354 -78.975243931490994 0 -78.975243931490994 5.6859328220652472 0 0 0 0 -57.190702095196457 -60.856560440768618 0 -60.856560440768618 -13.537431454188152 0 0 0 0 71.285888779355446 -115.225380256481 0 -115.225380256481 -79.563799625868342 0 0 0 0 159.15872888756303 -2579.0244807029308 0 -2579.0244807029308 -612.07200447495416 0 0 0 0 -1.3984572866465896 -84.148039105522912 0 -84.148039105522912 234.24966776324436 0 0 0 0 27.786802577087656 -98.328876131483412 0 -98.328876131483412 18.470201316245948 0 0 0 0 4.6094134745331985 -16.030791024976686 0 -16.030791024976686 30.353821986573308 0 0 0 0 -361.64123668704269 -224.49353367633375 0 -224.49353367633375 196.90334709495073 0 0 0 0 18.833314539653145 -89.061904065813252 0 -89.061904065813252 23.430844185601522 0 0 0 0 12.419049152490288 -81.10898779091616 0 -81.10898779091616 7.7115202204581408 0 0 0 0 22.085852889227681 -204.21332347550197 0 -204.21332347550197 -96.657651146019589 0 0 0 0 -149.78014934441308 -412.07033435741323 0 -412.07033435741323 -94.476721282931976 0 0 0 0 -583.06544666786431 -347.21861240254475 0 -347.21861240254475 138.27250448061386 0 0 0 0 -442.52949247515062 -576.25216530205216 0 -576.25216530205216 515.05468473192013 0 0 0 0 -261.90561956846068 -509.62744900994585 0 -509.62744900994585 -48.597088026552228 0 0 0 0 -459.28762220189674 -162.84132624776976 0 -162.84132624776976 157.6442153785174 0 0 0 0 -557.67633785105863 -256.16570024597422 0 -256.16570024597422 292.46342749099131 0 0 0 0 -463.33869569614762 -369.80602881785308 0 -369.80602881785308 -81.452869021566585 0 0 0 0 -459.00162589109618 -352.49468873505782 0 -352.49468873505782 -89.768374844861683 0 0 0 0 -495.54140962893143 -470.9745917390901 0 -470.9745917390901 -324.09762428415706 0 0 0 0 -665.9468735041155 -294.90022877859883 0 -294.90022877859883 72.687954152446764 0 0 0 0 -466.19830126222223 -239.45297861106519 0 -239.45297861106519 44.042816160901566 0 0 0 0 -430.32354556411155 -303.15674515032151 0 -303.15674515032151 144.09608621597727 0 0 0 0 -147.09636187145952 -166.64243154633732 0 -166.64243154633732 45.204871945577906 0 0 0 0 -375.05588243486272 -363.75723771246339 0 -363.75723771246339 83.124639773042873 0 0 0 0 -380.19805281567096 -315.67059019834414 0 -315.67059019834414 -222.72050564552774 0 0 0 0 -1102.8203478716969 -753.30776227040042 0 -753.30776227040042 -508.14516655995976 0 0 0 0 -964.94690593967061 -642.1400674935976 0 -642.1400674935976 -651.31999590512714 0 0 0 0 -930.82044898383901 -806.29930306562164 0 -806.29930306562164 -426.03300151489384 0 0 0 0 -710.94036638061516 -291.41430928657064 0 -291.41430928657064 -183.89741380988562 0 0 0 0 -346.88863320774544 -95.52676575292935 0 -95.52676575292935 -418.19268814779934 0 0 0 0 36.810126596814371 -433.26427588143633 0 -433.26427588143633 -661.66434446049971 0 0 0 0 28.657857698283919 -50.279875445289377 0 -50.279875445289377 -5.0218667849542129 0 0 0 0 -210.03432036770391 -176.81261588529742 0 -176.81261588529742 240.14411644704523 0 0 0 0 -76.667203723618101 -149.15094277712089 0 -149.15094277712089 -23.07974909290408 0 0 0 0 103.57582323682436 -236.2248782759707 0 -236.2248782759707 8.4871483714086935 0 0 0 0 -104.06547322414553 -261.76177625294258 0 -261.76177625294258 79.432543558126781 0 0 0 0 -69.597651309701646 -86.858645509164774 0 -86.858645509164774 56.599354064626993 0 0 0 0 -56.687719467343413 -105.5714980843768 0 -105.5714980843768 67.186151616260759 0 0 0 0 -15.928040178690935 -129.21424256325463 0 -129.21424256325463 80.704744313981791 0 0 0 0 -66.954077011395725 -73.897966725724615 0 -73.897966725724615 -18.280779845715699 0 0 0 0 -31.242088810698306 -101.17457551599225 0 -101.17457551599225 49.214680462194849 0 0 0 0 -72.154380567983026 -120.16847764968406 0 -120.16847764968406 57.610334319055255 0 0 0 0 -52.494593002775218 -126.48796455129923 0 -126.48796455129923 35.064917189534754 0 0 0 0 220.5408646334763 -170.6563179617624 0 -170.6563179617624 85.187524238310289 0 0 0 0 123.2019379948033 -132.87672134155582 0 -132.87672134155582 43.351544313740305 0 0 0 0 218.10588942104368 -154.36069881674848 0 -154.36069881674848 -14.17487927142065 0 0 0 0 202.02078206441365 -80.830189816202619 0 -80.830189816202619 130.93291484590736 0 0 0 0 211.19997148332186 -176.19909869343974 0 -176.19909869343974 -54.885164247083594 0 0 0 0 -66.513550302304793 -205.02094852548908 0 -205.02094852548908 58.063316777348518 0 0 0 0 79.07658352854196 -30.978299335198244 0 -30.978299335198244 346.0547882738756 0 0 0 0 22.987429299675227 -21.024320700907708 0 -21.024320700907708 -22.47451493219404 0 0 0 0 255.81601928308373 -93.883791726693744 0 -93.883791726693744 -103.85467274562689 0 0 0 0 18.936613729660166 -46.277856145388796 0 -46.277856145388796 -19.812813820433803 0 0 0 0 64.5189022507696 -80.612177931679298 0 -80.612177931679298 11.420420601780975 0 0 0 0 52.665677762610983 -90.392752102732686 0 -90.392752102732686 61.363908684292227 0 0 0 0 46.288416082851455 -107.33439939656887 0 -107.33439939656887 16.47746967231916 0 0 0 0 153.76057182023942 -159.80173865747201 0 -159.80173865747201 128.06746509190998 0 0 0 0 88.024711371665944 -115.90230203087569 0 -115.90230203087569 1.4086749836312435 0 0 0 0 107.52427008305676 -136.45589900476625 0 -136.45589900476625 221.88734167750226 0 0 0 0 62.326517620371305 -153.27801455063127 0 -153.27801455063127 99.327543882085592 0 0 0 0 80.901813072385266 -132.52521637449536 0 -132.52521637449536 70.996876890683779 0 0 0 0 18.102313720282723 -87.543955795867419 0 -87.543955795867419 40.257342426762349 0 0 0 0 38.144978807743058 -88.429996640986303 0 -88.429996640986303 39.045045397980715 0 0 0 0 63.53231284575304 -143.40718408744215 0 -143.40718408744215 73.105212838912848 0 0 0 0 75.287640936498065 -120.99000668386725 0 -120.99000668386725 114.93817917476918 0 0 0 0 -14.53410887553764 -122.16696067370503 0 -122.16696067370503 46.528058792573574 0 0 0 0 -36.184947472907368 -78.547135504219852 0 -78.547135504219852 68.835127953587872 0 0 0 0 8.4371495904350837 -101.53739049276092 0 -101.53739049276092 73.818760042296049 0 0 0 0 17.169168277119752 -141.92528255093202 0 -141.92528255093202 114.91825588716529 0 0 0 0 5.7495882466319017 -110.88484750450152 0 -110.88484750450152 23.731462598603684 0 0 0 0 30.904314654471818 -104.60256963214488 0 -104.60256963214488 64.040294999911566 0 0 0 0 3.1940103229897545 -108.64039820992519 0 -108.64039820992519 99.776647213022926 0 0 0 0 10.225289156114258 -98.748828884014785 0 -98.748828884014785 79.161528598986607 0 0 0 0 -12.133477971045068 -64.611976199321361 0 -64.611976199321361 61.46659459816874 0 0 0 0 5.2202126713594339 -69.790890756159769 0 -69.790890756159769 47.178860843453023 0 0 0 0 40.421968068236311 -113.86335624700905 0 -113.86335624700905 174.92127609050112 0 0 0 0 0.84268640348682311 -97.312243358778844 0 -97.312243358778844 69.200909168981454 0 0 0 0 -127.23334491404967 -79.763364845489832 0 -79.763364845489832 219.01963935680942 0 0 0 0 45.689996866072761 -79.839712538498588 0 -79.839712538498588 117.4590094609548 0 0 0 0 -33.402135010217535 -91.225817934416227 0 -91.225817934416227 13.637041631802276 0 0 0 0 -35.221743481927206 -91.685252397558571 0 -91.685252397558571 65.295022211372654 0 0 0 0 232.4821143882582 -158.65103110315977 0 -158.65103110315977 -93.171329990989761 0 0 0 0 7.1255836391846685 -52.910993580996717 0 -52.910993580996717 12.466906455021331 0 0 0 0 -50.83260080027685 -175.30218007769872 0 -175.30218007769872 -65.064536880658125 0 0 0 0 -42.512696838370175 -114.52642149350868 0 -114.52642149350868 46.457275908469455 0 0 0 0 -72.335298401696491 -32.540487231584848 0 -32.540487231584848 -344.03227855036312 0 0 0 0 -47.095550900020555 -40.616203649799417 0 -40.616203649799417 -15.333702302312005 0 0 0 0 7.3911835138642346 -40.974735745934595 0 -40.974735745934595 -663.75141780378181 0 0 0 0 -100.92856953470618 21.736738979845541 0 21.736738979845541 -362.1018125950286 0 0 0 0 -43.999838781208382 76.83417557080611 0 76.83417557080611 -533.01016763236839 0 0 0 0 -39.05359032017077 170.9814077996416 0 170.9814077996416 -758.44047689238505 0 0 0 0 60.850488376308931 -57.046448343695374 0 -57.046448343695374 -643.29381998574536 0 0 0 0 1.1099492101784563 -86.897785791523347 0 -86.897785791523347 -558.20170230163785 0 0 0 0 23.020037664537085 -38.792945852590492 0 -38.792945852590492 -566.88034633629286 0 0 0 0 81.9924004658169 -15.219486648049497 0 -15.219486648049497 -568.24832678727398 0 0 0 0 17.169302398311629 19.299715565966835 0 19.299715565966835 -474.30635300412541 0 0 0 0 -1.6524603799334727 23.417386271437863 0 23.417386271437863 -370.70211008022306 0 0 0 0 7.1568609289388405 -14.001959523193364 0 -14.001959523193364 -420.64164858216827 0 0 0 0 2.0149568320389335 -10.536570317043214 0 -10.536570317043214 -28.659669357499581 0 0 0 0 -30.427869438018263 -73.281663791023306 0 -73.281663791023306 -29.287248287603788 0 0 0 0 -25.373347887347336 -117.62103945536364 0 -117.62103945536364 -326.74211425718386 0 0 0 0 -67.362451290464378 -21.550284872842894 0 -21.550284872842894 -142.52191116067115 0 0 0 0 1.9147997325367498 -3.4326791147381073 0 -3.4326791147381073 -44.418575017971506 0 0 0 0 -25.078333634052115 -121.74566375114432 0 -121.74566375114432 -516.90681034392037 0 0 0 0 8.8432139370997902 -65.04758791369386 0 -65.04758791369386 -229.31799498786859 0 0 0 0 20.051374097580265 -49.098941743803152 0 -49.098941743803152 -510.03213390718156 0 0 0 0 -24.140311345102873 -103.46677529275632 0 -103.46677529275632 3.6048533162015133 0 0 0 0 13.901414198597195 -63.779122133397323 0 -63.779122133397323 96.172882727281831 0 0 0 0 -31.309554902077508 -87.11634755056977 0 -87.11634755056977 18.5735291876993 0 0 0 0 -62.139791441339185 -172.94329245789095 0 -172.94329245789095 88.23594490695632 0 0 0 0 -18.519021513522603 -76.432140492892358 0 -76.432140492892358 -201.74796039734792 0 0 0 0 -500.64495695166988 99.87977565426263 0 99.87977565426263 279.84912537882337 0 0 0 0 1.6959026824028456 -16.782069525586479 0 -16.782069525586479 -48.059618929297045 0 0 0 0 -88.434185496287682 -237.19142018160744 0 -237.19142018160744 20.088171380775748 0 0 0 0 -43.050633845530683 -104.26938005036982 0 -104.26938005036982 99.872964930900707 0 0 0 0 -2.4116842598741641 -205.13428185316889 0 -205.13428185316889 -91.362314530358162 0 0 0 0 4.6395773471340362 -179.04803411926821 0 -179.04803411926821 -10.876346400438706 0 0 0 0 65.851286334582255 -111.18910977205564 0 -111.18910977205564 -288.84173837955132 0 0 0 0 52.949057033052668 -197.79320612291258 0 -197.79320612291258 -90.819249002999186 0 0 0 0 16.684942493331619 23.148770315361617 0 23.148770315361617 -65.422348333899549 0 0 0 0 44.452320771175437 2.736216427081672 0 2.736216427081672 -62.015273760781497 0 0 0 0 97.999079009241541 201.69566895872777 0 201.69566895872777 -570.32723770404755 0 0 0 0 37.295003104489297 3.2237854004629298 0 3.2237854004629298 66.836552278191448 0 0 0 0 6.8304213142470189 -4.0811498438885963 0 -4.0811498438885963 5.1048513400034068 0 0 0 0 33.288890335708857 -21.28335354918363 0 -21.28335354918363 -38.385079540995207 0 0 0 0 18.327563355152961 -4.2580958568405549 0 -4.2580958568405549 -41.432360308607713 0 0 0 0 -352.56750966362597 -379.85400064832857 0 -379.85400064832857 6.5520624882924494 0 0 0 0 -6.5426314032265509 -369.67969738799661 0 -369.67969738799661 -582.10146443529447 0 0 0 0 -242.92277052480858 -98.487829824067035 0 -98.487829824067035 264.54248388567521 0 0 0 0 -25.357699853382655 -357.47360348871553 0 -357.47360348871553 -998.13441782445625 0 0 0 0 -5.9657985237167281 -2.5035940165502168 0 -2.5035940165502168 -3.2423966049103292 0 0 0 0 -56.282425531593617 -143.77916136155727 0 -143.77916136155727 84.089813895336192 0 0 0 0 -3.1650456432216743 -144.00037377180763 0 -144.00037377180763 -129.70650400876912 0 0 0 0 -10.001573443865425 -21.26490037554332 0 -21.26490037554332 28.013798357822392 0 0 0 0 24.301805286871968 -33.224078363607987 0 -33.224078363607987 42.085331720471459 0 0 0 0 -876.37316370582266 -922.90778472073953 0 -922.90778472073953 -128.87499457414287 0 0 0 0 242.05636696693546 -564.50337984145563 0 -564.50337984145563 -1348.1810068576378 0 0 0 0 -813.27543287092703 -414.13542318714644 0 -414.13542318714644 -1133.6896146013144 0 0 0 0 64.141387265291996 -626.86311634992035 0 -626.86311634992035 -833.39683140944499 0 0 0 0 -117.14316349633737 20.728995869752907 0 20.728995869752907 80.374232604846384 0 0 0 0 -514.17340907498146 -418.36264365929082 0 -418.36264365929082 -113.38025079045292 0 0 0 0 398.3410734271165 -216.8089768303962 0 -216.8089768303962 -600.7204256227983 0 0 0 0 78.862127495129243 -187.830492963712 0 -187.830492963712 610.41053208906305 0 0 0 0 0.18730578400209197 -349.14151792770093 0 -349.14151792770093 724.69591404391667 0 0 0 0 -165.21981752365537 -237.08923138695536 0 -237.08923138695536 1409.2924209691378 0 0 0 0 1.5147268283809581 -5.4938000125547903 0 -5.4938000125547903 -0.54860297001938896 0 0 0 0 71.479658649957855 -124.17595600098116 0 -124.17595600098116 71.929029630263358 0 0 0 0 -130.44771869276883 -213.1430202545389 0 -213.1430202545389 611.51276172165922 0 0 0 0 26.242176754007232 -362.39819105441234 0 -362.39819105441234 641.19060173103117 0 0 0 0 -124.04268587465049 -226.18865204846952 0 -226.18865204846952 677.83457776911405 0 0 0 0 54.119586423388682 -307.8704526183501 0 -307.8704526183501 644.82027169313494 0 0 0 0 -16.320681298442651 -224.74647984896819 0 -224.74647984896819 832.71192093468744 0 0 0 0 128.58754827285884 -472.76104906175624 0 -472.76104906175624 737.46366349708114 0 0 0 0 142.25474111693984 -533.28196866366102 0 -533.28196866366102 999.62885296672448 0 0 0 0 431.90234030030842 -543.09387298880199 0 -543.09387298880199 434.99779436708423 0 0 0 0 27.970963617452071 -18.107042211656335 0 -18.107042211656335 -0.066150230189123249 0 0 0 0 105.70257595523435 -97.401652162652681 0 -97.401652162652681 0.65624512577727501 0 0 0 0 -5.1156623299442003 -8.0488401654763777 0 -8.0488401654763777 3.1994674478758736 0 0 0 0 44.154102235196774 -8.588123806625326 0 -8.588123806625326 -0.61922024758348604 0 0 0 0 203.62356448898572 -193.86456861474005 0 -193.86456861474005 403.9884726092705 0 0 0 0 10.440269360841455 -10.432557716517808 0 -10.432557716517808 0.033497252072524186 0 0 0 0 -0.034969319138326682 -302.85436801330661 0 -302.85436801330661 792.11529035079059 0 0 0 0 133.94689511965043 -292.79946720088191 0 -292.79946720088191 667.36412486370864 0 0 0 0 -120.45130006453837 -244.62832397485727 0 -244.62832397485727 206.79207262276805 0 0 0 0 28.375133268527861 -110.79127035016882 0 -110.79127035016882 -343.15261684414509 0 0 0 0 4.7357743535876011 -9.1016577031390682 0 -9.1016577031390682 1.3929407984499633 0 0 0 0 32.137144077127175 -54.246209520845639 0 -54.246209520845639 22.513930035807476 0 0 0 0 18.661500109898043 -120.94583378707875 0 -120.94583378707875 47.674931466541238 0 0 0 0 -157.16650124118314 -417.24848932758323 0 -417.24848932758323 -56.162726137642494 0 0 0 0 -514.12685498998326 -3.2665688694833079 0 -3.2665688694833079 -77.936505358580689 0 0 0 0 -513.30537337186979 -146.94953162331603 0 -146.94953162331603 -105.60585115768583 0 0 0 0 116.96453365488924 -131.18126865176862 0 -131.18126865176862 -335.351215810555 0 0 0 0 -20.691507293318864 -4.6788219869822569 0 -4.6788219869822569 991.34600727217276 0 0 0 0 -1.7211176762247646 -7.2715592902488737 0 -7.2715592902488737 6.7451914335246013 0 0 0 0 62.384648594714236 -306.72139563015025 0 -306.72139563015025 -86.396787023946899 0 0 0 0 24.645128430740442 -352.28440080788914 0 -352.28440080788914 1127.4160655867588 0 0 0 0 -49.090427422408538 115.65086298000438 0 115.65086298000438 606.536599220276 0 0 0 0 -12.550015059314319 -283.99348773855991 0 -283.99348773855991 614.63191648891097 0 0 0 0 39.629309068819566 111.61216459239927 0 111.61216459239927 20.224570000355925 0 0 0 0 -49.662361602437159 -302.97413695305522 0 -302.97413695305522 344.89336087782067 0 0 0 0 -58.870014298988508 -19.857601435794209 0 -19.857601435794209 6.1010053096732975 0 0 0 0 -126.36433559298166 -78.617936778986859 0 -78.617936778986859 66.00786140882019 0 0 0 0 -785.78063076292165 409.13252794856544 0 409.13252794856544 743.70336493611012 0 0 0 0 -65.401011936570285 -48.143112909530373 0 -48.143112909530373 26.456410763778877 0 0 0 0 -76.04172979675792 -14.611181679665776 0 -14.611181679665776 -0.22642361185588911 0 0 0 0 -221.28730450017611 -29.864933851851674 0 -29.864933851851674 76.103784299270956 0 0 0 0 -101.4475848765789 -7.6321505661654143 0 -7.6321505661654143 5.2599458634339094 0 0 0 0 -147.80634866870241 -16.682257339240095 0 -16.682257339240095 65.880358156793591 0 0 0 0 -303.44851514612674 -41.400692699240608 0 -41.400692699240608 82.768746078583717 0 0 0 0 447.75467261504673 94.841413149258187 0 94.841413149258187 -807.27778747055891 0 0 0 0 -297.48993205545048 38.476174586687875 0 38.476174586687875 68.422268229256588 0 0 0 0 -0.34041554168621246 -5.481265572245178 0 -5.481265572245178 -1.339682917470391 0 0 0 0 66.107495333795669 -181.32128039860072 0 -181.32128039860072 118.05621333378622 0 0 0 0 -85.901201965636574 46.641143727067174 0 46.641143727067174 -49.22995266730868 0 0 0 0 -104.4161285982193 -55.64884954511686 0 -55.64884954511686 38.948808400427531 0 0 0 0 -73.481047524247458 -77.03414125487825 0 -77.03414125487825 33.178116818132679 0 0 0 0 66.308961649076082 -9.0381341808642901 0 -9.0381341808642901 54.871415908929521 0 0 0 0 -31.31491233734414 -65.567932186957478 0 -65.567932186957478 34.374854792475162 0 0 0 0 -28.81521291263212 -50.328843173686366 0 -50.328843173686366 11.232588129223956 0 0 0 0 -149.03303120225974 6.5113585981445397 0 6.5113585981445397 291.0337818800981 0 0 0 0 -148.27637547791528 -124.16192323901532 0 -124.16192323901532 162.7576273734303 0 0 0 0 -111.30865953492841 -88.583932374906254 0 -88.583932374906254 14.285754094720616 0 0 0 0 -142.43071828194661 -87.857902694415316 0 -87.857902694415316 -27.145465771724503 0 0 0 0 -232.18085538872401 -236.2976829780655 0 -236.2976829780655 75.289565409167153 0 0 0 0 -236.49191250142758 -138.87578471162124 0 -138.87578471162124 308.38754585548838 0 0 0 0 -18.029885595657618 -15.154336471350092 0 -15.154336471350092 7.1261324802952082 0 0 0 0 -138.40250845049559 -146.58711108597038 0 -146.58711108597038 220.77671323187496 0 0 0 0 -485.43866398531827 -219.36793755345116 0 -219.36793755345116 252.08798388012337 0 0 0 0 -203.16615928457395 -229.87224112196884 0 -229.87224112196884 73.576711792369679 0 0 0 0 -48.908708541915985 -269.15491983934589 0 -269.15491983934589 77.067711505927036 0 0 0 0 -335.78742255229008 -492.71629999094739 0 -492.71629999094739 -95.340137421000691 0 0 0 0 -154.88429955812171 -147.84884812974224 0 -147.84884812974224 47.124666627535134 0 0 0 0 19.624697606253903 -320.65016028549508 0 -320.65016028549508 -119.08064219357584 0 0 0 0 -72.314651759165798 -105.59684959075585 0 -105.59684959075585 1.5842280883516047 0 0 0 0 13.585591853683525 -32.165943125448877 0 -32.165943125448877 1.477879307030904 0 0 0 0 18.222549495716521 -263.37323004524342 0 -263.37323004524342 -142.12857589299165 0 0 0 0 -148.99837689177366 -167.85060232617843 0 -167.85060232617843 58.03567726212259 0 0 0 0 -129.99955667075483 -141.65827306902611 0 -141.65827306902611 12.331877124896891 0 0 0 0 -76.779554001943325 -187.55499332704039 0 -187.55499332704039 -9.6518620574952365 0 0 0 0 -72.876042564763338 -172.45733279977503 0 -172.45733279977503 28.250284312017357 0 0 0 0 -80.796802257620584 -100.71814705158647 0 -100.71814705158647 -19.712489116587676 0 0 0 0 -152.87905105575192 -160.14760361708659 0 -160.14760361708659 73.486266566665108 0 0 0 0 -108.69083701854834 -223.91332736434299 0 -223.91332736434299 37.704804715725913 0 0 0 0 -27.217444681806455 -10.208018799962289 0 -10.208018799962289 1.6896669468491581 0 0 0 0 16.808543211807233 -20.923882087379155 0 -20.923882087379155 -27.175667107670026 0 0 0 0 -240.4787661217706 -66.104287897200265 0 -66.104287897200265 -11.77892476381453 0 0 0 0 -184.61020392556384 -143.14922155489012 0 -143.14922155489012 18.769317285778016 0 0 0 0 83.963029916958021 -90.492625956646492 0 -90.492625956646492 14.282822422496267 0 0 0 0 76.342154072146513 -112.7889562927221 0 -112.7889562927221 -38.067374137955994 0 0 0 0 72.809766859703814 -181.20028298405896 0 -181.20028298405896 -67.263601966688839 0 0 0 0 97.633779672170931 -43.290417996916858 0 -43.290417996916858 -55.622316413850967 0 0 0 0 77.265682009980083 -100.43666452051593 0 -100.43666452051593 -135.05720039084076 0 0 0 0 141.69631972334173 -13.729372817336753 0 -13.729372817336753 -309.79625575750106 0 0 0 0 -1068.3019227632831 5.8409289370433726 0 5.8409289370433726 53.341754195776957 0 0 0 0 -0.54627397942081757 -3.1386914703063837 0 -3.1386914703063837 -12.011839042656032 0 0 0 0 -135.03244818473468 -403.32732237660821 0 -403.32732237660821 -359.65574498589922 0 0 0 0 -540.2120672821984 -415.53570409384156 0 -415.53570409384156 241.78260015853994 0 0 0 0 225.0938626909192 -179.34530452194485 0 -179.34530452194485 -108.9013883339594 0 0 0 0 164.31815922223905 -57.464399985905402 0 -57.464399985905402 38.860452434448234 0 0 0 0 1.5996968773397384 -198.03171491136709 0 -198.03171491136709 43.150790807966587 0 0 0 0 -8.8541594923153752 -161.99934004385432 0 -161.99934004385432 -80.044125981701654 0 0 0 0 75.774297935990035 -104.66288796995468 0 -104.66288796995468 -141.89473529505267 0 0 0 0 -437.24132076268143 -306.90227661849167 0 -306.90227661849167 355.58775741783938 0 0 0 0 -41.487062881048246 -90.667519830869935 0 -90.667519830869935 -60.397815144181976 0 0 0 0 24.858786690834677 -98.676180017515435 0 -98.676180017515435 72.962336881080091 0 0 0 0 -28.132496078175677 1.6552449784515204 0 1.6552449784515204 20.084164395270726 0 0 0 0 306.42060578044038 -60.313362709928697 0 -60.313362709928697 19.497497835950526 0 0 0 0 531.76919056172483 -8.0985099465542589 0 -8.0985099465542589 30.748962365581974 0 0 0 0 132.53016666695476 -77.977660282438592 0 -77.977660282438592 91.574104067527514 0 0 0 0 273.16275446373038 -142.89480130626362 0 -142.89480130626362 91.976033847007784 0 0 0 0 39.701030882708551 -72.697458241224496 0 -72.697458241224496 53.897422910826776 0 0 0 0 216.59392882950488 0.27297933337831637 0 0.27297933337831637 46.113202215956335 0 0 0 0 188.25711864660843 -45.86189998412101 0 -45.86189998412101 -15.440234400011832 0 0 0 0 235.18811471297522 -97.812908838299336 0 -97.812908838299336 66.213485128897446 0 0 0 0 24.311487464845413 -86.592005618551411 0 -86.592005618551411 106.90022907770253 0 0 0 0 -73.692051068937872 -148.48984307005048 0 -148.48984307005048 132.0326080176892 0 0 0 0 -98.966673842023738 -301.02571725728649 0 -301.02571725728649 -52.615806251564209 0 0 0 0 66.850879883364541 -111.83508690446615 0 -111.83508690446615 60.970835899355734 0 0 0 0 33.024761874097749 -129.6681190749423 0 -129.6681190749423 52.549338717828505 0 0 0 0 98.837124092016893 -238.63793990069098 0 -238.63793990069098 -11.895880983287498 0 0 0 0 -2.1360032584343571 -192.93649105396617 0 -192.93649105396617 41.06571325058394 0 0 0 0 37.311750468172249 -190.18579239698602 0 -190.18579239698602 -31.959610118862884 0 0 0 0 -21.686805632711867 -100.19301856473439 0 -100.19301856473439 -41.521322888280579 0 0 0 0 209.47791321392288 -9.05728253254847 0 -9.05728253254847 -51.712795534205952 0 0 0 0 74.856337873780433 -65.930678228823382 0 -65.930678228823382 -13.111386297734057 0 0 0 0 20.077663666174629 -81.102825263036152 0 -81.102825263036152 39.845573285789357 0 0 0 0 323.75881301019399 -41.585063068973341 0 -41.585063068973341 35.865033094087266 0 0 0 0 5.7523746458464302 -72.033865330333128 0 -72.033865330333128 -34.313402424354535 0 0 0 0 42.524299785833236 -53.685355145468577 0 -53.685355145468577 -5.1002493076423185 0 0 0 0 61.236038644390646 -86.004295960730815 0 -86.004295960730815 73.288460937720288 0 0 0 0 93.005985719850287 -62.14493248134022 0 -62.14493248134022 99.231484584615828 0 0 0 0 230.45908675648388 -21.706969165848932 0 -21.706969165848932 111.05674550865115 0 0 0 0 307.90991580486298 -78.320654924707924 0 -78.320654924707924 46.169875460354888 0 0 0 0 -106.49480095502076 -138.85339103148152 0 -138.85339103148152 -416.46867207737341 0 0 0 0 7.1704618823381736 -8.3965494816772548 0 -8.3965494816772548 -12.548944675955685 0 0 0 0 -376.08815587768913 -685.44729817043071 0 -685.44729817043071 -426.60447684361407 0 0 0 0 104.37299901028175 -60.359776963512445 0 -60.359776963512445 -22.967976426433761 0 0 0 0 168.85501535925141 -137.38696132507118 0 -137.38696132507118 -75.664356059944112 0 0 0 0 400.75390372271067 14.305817726854002 0 14.305817726854002 -79.381991731478635 0 0 0 0 66.697732462693239 -277.23729894844155 0 -277.23729894844155 -314.04379701827202 0 0 0 0 -784.84226208272594 -765.07946023336342 0 -765.07946023336342 -232.62284895229732 0 0 0 0 0.42888895687509887 -1.5173609830412431 0 -1.5173609830412431 -4.2105086094526492 0 0 0 0 -125.35921350927674 -383.47933453703581 0 -383.47933453703581 -353.49840891971689 0 0 0 0 -447.57677089865319 -462.87459288301579 0 -462.87459288301579 116.41761548190766 0 0 0 0 -237.86222221105709 -419.6729473066116 0 -419.6729473066116 94.500529647235226 0 0 0 0 -389.3442040648406 -72.460938686355604 0 -72.460938686355604 -324.95196499853932 0 0 0 0 413.72667747107334 -951.33538774719602 0 -951.33538774719602 -804.11450739342774 0 0 0 0 -686.03142851083976 -993.38097846106075 0 -993.38097846106075 -408.83273065335516 0 0 0 0 -45.30431332095759 -407.96368410654395 0 -407.96368410654395 -1127.1856824403023 0 0 0 0 -146.01060727861477 -222.53060263577117 0 -222.53060263577117 232.46432187564187 0 0 0 0 -74.025179620890412 -236.40646443465266 0 -236.40646443465266 16.624097022681099 0 0 0 0 -630.73252225434408 -546.62622070405268 0 -546.62622070405268 35.751600723317097 0 0 0 0 -11.326556984425793 -6.8130853314202398 0 -6.8130853314202398 0.84531380549824875 0 0 0 0 -24.736457113816869 -117.60611046930353 0 -117.60611046930353 119.13834134379431 0 0 0 0 -454.79670180974426 -1046.2964790184321 0 -1046.2964790184321 -475.93468806795636 0 0 0 0 13.151013362483354 -781.56823268950711 0 -781.56823268950711 -355.35365435373024 0 0 0 0 -19.700496018733247 -254.01722174393581 0 -254.01722174393581 -414.32687922355944 0 0 0 0 -402.25376469217008 -555.90639013042528 0 -555.90639013042528 -274.0342017137591 0 0 0 0 35.53593036509119 -165.7543733801449 0 -165.7543733801449 -290.86917923644103 0 0 0 0 88.414701948815491 -65.279528092974942 0 -65.279528092974942 12.759310606956205 0 0 0 0 -10.086871935694944 -40.202645419971304 0 -40.202645419971304 18.353567870952247 0 0 0 0 -20.986043728059485 -228.89629372057135 0 -228.89629372057135 -47.452492554617493 0 0 0 0 66.917231811765305 -73.342532256610014 0 -73.342532256610014 -68.445633190942317 0 0 0 0 62.777351667231414 -37.531481766232901 0 -37.531481766232901 79.746381588160148 0 0 0 0 134.24032316492958 -89.234745466911363 0 -89.234745466911363 0.12557908702365239 0 0 0 0 18.159041600660657 -2.4414106350184355 0 -2.4414106350184355 1.0585687525358676 0 0 0 0 808.19919384374589 -563.66491601175858 0 -563.66491601175858 -1256.640342166429 0 0 0 0 75.925141182466177 -134.70612911211174 0 -134.70612911211174 -900.1318649153975 0 0 0 0 99.434386457098299 -225.7749384286717 0 -225.7749384286717 -1215.4030898183828 0 0 0 0 291.55386245444242 -259.22672452984534 0 -259.22672452984534 -2342.4139598454453 0 0 0 0 0.83755113761583289 4.2231080092079232 0 4.2231080092079232 -0.13623034430740177 0 0 0 0 369.57701880458626 -991.49915873247869 0 -991.49915873247869 924.03642583185399 0 0 0 0 190.9467568481632 -791.1976269873644 0 -791.1976269873644 -1016.3709524669421 0 0 0 0 4.5748853988305882 -14.127362264281306 0 -14.127362264281306 14.580704948936129 0 0 0 0 154.86897071296698 -474.02811956354981 0 -474.02811956354981 -1121.6143551287969 0 0 0 0 -41.258703572471859 -299.69399160145122 0 -299.69399160145122 -1199.9330238181765 0 0 0 0 197.7675619704969 -121.81794530715683 0 -121.81794530715683 105.52849407430301 0 0 0 0 323.56110726042061 -169.45199021891466 0 -169.45199021891466 106.8717033800981 0 0 0 0 375.33018897638613 -411.99493531855677 0 -411.99493531855677 57.485253849417859 0 0 0 0 359.99304579477757 -678.79978637101385 0 -678.79978637101385 165.66105695034275 0 0 0 0 448.68268285124213 -438.19837286393886 0 -438.19837286393886 36.771633022894548 0 0 0 0 942.49945890482923 -739.72950005921803 0 -739.72950005921803 198.82364739721743 0 0 0 0 236.8842477715516 -526.44376597876726 0 -526.44376597876726 869.98998468749505 0 0 0 0 184.95814465798321 -282.40674044450225 0 -282.40674044450225 200.78948681992426 0 0 0 0 1901.7226921750189 -597.05569489099344 0 -597.05569489099344 285.70644916187121 0 0 0 0 933.44420440852628 -0.42618665060332006 0 -0.42618665060332006 -77.604863490339994 0 0 0 0 -41.099092766147805 402.43527636143654 0 402.43527636143654 2521.1873603990725 0 0 0 0 1040.757089806677 -1220.947639094898 0 -1220.947639094898 1403.7828536029501 0 0 0 0 4.373241467415184 -7.4719322470620568 0 -7.4719322470620568 27.480837372384812 0 0 0 0 833.17260760860518 276.59935883420621 0 276.59935883420621 -642.89802921141927 0 0 0 0 -115.31255243014311 679.76585002985485 0 679.76585002985485 559.30376509220423 0 0 0 0 1157.3500363731291 -1829.5799800158643 0 -1829.5799800158643 1802.3909310910531 0 0 0 0 2245.1288388778266 553.75531226488965 0 553.75531226488965 557.14469756017206 0 0 0 0 417.2915775782385 -1306.1502707498648 0 -1306.1502707498648 -630.02508666209178 0 0 0 0 202.19797281734645 -68.158857601250929 0 -68.158857601250929 -1178.5384272756928 0 0 0 0 -8.3662092728773132 -156.16068329409063 0 -156.16068329409063 811.81649115740947 0 0 0 0 -13.039327994833002 500.03672352101239 0 500.03672352101239 673.28622754864 0 0 0 0 -416.2618838341732 -316.25731679792671 0 -316.25731679792671 806.27066745878801 0 0 0 0 -244.19584256500821 113.43401301823087 0 113.43401301823087 732.47016453828792 0 0 0 0 -467.33776601660065 -320.32202273770281 0 -320.32202273770281 691.19537387403398 0 0 0 0 -58.562835740918672 429.57832834510418 0 429.57832834510418 885.20069261370372 0 0 0 0 5.3999873908294944 1.0849871474594863 0 1.0849871474594863 -2.3281185851785082 0 0 0 0 -119.00328710129543 36.922467250225736 0 36.922467250225736 42.005228359634202 0 0 0 0 -420.25204366247635 -476.6870494925306 0 -476.6870494925306 -279.87073490938928 0 0 0 0 -479.53873809062134 -162.75151432011273 0 -162.75151432011273 414.84126249127803 0 0 0 0 -124.51954174775165 189.86767716589748 0 189.86767716589748 246.36922916074491 0 0 0 0 -40.759683334661531 128.69178144855823 0 128.69178144855823 15.003145888171275 0 0 0 0 -303.93451870691206 19.518063569033075 0 19.518063569033075 234.19628041615579 0 0 0 0 -74.864888098282165 -0.10763895688861425 0 -0.10763895688861425 2.9848475851337248 0 0 0 0 -54.608296712831361 -3.1615663022421359 0 -3.1615663022421359 49.260601517613395 0 0 0 0 -69.973894254999323 3.3664696504045821 0 3.3664696504045821 52.029552808464359 0 0 0 0 -72.767288603163252 -21.209310899447047 0 -21.209310899447047 45.619760762405349 0 0 0 0 -39.982991226570448 -61.639549340383383 0 -61.639549340383383 9.6261701427174557 0 0 0 0 -24.575442526329766 -16.637480119642845 0 -16.637480119642845 35.251896350650284 0 0 0 0 -9.1887796024760178 -25.861348102685863 0 -25.861348102685863 -6.9735490883294551 0 0 0 0 11.353040593487094 -38.658043641424229 0 -38.658043641424229 -21.875871756046763 0 0 0 0 -36.360343293834376 -41.565495900985866 0 -41.565495900985866 -6.9914364891701553 0 0 0 0 14.624791503077432 -20.285079993734172 0 -20.285079993734172 3.1631652145415927 0 0 0 0 41.329764111542318 72.597035821941063 0 72.597035821941063 -58.637143010349973 0 0 0 0 -36.024100085865939 -35.34311065055681 0 -35.34311065055681 43.374709578869442 0 0 0 0 -8.4980806857079756 4.3418152343417376 0 4.3418152343417376 -9.7301900153430374 0 0 0 0 9.450677576038288 -51.154934791832602 0 -51.154934791832602 -47.313294871958533 0 0 0 0 -26.17496311472496 -71.071741889465557 0 -71.071741889465557 -36.99981347087305 0 0 0 0 37.768368689008639 150.97158996776034 0 150.97158996776034 -647.15895978669141 0 0 0 0 -108.86442432682088 -331.66897340893138 0 -331.66897340893138 -404.21283861096163 0 0 0 0 -45.960819891390997 5.1405281483969461 0 5.1405281483969461 7.1464667523485144 0 0 0 0 102.25190725747962 214.88759905142979 0 214.88759905142979 -121.97154808063033 0 0 0 0 123.58226589830883 -173.03969904361657 0 -173.03969904361657 358.02187268495254 0 0 0 0 250.16085816446866 -207.54190100432879 0 -207.54190100432879 126.52000842041525 0 0 0 0 218.22080416857352 -169.41316376931036 0 -169.41316376931036 173.3858230804326 0 0 0 0 2.78989915153943 -19.896261138906993 0 -19.896261138906993 -338.84874969417183 0 0 0 0 1.7538234423565768 0.16746868097109768 0 0.16746868097109768 -1.5531203126652144 0 0 0 0 -30.653789331176085 -55.808067177838439 0 -55.808067177838439 -47.237196880705596 0 0 0 0 301.3352283789136 -1.586448963881594 0 -1.586448963881594 -4.8649707977347134 0 0 0 0 35.511004741478246 17.008044688427617 0 17.008044688427617 31.508765542759647 0 0 0 0 -1.1392640830478342 -0.044796482808038718 0 -0.044796482808038718 -0.03928197296511371 0 0 0 0 299.3204416380031 -151.02551227020922 0 -151.02551227020922 69.991799297145917 0 0 0 0 23.087875013938174 -48.739620912776445 0 -48.739620912776445 14.773567953630845 0 0 0 0 159.90097929711919 -24.914364942649627 0 -24.914364942649627 10.333175319971815 0 0 0 0 173.88357984123286 -45.788166688684214 0 -45.788166688684214 -65.900871659800032 0 0 0 0 13.241498844174203 -12.880127456792252 0 -12.880127456792252 -14.00128873817448 0 0 0 0 1.1304847843342145 -17.203269888557372 0 -17.203269888557372 -0.059499695646245243 0 0 0 0 129.44987846078584 7.1846305343460699 0 7.1846305343460699 -61.695676523537259 0 0 0 0 9.9208266942511614 -7.1310172357738395 0 -7.1310172357738395 -14.41230298161463 0 0 0 0 42.980579815339297 34.738804944714502 0 34.738804944714502 5.2316063210046195 0 0 0 0 -0.31050416320027807 0.99727508948661381 0 0.99727508948661381 -2.7498478951329375 0 0 0 0 23.929476813781662 -12.768551238918668 0 -12.768551238918668 -33.912985552368198 0 0 0 0 42.348520077671878 -19.43459485801597 0 -19.43459485801597 -37.11191403710081 0 0 0 0 45.112039709434612 -32.997453537189358 0 -32.997453537189358 -7.3226699890801683 0 0 0 0 90.315924340771744 -6.8924101518796306 0 -6.8924101518796306 -66.047568667127052 0 0 0 0 85.548489132881514 -24.574706094974317 0 -24.574706094974317 -66.948056273795373 0 0 0 0 128.470707843735 -78.921198420116525 0 -78.921198420116525 -97.57421072359648 0 0 0 0 139.19353660882916 9.8828493512019122 0 9.8828493512019122 -50.415019325055255 0 0 0 0 215.32008778676391 -67.258457757513497 0 -67.258457757513497 -198.21471904658802 0 0 0 0 159.29327915344766 -115.29813310129634 0 -115.29813310129634 147.65681697424952 0 0 0 0 189.67090187824215 -36.020680775316578 0 -36.020680775316578 -67.761985498756985 0 0 0 0 98.676505734140562 -62.129751790997162 0 -62.129751790997162 13.440825631377962 0 0 0 0 81.094707941827437 -8.8775891328036209 0 -8.8775891328036209 207.77839524666342 0 0 0 0 166.98692057761946 -177.48303710615528 0 -177.48303710615528 -93.379628046536027 0 0 0 0 56.980166119312344 -59.366854741700109 0 -59.366854741700109 21.816599628686237 0 0 0 0 45.233567356506683 -235.52204895760639 0 -235.52204895760639 472.62834354510778 0 0 0 0 34.108830022087204 -162.69273046841317 0 -162.69273046841317 514.98958203674192 0 0 0 0 121.85477322619408 -330.91118196124353 0 -330.91118196124353 539.70954768120282 0 0 0 0 -88.148251674923813 -363.27398382939464 0 -363.27398382939464 1288.2754658781323 0 0 0 0 215.06590069967206 -88.270303969850829 0 -88.270303969850829 767.38005224134213 0 0 0 0 194.24888176340028 -413.13654159448106 0 -413.13654159448106 842.06840964339062 0 0 0 0 -160.25200737989508 -360.11548508173109 0 -360.11548508173109 1184.8702433881699 0 0 0 0 -148.41077338280593 221.67415216281006 0 221.67415216281006 462.30601575690525 0 0 0 0 156.31350533095247 -342.66694369352081 0 -342.66694369352081 420.6277454928786 0 0 0 0 -13.074879209946602 2.7278820415789369 0 2.7278820415789369 6.9030832872738301 0 0 0 0 264.81234685209347 -596.63952401348433 0 -596.63952401348433 956.35563505951541 0 0 0 0 -152.30172439961461 -445.22568131048683 0 -445.22568131048683 1249.0967162056477 0 0 0 0 -69.461505968152778 -172.24362061343527 0 -172.24362061343527 1334.796574681086 0 0 0 0 79.754406173771713 -299.07442018833899 0 -299.07442018833899 1438.8628242669438 0 0 0 0 -147.73570406471845 -302.70996117108007 0 -302.70996117108007 1459.7293005789361 0 0 0 0 -62.980291654414032 -330.82646548024059 0 -330.82646548024059 1321.2314650912667 0 0 0 0 -114.32190020126291 -387.77623970880995 0 -387.77623970880995 1258.2989933168938 0 0 0 0 -249.53706528511248 -403.32573789287744 0 -403.32573789287744 1360.3785136052284 0 0 0 0 -79.175451581075322 -442.32905399358424 0 -442.32905399358424 1237.2457134725828 0 0 0 0 -63.937340867589228 -384.15435659025479 0 -384.15435659025479 1156.9577780917643 0 0 0 0 0.14338876090187114 -431.48107134973816 0 -431.48107134973816 771.30574115342461 0 0 0 0 -44.309614403202431 -623.72615377446891 0 -623.72615377446891 1255.3849781212193 0 0 0 0 216.56832715356722 -448.42290909758231 0 -448.42290909758231 94.886427574867412 0 0 0 0 128.82740272118826 -442.22287332699489 0 -442.22287332699489 764.8493568239428 0 0 0 0 112.10144320031395 -1058.9772482968401 0 -1058.9772482968401 765.98479733942077 0 0 0 0 436.49789554416202 -597.7708805181901 0 -597.7708805181901 -329.15472879841138 0 0 0 0 417.49232601723634 -671.84310043919322 0 -671.84310043919322 -419.48572580626933 0 0 0 0 244.0430938291538 -739.89471360647076 0 -739.89471360647076 658.20854748558122 0 0 0 0 38.911156697955448 -713.19647180841457 0 -713.19647180841457 670.5713182700747 0 0 0 0 0.60441476805135608 -1147.5550912811013 0 -1147.5550912811013 1659.3044255982477 0 0 0 0 430.54950372266467 -892.30996494949432 0 -892.30996494949432 830.54151605876177 0 0 0 0 -253.76760919240769 -622.28208793823796 0 -622.28208793823796 1611.4275891852967 0 0 0 0 -72.092237690114416 -1159.7641891901112 0 -1159.7641891901112 2960.0842288978711 0 0 0 0 -274.59613452357007 -456.56907645290812 0 -456.56907645290812 1949.1375656927048 0 0 0 0 -260.2567583892378 -30.136376583132005 0 -30.136376583132005 1561.3256753095811 0 0 0 0 -276.27028816117672 -132.16227602159779 0 -132.16227602159779 2624.714851296877 0 0 0 0 2.9275811633415287 202.58705904351973 0 202.58705904351973 175.34616446290602 0 0 0 0 -141.60269883018918 281.72884447522665 0 281.72884447522665 1555.749302467957 0 0 0 0 160.32055364057305 248.5238982673236 0 248.5238982673236 -299.76734647068588 0 0 0 0 155.55051650595851 -90.95140636494034 0 -90.95140636494034 -419.87569013508619 0 0 0 0 -1.8105053361853152 -7.3188983244435377 0 -7.3188983244435377 2.3114121252619046 0 0 0 0 -393.41565564152552 296.67829082493699 0 296.67829082493699 802.66776963313896 0 0 0 0 -4.7368240037920941 -0.29829661044354339 0 -0.29829661044354339 1.097839537393412 0 0 0 0 47.669518644397613 -52.904075662881951 0 -52.904075662881951 -21.294055891783501 0 0 0 0 -35.650218396403943 -82.767114800478339 0 -82.767114800478339 38.703902903762355 0 0 0 0 -43.082649917079834 -27.471670689761595 0 -27.471670689761595 -2.4965221357997507 0 0 0 0 -2.3848732444801186 -20.639327628031083 0 -20.639327628031083 -18.019066000286145 0 0 0 0 76.657590581729892 -57.972732697593528 0 -57.972732697593528 -111.60913541342597 0 0 0 0 -174.15746964050049 -257.63683451907127 0 -257.63683451907127 -158.62322993220187 0 0 0 0 0.2144669977232212 -32.231333876494404 0 -32.231333876494404 69.340330510373704 0 0 0 0 -120.19329942285549 -65.050502890753137 0 -65.050502890753137 39.631448216435274 0 0 0 0 20.821791939649728 -61.40936012480941 0 -61.40936012480941 32.559618562800857 0 0 0 0 -45.067531995218474 -52.121944192509346 0 -52.121944192509346 12.861314707518767 0 0 0 0 -104.30059305936447 -75.222941033070697 0 -75.222941033070697 44.594387346248681 0 0 0 0 -17.145027961036618 -35.439173870688734 0 -35.439173870688734 27.888319307513754 0 0 0 0 -15.661618011479732 -34.06302176234567 0 -34.06302176234567 29.57671708372709 0 0 0 0 8.0110060601051885 -8.0135909289268454 0 -8.0135909289268454 4.3849104246337252 0 0 0 0 74.29734579558135 -110.27471028655123 0 -110.27471028655123 54.074162671317026 0 0 0 0 -155.46967891212262 -49.297586489235073 0 -49.297586489235073 29.46120708856165 0 0 0 0 -133.07625059703423 -89.045940785946641 0 -89.045940785946641 4.2602676916030759 0 0 0 0 254.70225327551088 -1816.2666403593216 0 -1816.2666403593216 124.94916909068525 0 0 0 0 -965.90147011871886 -1015.9334851254789 0 -1015.9334851254789 -399.70750012093413 0 0 0 0 34.51654595907894 -132.73563160017784 0 -132.73563160017784 33.933901059727759 0 0 0 0 -69.836206077947281 -121.7450193769846 0 -121.7450193769846 56.027526172581929 0 0 0 0 -94.621776563799358 -41.883830731448143 0 -41.883830731448143 65.443381027120722 0 0 0 0 8.1926612896965878 -43.686422074737266 0 -43.686422074737266 38.203478313578572 0 0 0 0 -331.24593302817084 34.207477440133516 0 34.207477440133516 49.111281982470246 0 0 0 0 2.2438542143249265 -44.08617529179341 0 -44.08617529179341 11.355521975519615 0 0 0 0 12.026574278075714 -44.521846578159966 0 -44.521846578159966 -3.6826718695883756 0 0 0 0 206.32866326300427 -126.75472482134501 0 -126.75472482134501 -80.057741483605241 0 0 0 0 -8.3757127584246973 -45.717954508749379 0 -45.717954508749379 -13.405862490788936 0 0 0 0 -532.78329010537709 1.5226960047657485 0 1.5226960047657485 191.31620303970521 0 0 0 0 1.6362520491322812 -11.817322101620846 0 -11.817322101620846 -1.2764703269464821 0 0 0 0 -21.918532046373002 -109.49253015946033 0 -109.49253015946033 67.276556426822935 0 0 0 0 -2.8914993006676468 -1.4851438107326658 0 -1.4851438107326658 0.26038455380631831 0 0 0 0 -404.22417744691484 21.206424440388218 0 21.206424440388218 -2.7893998207582626 0 0 0 0 23.329426062759012 -95.906274043831218 0 -95.906274043831218 9.0694677340616181 0 0 0 0 -78.463728380855173 -194.91749734249061 0 -194.91749734249061 -9.56073865788494 0 0 0 0 37.852564031461952 -89.561572540753332 0 -89.561572540753332 20.589709801188292 0 0 0 0 19.989697098550096 -59.68771662953975 0 -59.68771662953975 93.616706773482292 0 0 0 0 -97.470349574054126 3.5276401241708299 0 3.5276401241708299 24.330958256543454 0 0 0 0 -1.1039435784623493 -10.832673794964649 0 -10.832673794964649 50.437982950861624 0 0 0 0 -251.54511192705831 110.02984826614465 0 110.02984826614465 33.195223184897259 0 0 0 0 -13.581294441617729 -3.7293760516865007 0 -3.7293760516865007 3.8837730521191816 0 0 0 0 -31.238808457094621 -35.722316721149468 0 -35.722316721149468 0.19962944815918604 0 0 0 0 -104.78606371064961 -112.18270596831007 0 -112.18270596831007 -44.982406715310617 0 0 0 0 -40.767292188502324 -31.702708692432225 0 -31.702708692432225 1.9421393870397878 0 0 0 0 266.14292836244567 -118.28027665673471 0 -118.28027665673471 -58.735402024714858 0 0 0 0 -34.023203170207637 -13.658354334459403 0 -13.658354334459403 3.7669126980488929 0 0 0 0 -5.7406020357157104 -134.04658921098235 0 -134.04658921098235 -3.7236291306562634 0 0 0 0 -68.721975634531873 -13.53002526963337 0 -13.53002526963337 5.4413830602420781 0 0 0 0 -53.906075301434612 59.154263281041494 0 59.154263281041494 436.76785956014646 0 0 0 0 -1.6316190589964208 -4.6542113729662447 0 -4.6542113729662447 -6.8768604696327671 0 0 0 0 -28.735045790684978 -23.713959532828937 0 -23.713959532828937 -18.545139004171709 0 0 0 0 -11.439778728847159 -552.11483488305385 0 -552.11483488305385 -109.82946132493998 0 0 0 0 -168.00713607638318 -74.936657986979299 0 -74.936657986979299 -41.473449581882505 0 0 0 0 462.46786778845853 -342.1276930331519 0 -342.1276930331519 -124.13379311396784 0 0 0 0 258.81358817557339 -20.017793225489186 0 -20.017793225489186 121.95256432077076 0 0 0 0 -9.929132011384354 -33.223984444933194 0 -33.223984444933194 116.82605563267862 0 0 0 0 83.103474798204843 -125.50389239991455 0 -125.50389239991455 123.80136114026436 0 0 0 0 47.681143124063965 -128.04325509915543 0 -128.04325509915543 116.21460154755096 0 0 0 0 103.15126400673762 -104.69574787107013 0 -104.69574787107013 63.516763952658948 0 0 0 0 5.816947795181477 22.539972855375709 0 22.539972855375709 77.753038579057829 0 0 0 0 -8.190118328239663 -11.803466705838446 0 -11.803466705838446 -7.8318535107395846 0 0 0 0 107.78627060163126 -126.9373017832504 0 -126.9373017832504 152.02487004113937 0 0 0 0 170.94921052409336 -150.65154074153543 0 -150.65154074153543 62.102184635284175 0 0 0 0 -11.603416484503498 -9.734547142344212 0 -9.734547142344212 -7.3039451232950752 0 0 0 0 36.322431932101608 -115.58148532327505 0 -115.58148532327505 67.707998895664787 0 0 0 0 99.294630632677581 -99.52724596169719 0 -99.52724596169719 41.393466012119461 0 0 0 0 148.15434978276608 -107.7362528098538 0 -107.7362528098538 28.415635927322 0 0 0 0 97.586042366980109 -149.66938572272556 0 -149.66938572272556 59.808363446550857 0 0 0 0 138.83423103019595 -224.2870186569732 0 -224.2870186569732 254.21189427611739 0 0 0 0 138.61741884535877 -220.39474613364501 0 -220.39474613364501 185.16400128910584 0 0 0 0 -22.069605492753908 76.162333894701078 0 76.162333894701078 18.160905876997276 0 0 0 0 0.2922617618314689 -169.85867508086676 0 -169.85867508086676 234.99424099988937 0 0 0 0 -7.5106590262203099 -3.0125057034665019 0 -3.0125057034665019 0.17859879045111526 0 0 0 0 192.22110252385028 -781.77714624812688 0 -781.77714624812688 -1027.6604105002475 0 0 0 0 -89.848687552206684 -218.07662027217248 0 -218.07662027217248 -1025.0485153999834 0 0 0 0 -2.1027977657502106 -4.5374313921579983 0 -4.5374313921579983 -3.431493158872847 0 0 0 0 -713.83134469199285 -434.13878485933128 0 -434.13878485933128 -346.33878406378244 0 0 0 0 -366.3594995472813 -896.72178135670492 0 -896.72178135670492 -126.85319138467094 0 0 0 0 120.57208635684219 -1009.9884147090615 0 -1009.9884147090615 -117.12608147483843 0 0 0 0 -1.3556958876142744 -1078.1431984741148 0 -1078.1431984741148 -223.17616267542326 0 0 0 0 -71.469378852169029 -471.26699598219602 0 -471.26699598219602 576.1743023429699 0 0 0 0 5.0567660261181464 -1112.7547583301855 0 -1112.7547583301855 1096.7222703874795 0 0 0 0 -447.37188779734424 -164.09835374812246 0 -164.09835374812246 3399.1760904032053 0 0 0 0 -188.87573205074295 190.33678467510617 0 190.33678467510617 -244.97144385624415 0 0 0 0 8.2485958726571198 -3.5155303564917517 0 -3.5155303564917517 -0.39800405380179882 0 0 0 0 -27.955409407408666 -1316.7907876486886 0 -1316.7907876486886 1664.8660199776932 0 0 0 0 1.8205860965292118 -2.7211566512762317 0 -2.7211566512762317 9.9686869247135235 0 0 0 0 780.55901008658111 2311.7449664868873 0 2311.7449664868873 3351.2212688659201 0 0 0 0 1245.0853723497421 -181.94136944109232 0 -181.94136944109232 475.95764414146834 0 0 0 0 -1561.7187414486739 365.57319655037554 0 365.57319655037554 2293.7137909279409 0 0 0 0 -784.72073868333246 -378.89883495810318 0 -378.89883495810318 710.53362291651138 0 0 0 0 -69.074969982320908 -628.27215801789862 0 -628.27215801789862 760.01859065949611 0 0 0 0 -1576.2589802924435 877.01728026878186 0 877.01728026878186 523.94115545573368 0 0 0 0 -783.10198670776708 -420.69661107268615 0 -420.69661107268615 50.319878907113889 0 0 0 0 -7.4613514643820054 -7.2306191419768595 0 -7.2306191419768595 -6.9528254014639614 0 0 0 0 21.070469020341989 -287.05255082621625 0 -287.05255082621625 414.24313580759667 0 0 0 0 -191.2118202589736 -241.78000557425048 0 -241.78000557425048 987.99034403688347 0 0 0 0 -59.952340956864646 -199.64319914354019 0 -199.64319914354019 981.85082802021486 0 0 0 0 138.37273030036886 -621.16518856871153 0 -621.16518856871153 1284.2243038436391 0 0 0 0 20.579289855028037 78.626189217549836 0 78.626189217549836 1299.3776859723193 0 0 0 0 15.03032853739569 -152.03145847288943 0 -152.03145847288943 608.15638961270815 0 0 0 0 -69.156532351276837 24.541950757473387 0 24.541950757473387 -43.760086831367516 0 0 0 0 -0.96871426122379489 -144.58162253448108 0 -144.58162253448108 609.68755545512965 0 0 0 0 97.774457058141707 -79.442276890586072 0 -79.442276890586072 12.39634441461385 0 0 0 0 73.908036885550246 -66.477146293247642 0 -66.477146293247642 -205.74454008723842 0 0 0 0 14.609335318505032 -16.941647453107606 0 -16.941647453107606 5.6926542002860714 0 0 0 0 -2.8996911240974441 -34.388557002879679 0 -34.388557002879679 -51.688312011719972 0 0 0 0 23.885418416117318 -51.403978087677388 0 -51.403978087677388 -63.128858593190671 0 0 0 0 -4.7006712895096143 -21.622354351330827 0 -21.622354351330827 30.787223402633597 0 0 0 0 27.770498923769708 -0.70075763416213022 0 -0.70075763416213022 -46.926547307795218 0 0 0 0 -21.361638030415634 -0.63173939369880827 0 -0.63173939369880827 -14.036760857066838 0 0 0 0 25.481509592651264 -42.248495293834253 0 -42.248495293834253 36.349099762319483 0 0 0 0 15.137240268847279 -12.131889791078351 0 -12.131889791078351 7.0333795123911784 0 0 0 0 -4.7006167058934807 -0.38523112743277466 0 -0.38523112743277466 0.25418162385761178 0 0 0 0 -27.80544502713019 -567.04223954249755 0 -567.04223954249755 -873.9520995407438 0 0 0 0 31.384980314527638 -66.172477290048846 0 -66.172477290048846 4.7924280204315437 0 0 0 0 29.162387090722063 -16.006903819597824 0 -16.006903819597824 -20.817571702495442 0 0 0 0 -41.717467862268677 -92.252996852428623 0 -92.252996852428623 27.793120766496941 0 0 0 0 0.22775018188985996 -485.4248304995308 0 -485.4248304995308 -944.51119396820286 0 0 0 0 1.2666173804482241 2.8949003667616466 0 2.8949003667616466 -3.0337734459373422 0 0 0 0 -72.035306567675434 72.127644840595167 0 72.127644840595167 128.51006809683167 0 0 0 0 -0.0023691974562905791 -123.55719607929467 0 -123.55719607929467 -27.766758949182986 0 0 0 0 -943.88660912752675 969.85879332079821 0 969.85879332079821 2068.1610868610351 0 0 0 0 187.20232551638037 -271.15587894284545 0 -271.15587894284545 183.47250229350175 0 0 0 0 5.7180556037464498 -18.322696708592048 0 -18.322696708592048 31.460633195465718 0 0 0 0 -408.15707525283506 -451.1748129582661 0 -451.1748129582661 -317.90472789425598 0 0 0 0 -263.54805572388432 -465.64454040705186 0 -465.64454040705186 -656.84008817473841 0 0 0 0 -242.60636899219389 -424.08193163946089 0 -424.08193163946089 -434.33733334332828 0 0 0 0 -253.81578139665362 -242.28444918833156 0 -242.28444918833156 -204.85455278228801 0 0 0 0 -169.55562143311545 -286.145373502035 0 -286.145373502035 -354.35660509375884 0 0 0 0 -219.80859091791353 -283.43287861688805 0 -283.43287861688805 -156.14212343148051 0 0 0 0 -93.618035386065458 -164.50704540312654 0 -164.50704540312654 -177.39963693743084 0 0 0 0 -67.079400631882891 -251.21471044553527 0 -251.21471044553527 5.2542001366864497 0 0 0 0 37.850653235076607 -129.32447406761912 0 -129.32447406761912 -108.7921132105439 0 0 0 0 -28.422645309561631 -218.01664852103841 0 -218.01664852103841 -136.02681714609753 0 0 0 0 -43.237071749779716 -195.948089896488 0 -195.948089896488 -167.53093367955989 0 0 0 0 -253.37101611923936 -249.25973140474525 0 -249.25973140474525 -326.19721687331912 0 0 0 0 -147.00834442394989 -344.02110052041826 0 -344.02110052041826 -241.96806488877337 0 0 0 0 -200.91417913259011 -581.55805903755538 0 -581.55805903755538 -651.36193308687416 0 0 0 0 -176.7769555841769 -440.42446096995729 0 -440.42446096995729 22.862447413898735 0 0 0 0 -100.97773957261234 -323.84681502399098 0 -323.84681502399098 -234.83923543308106 0 0 0 0 -709.68459286531288 -562.60928630311196 0 -562.60928630311196 -0.2977281036974091 0 0 0 0 -584.06802622444957 -906.73330274291675 0 -906.73330274291675 911.6126226180786 0 0 0 0 -392.87986398358771 -1012.6158968537443 0 -1012.6158968537443 -141.15130583348764 0 0 0 0 -254.62158870246276 -990.55076104839054 0 -990.55076104839054 -1692.4552034447067 0 0 0 0 -505.34422228245967 -652.71294110153667 0 -652.71294110153667 -587.41080587514045 0 0 0 0 -334.32344018431832 -820.84232698826554 0 -820.84232698826554 -1150.7583434346489 0 0 0 0 -82.33972848261692 406.75354411423962 0 406.75354411423962 1919.0146775461099 0 0 0 0 23.479276802963511 -29.503102738379116 0 -29.503102738379116 20.86140217817162 0 0 0 0 -131.42333839896673 90.66916799800947 0 90.66916799800947 1196.9598837616795 0 0 0 0 115.50896629993076 15.615034752813813 0 15.615034752813813 843.87495766623761 0 0 0 0 -249.71859208267779 -581.88779244465013 0 -581.88779244465013 -629.05801520854629 0 0 0 0 43.083631513720647 -46.352347700259905 0 -46.352347700259905 31.135930808538898 0 0 0 0 -266.22627176582682 -493.30488891149298 0 -493.30488891149298 -742.17216184329573 0 0 0 0 -278.15599250873129 -166.64674979209349 0 -166.64674979209349 686.81467455102643 0 0 0 0 -61.766635096561004 95.173644630739659 0 95.173644630739659 751.0383863283223 0 0 0 0 47.595776669899351 -289.84985480428804 0 -289.84985480428804 541.99249265063645 0 0 0 0 69.637503976399159 -59.049153905739097 0 -59.049153905739097 37.218603152827015 0 0 0 0 -171.53380029015534 -558.9263595537368 0 -558.9263595537368 -763.54769899982966 0 0 0 0 -218.54904043534771 -335.09877783622051 0 -335.09877783622051 -177.78067244948306 0 0 0 0 -218.99483719676533 -531.40861150510636 0 -531.40861150510636 -567.5848406449204 0 0 0 0 -334.89651088094251 -617.75155130325129 0 -617.75155130325129 -432.30394813310886 0 0 0 0 -406.14558385273085 -591.39044356954696 0 -591.39044356954696 -495.18326750783581 0 0 0 0 -282.48103037145847 -545.43294853388579 0 -545.43294853388579 -557.89023807214835 0 0 0 0 -167.80711931833503 -436.432085808593 0 -436.432085808593 -462.24237660181757 0 0 0 0 -294.99755495006684 -504.43219790545481 0 -504.43219790545481 -421.04719638701499 0 0 0 0 18.224714643605694 -534.91180823007744 0 -534.91180823007744 -536.18896093156218 0 0 0 0 -880.15552547153493 -460.40196078480403 0 -460.40196078480403 -369.38293715748932 0 0 0 0 648.71684163430837 -227.67168845738433 0 -227.67168845738433 -425.85873216591244 0 0 0 0 0.96706990081488442 0.88582830023744918 0 0.88582830023744918 -0.89707708770169603 0 0 0 0 190.24637373124824 -227.58640001829417 0 -227.58640001829417 -418.46732290041837 0 0 0 0 120.14828477089395 -197.67392036904221 0 -197.67392036904221 133.71801001349013 0 0 0 0 -421.88695851641387 -382.39258085299844 0 -382.39258085299844 -697.34936994697864 0 0 0 0 -570.11435934984911 -511.14924980780961 0 -511.14924980780961 -749.31017239632274 0 0 0 0 -198.87005438135384 -213.01014323343952 0 -213.01014323343952 -607.26217783362881 0 0 0 0 -552.4599296878805 -310.38400802674278 0 -310.38400802674278 66.719184304249211 0 0 0 0 -412.54742970558436 -121.55486869410652 0 -121.55486869410652 -59.067695807148993 0 0 0 0 -553.5519925565668 -136.34788275161372 0 -136.34788275161372 -57.975906294090237 0 0 0 0 -511.81807412839771 -194.04456015945561 0 -194.04456015945561 23.500897025485756 0 0 0 0 -437.40788243211864 -216.8417668650327 0 -216.8417668650327 -80.117272220326413 0 0 0 0 -596.71561642683082 -315.83917207123886 0 -315.83917207123886 -122.98481376765267 0 0 0 0 -406.00659013105906 -217.01851059626915 0 -217.01851059626915 29.645162566728686 0 0 0 0 -402.39001441322034 -219.92519662898121 0 -219.92519662898121 29.608713243396778 0 0 0 0 -402.95599790640335 -218.36154821549144 0 -218.36154821549144 25.402095239111077 0 0 0 0 -437.47102968785475 -269.95396583204001 0 -269.95396583204001 38.800478350287449 0 0 0 0 -258.02847498007031 -327.79578701337778 0 -327.79578701337778 15.390460925401385 0 0 0 0 1.4128449536481185 -0.74924588420928728 0 -0.74924588420928728 0.11790868451657133 0 0 0 0 130.69198228510686 -303.19997711743014 0 -303.19997711743014 189.14654652551144 0 0 0 0 149.39168081164098 -53.838790514373613 0 -53.838790514373613 89.523995064516839 0 0 0 0 -350.82679057026326 -168.59991941086355 0 -168.59991941086355 -30.330260743961844 0 0 0 0 -5.0371160499756336 -21.415941859014765 0 -21.415941859014765 -6.1337374189152385 0 0 0 0 15.929827580431265 -148.26109970539051 0 -148.26109970539051 28.290356405006605 0 0 0 0 -92.035800478864985 -124.20884328763623 0 -124.20884328763623 112.21471862409089 0 0 0 0 128.66335876806261 -151.04428560544966 0 -151.04428560544966 -109.91362010752709 0 0 0 0 -44.360157543220339 -206.74693928820943 0 -206.74693928820943 140.60626511900591 0 0 0 0 -91.490976700730243 -176.5319303407814 0 -176.5319303407814 -15.381641853920883 0 0 0 0 -13.704502292684595 -112.03848819023015 0 -112.03848819023015 51.870707229750707 0 0 0 0 -36.254980860983778 -194.20487198258616 0 -194.20487198258616 150.70491777984171 0 0 0 0 -84.469243790816108 -81.62736707523618 0 -81.62736707523618 55.954110270065939 0 0 0 0 -82.216496116598137 -111.06452645909576 0 -111.06452645909576 396.47388606445202 0 0 0 0 -131.99663683358813 -216.02012635792653 0 -216.02012635792653 -316.03839890703148 0 0 0 0 2.7387628125894992 -2.2145279762478154 0 -2.2145279762478154 0.73136218537724673 0 0 0 0 -16.274712650258152 -208.01635418982369 0 -208.01635418982369 -107.68121462465297 0 0 0 0 -140.84770336046495 -177.73385303083342 0 -177.73385303083342 -195.09703315317893 0 0 0 0 -125.09145701467423 -232.72722500382065 0 -232.72722500382065 -269.06080109406503 0 0 0 0 -39.584124049611091 -256.32817260010938 0 -256.32817260010938 -302.51374058399051 0 0 0 0 -49.263160842565412 -45.698822712723086 0 -45.698822712723086 322.62068259836087 0 0 0 0 14.587921066464332 -29.070807160926051 0 -29.070807160926051 -49.227206800858312 0 0 0 0 3.2484447219816843 -1.7349382232586592 0 -1.7349382232586592 0.36055350687331256 0 0 0 0 -80.277327999727277 -84.859902796561983 0 -84.859902796561983 -125.56356309763021 0 0 0 0 -97.820036454246292 -102.9757755585224 0 -102.9757755585224 -24.062718959490667 0 0 0 0 135.66938128766924 -193.87160396364197 0 -193.87160396364197 -289.95750932872215 0 0 0 0 -123.13359830946138 -86.496811431019069 0 -86.496811431019069 78.874280563373759 0 0 0 0 34.44499867324248 167.24465197777499 0 167.24465197777499 -153.84891125443028 0 0 0 0 93.028412529574595 -54.799367913783996 0 -54.799367913783996 4.9331093238136177 0 0 0 0 -132.40573742102424 -353.69793227020909 0 -353.69793227020909 -144.74143263740552 0 0 0 0 -57.98100346702995 -184.14998161401536 0 -184.14998161401536 -200.5499717014045 0 0 0 0 94.996760731618224 -94.594843571724837 0 -94.594843571724837 -16.068811470242252 0 0 0 0 -185.93203158763936 -323.05316744937409 0 -323.05316744937409 -159.83225432825202 0 0 0 0 86.502649136047694 -31.106915570749152 0 -31.106915570749152 70.163262449972535 0 0 0 0 -178.62878274191462 -581.14715230007278 0 -581.14715230007278 -156.5410945515905 0 0 0 0 -81.120317783796168 -171.12251201414637 0 -171.12251201414637 90.556942233013501 0 0 0 0 -686.30054010836466 -335.82762423949316 0 -335.82762423949316 1288.0764913992607 0 0 0 0 930.80877552185848 -198.88085455271721 0 -198.88085455271721 -936.13519745125086 0 0 0 0 -349.21490656935202 -258.86976621431677 0 -258.86976621431677 531.29652330020508 0 0 0 0 -23.32566607961337 -163.39671062657396 0 -163.39671062657396 58.792055322154326 0 0 0 0 -67.683344217919512 -225.96363719442888 0 -225.96363719442888 -49.478858220442362 0 0 0 0 -12.594646285957424 -187.25899727524029 0 -187.25899727524029 -31.848019869708878 0 0 0 0 -3.7328543828407419 -197.37130973737931 0 -197.37130973737931 -87.271157727042009 0 0 0 0 15.014791791807141 -172.09659633599745 0 -172.09659633599745 63.622016750685724 0 0 0 0 -341.97227762618832 -133.22822135738284 0 -133.22822135738284 -7.6967381733993534 0 0 0 0 -40.532367758707551 -331.12105591990985 0 -331.12105591990985 -637.34060516268073 0 0 0 0 -99.405684164725244 -383.59437300004356 0 -383.59437300004356 -176.51082976277485 0 0 0 0 49.37059898453299 -260.90320298853476 0 -260.90320298853476 -622.69517663680017 0 0 0 0 29.261149960082548 -345.57671529125946 0 -345.57671529125946 -322.17026714399981 0 0 0 0 193.23874813862494 -404.93975710913946 0 -404.93975710913946 -822.05413479075651 0 0 0 0 168.01787105592666 -255.40922968487394 0 -255.40922968487394 -67.612389915317181 0 0 0 0 49.261753644868378 -174.71157760835865 0 -174.71157760835865 62.007004218620018 0 0 0 0 41.7871347380933 -126.01203107453193 0 -126.01203107453193 35.383598927979619 0 0 0 0 17.90603126908718 -259.7957562010813 0 -259.7957562010813 223.20095688405127 0 0 0 0 140.09589673452138 -157.46978167110865 0 -157.46978167110865 283.60603081640056 0 0 0 0 80.047302894051427 -370.00446729409691 0 -370.00446729409691 562.92240708272766 0 0 0 0 94.956198972038692 -310.87573160096781 0 -310.87573160096781 -909.7057466579713 0 0 0 0 -26.495411000127262 -9.4282439062398495 0 -9.4282439062398495 -4.1666680833828078 0 0 0 0 486.24299209455785 -220.57702553401259 0 -220.57702553401259 -2631.4578958695674 0 0 0 0 -152.64721009498317 -381.78809200652768 0 -381.78809200652768 996.44629365878973 0 0 0 0 -151.00804562096891 -556.2832281404576 0 -556.2832281404576 277.95602944159509 0 0 0 0 -9.0702140913585936 -2.4624654588440098 0 -2.4624654588440098 -1.3652772434974336 0 0 0 0 -33.045284723659279 -571.24376913534434 0 -571.24376913534434 -387.54301672067959 0 0 0 0 397.78600898210425 -241.75215374166828 0 -241.75215374166828 -862.17558258844701 0 0 0 0 252.6883114456723 -164.91630961979354 0 -164.91630961979354 -276.2672024607491 0 0 0 0 39.095483262935886 -185.25117620122546 0 -185.25117620122546 241.26187945454149 0 0 0 0 348.97748207520635 -32.432167330016455 0 -32.432167330016455 -337.13955293569836 0 0 0 0 2.1871959468371642 0.023681121937286775 0 0.023681121937286775 -0.47954149761066844 0 0 0 0 87.157738863329584 -46.254866838108725 0 -46.254866838108725 -17.871637327385415 0 0 0 0 22.989924739231355 -340.4524725053343 0 -340.4524725053343 -196.28916139080957 0 0 0 0 -67.653534544224385 -322.17561137672146 0 -322.17561137672146 24.913958839675615 0 0 0 0 -103.01609856678988 -260.17200647107711 0 -260.17200647107711 -83.796680504467076 0 0 0 0 54.734680783352815 -394.35457007069454 0 -394.35457007069454 -104.81086964739734 0 0 0 0 367.79963509038498 142.26024737178523 0 142.26024737178523 -226.15238259700709 0 0 0 0 -15.142258806605241 -190.77529009914724 0 -190.77529009914724 -281.32256533648251 0 0 0 0 11.572957922558999 -192.28078126458422 0 -192.28078126458422 -303.79515033628559 0 0 0 0 20.395106318269882 -367.89032312570498 0 -367.89032312570498 -1015.3010098971281 0 0 0 0 4.4853389108716897 6.283352643524438 0 6.283352643524438 -8.6618497976919002 0 0 0 0 3.1445088905602745 2.2655283509588742 0 2.2655283509588742 -5.7923109506029391 0 0 0 0 267.0397720523506 -263.17142649280868 0 -263.17142649280868 -808.98400109013892 0 0 0 0 45.486797933379421 -295.3075659792521 0 -295.3075659792521 -196.15727299307764 0 0 0 0 96.468279619773057 -41.561504282312853 0 -41.561504282312853 -635.59743971143325 0 0 0 0 76.112968074014418 -181.90476968063223 0 -181.90476968063223 74.045640183506379 0 0 0 0 -334.46277530129009 -606.99988393401145 0 -606.99988393401145 -449.56074524042197 0 0 0 0 24.013121033164559 -65.888246515641555 0 -65.888246515641555 -21.770808306804838 0 0 0 0 40.199267433301429 622.48563602273498 0 622.48563602273498 207.87034299937659 0 0 0 0 300.96383731762398 -492.30390164640448 0 -492.30390164640448 -513.44113410658611 0 0 0 0 155.38372318664915 -474.34586708885763 0 -474.34586708885763 -589.07494602663792 0 0 0 0 206.68754754939437 -211.9121853395045 0 -211.9121853395045 -802.54892035522062 0 0 0 0 70.194126653092098 -267.17599118831731 0 -267.17599118831731 210.41060777671737 0 0 0 0 6.412781386730785 -149.69491400249171 0 -149.69491400249171 307.03867577930396 0 0 0 0 -90.678557268438453 -332.70981663732732 0 -332.70981663732732 -565.24406374511182 0 0 0 0 1.9971126518285303 -48.861234919889441 0 -48.861234919889441 9.9208434635069764 0 0 0 0 -138.72525601358211 -196.21251012793437 0 -196.21251012793437 -102.5153217939079 0 0 0 0 -35.431709162560253 -32.275929550015967 0 -32.275929550015967 2.4503744864730326 0 0 0 0 81.801286642570631 -236.45091012012199 0 -236.45091012012199 142.52727750946815 0 0 0 0 21.395182538180961 -263.39698309521918 0 -263.39698309521918 312.51822318710038 0 0 0 0 15.002843379979822 -194.75733661058257 0 -194.75733661058257 251.00205457890115 0 0 0 0 -10.990833170861151 -179.55355995867831 0 -179.55355995867831 60.294193584937602 0 0 0 0 3.9120821806095343 -128.58401216933919 0 -128.58401216933919 107.09681193158679 0 0 0 0 18.379097898199689 -142.92637607400684 0 -142.92637607400684 -27.649895327034756 0 0 0 0 -4.6754991087184408 -117.79868117573443 0 -117.79868117573443 59.069794734695201 0 0 0 0 -28.098040364653571 -50.660100045854051 0 -50.660100045854051 88.825780256098369 0 0 0 0 -30.174342439072745 -99.379338096674957 0 -99.379338096674957 -6.4472923464233247 0 0 0 0 -2.9987862121779472 -96.631028373628396 0 -96.631028373628396 -10.211904766517819 0 0 0 0 -54.107247193765943 -154.26940089176787 0 -154.26940089176787 155.76346076725167 0 0 0 0 12.023299977103306 -100.37051567963181 0 -100.37051567963181 -14.676224430483217 0 0 0 0 38.06745860396768 -120.2964186292329 0 -120.2964186292329 -17.957308697275948 0 0 0 0 24.494697439455194 -152.85930347824933 0 -152.85930347824933 -88.17316155804474 0 0 0 0 -11.243361849821667 -127.02331423207238 0 -127.02331423207238 -18.334100766060146 0 0 0 0 -10.218508721866158 -114.04993817383252 0 -114.04993817383252 -9.9877919915044373 0 0 0 0 -18.993454593190108 -147.31506356991031 0 -147.31506356991031 33.134344181347842 0 0 0 0 -23.860076195458532 -162.37566116458311 0 -162.37566116458311 -9.324891455851855 0 0 0 0 -9.0284791856247466 -130.37361144552688 0 -130.37361144552688 111.17239528724167 0 0 0 0 -37.429044841236589 -82.642059724892874 0 -82.642059724892874 26.003764762703682 0 0 0 0 52.542096761695575 -80.87873966643474 0 -80.87873966643474 -60.226545894315734 0 0 0 0 72.538376899639843 -10.171597756754181 0 -10.171597756754181 -67.589164215754977 0 0 0 0 68.501888467964818 -86.996514339326723 0 -86.996514339326723 -68.039073864462807 0 0 0 0 61.759543719312205 -42.90081045649373 0 -42.90081045649373 5.218011190226207 0 0 0 0 13.692025739459496 -100.4826571730955 0 -100.4826571730955 -20.457639523981015 0 0 0 0 13.850800853031018 -38.947732577396849 0 -38.947732577396849 12.008546657764885 0 0 0 0 93.488030490741949 -34.723551857199936 0 -34.723551857199936 -29.675348531216059 0 0 0 0 -505.30683134591527 -165.87633605132174 0 -165.87633605132174 116.14703496905315 0 0 0 0 -646.13654468911409 -321.63323225952911 0 -321.63323225952911 -47.008101210396035 0 0 0 0 -99.914615354944544 -247.430495908176 0 -247.430495908176 -39.388595454771348 0 0 0 0 -82.952338323753793 -460.9554647904597 0 -460.9554647904597 -282.54106078504901 0 0 0 0 -231.86062055911316 -618.99242925156318 0 -618.99242925156318 208.37150160492274 0 0 0 0 -278.7753189915893 -703.54098595638459 0 -703.54098595638459 161.80714980167659 0 0 0 0 105.66097024509509 -695.1526674519846 0 -695.1526674519846 188.9509660775343 0 0 0 0 -336.94107502615952 -608.90284636906495 0 -608.90284636906495 567.82787462584429 0 0 0 0 25.590997225692263 -429.88867177499446 0 -429.88867177499446 232.80238197231733 0 0 0 0 -434.2401376394846 -371.91860726862831 0 -371.91860726862831 159.36710162730395 0 0 0 0 -280.2510191584006 -6.4096069665862387 0 -6.4096069665862387 469.14199239975505 0 0 0 0 -908.5563119258295 37.411182055287668 0 37.411182055287668 401.10954433614063 0 0 0 0 -331.83900407757028 -145.7617857975917 0 -145.7617857975917 109.378233089692 0 0 0 0 -522.24568041895691 143.27232259025845 0 143.27232259025845 318.13470428746768 0 0 0 0 -910.53123268880881 -21.29367539046666 0 -21.29367539046666 227.51910577971717 0 0 0 0 -934.25661489338381 27.082380256571469 0 27.082380256571469 349.19887360825686 0 0 0 0 -1479.6252364960528 -29.23618118675688 0 -29.23618118675688 263.19518146041599 0 0 0 0 -1402.8467253315539 136.66582425008198 0 136.66582425008198 93.938105810748084 0 0 0 0 -964.84888440375653 -677.91280750782903 0 -677.91280750782903 -348.62862959046629 0 0 0 0 -953.76664305606391 199.81325610985562 0 199.81325610985562 -62.839265360990794 0 0 0 0 -696.99626489607908 -661.39008020553479 0 -661.39008020553479 -159.40917999332237 0 0 0 0 -2.9042376073291223 -12.513693680525243 0 -12.513693680525243 4.4556695350153968 0 0 0 0 84.837957125055254 4.6267373456447558 0 4.6267373456447558 -64.094908901088303 0 0 0 0 59.279323652927786 -11.331869301315107 0 -11.331869301315107 -3.6360079059432131 0 0 0 0 17.052275803369412 -16.066765897459931 0 -16.066765897459931 46.573173040381789 0 0 0 0 -379.5053104806575 -209.06509355653304 0 -209.06509355653304 -136.49895757936793 0 0 0 0 10.90449176441561 -2.9669239976539643 0 -2.9669239976539643 -2.491467583662081 0 0 0 0 -891.43862815004104 -126.7474491240699 0 -126.7474491240699 -119.53458705837693 0 0 0 0 -95.480516758951126 321.39375711815819 0 321.39375711815819 105.79566298813461 0 0 0 0 184.38316415489317 -305.78811213490184 0 -305.78811213490184 -442.19633324519009 0 0 0 0 104.19627517704794 -411.52081208215213 0 -411.52081208215213 784.67723055241004 0 0 0 0 170.60735291358651 -257.82404201671147 0 -257.82404201671147 1096.3284063415504 0 0 0 0 95.168672050269379 -297.69777038986598 0 -297.69777038986598 137.04879735634881 0 0 0 0 -9.3703522908112404 -4.5444564710918343 0 -4.5444564710918343 -0.73278019398317706 0 0 0 0 67.617304184168461 -32.206577006153339 0 -32.206577006153339 20.527756752945606 0 0 0 0 55.392218018649146 60.714548687113222 0 60.714548687113222 85.252007236764598 0 0 0 0 68.724438553234094 -40.419435920318151 0 -40.419435920318151 -25.462678419718614 0 0 0 0 26.263273678376208 -67.51409366710061 0 -67.51409366710061 -60.166101146508481 0 0 0 0 38.339781246115308 -54.438681755038033 0 -54.438681755038033 -134.96513160001632 0 0 0 0 82.945457622940012 -95.662926846197479 0 -95.662926846197479 -125.48435697380296 0 0 0 0 136.40754644783738 -295.00050271547661 0 -295.00050271547661 106.0839691288611 0 0 0 0 261.78247331671082 -101.37590156433862 0 -101.37590156433862 -191.27321142433357 0 0 0 0 -329.52981468482176 375.20358345998557 0 375.20358345998557 258.60917856776825 0 0 0 0 -598.43182081461418 -186.43751717432679 0 -186.43751717432679 146.86710156519621 0 0 0 0 -504.77844094288412 -789.38542518020631 0 -789.38542518020631 -741.52812628745414 0 0 0 0 -80.893938165660074 -173.36926975150232 0 -173.36926975150232 -224.02435796941609 0 0 0 0 266.24706346794846 -34.641134534030243 0 -34.641134534030243 -658.29122262110695 0 0 0 0 151.14258253281878 -747.6063417878122 0 -747.6063417878122 -226.20267828050265 0 0 0 0 126.15227846328344 -486.85041938856966 0 -486.85041938856966 -676.97952884785536 0 0 0 0 -48.960728622303577 -21.044693741393303 0 -21.044693741393303 -1000.5822970020236 0 0 0 0 462.03963692771504 -710.22276018451248 0 -710.22276018451248 -709.67569636693679 0 0 0 0 494.59849100696738 -400.86278194607303 0 -400.86278194607303 -401.85099042120237 0 0 0 0 100.04550613772881 -705.86803961466228 0 -705.86803961466228 154.47979495572235 0 0 0 0 572.97020387853263 -790.67024850189898 0 -790.67024850189898 529.77784556709548 0 0 0 0 552.25494868282112 -691.95209158017315 0 -691.95209158017315 95.040460072207225 0 0 0 0 102.53697276680032 -712.58016787534575 0 -712.58016787534575 606.15194826334118 0 0 0 0 230.65157454407017 378.10766004949187 0 378.10766004949187 154.74823728864425 0 0 0 0 271.10298082474037 98.648011556106582 0 98.648011556106582 665.96382448287375 0 0 0 0 983.21243888526806 -107.61584088881341 0 -107.61584088881341 -221.85189200836811 0 0 0 0 493.20087707354105 -685.41083716366325 0 -685.41083716366325 111.00552913767024 0 0 0 0 1250.0915836064232 37.850372211191939 0 37.850372211191939 11.034844367124606 0 0 0 0 21.318723911304318 0.012933579892319358 0 0.012933579892319358 -9.0137527846158143 0 0 0 0 1271.2684879890585 -116.0142750857533 0 -116.0142750857533 439.31107356924542 0 0 0 0 395.9272704318646 -976.74605596813353 0 -976.74605596813353 1323.8857520603806 0 0 0 0 462.17572969904177 -568.08461150877133 0 -568.08461150877133 665.77582635481986 0 0 0 0 2323.6209425112465 -106.64776869764793 0 -106.64776869764793 13.168898393729958 0 0 0 0 -9.1132320389295955 -10.307374925028526 0 -10.307374925028526 -0.6042872383760578 0 0 0 0 1478.1726949827571 -635.01602973301124 0 -635.01602973301124 464.57056051993555 0 0 0 0 37.579862607381074 -334.29139992179694 0 -334.29139992179694 984.84056051121388 0 0 0 0 548.97810885231593 -830.76935491411518 0 -830.76935491411518 563.44826307166511 0 0 0 0 696.04644978267606 -458.14984147996483 0 -458.14984147996483 589.23855180743203 0 0 0 0 1606.8628329271087 -1220.9182657427193 0 -1220.9182657427193 1085.0063274926601 0 0 0 0 699.92304023190809 -319.4285466803878 0 -319.4285466803878 422.70646474481157 0 0 0 0 811.21682835990214 -11.663954980160838 0 -11.663954980160838 1266.1153690908973 0 0 0 0 665.63908868341241 -181.17149198174627 0 -181.17149198174627 225.22234068053126 0 0 0 0 51.462431692263635 -361.99501666443132 0 -361.99501666443132 496.44937635889869 0 0 0 0 704.86070777623172 -726.05281856801446 0 -726.05281856801446 451.03336015731747 0 0 0 0 461.10461111656332 -472.82704316738113 0 -472.82704316738113 448.36393704618166 0 0 0 0 840.43360259939072 -1100.6649631799223 0 -1100.6649631799223 679.03655051156943 0 0 0 0 686.19866328318312 -691.82576405682858 0 -691.82576405682858 640.93258583209808 0 0 0 0 -45.617165350665388 -36.202509960740073 0 -36.202509960740073 -13.874142070012036 0 0 0 0 47.659112099659978 -153.07768755201505 0 -153.07768755201505 -47.973785445762587 0 0 0 0 -42.760133984740065 -50.172989241633772 0 -50.172989241633772 -24.961271686294602 0 0 0 0 -123.95312325386476 -197.99156934528264 0 -197.99156934528264 -97.478216948068507 0 0 0 0 -8.0247977434537461 -90.439197410829138 0 -90.439197410829138 -9.6742743974136829 0 0 0 0 -385.00879181881464 -174.02429098192351 0 -174.02429098192351 143.76251563793858 0 0 0 0 -343.27885235576832 -226.57872636933666 0 -226.57872636933666 51.471591023254405 0 0 0 0 1249.1573907646198 -1333.0408837095738 0 -1333.0408837095738 621.00603935477875 0 0 0 0 -28.380038476775354 -22.278824102500323 0 -22.278824102500323 -6.4352427505593006 0 0 0 0 277.63001408876971 -846.3755718902064 0 -846.3755718902064 813.56420575839456 0 0 0 0 48.98378995492385 -50.708836830765449 0 -50.708836830765449 378.4954719903028 0 0 0 0 699.27649694494903 -544.16499436782919 0 -544.16499436782919 815.01027952491495 0 0 0 0 507.26249551099318 -838.77439534849304 0 -838.77439534849304 364.61341084078094 0 0 0 0 362.33780661438504 -244.73766912824851 0 -244.73766912824851 146.91832175987156 0 0 0 0 124.47753879149968 -345.75685000066028 0 -345.75685000066028 566.54015958990908 0 0 0 0 -152.57571105225361 -110.07619238247617 0 -110.07619238247617 384.01150747423026 0 0 0 0 -176.85857459329054 -44.443946994079056 0 -44.443946994079056 38.063713931272559 0 0 0 0 -309.03747994126024 -98.120475687228918 0 -98.120475687228918 210.3873139141067 0 0 0 0 -147.09474656154453 -83.752504697539962 0 -83.752504697539962 1039.6453464310166 0 0 0 0 313.55171166388027 -281.38914899203883 0 -281.38914899203883 -830.80005330972472 0 0 0 0 -97.300009366059385 -216.03560931260313 0 -216.03560931260313 40.478951898366176 0 0 0 0 -40.995755435040337 -9.7235187895039417 0 -9.7235187895039417 420.19645071999417 0 0 0 0 -236.19599327035394 -318.33952947701209 0 -318.33952947701209 423.54211271677195 0 0 0 0 4.155175763706211 -1.6503844450207907 0 -1.6503844450207907 576.55118160716893 0 0 0 0 206.28351200382895 -9.6414631024051687 0 -9.6414631024051687 533.91191020542851 0 0 0 0 98.439307596134313 128.63587924727926 0 128.63587924727926 657.59169020695003 0 0 0 0 -86.558465905538469 -159.53106215108869 0 -159.53106215108869 1034.9423189679637 0 0 0 0 1261.9222076353399 -909.95277224343226 0 -909.95277224343226 263.95510979712105 0 0 0 0 -413.6908559884032 171.64369147796469 0 171.64369147796469 1502.3990908179203 0 0 0 0 -16.95778023728738 -12.339967980098574 0 -12.339967980098574 -0.24949381280420879 0 0 0 0 -4.0552998684488557 -5.218798328311995 0 -5.218798328311995 -0.52129791008318382 0 0 0 0 194.35327738960041 -331.43133733754257 0 -331.43133733754257 23.595801892835425 0 0 0 0 221.28377289042328 -555.60115811771459 0 -555.60115811771459 315.69554872122353 0 0 0 0 -52.795492386892874 -118.29860640275865 0 -118.29860640275865 -64.586860770190469 0 0 0 0 191.8243581698589 -368.48726492084535 0 -368.48726492084535 -20.657137061819412 0 0 0 0 200.29062883565712 -729.07610917163697 0 -729.07610917163697 449.70663282043188 0 0 0 0 283.66245221890949 -761.18167152713636 0 -761.18167152713636 455.58465737491633 0 0 0 0 299.9856447638158 -338.46483107845211 0 -338.46483107845211 559.78198763081582 0 0 0 0 -178.96986214484787 -663.71264803295526 0 -663.71264803295526 437.7147399011759 0 0 0 0 126.85162660386413 -338.07857391701918 0 -338.07857391701918 55.980838453588149 0 0 0 0 -564.48722439484845 -296.89539286479237 0 -296.89539286479237 285.9002597833678 0 0 0 0 -1192.8012473480339 133.38661237291103 0 133.38661237291103 331.43559015858409 0 0 0 0 -994.47861331744934 298.64210564590144 0 298.64210564590144 162.64782216858964 0 0 0 0 -1098.5695253315425 -119.97610557751568 0 -119.97610557751568 313.86098939870135 0 0 0 0 -4.0163862690928624 -2.8972799047963917 0 -2.8972799047963917 -1.1453619538024391 0 0 0 0 -515.58192449489434 -203.19693482055231 0 -203.19693482055231 91.480402810689327 0 0 0 0 -120.50232488537222 -83.40712376236462 0 -83.40712376236462 14.403377131140587 0 0 0 0 -331.75567675880302 36.677458150971688 0 36.677458150971688 122.56879196320875 0 0 0 0 -132.80193681948003 -97.68926619991089 0 -97.68926619991089 243.28285772326058 0 0 0 0 -251.87569061535032 -190.63152658464332 0 -190.63152658464332 250.28842728512518 0 0 0 0 -129.73442464687832 -260.18520186354999 0 -260.18520186354999 117.42948609885207 0 0 0 0 -99.545085503981682 -183.83524035267146 0 -183.83524035267146 140.1436832523982 0 0 0 0 -154.5011816915794 -323.29160823832217 0 -323.29160823832217 233.32854344642601 0 0 0 0 -192.30486915522488 -282.52859372650801 0 -282.52859372650801 200.66566091405548 0 0 0 0 -93.899572190754043 -297.11009764818186 0 -297.11009764818186 52.374633563934367 0 0 0 0 -94.628434394675423 -301.45454965297222 0 -301.45454965297222 159.42930503762727 0 0 0 0 52.876777454686817 -347.25568418850526 0 -347.25568418850526 61.24289557140537 0 0 0 0 -60.773944413595018 -216.23157640245427 0 -216.23157640245427 23.488126949448997 0 0 0 0 -67.809751861990662 -267.83215912156447 0 -267.83215912156447 78.463667389954935 0 0 0 0 -80.472242568299407 -194.28035366145969 0 -194.28035366145969 65.716514210382229 0 0 0 0 -77.044883996866702 -159.99935889772109 0 -159.99935889772109 34.501153706182777 0 0 0 0 67.354036307006027 -195.33932582269063 0 -195.33932582269063 -22.949775477611183 0 0 0 0 254.4287748515344 -54.020954264979991 0 -54.020954264979991 -57.413099886798591 0 0 0 0 1.0136498672921945 5.3807108411679678 0 5.3807108411679678 -0.8847857454447734 0 0 0 0 -399.58021113107679 -1343.8677642369748 0 -1343.8677642369748 -431.02689854629716 0 0 0 0 64.295655018024263 -56.31572340042203 0 -56.31572340042203 32.103793514146673 0 0 0 0 161.16189045801002 -149.70764674245402 0 -149.70764674245402 -69.027951359745202 0 0 0 0 -227.10273481172044 -170.0925584410752 0 -170.0925584410752 13.755313615676641 0 0 0 0 -43.691049302811734 -217.46993890899284 0 -217.46993890899284 17.559048816881841 0 0 0 0 -94.323615178916953 -301.24613191378739 0 -301.24613191378739 -71.837874695243954 0 0 0 0 53.828696168493479 -215.72809564847012 0 -215.72809564847012 -106.76028951336411 0 0 0 0 -82.243272359883122 -189.56343377427402 0 -189.56343377427402 41.656815835394809 0 0 0 0 -36.019527821699739 -176.21563855341537 0 -176.21563855341537 -52.060630198862782 0 0 0 0 -32.397568836709979 -137.53541814459049 0 -137.53541814459049 67.416272841284808 0 0 0 0 -62.041718320004293 -103.50538418995347 0 -103.50538418995347 40.181071599269671 0 0 0 0 -7.4428600470482706 -87.074178863793747 0 -87.074178863793747 38.439107857124327 0 0 0 0 -6.9116271637467435 -99.943140285326081 0 -99.943140285326081 10.829357437667568 0 0 0 0 51.971422888084362 -107.43731060903167 0 -107.43731060903167 1.3968397136195563 0 0 0 0 15.501649217883823 -88.178552310455416 0 -88.178552310455416 32.274343798444889 0 0 0 0 -55.572675564166275 -78.692975107317579 0 -78.692975107317579 40.332009888637913 0 0 0 0 -90.61653878652578 -71.793449493446133 0 -71.793449493446133 137.79444120857079 0 0 0 0 -76.288498552385136 -79.321873241871799 0 -79.321873241871799 54.123101998740822 0 0 0 0 -54.826980160170933 -75.488362787096776 0 -75.488362787096776 54.08040196303682 0 0 0 0 -138.93584141478277 -137.17637310315286 0 -137.17637310315286 112.80671288250232 0 0 0 0 -111.27577738289256 -25.421647418217162 0 -25.421647418217162 40.687990011399961 0 0 0 0 -1.5292657498255551 -6.6343621124776462 0 -6.6343621124776462 18.770340228405583 0 0 0 0 -66.624941727775877 -50.72032674310276 0 -50.72032674310276 37.910753034368099 0 0 0 0 161.77382894531183 89.978924684295635 0 89.978924684295635 -72.910749623714764 0 0 0 0 -70.719489159295335 -199.41532833488827 0 -199.41532833488827 -50.812604850445553 0 0 0 0 -24.672364971214847 -58.809948891291242 0 -58.809948891291242 118.54322802423098 0 0 0 0 -25.028538619211758 -52.03225926015557 0 -52.03225926015557 1.7329569391840778 0 0 0 0 2.0943046173715061 -21.321373725886659 0 -21.321373725886659 18.366596281748528 0 0 0 0 -37.372800603610813 -85.037947090906528 0 -85.037947090906528 -21.521347877155904 0 0 0 0 -38.277295870808302 -83.721820382650549 0 -83.721820382650549 -12.882983553687154 0 0 0 0 -65.318512394747813 -48.992692013110172 0 -48.992692013110172 20.360130146222218 0 0 0 0 -37.828705416262892 -65.87481885160355 0 -65.87481885160355 5.1054249722619716 0 0 0 0 -38.239719316188712 -69.50575873692469 0 -69.50575873692469 -24.975318385842229 0 0 0 0 -18.592061187562649 -83.5965285266102 0 -83.5965285266102 20.290427937838103 0 0 0 0 -12.074885575158987 -69.85233482834019 0 -69.85233482834019 27.268866935319238 0 0 0 0 13.973983026429778 -87.84650256455825 0 -87.84650256455825 -8.703469208646311 0 0 0 0 10.377693722890399 -63.245517501113227 0 -63.245517501113227 -50.241676614505195 0 0 0 0 -23.607357144166599 -63.895474021773225 0 -63.895474021773225 -19.971772317078376 0 0 0 0 -13.26785696506181 -40.06603764802766 0 -40.06603764802766 -24.37168458770158 0 0 0 0 388.18995597717003 1100.4065721386514 0 1100.4065721386514 -200.21490302062011 0 0 0 0 -10.454712528123792 -13.147851763243068 0 -13.147851763243068 9.9737142995455983 0 0 0 0 6.6136948915300309 -82.207049345110136 0 -82.207049345110136 -11.22359707844771 0 0 0 0 10.087127696588141 -63.206637317150694 0 -63.206637317150694 29.001993967187445 0 0 0 0 74.335099488424021 -30.74711749387825 0 -30.74711749387825 37.598639281277428 0 0 0 0 -440.42670260030718 235.06177222632732 0 235.06177222632732 186.50869630399939 0 0 0 0 67.783395416350686 162.04387880953027 0 162.04387880953027 -634.3389340346971 0 0 0 0 -392.38049319654237 -237.06175369820539 0 -237.06175369820539 -459.74437810022027 0 0 0 0 -537.93885931305704 -850.82562836420948 0 -850.82562836420948 -1192.9754591758128 0 0 0 0 -1668.2455988284928 -1251.5137943277023 0 -1251.5137943277023 -899.35279952373094 0 0 0 0 -2228.9208597966353 -1650.3521295187757 0 -1650.3521295187757 -1087.8536994495735 0 0 0 0 -1915.9979312307041 -889.1076618011648 0 -889.1076618011648 -1355.2137510024404 0 0 0 0 -89.597504901801585 -1111.9280719254045 0 -1111.9280719254045 -1588.4289137367605 0 0 0 0 -9.404034207643349 -5.928301143969847 0 -5.928301143969847 -0.38641557818447048 0 0 0 0 -170.67740920603683 73.918781443528587 0 73.918781443528587 468.30037068460842 0 0 0 0 -1388.830715907221 -1600.2593053524593 0 -1600.2593053524593 -1684.8733109294371 0 0 0 0 -17.289973820068298 -5.6045837962380922 0 -5.6045837962380922 3.135673163769189 0 0 0 0 77.236154283997166 55.408365834246069 0 55.408365834246069 467.56829273391486 0 0 0 0 -19.592291454711813 -47.815419364948866 0 -47.815419364948866 534.52116561704736 0 0 0 0 1.3297582028899342 -88.440267203832263 0 -88.440267203832263 410.99224446911194 0 0 0 0 -428.92987534176791 -84.891158438354068 0 -84.891158438354068 520.47726536620257 0 0 0 0 -0.066831808011556859 -52.249583401391078 0 -52.249583401391078 464.37656929745935 0 0 0 0 36.291043889446883 150.61807667428366 0 150.61807667428366 639.36985995647774 0 0 0 0 -3.7406739538880913 -1.0745961235451631 0 -1.0745961235451631 1.7875380693438245 0 0 0 0 -0.30948429855544646 -0.28809339393241729 0 -0.28809339393241729 1.7088847832700311 0 0 0 0 -212.64459140403778 -68.036220493737801 0 -68.036220493737801 448.16927681138986 0 0 0 0 -67.264706892368849 -20.865297035709773 0 -20.865297035709773 361.57282502085241 0 0 0 0 255.15353219571989 363.51091745755912 0 363.51091745755912 -13.935814566553745 0 0 0 0 -10.166074613150045 -1.7348209125748042 0 -1.7348209125748042 11.607944393995663 0 0 0 0 -20.06571368619916 26.555779079256354 0 26.555779079256354 -4.3787417447055077 0 0 0 0 -203.69813833944499 104.41429119085296 0 104.41429119085296 153.58707802250728 0 0 0 0 217.48700701294001 -176.74956516962447 0 -176.74956516962447 -106.09170572005496 0 0 0 0 -33.981639534875285 -244.62517885669149 0 -244.62517885669149 -382.20674792223326 0 0 0 0 -232.99769053707132 30.575000494492997 0 30.575000494492997 -173.2926357182314 0 0 0 0 -200.07129989255918 -340.77019604660109 0 -340.77019604660109 -404.3982423482712 0 0 0 0 -368.4344305975028 -584.72225081610543 0 -584.72225081610543 -783.92401734280065 0 0 0 0 -409.64683760234584 -117.34370666837583 0 -117.34370666837583 -380.26564169313133 0 0 0 0 -615.7962002150889 -550.99993106061629 0 -550.99993106061629 -517.26164275170049 0 0 0 0 -220.30271114406059 -184.9932953491234 0 -184.9932953491234 -390.16074806214965 0 0 0 0 -397.1894452382694 -576.45629220294904 0 -576.45629220294904 -580.15113873997052 0 0 0 0 -490.23548314172513 -679.84598296102104 0 -679.84598296102104 -904.22748972248883 0 0 0 0 -1166.5150681952073 -657.15816671499033 0 -657.15816671499033 -733.99757069505267 0 0 0 0 149.89828457408294 -175.95596074130435 0 -175.95596074130435 -320.6112481780774 0 0 0 0 -173.40977865140303 -320.82911926436645 0 -320.82911926436645 -123.35858249631565 0 0 0 0 -88.307206601675716 -297.58721981075632 0 -297.58721981075632 -305.80059275161648 0 0 0 0 -307.94739314712933 -213.59508559510778 0 -213.59508559510778 -148.86955325123017 0 0 0 0 -848.07702021795922 -442.30339088118353 0 -442.30339088118353 503.59444205621003 0 0 0 0 -1099.4146539051435 -883.4667899011456 0 -883.4667899011456 -931.55792771890697 0 0 0 0 -717.42985290673823 -996.96664039359166 0 -996.96664039359166 -952.52767625515662 0 0 0 0 -831.52841083754902 -651.10758337229981 0 -651.10758337229981 -309.21948631728992 0 0 0 0 -1075.1726810016662 -1153.126378189603 0 -1153.126378189603 -550.1825007108564 0 0 0 0 -890.61108839405642 -1256.0461397890003 0 -1256.0461397890003 -533.88929439728417 0 0 0 0 -965.25121417525224 -1461.3084172424692 0 -1461.3084172424692 -1057.7358869972124 0 0 0 0 -1067.2789291724621 -1214.0445160444856 0 -1214.0445160444856 -1498.1602946801017 0 0 0 0 -263.9464558825639 -2059.2950821531613 0 -2059.2950821531613 -2476.3468129144603 0 0 0 0 -2155.8872415307706 -917.63884630135817 0 -917.63884630135817 -979.71014374080005 0 0 0 0 -1573.1024748192285 -790.02057228947524 0 -790.02057228947524 -1397.3879618018432 0 0 0 0 -1752.1024116799672 -1161.8933543118656 0 -1161.8933543118656 -949.1022926142341 0 0 0 0 -1055.7156871607003 -1006.3528288192415 0 -1006.3528288192415 -1361.9910495172735 0 0 0 0 -1067.447289226573 -1007.0443126396196 0 -1007.0443126396196 -1005.8907176518896 0 0 0 0 -1749.1147578978416 -1278.6261610310348 0 -1278.6261610310348 -967.74975647059728 0 0 0 0 -1018.1659463930646 -919.58610700524673 0 -919.58610700524673 -830.57915611972021 0 0 0 0 -923.44998920570652 -1485.0349381487231 0 -1485.0349381487231 -1649.3041463894006 0 0 0 0 -740.40228247584309 -930.3687383893357 0 -930.3687383893357 -1064.2028694456101 0 0 0 0 -1009.0466851937235 -590.7613181641309 0 -590.7613181641309 -670.37743365956885 0 0 0 0 -2123.2679948288346 -1858.9087459076513 0 -1858.9087459076513 -1088.6804541897427 0 0 0 0 -1395.8828228392085 -1823.405990082874 0 -1823.405990082874 -1473.8484711695692 0 0 0 0 -1152.1909605100518 -1290.0685784048555 0 -1290.0685784048555 -1799.7616635833238 0 0 0 0 9.7321714443245071 -2.9857809777051898 0 -2.9857809777051898 -18.367685910735375 0 0 0 0 -227.21543619367003 -478.49724619184235 0 -478.49724619184235 -19.161484724325419 0 0 0 0 -223.62270172635544 -447.45734201944538 0 -447.45734201944538 -251.43518717576808 0 0 0 0 -102.17623419035226 -1041.3670631576679 0 -1041.3670631576679 73.017326548696019 0 0 0 0 83.146125242427843 -571.93020121865038 0 -571.93020121865038 -1281.3847533475346 0 0 0 0 -40.186554074272863 -463.33893514918782 0 -463.33893514918782 -297.36704154995459 0 0 0 0 92.93544940155698 -447.74506154241863 0 -447.74506154241863 -344.31204849580536 0 0 0 0 -38.811583088176121 -450.4356057704257 0 -450.4356057704257 -248.13252085280692 0 0 0 0 129.57586392801022 -420.17967325764221 0 -420.17967325764221 -321.6654393589597 0 0 0 0 125.16183432842081 -531.47999855633861 0 -531.47999855633861 -335.44658626211094 0 0 0 0 114.56082079646148 -479.70407861214653 0 -479.70407861214653 -511.62723837522935 0 0 0 0 -1069.0527630491451 -165.33879939957524 0 -165.33879939957524 194.80449849525758 0 0 0 0 -466.29505965433782 -838.78230215811709 0 -838.78230215811709 108.45616501740187 0 0 0 0 -831.76718873875689 -1205.6756511302619 0 -1205.6756511302619 -259.03379293088074 0 0 0 0 -118.5271560879919 -877.02547120349845 0 -877.02547120349845 -775.59934072407304 0 0 0 0 -63.363396319287858 -482.07707634925282 0 -482.07707634925282 -519.89113976423687 0 0 0 0 -383.92129567152915 -1093.2830008840729 0 -1093.2830008840729 -929.92128441055684 0 0 0 0 582.89129095732642 -862.22320227814089 0 -862.22320227814089 -157.62230887420264 0 0 0 0 -206.50712501879116 -293.27483763849034 0 -293.27483763849034 -322.36818071429298 0 0 0 0 117.81983483102522 -82.508790797593974 0 -82.508790797593974 -351.95734263627583 0 0 0 0 988.99620979232714 21.031834079647524 0 21.031834079647524 -359.81106484399243 0 0 0 0 70.612904877154506 -683.97483071819443 0 -683.97483071819443 -215.66227208163764 0 0 0 0 464.95673987964983 -428.73320818916 0 -428.73320818916 -507.1639357982167 0 0 0 0 -138.17569363800067 -670.62907561633028 0 -670.62907561633028 -572.67635105933005 0 0 0 0 256.64573888516134 -326.85347142695878 0 -326.85347142695878 -243.732424588703 0 0 0 0 993.52453469889588 -733.59413931146446 0 -733.59413931146446 -644.01895759296804 0 0 0 0 1529.5743028822508 236.28442420641386 0 236.28442420641386 -220.64760162752282 0 0 0 0 -2371.5464910876108 -1676.0498580500443 0 -1676.0498580500443 -214.45666085597986 0 0 0 0 0.61933088520264334 -2.1739086791319551 0 -2.1739086791319551 -3.8573389499887654 0 0 0 0 -107.6091330067502 -421.26079680547991 0 -421.26079680547991 -389.39393330494568 0 0 0 0 -132.38774636740163 -585.22682073414217 0 -585.22682073414217 -944.60275556249235 0 0 0 0 1.4346266402666856 -11.588867323804337 0 -11.588867323804337 3.2504938667768002 0 0 0 0 -287.02879572205711 -895.27462100386913 0 -895.27462100386913 -751.01082494330331 0 0 0 0 -307.00764074782637 -883.19498155178553 0 -883.19498155178553 -734.38456983347533 0 0 0 0 -1682.0846368737548 -2163.2088876249986 0 -2163.2088876249986 -2308.8511972066899 0 0 0 0 1656.4512753960444 -611.16927740506708 0 -611.16927740506708 -1800.5376147814059 0 0 0 0 2.276040695025074 -3.3286416007645698 0 -3.3286416007645698 -3.1216065353469702 0 0 0 0 474.99778440454975 36.984693647596941 0 36.984693647596941 -131.42564279062026 0 0 0 0 846.996119618183 -251.93551182455849 0 -251.93551182455849 -1867.2358902616752 0 0 0 0 -312.17081241573032 -562.34621481830345 0 -562.34621481830345 278.67156956502004 0 0 0 0 1.0993638487310022 -7.3951061158592495 0 -7.3951061158592495 1.9740948339314581 0 0 0 0 127.57882522519139 -492.77679076289542 0 -492.77679076289542 -1664.3241638909712 0 0 0 0 -454.56329951618682 -369.8027915005016 0 -369.8027915005016 -1104.2330484830818 0 0 0 0 70.467129648459377 -772.72363146972475 0 -772.72363146972475 -908.77124858087495 0 0 0 0 -3.4793322661862476 -676.50760385307603 0 -676.50760385307603 -919.82690836609981 0 0 0 0 159.46210507079377 -818.0531247016188 0 -818.0531247016188 -975.53789586674179 0 0 0 0 -280.2719230063085 -1040.5326775637941 0 -1040.5326775637941 -971.85642553638615 0 0 0 0 -1236.3069902985008 -1538.0029341297886 0 -1538.0029341297886 -716.92786627896567 0 0 0 0 -447.65183714970772 -635.20235551400674 0 -635.20235551400674 137.93234632673102 0 0 0 0 -49.600382437398366 -1296.2037853029583 0 -1296.2037853029583 -2037.1405899335259 0 0 0 0 -1099.2541295715491 -376.04424613116862 0 -376.04424613116862 404.5086141153788 0 0 0 0 -185.58025246739271 220.1595832444491 0 220.1595832444491 567.00275288837588 0 0 0 0 -623.44517928516143 -719.18638991456828 0 -719.18638991456828 235.47405338397812 0 0 0 0 -544.24472191632958 -447.75404166658245 0 -447.75404166658245 514.55103672095993 0 0 0 0 671.90362901828485 -275.73129572546259 0 -275.73129572546259 484.90659255359515 0 0 0 0 1146.5342165280817 -1006.4367095250423 0 -1006.4367095250423 1788.8773918642798 0 0 0 0 -8.8241544955192239 -6.2865842127775551 0 -6.2865842127775551 -2.8474313588676914 0 0 0 0 -997.48455371632008 -1098.4827379509989 0 -1098.4827379509989 943.81898590234869 0 0 0 0 -2476.1037533447816 -100.71564767974814 0 -100.71564767974814 1565.3600405416091 0 0 0 0 -25.418929186772601 -14.651462325436629 0 -14.651462325436629 -0.27939616631002939 0 0 0 0 -2771.601392410761 -421.2132302841469 0 -421.2132302841469 1096.7137866633539 0 0 0 0 -344.51093427025626 -430.36055077592368 0 -430.36055077592368 640.96623743075747 0 0 0 0 -446.02443620602571 -673.86150251818583 0 -673.86150251818583 796.04209355060652 0 0 0 0 -137.05787502338353 -560.29181860445942 0 -560.29181860445942 -148.87739181584584 0 0 0 0 -35.09244674245565 -777.99488583868788 0 -777.99488583868788 -100.63697774565298 0 0 0 0 106.28828138006793 -637.8461317276134 0 -637.8461317276134 -1094.7600686354588 0 0 0 0 69.247148687878507 -262.85236168222923 0 -262.85236168222923 -91.493198583315916 0 0 0 0 -362.59165915215272 -1003.2845583808027 0 -1003.2845583808027 -990.8188789847768 0 0 0 0 -12.364418015824782 -8.3368638963174924 0 -8.3368638963174924 -1.3143768128192619 0 0 0 0 -26.895098648023122 -849.83324690528286 0 -849.83324690528286 -1393.3126593074371 0 0 0 0 153.09229206448072 119.41954856786288 0 119.41954856786288 991.49126167698159 0 0 0 0 512.78417233359687 -31.119319609909695 0 -31.119319609909695 677.64026516326203 0 0 0 0 231.71552145504393 -747.58205217373416 0 -747.58205217373416 118.10619093756486 0 0 0 0 -55.616632381068484 -1037.9404689331463 0 -1037.9404689331463 988.99246334718873 0 0 0 0 2.903749655509273 -170.96996902387627 0 -170.96996902387627 1126.1649888780803 0 0 0 0 38.331531386848155 439.37375275393066 0 439.37375275393066 2920.5473578473407 0 0 0 0 7.3776747888421426 -10.400348722598775 0 -10.400348722598775 7.9190369108636531 0 0 0 0 -895.43680929930997 491.7469159762112 0 491.7469159762112 1057.4984818718972 0 0 0 0 -1203.3761821617882 461.88962123838132 0 461.88962123838132 230.81846153584993 0 0 0 0 -2823.2035892553104 1835.7563053890026 0 1835.7563053890026 143.4486321327322 0 0 0 0 -969.8382039361677 -3.4010957388802581 0 -3.4010957388802581 -546.16278151269353 0 0 0 0 188.8088768829839 -742.8512915566389 0 -742.8512915566389 104.7145877277917 0 0 0 0 -1170.5802454102813 263.25094134016422 0 263.25094134016422 282.23503798929278 0 0 0 0 -266.13810752595782 -18.06048061419871 0 -18.06048061419871 184.0747588858568 0 0 0 0 -63.566549011873576 -668.47772358321822 0 -668.47772358321822 -114.03999724683877 0 0 0 0 -844.45671973301978 -127.66481786956143 0 -127.66481786956143 -11.779182998322995 0 0 0 0 -251.4542385444438 -418.25791996357339 0 -418.25791996357339 129.95411700750992 0 0 0 0 -195.21495744302229 -319.11786507356942 0 -319.11786507356942 664.95583617128818 0 0 0 0 -183.83071418625332 -35.445211102005288 0 -35.445211102005288 964.57326530415742 0 0 0 0 -69.072913268995762 -48.359953843673111 0 -48.359953843673111 984.34308352635117 0 0 0 0 -221.90152101879812 -588.2866402026591 0 -588.2866402026591 348.13042299735855 0 0 0 0 -25.324698416490719 -486.21356942890384 0 -486.21356942890384 189.04500808679268 0 0 0 0 -582.41014689712028 -771.28951276951307 0 -771.28951276951307 637.26678894332917 0 0 0 0 -28.589967159608932 -914.96314362681846 0 -914.96314362681846 -497.7369657659533 0 0 0 0 -31.628985816005297 -532.86103793184429 0 -532.86103793184429 -575.55338397111291 0 0 0 0 -206.13423490276909 -755.14926572352033 0 -755.14926572352033 -399.35698881985923 0 0 0 0 -7.5104379135973431 -607.47223955367735 0 -607.47223955367735 -356.16877106547508 0 0 0 0 -87.928487301225687 -558.89462363155462 0 -558.89462363155462 -332.06150381616999 0 0 0 0 -102.4286469746512 -664.40250841253373 0 -664.40250841253373 -1093.2237818979997 0 0 0 0 -264.80606923117011 -556.83029133102855 0 -556.83029133102855 33.828704322972953 0 0 0 0 -140.25124369995865 -436.36033897533821 0 -436.36033897533821 -364.723874965709 0 0 0 0 -75.43465914142871 -306.87671103637513 0 -306.87671103637513 -77.722799064683386 0 0 0 0 -100.87538218946793 -419.97911187548289 0 -419.97911187548289 -527.23734459901971 0 0 0 0 -1.1427258564818032 -7.0634338344803709 0 -7.0634338344803709 2.1797120469121278 0 0 0 0 -623.59617935242932 -419.47822905785608 0 -419.47822905785608 377.60931901714684 0 0 0 0 -96.925114946752728 -507.21227389794058 0 -507.21227389794058 -563.15524073581037 0 0 0 0 -69.057153857607773 -634.97348713528118 0 -634.97348713528118 -1440.0626119573008 0 0 0 0 11.338547117862618 -263.2379954358239 0 -263.2379954358239 -849.54277123535212 0 0 0 0 -118.31362545142565 -436.52397138256379 0 -436.52397138256379 -925.3600684509729 0 0 0 0 241.75882120241295 -395.38968463560741 0 -395.38968463560741 -538.2743181377482 0 0 0 0 -120.94316930079708 -483.61802713732396 0 -483.61802713732396 -468.49101979909392 0 0 0 0 -75.817635139857884 -294.35441146202902 0 -294.35441146202902 -471.49364892658468 0 0 0 0 99.444169101752777 -314.45912567783944 0 -314.45912567783944 -827.38688604450181 0 0 0 0 -54.363240397226036 -285.35572405092171 0 -285.35572405092171 -755.99176089156754 0 0 0 0 -688.97451484996418 -853.6745827739669 0 -853.6745827739669 -541.7686573332594 0 0 0 0 713.7667231631749 -551.30170697365611 0 -551.30170697365611 -853.09806232455912 0 0 0 0 1747.6883277585475 -84.458838663586903 0 -84.458838663586903 -1150.9979745617311 0 0 0 0 618.32674040544407 282.14932346690875 0 282.14932346690875 -678.7212084600651 0 0 0 0 0.4135372748848587 -1.4956861263286925 0 -1.4956861263286925 -3.1972618158118138 0 0 0 0 -1285.277122825617 -493.60004436052805 0 -493.60004436052805 -58.166561061741959 0 0 0 0 -441.75566464789154 -161.03167721482714 0 -161.03167721482714 -16.613269130200933 0 0 0 0 127.17360013849247 -257.81916157748492 0 -257.81916157748492 -70.475286928663991 0 0 0 0 397.04485160535523 -950.26700666024271 0 -950.26700666024271 -770.72895518285077 0 0 0 0 0.70464278707386541 -6.2570164999095397 0 -6.2570164999095397 7.286485258279761 0 0 0 0 15.46697347213194 -719.5805358180005 0 -719.5805358180005 -397.48509351987559 0 0 0 0 154.96976689431176 -552.62468356243517 0 -552.62468356243517 -254.61556021271463 0 0 0 0 -154.21946256964657 -564.69864478599902 0 -564.69864478599902 -220.42532661907899 0 0 0 0 -135.23492510141659 -562.11377607425493 0 -562.11377607425493 -436.36726992852709 0 0 0 0 -297.83183123441268 -663.33754752140339 0 -663.33754752140339 -155.97435025386949 0 0 0 0 -202.18863319786396 -533.14867585919092 0 -533.14867585919092 19.721470828051679 0 0 0 0 -42.483254992876027 -645.68126027707603 0 -645.68126027707603 -225.85201389241411 0 0 0 0 12.531460874968616 -559.58760949975658 0 -559.58760949975658 -96.78263959679316 0 0 0 0 94.655378594838112 -652.00970174815211 0 -652.00970174815211 -208.4718914938494 0 0 0 0 113.8521421746118 -384.39684788692921 0 -384.39684788692921 -82.132927416736493 0 0 0 0 193.39751396080828 -449.55588436178732 0 -449.55588436178732 -314.38783246571256 0 0 0 0 -9.7153707687466522 -496.52063762078978 0 -496.52063762078978 -116.74810228940896 0 0 0 0 -147.17150318748463 -319.42879866974909 0 -319.42879866974909 69.500163091119248 0 0 0 0 -60.367302782771731 -469.48422176437361 0 -469.48422176437361 117.35149247630034 0 0 0 0 -81.539956065291335 -446.0256723181501 0 -446.0256723181501 182.42844205583242 0 0 0 0 -34.152179297692783 -488.47395664265423 0 -488.47395664265423 -21.194680657546996 0 0 0 0 -36.587068439697759 -504.45513379991644 0 -504.45513379991644 243.64192261369317 0 0 0 0 -281.13577517411613 -179.42535568722815 0 -179.42535568722815 132.5492574874188 0 0 0 0 -145.95770966723649 -203.2730108942942 0 -203.2730108942942 -318.0324671943672 0 0 0 0 -35.8719083435426 -236.41905381543984 0 -236.41905381543984 53.462585997847782 0 0 0 0 8.7587216257379623 -262.02245623735871 0 -262.02245623735871 -109.10468429731827 0 0 0 0 -274.44027112112963 -178.90815660952649 0 -178.90815660952649 43.57414893675741 0 0 0 0 377.0622447796195 -38.927003378499649 0 -38.927003378499649 -146.39534188769903 0 0 0 0 -238.9612213717046 -4.5784426873578923 0 -4.5784426873578923 100.34262618796492 0 0 0 0 196.64711897116649 -128.51983393890077 0 -128.51983393890077 -163.55235318905761 0 0 0 0 804.94052481879953 -1236.5619561432736 0 -1236.5619561432736 -280.11346163001508 0 0 0 0 136.50218058823521 -839.83882976437417 0 -839.83882976437417 928.99561892103156 0 0 0 0 428.08515888037437 -683.97305936825433 0 -683.97305936825433 1020.2626813415554 0 0 0 0 0.68286420612624021 -6.8091577281020719 0 -6.8091577281020719 -2.1364543556404385 0 0 0 0 211.14533533433132 -368.67700239195437 0 -368.67700239195437 34.836856778638321 0 0 0 0 164.86149041307362 -359.89254116264419 0 -359.89254116264419 66.012804093146769 0 0 0 0 96.421282605086162 -258.03210893926735 0 -258.03210893926735 431.18945291832642 0 0 0 0 0.26949561707495318 -0.51435674455706959 0 -0.51435674455706959 1.1218699554330982 0 0 0 0 1770.5195032012946 -535.73591032376476 0 -535.73591032376476 -635.55426931471447 0 0 0 0 1044.374649950958 48.336092177411047 0 48.336092177411047 2.3937842766936228 0 0 0 0 284.83589000534266 -947.02213402197958 0 -947.02213402197958 -246.40094560156285 0 0 0 0 -1482.4041678419489 -396.20833949962798 0 -396.20833949962798 683.32705004093077 0 0 0 0 -351.06373969395827 1.8703071750478557 0 1.8703071750478557 -369.2080997124358 0 0 0 0 -94.444102577808735 -75.199929418848114 0 -75.199929418848114 698.35282841265871 0 0 0 0 -464.56147712359052 -853.69651193305344 0 -853.69651193305344 77.55765829077427 0 0 0 0 77.072634865829642 -14.485955330048377 0 -14.485955330048377 -7.9255022123963448 0 0 0 0 532.09711659911591 -236.09326184194833 0 -236.09326184194833 -366.0934840440168 0 0 0 0 -40.71395244557516 277.23963882692806 0 277.23963882692806 130.33516603714088 0 0 0 0 -144.71988824321306 -244.46669686763198 0 -244.46669686763198 -329.8220268409641 0 0 0 0 -200.27786472337903 -82.830365836170131 0 -82.830365836170131 -146.21680609922623 0 0 0 0 -52.564513081106952 -94.02793700698814 0 -94.02793700698814 -20.106313370076194 0 0 0 0 299.73459131778873 -66.194413523931871 0 -66.194413523931871 -478.6472341760018 0 0 0 0 -199.18536687161577 -99.465769925239329 0 -99.465769925239329 -113.80846378630667 0 0 0 0 -18.774190794563619 -2.9563842618086618 0 -2.9563842618086618 -0.50619559413520676 0 0 0 0 682.15518100975896 168.73348847310262 0 168.73348847310262 -108.05062007047673 0 0 0 0 -3.4150027698487975 -92.332768120133551 0 -92.332768120133551 353.62538697697983 0 0 0 0 773.03669188488857 -875.353281056181 0 -875.353281056181 635.8314632225447 0 0 0 0 571.27461534150825 -238.67388023637886 0 -238.67388023637886 -499.05946520564612 0 0 0 0 -479.44235493598899 -467.50331293356248 0 -467.50331293356248 -404.29396454698144 0 0 0 0 -53.79858221208525 -19.644421230353025 0 -19.644421230353025 3.3809622230171472 0 0 0 0 -371.84319932338985 -534.51777777554162 0 -534.51777777554162 -379.75656407080533 0 0 0 0 3.3468388041224983 -6.4492132825376274 0 -6.4492132825376274 0.4762278931726911 0 0 0 0 -17.56592897668358 2.2916508002897444 0 2.2916508002897444 -1.4286411480427397 0 0 0 0 694.23763430430699 -1014.8684748292744 0 -1014.8684748292744 -2789.413816581342 0 0 0 0 467.07678374269744 586.70587414631518 0 586.70587414631518 447.2090553445305 0 0 0 0 -380.61357660307613 -284.72472184961487 0 -284.72472184961487 -91.069552563218167 0 0 0 0 -144.46836588977021 -200.3180953861156 0 -200.3180953861156 -187.36072400463308 0 0 0 0 567.14380165784678 -3314.1655175632695 0 -3314.1655175632695 2169.3487949758855 0 0 0 0 -56.304676739098795 -90.080899625292659 0 -90.080899625292659 73.367575650088838 0 0 0 0 151.27481949164212 -91.941329340494121 0 -91.941329340494121 1.124598899474222 0 0 0 0 -21.401793372715474 -130.00591385401822 0 -130.00591385401822 113.43936169366498 0 0 0 0 120.33732869601226 -130.0024847216846 0 -130.0024847216846 54.742184196191374 0 0 0 0 -112.65164500042738 -146.85510543409691 0 -146.85510543409691 -177.90496182677862 0 0 0 0 -56.35866395119956 -93.415772485745038 0 -93.415772485745038 -132.00126667779477 0 0 0 0 -149.61921260310919 -161.23426791016391 0 -161.23426791016391 -111.12204968473543 0 0 0 0 -130.36455827093596 -164.14557708916209 0 -164.14557708916209 -144.2713283524572 0 0 0 0 -124.58306603464007 -197.42041630644235 0 -197.42041630644235 10.859861328342959 0 0 0 0 -50.234725919886841 -246.1307005870276 0 -246.1307005870276 -87.3437956234593 0 0 0 0 -95.540106851221935 -209.44335593405231 0 -209.44335593405231 -81.000718867704563 0 0 0 0 -160.1381031889614 -220.8145805488457 0 -220.8145805488457 -49.415593218142021 0 0 0 0 19.717664595092174 -207.37955052841198 0 -207.37955052841198 167.62014407655079 0 0 0 0 24.708132742773159 -228.05031836135095 0 -228.05031836135095 -48.846815462617087 0 0 0 0 -50.247564777811931 -236.18179116730425 0 -236.18179116730425 0.66354656703697401 0 0 0 0 49.224742672538014 -283.0368565433115 0 -283.0368565433115 -19.177217551725334 0 0 0 0 48.151144992824811 -293.02013077692857 0 -293.02013077692857 -81.134234649409336 0 0 0 0 -105.68906083589536 -247.70427853039473 0 -247.70427853039473 -64.129522659946815 0 0 0 0 -9.8870059354667319 -224.31768301558714 0 -224.31768301558714 -97.843218319641892 0 0 0 0 -16.272240939775656 -263.38818209257443 0 -263.38818209257443 -94.06072216044231 0 0 0 0 -43.823350759790628 -161.46652594643547 0 -161.46652594643547 -83.454840638460155 0 0 0 0 418.12465391413252 176.74905335513176 0 176.74905335513176 -211.31980062274306 0 0 0 0 -151.57049609751266 -146.86334391309174 0 -146.86334391309174 -73.035541859364457 0 0 0 0 1447.2480303131413 164.14885710852127 0 164.14885710852127 -317.17128001199308 0 0 0 0 30.159418716423637 11.349380347104692 0 11.349380347104692 19.867159022388563 0 0 0 0 1414.4257340456479 -344.38344986710081 0 -344.38344986710081 -263.50198786398687 0 0 0 0 743.13211660405068 156.57159644232888 0 156.57159644232888 -188.59089392992973 0 0 0 0 965.57410382895159 88.831290374073433 0 88.831290374073433 -195.63465798916877 0 0 0 0 471.65875549390694 300.4846697344019 0 300.4846697344019 -130.79032176309556 0 0 0 0 999.30019165710632 -405.32638121155276 0 -405.32638121155276 32.007131262209441 0 0 0 0 672.95258866000268 -224.96488302441776 0 -224.96488302441776 141.48198688167759 0 0 0 0 -7.456791196192583 -120.31876539400315 0 -120.31876539400315 -61.352647651122552 0 0 0 0 -247.99212898736732 -211.40542610629643 0 -211.40542610629643 -55.041883373774908 0 0 0 0 -163.97843579639448 -121.6058077367743 0 -121.6058077367743 -204.6783295638561 0 0 0 0 -160.10049718167284 -215.75237140669742 0 -215.75237140669742 -176.65948802151161 0 0 0 0 -2.6005599678334619 -14.352142427187488 0 -14.352142427187488 -43.463888856393481 0 0 0 0 158.96732898557093 -85.900780604079046 0 -85.900780604079046 -146.1683994560899 0 0 0 0 -491.13178338389116 -180.06332943451889 0 -180.06332943451889 -30.689093533430423 0 0 0 0 4.0428577643760946 -100.52489328393312 0 -100.52489328393312 -21.455604545073129 0 0 0 0 5.9954428857084565 -66.624513179924321 0 -66.624513179924321 -32.983188917305085 0 0 0 0 -23.007321900018724 -129.78326786268008 0 -129.78326786268008 -68.167167360737949 0 0 0 0 83.957630943485128 -91.033049311415198 0 -91.033049311415198 49.563225614693692 0 0 0 0 89.677417802860873 -355.44218650843732 0 -355.44218650843732 17.225954324619124 0 0 0 0 5.9506893551984632 -12.402324014804858 0 -12.402324014804858 13.017044764790821 0 0 0 0 99.893410198659694 -339.98366841703864 0 -339.98366841703864 -101.84912542163784 0 0 0 0 123.87638482955299 -275.70980256886639 0 -275.70980256886639 -209.54762077400483 0 0 0 0 33.860207335063023 -272.99403108961133 0 -272.99403108961133 317.94614781875498 0 0 0 0 79.971008773027279 -306.53224376504659 0 -306.53224376504659 -2.9101317682070658 0 0 0 0 76.862964454674511 -171.71939419082264 0 -171.71939419082264 -310.8232354741267 0 0 0 0 -17.70341319182171 -274.93563655009388 0 -274.93563655009388 -216.80551482056762 0 0 0 0 37.659520416138847 -53.415673810438484 0 -53.415673810438484 48.848416379476298 0 0 0 0 -353.36026941471573 -406.16098952318862 0 -406.16098952318862 13.116322738453164 0 0 0 0 -225.04779368847812 -82.454500371110043 0 -82.454500371110043 -39.583887786167907 0 0 0 0 126.81890860337444 6.4866363764595008 0 6.4866363764595008 -234.55236727479496 0 0 0 0 1200.4913990870264 924.54078040848253 0 924.54078040848253 -2262.4877231936698 0 0 0 0 46.666566161744413 -50.196710938242177 0 -50.196710938242177 405.12245554736364 0 0 0 0 -152.35917053166122 -741.58667543290176 0 -741.58667543290176 -264.19051191522885 0 0 0 0 14.294943905656879 -15.269459679106831 0 -15.269459679106831 18.71706472097587 0 0 0 0 210.20102446799137 127.66749839996191 0 127.66749839996191 263.74626509987502 0 0 0 0 229.88313115369965 -278.43160706064373 0 -278.43160706064373 -81.00603135383426 0 0 0 0 300.78763647191226 -376.14616967352777 0 -376.14616967352777 -159.08790307484014 0 0 0 0 842.88929895946058 -502.74029885956406 0 -502.74029885956406 -310.5701784558114 0 0 0 0 1140.1857726745657 69.715008116723766 0 69.715008116723766 -337.43527073106088 0 0 0 0 280.87027780590142 -143.58785760282262 0 -143.58785760282262 -122.03341726007056 0 0 0 0 173.37252810924838 -337.36517021817053 0 -337.36517021817053 -142.45100519971675 0 0 0 0 90.805962452894164 -166.16140865039233 0 -166.16140865039233 79.402402072693803 0 0 0 0 407.44016370079771 -114.71446572156128 0 -114.71446572156128 -110.63521709384077 0 0 0 0 469.31365544268192 68.913754025123126 0 68.913754025123126 -124.24119029671056 0 0 0 0 4.1538863777616086 -0.016404451567268552 0 -0.016404451567268552 -28.784151238936659 0 0 0 0 380.0469660294184 167.12472298687499 0 167.12472298687499 242.69777748909655 0 0 0 0 -3076.1636390551939 -1417.8025100502709 0 -1417.8025100502709 -287.24785426207382 0 0 0 0 241.10872367091361 -116.87726680262131 0 -116.87726680262131 101.65173056702224 0 0 0 0 65.129506384524575 40.585529649284581 0 40.585529649284581 -3.7259325462000561 0 0 0 0 87.695221496018348 -76.739994969238751 0 -76.739994969238751 -53.655349475950061 0 0 0 0 -528.23866164672654 -309.98653973323962 0 -309.98653973323962 60.972167946545596 0 0 0 0 215.11080764640064 -598.35769360295308 0 -598.35769360295308 -1153.1759026959626 0 0 0 0 -1599.4594041924865 -1248.0274391562925 0 -1248.0274391562925 -533.49197740316595 0 0 0 0 923.04653604794294 258.30264868527229 0 258.30264868527229 -569.50620258983326 0 0 0 0 663.46355922706425 -319.6466550103778 0 -319.6466550103778 -985.25893512455877 0 0 0 0 -1268.6557464649522 -1401.5216123373848 0 -1401.5216123373848 -2168.2260826096099 0 0 0 0 0.19251063518180445 -1.5858839843053545 0 -1.5858839843053545 -10.709068026313176 0 0 0 0 288.72651053537993 -35.397222261748539 0 -35.397222261748539 -551.64223947632854 0 0 0 0 20.59030771817379 -356.87061442492325 0 -356.87061442492325 -405.24311834429318 0 0 0 0 -29.795968534846907 -488.07394190094055 0 -488.07394190094055 -78.786642357321398 0 0 0 0 10.210788546527283 -0.0052385677811912501 0 -0.0052385677811912501 301.69764080652749 0 0 0 0 -0.10920257152739765 -0.74422183325420121 0 -0.74422183325420121 -11.27097731856955 0 0 0 0 -3105.6538886192611 -1371.513351054823 0 -1371.513351054823 71.307643194781122 0 0 0 0 1020.4558382205651 332.25033163616718 0 332.25033163616718 -267.8450365023964 0 0 0 0 -1086.2143060617163 -1100.8247835327402 0 -1100.8247835327402 -1953.8309016145795 0 0 0 0 4.6823371244043557 -5.1682690343062347 0 -5.1682690343062347 -24.101570550768358 0 0 0 0 169.3264643957009 -205.23830978450087 0 -205.23830978450087 -294.42094904057012 0 0 0 0 -135.92109196708316 -76.623485324697867 0 -76.623485324697867 -213.08247892903091 0 0 0 0 -537.82973576089717 -573.80828634501086 0 -573.80828634501086 -288.01322120936857 0 0 0 0 -80.24826944997767 -427.60184322233181 0 -427.60184322233181 -389.86886454445448 0 0 0 0 -433.07734976194479 -693.27744334973249 0 -693.27744334973249 -458.01113276243996 0 0 0 0 -205.46026912925436 -618.84201159083693 0 -618.84201159083693 -347.52627688858774 0 0 0 0 -218.9981095888561 -359.12236898553175 0 -359.12236898553175 -166.6730859737072 0 0 0 0 372.83884069540363 -276.26877375630829 0 -276.26877375630829 -341.34413672919618 0 0 0 0 386.61136259169143 -236.59080930861455 0 -236.59080930861455 -273.12531184060936 0 0 0 0 493.59831183312053 29.912739450475783 0 29.912739450475783 -211.62350682193937 0 0 0 0 625.86711021314841 -330.81441892014755 0 -330.81441892014755 -257.99941963222227 0 0 0 0 298.27878199171391 -207.29936187348358 0 -207.29936187348358 -131.99673019299735 0 0 0 0 392.67682954101201 -306.56386197102211 0 -306.56386197102211 -287.17294671411219 0 0 0 0 410.29863970636507 -249.75253153822996 0 -249.75253153822996 -452.47081897075623 0 0 0 0 330.23337781537884 -189.30680649143756 0 -189.30680649143756 -247.72316232166486 0 0 0 0 334.67117837950036 -111.57860944974595 0 -111.57860944974595 -73.885032766193035 0 0 0 0 888.00040278995584 -74.086673135352612 0 -74.086673135352612 -675.49115842744141 0 0 0 0 599.04485884246242 -565.79883926487491 0 -565.79883926487491 -1242.5319161656225 0 0 0 0 -185.807392245144 -1086.1769943498948 0 -1086.1769943498948 -779.39236892616282 0 0 0 0 -1011.0508192006891 -605.04303454166984 0 -605.04303454166984 188.39681744096015 0 0 0 0 405.51467523918836 -340.38624952791724 0 -340.38624952791724 -413.272467037963 0 0 0 0 378.04308279974066 -416.89879115820804 0 -416.89879115820804 -551.96800845290636 0 0 0 0 280.34665909456089 -626.90603808455126 0 -626.90603808455126 -435.9261566756486 0 0 0 0 324.4798841763768 -357.46809307577132 0 -357.46809307577132 -290.0575470256299 0 0 0 0 446.15115717981098 -574.84835779007699 0 -574.84835779007699 -291.70934630042666 0 0 0 0 236.25148964441905 -564.75349494914553 0 -564.75349494914553 -250.88926603313485 0 0 0 0 245.53488198504056 -580.48507687222354 0 -580.48507687222354 -259.55058093978732 0 0 0 0 389.44062835202203 -376.99425786296888 0 -376.99425786296888 -119.21545829510251 0 0 0 0 451.39666604382728 -153.15841108036693 0 -153.15841108036693 -83.515203546514385 0 0 0 0 255.70432760003678 -604.32639823124919 0 -604.32639823124919 -253.9985512184212 0 0 0 0 148.42664367353427 -567.3030697288159 0 -567.3030697288159 -259.61875454474648 0 0 0 0 -9.7721177070907288 -130.94002405337096 0 -130.94002405337096 202.10692473666859 0 0 0 0 332.13745641857895 -335.6777929644345 0 -335.6777929644345 -130.97473280270424 0 0 0 0 227.3419709563168 -679.42207827772017 0 -679.42207827772017 -130.64546477734984 0 0 0 0 -403.34037666508812 -647.35374513668285 0 -647.35374513668285 -1117.8386206220239 0 0 0 0 -550.68820147434599 -691.35230424408837 0 -691.35230424408837 -665.78306137071911 0 0 0 0 -307.0054127902622 -592.82152947394479 0 -592.82152947394479 -671.9356258972839 0 0 0 0 -808.23422580378246 -648.43991727742468 0 -648.43991727742468 -371.86325865333129 0 0 0 0 -419.36076250391125 -212.68718065853545 0 -212.68718065853545 -100.02775146647036 0 0 0 0 -917.00577781445463 -900.79957519872187 0 -900.79957519872187 -867.80984792672825 0 0 0 0 5.7175183098054632 -6.7167085526034782 0 -6.7167085526034782 -18.026628895324009 0 0 0 0 0.37000249203012459 -5.4568790914591006 0 -5.4568790914591006 4.6958112855993264 0 0 0 0 -564.90805591048411 -862.05213461703215 0 -862.05213461703215 -1202.5748626343775 0 0 0 0 -569.35578714004077 -878.04352033025316 0 -878.04352033025316 -1030.5212746784218 0 0 0 0 -108.84896906693757 -197.72049077985685 0 -197.72049077985685 253.33916293723769 0 0 0 0 -66.209859723734553 -346.50591351555158 0 -346.50591351555158 -294.68088674746286 0 0 0 0 -17.490449859484215 -0.19414894418332551 0 -0.19414894418332551 -460.57263948283071 0 0 0 0 18.023083166481229 -338.22336651370642 0 -338.22336651370642 -479.54744909901638 0 0 0 0 -25.367818294791505 -7.1597180163917074 0 -7.1597180163917074 -254.42587097189971 0 0 0 0 216.2955266242061 -1.698626163717563 0 -1.698626163717563 -525.61920775800172 0 0 0 0 -397.79466984968167 -840.84232300535768 0 -840.84232300535768 -934.56419877553344 0 0 0 0 4.7660092960585985 -12.440249910681331 0 -12.440249910681331 12.065724382438802 0 0 0 0 -353.60161508145393 -577.60090170984768 0 -577.60090170984768 -835.54374010790889 0 0 0 0 2.3498124942980283 1.10502383949337 0 1.10502383949337 -31.459401500882876 0 0 0 0 8.2419338357812535 -20.371664305472351 0 -20.371664305472351 11.676536037103567 0 0 0 0 75.277555542197661 -111.20393540324221 0 -111.20393540324221 11.747539773172321 0 0 0 0 -142.32090738152328 -44.598847984489112 0 -44.598847984489112 91.05478520880024 0 0 0 0 81.722500455725822 344.87572570949851 0 344.87572570949851 -552.93465379658119 0 0 0 0 10.420059043968365 3.1281652962046422 0 3.1281652962046422 -35.718415972439772 0 0 0 0 -2.0522183216945535 2.4405775255183215 0 2.4405775255183215 -10.430573185721826 0 0 0 0 -1443.1971812377815 -630.21386143595919 0 -630.21386143595919 -2325.0785781919731 0 0 0 0 -2099.3925953882281 -1157.2113958369446 0 -1157.2113958369446 -510.7440541811884 0 0 0 0 226.46311967770453 101.90727878072357 0 101.90727878072357 -2048.7697673956063 0 0 0 0 -942.60060692389379 -1621.6482804884463 0 -1621.6482804884463 -1181.9345301570106 0 0 0 0 -924.83017766925332 -1682.6006471600399 0 -1682.6006471600399 -1364.7009113484137 0 0 0 0 -1222.5017511704937 -1879.5063887775752 0 -1879.5063887775752 -645.55227975577316 0 0 0 0 -931.93928962135396 -1842.583479583378 0 -1842.583479583378 -1720.8465914266458 0 0 0 0 -1815.6141618366673 -1646.5462809789528 0 -1646.5462809789528 -75.153136109813403 0 0 0 0 -1246.0747633242863 -2012.5731175024712 0 -2012.5731175024712 -1387.9318766717001 0 0 0 0 -1316.7941427288388 -1380.1663393105241 0 -1380.1663393105241 -1026.9556450479213 0 0 0 0 -1693.8936986522604 -87.830395030998076 0 -87.830395030998076 -1192.9431024706514 0 0 0 0 7.1573035286608047 8.1362128482574718 0 8.1362128482574718 -39.365226337653574 0 0 0 0 -749.03623228130164 -473.61612924449219 0 -473.61612924449219 -388.84841515210701 0 0 0 0 -745.96883818189235 -453.67482615044491 0 -453.67482615044491 -303.58054103374889 0 0 0 0 -3.2794795161115644 -4.9726560240381303 0 -4.9726560240381303 -5.1015474051385397 0 0 0 0 4.3601022489913177 -8.151074532865394 0 -8.151074532865394 -10.800999937464788 0 0 0 0 -730.12385549117971 -546.20057189573436 0 -546.20057189573436 -354.55253527211971 0 0 0 0 308.66855604667217 -94.083454631154382 0 -94.083454631154382 -9.0963291308653424 0 0 0 0 -624.66850310872542 -996.28431306341361 0 -996.28431306341361 -548.13534112464913 0 0 0 0 -689.46881744035636 -108.55855217234785 0 -108.55855217234785 -295.72494935358691 0 0 0 0 -800.38751097331988 -461.3556614067893 0 -461.3556614067893 196.02477200804879 0 0 0 0 -815.23243589169579 -382.46442558991657 0 -382.46442558991657 193.27770074546788 0 0 0 0 -897.83998028665883 -409.01452567855222 0 -409.01452567855222 225.64084411916883 0 0 0 0 20.532362484598707 -640.75216982208985 0 -640.75216982208985 50.529371780807196 0 0 0 0 -706.93599154702679 -512.42386737779816 0 -512.42386737779816 -412.15041663698139 0 0 0 0 -728.92118755041156 -549.84018628113881 0 -549.84018628113881 -349.46819701221011 0 0 0 0 -539.62413474493951 -658.8561901281264 0 -658.8561901281264 -436.94912572297471 0 0 0 0 -366.58747361881251 -488.63689320396952 0 -488.63689320396952 -490.69553511637423 0 0 0 0 -371.22860090738686 -452.29545012323615 0 -452.29545012323615 -151.04653172944745 0 0 0 0 -350.40352312245523 -560.37192849772327 0 -560.37192849772327 -420.63471070921514 0 0 0 0 -545.03523830605263 -598.49425972378776 0 -598.49425972378776 -311.85893476506317 0 0 0 0 -462.00264253102796 -554.68642360540071 0 -554.68642360540071 -509.62009546955596 0 0 0 0 -423.92115288552304 -520.03828267431891 0 -520.03828267431891 -379.83912166555092 0 0 0 0 -411.30989654524092 -661.95384311493274 0 -661.95384311493274 -418.14257052153334 0 0 0 0 -493.27029780566227 -507.4677746265279 0 -507.4677746265279 -385.23342025952297 0 0 0 0 -686.26973874216492 -510.30633092869175 0 -510.30633092869175 -375.16082998027923 0 0 0 0 -543.74830611544894 -595.08115624506172 0 -595.08115624506172 -366.51118358203439 0 0 0 0 -36.355028056588253 -39.015702477388665 0 -39.015702477388665 -56.272318182984236 0 0 0 0 -0.51048558066903915 -14.066385916590775 0 -14.066385916590775 -60.371953791771645 0 0 0 0 -19.061236332969202 -51.151289322287823 0 -51.151289322287823 18.029715787539317 0 0 0 0 -8.0644966914648784 -36.912171418870898 0 -36.912171418870898 -71.570047838488946 0 0 0 0 3.2761751840830584 -42.515278297802865 0 -42.515278297802865 -58.638645133456066 0 0 0 0 -72.852612531161867 -15.154593804067872 0 -15.154593804067872 -14.456807528678837 0 0 0 0 1.024356145549973 -35.628191005911731 0 -35.628191005911731 -38.069277216354749 0 0 0 0 -5.9556860982897888 -9.0221521147783221 0 -9.0221521147783221 -11.013237128370774 0 0 0 0 -10.166737061472929 -4.2123020284265849 0 -4.2123020284265849 -9.2964529559100555 0 0 0 0 -292.74757036373194 -166.94741886346037 0 -166.94741886346037 -189.87527832192518 0 0 0 0 32.51016858429648 -43.21668492523213 0 -43.21668492523213 -113.64948226678916 0 0 0 0 -214.52599930146243 -564.136167536725 0 -564.136167536725 -811.02737140447221 0 0 0 0 -297.57092078767892 -297.21836180528226 0 -297.21836180528226 -381.30018813324295 0 0 0 0 -37.448809196208458 -57.905226149764417 0 -57.905226149764417 -50.928053352782626 0 0 0 0 -8.3056403972950079 -3.6236868167594878 0 -3.6236868167594878 -3.365752354730736 0 0 0 0 -27.924548053396336 -20.933108819104199 0 -20.933108819104199 -0.55637810920807595 0 0 0 0 2.6512434141575625 -7.7292230943484768 0 -7.7292230943484768 -5.4355445944826641 0 0 0 0 -19.104279999721143 -7.9495430264856282 0 -7.9495430264856282 -3.0195412735969072 0 0 0 0 -942.4607690240864 154.94725515228288 0 154.94725515228288 -52.791987165107457 0 0 0 0 -132.37919949656134 -549.20342576498001 0 -549.20342576498001 -1272.9899030214767 0 0 0 0 -410.46467935614055 -1074.230136756657 0 -1074.230136756657 -2264.0176144612337 0 0 0 0 -1027.0814843664702 -1019.0402277132339 0 -1019.0402277132339 -578.92312042736648 0 0 0 0 -813.9589935149852 -1183.8563037199428 0 -1183.8563037199428 -909.62152358324693 0 0 0 0 -870.97776052443078 -943.42184405631713 0 -943.42184405631713 -595.84554127827573 0 0 0 0 -875.15726224884565 -918.39889135449118 0 -918.39889135449118 -664.64184297319275 0 0 0 0 5.5589912630080676 10.962116272468108 0 10.962116272468108 -41.730176143380035 0 0 0 0 -680.9084444908076 -840.06245066104043 0 -840.06245066104043 -862.78964592047191 0 0 0 0 -540.14497272249719 -941.75936639335191 0 -941.75936639335191 -727.10146320041395 0 0 0 0 -635.55207175507167 -711.08675834760209 0 -711.08675834760209 -509.89048468473493 0 0 0 0 -633.5475718224161 -563.2420033703213 0 -563.2420033703213 -184.33758463758568 0 0 0 0 -696.09348909390974 -916.91488503271785 0 -916.91488503271785 -680.2636166865019 0 0 0 0 595.31770464896272 -501.15324243167117 0 -501.15324243167117 301.6060624200145 0 0 0 0 -471.99032474515843 -446.30131286878475 0 -446.30131286878475 -440.15222448758664 0 0 0 0 -1.0017894177304711 -9.1726120008788143 0 -9.1726120008788143 -45.47222898810432 0 0 0 0 -865.4892795742162 91.482137442558269 0 91.482137442558269 -611.73610148650766 0 0 0 0 -2370.0364813540364 -1203.3925532677538 0 -1203.3925532677538 -418.49973016050546 0 0 0 0 -0.60624208498628107 -1.8062444614715218 0 -1.8062444614715218 -16.8615480616157 0 0 0 0 -442.6047402688273 -1447.8769204712657 0 -1447.8769204712657 -1440.2983243711822 0 0 0 0 -495.17646532146318 -1178.5312614741015 0 -1178.5312614741015 -1503.7297106546089 0 0 0 0 10.862330214342876 9.8194858131701324 0 9.8194858131701324 -44.392541853909833 0 0 0 0 -294.5252056473546 608.38825503046564 0 608.38825503046564 -1564.9138999422667 0 0 0 0 -127.10119261858927 -589.34680815179036 0 -589.34680815179036 -842.87196620620853 0 0 0 0 -2044.0363046251114 -1033.5165071417937 0 -1033.5165071417937 -46.649186000562622 0 0 0 0 -1601.1894518066401 -1234.0089239626598 0 -1234.0089239626598 -691.70691264591915 0 0 0 0 -1884.5517910461203 -486.96391054007631 0 -486.96391054007631 618.35017305887231 0 0 0 0 -999.34693290027644 -104.96171358496713 0 -104.96171358496713 -340.02171457644363 0 0 0 0 -453.81606255982479 -387.68879864266273 0 -387.68879864266273 -198.49204743837981 0 0 0 0 -1158.2320025350273 202.09982478027086 0 202.09982478027086 257.96123772755527 0 0 0 0 -740.72944506634667 571.14567190010257 0 571.14567190010257 -225.42887702415101 0 0 0 0 -1557.2192999222025 356.02134461095193 0 356.02134461095193 207.12630241767647 0 0 0 0 -487.74026464183407 13.59556981932019 0 13.59556981932019 44.508594681280556 0 0 0 0 -280.65638000509352 342.22738953239786 0 342.22738953239786 -91.874153489896798 0 0 0 0 725.6315668222669 -630.47094316805578 0 -630.47094316805578 156.10263404512534 0 0 0 0 163.98581575644857 -290.38250312251967 0 -290.38250312251967 -1068.9547642679627 0 0 0 0 313.77181732737517 251.4885361918241 0 251.4885361918241 -250.81718159938646 0 0 0 0 -202.68546754719864 -861.9122863177472 0 -861.9122863177472 -1168.2771184192388 0 0 0 0 -544.53341898369763 -793.69636275237747 0 -793.69636275237747 -1042.5119946265349 0 0 0 0 -43.529074871652483 -1553.2006069093829 0 -1553.2006069093829 -2182.2956067530231 0 0 0 0 16.56801360038537 -1.4082640222996758 0 -1.4082640222996758 -27.783920399299014 0 0 0 0 5.7196484985361167 -1007.5273503497771 0 -1007.5273503497771 818.91354442512784 0 0 0 0 1418.7420785613067 -1631.8091842370322 0 -1631.8091842370322 614.22767685792542 0 0 0 0 -767.09886787568394 713.74944893123939 0 713.74944893123939 -1547.0087500871468 0 0 0 0 -2152.5451904054935 -3254.5339236408663 0 -3254.5339236408663 -544.01423346890806 0 0 0 0 4.3668749148109498 -4.1463399372507723 0 -4.1463399372507723 -2.0780697082953026 0 0 0 0 -2622.0766317852249 -2703.0342525097831 0 -2703.0342525097831 2698.3051195532335 0 0 0 0 2571.2584028277633 682.83287799951086 0 682.83287799951086 -700.16534456228692 0 0 0 0 -897.59907214826671 -776.06488179982261 0 -776.06488179982261 -430.70260014956148 0 0 0 0 -348.89932667344692 -540.59864294871363 0 -540.59864294871363 -121.9335913731893 0 0 0 0 728.92005001990765 -175.65474026175843 0 -175.65474026175843 -610.37388668627273 0 0 0 0 -491.8385904189854 -264.88613173186059 0 -264.88613173186059 -201.59641019897026 0 0 0 0 -131.1461097758729 -206.41705480398559 0 -206.41705480398559 -800.9932219950615 0 0 0 0 -439.01927998164319 -267.93054465901696 0 -267.93054465901696 -776.66640864906458 0 0 0 0 -228.51666829989335 -46.20764897568597 0 -46.20764897568597 -225.31128360554067 0 0 0 0 -410.05170698079746 -428.21549940994373 0 -428.21549940994373 -812.8553928324493 0 0 0 0 4.0061691865557805 -336.49990192001133 0 -336.49990192001133 -816.09597034157196 0 0 0 0 -176.56021824348136 -299.4589010694126 0 -299.4589010694126 -719.27332310253041 0 0 0 0 141.84449071973904 -251.48366289312344 0 -251.48366289312344 -802.12119773773156 0 0 0 0 13.931303581950488 -296.20326221917639 0 -296.20326221917639 -773.18238152359845 0 0 0 0 -135.71923987669288 -321.60893656879125 0 -321.60893656879125 -321.34729180848808 0 0 0 0 -237.8866218547555 -539.60477233680012 0 -539.60477233680012 -658.34630615798233 0 0 0 0 -21.890668566971726 -239.68349503448553 0 -239.68349503448553 -735.83880842282815 0 0 0 0 -710.07020949907019 -820.45855868605213 0 -820.45855868605213 -804.75929521583021 0 0 0 0 -173.86457407938178 -383.37878290650337 0 -383.37878290650337 -1127.6332778944889 0 0 0 0 -994.89819205916137 -536.45773930609357 0 -536.45773930609357 -411.91236913753073 0 0 0 0 -0.40225928175360792 -0.69820937306707265 0 -0.69820937306707265 -4.2705536189396796 0 0 0 0 1478.5906524035599 -51.096398572521139 0 -51.096398572521139 -954.83843658660226 0 0 0 0 -1996.268709351767 -1512.8286529934212 0 -1512.8286529934212 -1068.4708365389597 0 0 0 0 -153.80912185568013 -1669.5917489187441 0 -1669.5917489187441 -2544.7059543157065 0 0 0 0 -22.903164618051761 -13.902382131872935 0 -13.902382131872935 -8.5176734892765751 0 0 0 0 113.72885995877732 -255.30832080500841 0 -255.30832080500841 -3129.7025290163319 0 0 0 0 -1409.345889981254 21.111437844045213 0 21.111437844045213 1066.0505449148623 0 0 0 0 -173.88170252902637 -706.51631170349947 0 -706.51631170349947 -2027.2581800970111 0 0 0 0 174.05598526787071 280.13711250903361 0 280.13711250903361 -1171.6789657060908 0 0 0 0 -276.32122812142188 -433.70644139245815 0 -433.70644139245815 389.53315632806516 0 0 0 0 128.71957305940475 -927.20007463675029 0 -927.20007463675029 601.42720658066537 0 0 0 0 106.98187992303588 295.91833713043252 0 295.91833713043252 358.95188161534679 0 0 0 0 -1013.3031448406691 -77.127512625906093 0 -77.127512625906093 327.38040234965956 0 0 0 0 -1063.619073425958 209.51729154596796 0 209.51729154596796 213.94134909143122 0 0 0 0 -960.36111550957139 76.987819990948992 0 76.987819990948992 207.49411223011202 0 0 0 0 -1193.2701576202962 -84.833079606501997 0 -84.833079606501997 167.79476538955169 0 0 0 0 -415.37502536415559 -762.24637280835123 0 -762.24637280835123 -207.76408743475986 0 0 0 0 -10.321859577205032 -337.39276136384342 0 -337.39276136384342 -168.56930942930512 0 0 0 0 -59.420012801696032 -32.34397804528286 0 -32.34397804528286 -15.865146893400301 0 0 0 0 -71.64770294739796 -51.131233828496626 0 -51.131233828496626 -24.243743921225708 0 0 0 0 -541.70032218856795 -217.87666330880165 0 -217.87666330880165 30.35583041461723 0 0 0 0 38.773529400995173 -67.019833056167954 0 -67.019833056167954 -6.8719484436802745 0 0 0 0 -14.175416532234522 -485.63254472277868 0 -485.63254472277868 -41.5447338649019 0 0 0 0 -199.10499022502336 -367.83475105582329 0 -367.83475105582329 -116.15524196784008 0 0 0 0 36.795089289895259 -267.0099117521986 0 -267.0099117521986 -197.25215784437751 0 0 0 0 -47.20055080739985 -121.50553997675752 0 -121.50553997675752 2.0896358047129979 0 0 0 0 39.576679850618646 -61.967128469417702 0 -61.967128469417702 2.7901355810881725 0 0 0 0 304.54303592644283 -495.78025777391395 0 -495.78025777391395 246.08800177846547 0 0 0 0 74.005284951155772 33.22044484176422 0 33.22044484176422 -179.66633849490427 0 0 0 0 68.847016748302849 -71.050854721781434 0 -71.050854721781434 -36.255096336638871 0 0 0 0 134.6673902190596 -3.5793763553392637 0 -3.5793763553392637 -511.32848878978075 0 0 0 0 -1.4199111340750221 -1.2768812477436029 0 -1.2768812477436029 0.87414837503274967 0 0 0 0 -37.332444783984101 -452.00489920238351 0 -452.00489920238351 -259.07863197072629 0 0 0 0 76.143673352180485 -323.08769819266581 0 -323.08769819266581 -537.40306807585876 0 0 0 0 -1013.4827115446678 -1147.9017804848168 0 -1147.9017804848168 -853.22404084872232 0 0 0 0 -36.713815286566387 -445.37221167992402 0 -445.37221167992402 -515.41062701496685 0 0 0 0 -2734.6451688762463 83.217990276079036 0 83.217990276079036 155.79371584931209 0 0 0 0 -1178.9286709027656 545.5348952922543 0 545.5348952922543 -1754.3577630531072 0 0 0 0 -3308.4540233118314 796.257778869204 0 796.257778869204 105.94106697185498 0 0 0 0 -18.271932876259797 -12.335428127196863 0 -12.335428127196863 -7.6462240897124243 0 0 0 0 -2404.2622629846628 -1535.0153397709669 0 -1535.0153397709669 -515.13286335245812 0 0 0 0 474.35572203004267 -435.07500848821564 0 -435.07500848821564 -788.47600912041003 0 0 0 0 103.37856662891863 -210.55348660431855 0 -210.55348660431855 190.89796676720198 0 0 0 0 -26.045933703235306 -43.605367333967834 0 -43.605367333967834 -24.083355897154604 0 0 0 0 -814.79880609793327 -61.479527788524138 0 -61.479527788524138 38.061011177624096 0 0 0 0 -945.5009652736735 -157.6722497161436 0 -157.6722497161436 -8.6158829661162599 0 0 0 0 151.50990952792927 -340.58277573025043 0 -340.58277573025043 454.54690502309404 0 0 0 0 -1689.4870844095058 -182.95864209171214 0 -182.95864209171214 420.51743018287925 0 0 0 0 -773.51347662061744 -532.90311952838465 0 -532.90311952838465 435.17141154477667 0 0 0 0 -939.54696875592344 88.441515552663986 0 88.441515552663986 -34.250200071595032 0 0 0 0 -723.5425970304932 -425.10210671439563 0 -425.10210671439563 49.400892518979163 0 0 0 0 -515.78173412961769 -621.93510992097254 0 -621.93510992097254 98.920424730802551 0 0 0 0 -477.06246721607749 -289.84378010537148 0 -289.84378010537148 26.085139160109065 0 0 0 0 45.908915132115226 -59.475492151542369 0 -59.475492151542369 13.388205987551942 0 0 0 0 51.102316717966573 -48.281489722154291 0 -48.281489722154291 -62.468897918238625 0 0 0 0 418.5619435410772 -28.286287807631652 0 -28.286287807631652 787.34935343215329 0 0 0 0 13.336778657692776 -145.25706795338647 0 -145.25706795338647 -25.170791901640769 0 0 0 0 743.8212914923206 -70.028254683544219 0 -70.028254683544219 -5.762593989205925 0 0 0 0 -65.802897443552354 -8.9484001098678903 0 -8.9484001098678903 25.229364844077594 0 0 0 0 673.72686283357325 -269.54818234217498 0 -269.54818234217498 -132.32915166804378 0 0 0 0 358.4335219116183 -165.21354593067917 0 -165.21354593067917 18.566551912555042 0 0 0 0 -27.167785510675458 -212.25644374139301 0 -212.25644374139301 -156.05138532254205 0 0 0 0 -559.66590341356641 -1001.6722878479892 0 -1001.6722878479892 1004.8104262885549 0 0 0 0 50.657039290714607 -143.11942020647942 0 -143.11942020647942 56.78026561629413 0 0 0 0 25.153929942949617 -185.25668151446007 0 -185.25668151446007 -142.61755662103678 0 0 0 0 -233.16766515537165 15.251551595609726 0 15.251551595609726 -4.4125884834274984 0 0 0 0 -22.91302642412985 -152.93038311351492 0 -152.93038311351492 66.590011638843677 0 0 0 0 40.680075905917704 -77.2086237117324 0 -77.2086237117324 31.130028801813591 0 0 0 0 -852.04858063432403 -51.322726951068944 0 -51.322726951068944 539.58078581353766 0 0 0 0 -3.9212366882799756 -87.088008128562564 0 -87.088008128562564 17.741443279028928 0 0 0 0 -101.80229550540025 16.54784985999936 0 16.54784985999936 31.886666803820845 0 0 0 0 -20.647909948143759 -18.153697166117581 0 -18.153697166117581 3.1479905026332347 0 0 0 0 -69.13979323084277 -100.3127306582478 0 -100.3127306582478 -15.990886825039524 0 0 0 0 20.329141192960805 -8.9923143044807432 0 -8.9923143044807432 -0.7516198580916118 0 0 0 0 415.02385956989383 -10.535607678077781 0 -10.535607678077781 479.92670170941528 0 0 0 0 745.38363390759332 -336.305115012643 0 -336.305115012643 -207.07337095653747 0 0 0 0 1022.7376593467488 -285.40068357452583 0 -285.40068357452583 -234.00735237119443 0 0 0 0 7.6245781550092318 -19.554041884226336 0 -19.554041884226336 -20.749115347358916 0 0 0 0 674.3859949891048 -414.45735272355432 0 -414.45735272355432 -117.57025166174935 0 0 0 0 296.01317036058754 -489.25310612753674 0 -489.25310612753674 -92.342566972974964 0 0 0 0 93.814881614758633 -178.42250284457805 0 -178.42250284457805 50.5956972801132 0 0 0 0 785.74368940883141 -575.22699301390503 0 -575.22699301390503 -149.53363125144824 0 0 0 0 27.326860056247824 -127.61471782151636 0 -127.61471782151636 159.65468058769511 0 0 0 0 7.6745931155455764 -41.405685705320138 0 -41.405685705320138 145.6945125493512 0 0 0 0 -139.59707261173753 -17.693162963062605 0 -17.693162963062605 145.89134883210818 0 0 0 0 -912.71179157073493 -745.6935466623745 0 -745.6935466623745 -663.73531353398357 0 0 0 0 -3.647848657288705 -44.250685125783093 0 -44.250685125783093 14.767028523616318 0 0 0 0 -51.348901133404695 -29.323976029047948 0 -29.323976029047948 0.081008414775647575 0 0 0 0 -675.10255770391086 -274.41072661719227 0 -274.41072661719227 -1075.8576937370472 0 0 0 0 -277.77201959688682 -1074.6358869176256 0 -1074.6358869176256 -2382.6795658094634 0 0 0 0 -1052.9179610378633 -1228.6723573343334 0 -1228.6723573343334 -1295.0225900145088 0 0 0 0 1694.7675309244369 -1458.6461559492272 0 -1458.6461559492272 713.43311479473232 0 0 0 0 -5.1312217192906644 6.3855176812590173 0 6.3855176812590173 18.302170488995515 0 0 0 0 -663.6128341129006 -898.81243540098149 0 -898.81243540098149 -861.26675790842637 0 0 0 0 7.1549522790210176 -10.697992694688324 0 -10.697992694688324 8.5512246579270812 0 0 0 0 1435.2376920643292 -1518.6230955908791 0 -1518.6230955908791 2067.7684966877478 0 0 0 0 -56.187255463999463 -67.13011533827239 0 -67.13011533827239 166.13835992016902 0 0 0 0 -29.317386050338513 -28.623941573408416 0 -28.623941573408416 42.981172235300413 0 0 0 0 -37.116071529570036 -92.245325083702483 0 -92.245325083702483 101.73930103016573 0 0 0 0 898.83784147328697 -495.76982143035139 0 -495.76982143035139 181.75570947845426 0 0 0 0 960.23202002690232 -836.93498002086494 0 -836.93498002086494 347.44340535268157 0 0 0 0 258.17110907997994 -871.04950697310676 0 -871.04950697310676 457.42121368454025 0 0 0 0 2512.0809913578269 -324.82945545472103 0 -324.82945545472103 -266.87487673501528 0 0 0 0 862.62430028650124 130.89249687141091 0 130.89249687141091 1147.0752921056073 0 0 0 0 969.85141170548741 -1410.92520631057 0 -1410.92520631057 805.25770934735192 0 0 0 0 767.63962391370296 -429.60805542969547 0 -429.60805542969547 564.30268857810734 0 0 0 0 2360.387385983835 -1091.6275509128282 0 -1091.6275509128282 498.92523332267956 0 0 0 0 296.00717847001215 -537.44511173699584 0 -537.44511173699584 391.28570124439284 0 0 0 0 67.78517509590165 412.62339313664756 0 412.62339313664756 281.11926826116905 0 0 0 0 -454.858340131148 190.08614140202985 0 190.08614140202985 -1.458439321608239 0 0 0 0 -914.86457479691308 -142.22924631729893 0 -142.22924631729893 27.06163630108631 0 0 0 0 -1220.1285338288726 -450.40351141307679 0 -450.40351141307679 282.66644171131725 0 0 0 0 -118.03601971414173 -1325.4615717417396 0 -1325.4615717417396 178.91302984252309 0 0 0 0 110.24340418791689 -1203.8781282902112 0 -1203.8781282902112 -283.09809229378828 0 0 0 0 5.8543280778854978 -7.8548085376130636 0 -7.8548085376130636 -0.51052574595832834 0 0 0 0 -302.53862880179076 -1049.0010247291709 0 -1049.0010247291709 1577.1828862911161 0 0 0 0 -510.46720547474433 -617.36271764354296 0 -617.36271764354296 -298.05353465632652 0 0 0 0 -49.268837120165699 -309.43463532293026 0 -309.43463532293026 -264.04464577368617 0 0 0 0 56.096188312512822 -189.49957678120336 0 -189.49957678120336 -462.94654983368127 0 0 0 0 -204.06732574244234 -203.15915592786587 0 -203.15915592786587 -459.5216086804503 0 0 0 0 228.55371198403736 -350.53892216800978 0 -350.53892216800978 -1403.2943185982813 0 0 0 0 -22.97911999836478 -63.355391163997012 0 -63.355391163997012 -59.137761954333456 0 0 0 0 -19.623755651606189 -287.99690893617208 0 -287.99690893617208 -651.72330977659294 0 0 0 0 -49.239709584537195 -46.149890797996704 0 -46.149890797996704 192.71124233609953 0 0 0 0 -8.0844709370871328 -102.82187494371414 0 -102.82187494371414 -23.523571988594739 0 0 0 0 -92.015051829337608 -330.09931701839741 0 -330.09931701839741 -317.80000461392046 0 0 0 0 -55.029206637380412 -216.44603815733717 0 -216.44603815733717 -494.83410121565612 0 0 0 0 -72.646328866896511 -231.14261926319887 0 -231.14261926319887 -128.2831454814368 0 0 0 0 419.56983083667728 711.15526238134498 0 711.15526238134498 178.65701689484558 0 0 0 0 1018.1516554955888 503.88114244825192 0 503.88114244825192 -1731.1811898664091 0 0 0 0 271.18501000909237 -623.72608442699948 0 -623.72608442699948 -641.14449017464358 0 0 0 0 -317.89599322450522 -618.76104090749504 0 -618.76104090749504 -37.63416894445254 0 0 0 0 -13.668847978740814 -1059.3211771218503 0 -1059.3211771218503 -1255.8244168805832 0 0 0 0 168.26086477345962 -287.76334597715686 0 -287.76334597715686 -310.9145727218347 0 0 0 0 158.6889387185347 -265.55001290375094 0 -265.55001290375094 -223.63290105918713 0 0 0 0 170.29927468838287 -5.1061223090146086 0 -5.1061223090146086 16.51465914738219 0 0 0 0 133.20830745420244 72.945766736587757 0 72.945766736587757 -105.60862523253309 0 0 0 0 -15.51167960586389 -33.369841160587399 0 -33.369841160587399 17.631025392591887 0 0 0 0 -46.984342990268487 -191.10425748163834 0 -191.10425748163834 -228.4774064516314 0 0 0 0 -193.48839839035645 150.32060000438651 0 150.32060000438651 162.34216116308016 0 0 0 0 -189.02399252017494 -240.7401869027799 0 -240.7401869027799 -181.02054623224831 0 0 0 0 -23.96040451335449 -31.835127616592786 0 -31.835127616592786 -31.262836703621716 0 0 0 0 6.826595252219704 -26.152947914215474 0 -26.152947914215474 -41.596092025734833 0 0 0 0 -13.014675417446711 -29.700265211515077 0 -29.700265211515077 17.498413937422569 0 0 0 0 -486.49265071511036 100.9130990161957 0 100.9130990161957 267.55966370866372 0 0 0 0 -3.6353901536897411 -7.3795810923803238 0 -7.3795810923803238 -14.240044222243085 0 0 0 0 -1511.5739855029096 140.76223554760509 0 140.76223554760509 -262.08837504811891 0 0 0 0 -1065.7130985852855 -16.602989273786079 0 -16.602989273786079 -357.92979435995949 0 0 0 0 100.20893800876001 -158.45566695377329 0 -158.45566695377329 -729.14305015416903 0 0 0 0 -2239.2649687004596 26.056217641700641 0 26.056217641700641 237.87477046196727 0 0 0 0 -10.438177340633359 -22.629335086406599 0 -22.629335086406599 -27.9427554373151 0 0 0 0 -498.46416964422679 -1039.6827318903233 0 -1039.6827318903233 -1248.99579813128 0 0 0 0 -1207.2541871448993 827.85354310316688 0 827.85354310316688 731.28497772672563 0 0 0 0 -6154.1412199554034 297.00571805042273 0 297.00571805042273 1742.9376942146337 0 0 0 0 -2187.3257535820594 -1624.9203632715798 0 -1624.9203632715798 -623.90260120529274 0 0 0 0 -364.42832679698768 -878.66473556022106 0 -878.66473556022106 -688.35632882075151 0 0 0 0 -377.46868797636125 -622.06034137077586 0 -622.06034137077586 -180.2455777237119 0 0 0 0 -724.14770060616138 -508.55901617660675 0 -508.55901617660675 73.709731177965296 0 0 0 0 47.781946786751249 -41.241868009532908 0 -41.241868009532908 4.3581188805105882 0 0 0 0 -2.3311426391883856 -18.283877482065684 0 -18.283877482065684 38.600511107655734 0 0 0 0 -379.63174286606954 438.34058058305163 0 438.34058058305163 1443.0484669791695 0 0 0 0 388.07638514212158 -612.50070433423389 0 -612.50070433423389 -624.46970472441171 0 0 0 0 -53.597865574338357 -1201.204323698923 0 -1201.204323698923 269.56482442829292 0 0 0 0 -199.0751660974347 -665.59381266024866 0 -665.59381266024866 -472.77257797191123 0 0 0 0 -199.81980008241953 -911.47207960613741 0 -911.47207960613741 -1058.52549918554 0 0 0 0 -1156.2623120528297 -217.15106321248459 0 -217.15106321248459 -607.42258754582144 0 0 0 0 -1213.9360521424678 -1143.5796035331732 0 -1143.5796035331732 621.6203895273793 0 0 0 0 -1106.0434386153356 -948.62943081976846 0 -948.62943081976846 796.90526736385073 0 0 0 0 -863.18552116351202 -934.53797415867302 0 -934.53797415867302 610.84497506944945 0 0 0 0 -957.02612650493393 -793.40648098994279 0 -793.40648098994279 760.638925369567 0 0 0 0 -314.19891727223876 -1206.3778635182043 0 -1206.3778635182043 99.419831413135398 0 0 0 0 -515.93211544761652 -1005.8927301289536 0 -1005.8927301289536 -91.714663376042154 0 0 0 0 -563.54812474414939 -1259.9270024209836 0 -1259.9270024209836 440.35941550646385 0 0 0 0 -860.54570432024775 -997.87256440221972 0 -997.87256440221972 210.63174135101144 0 0 0 0 -1067.6110418579192 -1310.309904123962 0 -1310.309904123962 456.13758747203974 0 0 0 0 -2162.7694936026819 -1462.4995322055838 0 -1462.4995322055838 740.87939354185073 0 0 0 0 792.29029733675998 -1314.2197791385552 0 -1314.2197791385552 -526.36104429297848 0 0 0 0 -619.65013850093237 -1517.4088565249549 0 -1517.4088565249549 548.15250296798331 0 0 0 0 -787.79303510689351 -703.67969694642306 0 -703.67969694642306 -94.22579774321639 0 0 0 0 -518.60918707263772 -1080.5488664258446 0 -1080.5488664258446 -756.11559842844144 0 0 0 0 -386.12915791786509 -913.21287282478443 0 -913.21287282478443 -565.42905403963232 0 0 0 0 -304.46940717851976 -275.21149347562823 0 -275.21149347562823 -123.78440655296436 0 0 0 0 -90.665840749556082 -517.98159624012987 0 -517.98159624012987 -612.65621850792377 0 0 0 0 -307.66958350400091 -369.04842941428069 0 -369.04842941428069 -246.11269111954971 0 0 0 0 253.19985260456451 -197.44109779127757 0 -197.44109779127757 -457.19481972923677 0 0 0 0 -4.9795562728188543 -9.2821208722705535 0 -9.2821208722705535 -8.8951679905603243 0 0 0 0 -518.41289088469057 -384.01918221886444 0 -384.01918221886444 149.91117410491279 0 0 0 0 -251.08393648098172 -42.704254793274231 0 -42.704254793274231 171.07592890267551 0 0 0 0 84.380770384668722 -302.17502201255775 0 -302.17502201255775 425.72168984283053 0 0 0 0 -102.28205587598495 -465.02857218345889 0 -465.02857218345889 578.81704048736356 0 0 0 0 -34.611497822712408 -182.24223133087071 0 -182.24223133087071 463.53387845683028 0 0 0 0 -508.86512521619443 -859.43587154123816 0 -859.43587154123816 -441.10894966333581 0 0 0 0 0.10646518641863167 -21.39924984034927 0 -21.39924984034927 -19.882218573681953 0 0 0 0 -9.9436917200218886 -401.09554772137562 0 -401.09554772137562 386.41601192587405 0 0 0 0 34.983694574184483 -405.67475079865835 0 -405.67475079865835 242.02378020842843 0 0 0 0 -42.467071160877822 -101.56775793411725 0 -101.56775793411725 157.80603012343636 0 0 0 0 81.409871199895861 -8.2008512678876286 0 -8.2008512678876286 -353.94888985728539 0 0 0 0 74.280110326231807 -233.88402005206808 0 -233.88402005206808 127.4532977801282 0 0 0 0 -29.835856094505289 -354.79902717520963 0 -354.79902717520963 344.08290904041496 0 0 0 0 -24.651981830349825 -22.544527070895896 0 -22.544527070895896 -7.4361741364358949 0 0 0 0 -20.919263171439525 -278.73811223880693 0 -278.73811223880693 431.6964379620913 0 0 0 0 81.058183856832329 -530.94867388824787 0 -530.94867388824787 440.49175645010837 0 0 0 0 5.6016082070273114 -160.06124122679466 0 -160.06124122679466 870.4986677854904 0 0 0 0 55.058946857549017 -266.50063806680555 0 -266.50063806680555 -176.47726143114414 0 0 0 0 -52.978393207027693 -329.99755308583917 0 -329.99755308583917 -87.239943519933149 0 0 0 0 4.1982566010046867 -342.34639935882296 0 -342.34639935882296 -169.13299778106739 0 0 0 0 -37.092119991844811 -429.74125981853103 0 -429.74125981853103 -308.9879292192054 0 0 0 0 -166.98080219866824 -487.9899621697914 0 -487.9899621697914 -158.95045905002189 0 0 0 0 -161.41376535259769 -441.94875498654437 0 -441.94875498654437 -70.308644791031838 0 0 0 0 -413.34710353856644 -710.76462436022848 0 -710.76462436022848 -303.06617460169946 0 0 0 0 15.518285946338437 -426.69257358981849 0 -426.69257358981849 -697.12832177250675 0 0 0 0 141.1635002533294 -159.40091471080086 0 -159.40091471080086 -525.44526218182 0 0 0 0 -1206.7762372655707 -52.899667271471117 0 -52.899667271471117 924.41178641165607 0 0 0 0 23.326323498375132 -423.6106272835259 0 -423.6106272835259 -14.15856260070359 0 0 0 0 15.202833512610852 -27.696037482884847 0 -27.696037482884847 7.0295600075438216 0 0 0 0 -52.676833858008486 -74.845468833142661 0 -74.845468833142661 -24.974597874760889 0 0 0 0 88.964291906833381 -70.071245827071024 0 -70.071245827071024 16.657226763146099 0 0 0 0 89.428887082358415 -26.4551368483244 0 -26.4551368483244 -103.83312178897904 0 0 0 0 158.95436337891442 -91.598428512825194 0 -91.598428512825194 -435.551896054385 0 0 0 0 74.517207336466527 -67.374139438376005 0 -67.374139438376005 -94.074011003514897 0 0 0 0 -807.56258656014688 -411.63108121704317 0 -411.63108121704317 99.786719670548337 0 0 0 0 -698.73866468493361 -590.21254473714362 0 -590.21254473714362 -106.16179482694861 0 0 0 0 -1106.441024904495 -611.87940510941462 0 -611.87940510941462 -32.078086314832035 0 0 0 0 -1637.2502241503171 -406.28949732645833 0 -406.28949732645833 -13.443966897815699 0 0 0 0 -205.03593376731442 -755.63124235870782 0 -755.63124235870782 -749.74650173883128 0 0 0 0 42.540318807042411 -38.735847526295743 0 -38.735847526295743 0.038972067734448501 0 0 0 0 -271.36723933753092 -167.98957671334392 0 -167.98957671334392 -253.78285751559815 0 0 0 0 -2440.6365064102629 -3694.2717364774526 0 -3694.2717364774526 -1526.4248995744565 0 0 0 0 -33.063447846041527 -166.42701339483756 0 -166.42701339483756 -27.421115847479086 0 0 0 0 -174.41925126308342 -175.83720763842302 0 -175.83720763842302 53.626887502367026 0 0 0 0 72.690845073811204 -74.689208610964357 0 -74.689208610964357 19.148759663665061 0 0 0 0 -195.70273468090454 -264.19893468024384 0 -264.19893468024384 -124.37732473805227 0 0 0 0 78.722334164187487 -207.83509054626484 0 -207.83509054626484 -123.67827071945067 0 0 0 0 -139.35928353878262 -289.63947729163192 0 -289.63947729163192 -122.52410646114731 0 0 0 0 -228.26824810702237 -290.74339594967751 0 -290.74339594967751 -90.294810658204369 0 0 0 0 51.99757899533703 -57.713074846444563 0 -57.713074846444563 -18.15371386147217 0 0 0 0 -228.10957483370476 -289.45287184962444 0 -289.45287184962444 -99.489419338919106 0 0 0 0 -259.38181278930278 -300.68988174817787 0 -300.68988174817787 -89.204284539664513 0 0 0 0 -190.38437009730842 -324.29162281988829 0 -324.29162281988829 -90.768872664964874 0 0 0 0 -255.8875361635146 -130.45087140709438 0 -130.45087140709438 62.285100693974528 0 0 0 0 41.995809999789344 -33.265213113932987 0 -33.265213113932987 -200.5754182255987 0 0 0 0 -101.31208085130493 -111.65284006112051 0 -111.65284006112051 -61.261897483331268 0 0 0 0 -1.8499822473123118 -28.473219694236363 0 -28.473219694236363 42.541028389735544 0 0 0 0 -118.39495956237806 -103.12294980202932 0 -103.12294980202932 -1.155495017854264 0 0 0 0 -560.15765407764047 -340.40865013663642 0 -340.40865013663642 -36.36865595967538 0 0 0 0 -74.381625457506743 -108.61935926697697 0 -108.61935926697697 -25.064100561365194 0 0 0 0 38.961513764947618 -56.836562696040517 0 -56.836562696040517 0.46989530925296208 0 0 0 0 -97.905361140015884 -135.40091931388451 0 -135.40091931388451 -26.392216948835994 0 0 0 0 -208.3054845020597 -359.29079194295991 0 -359.29079194295991 -74.517160043760668 0 0 0 0 -438.14356941073493 -202.59475407495484 0 -202.59475407495484 -86.618077763210749 0 0 0 0 -241.11113345996273 -263.47153620557947 0 -263.47153620557947 -136.42558495979756 0 0 0 0 -234.63039671578008 -279.69068675945164 0 -279.69068675945164 -100.49947946532484 0 0 0 0 -303.62086078360153 -342.51782563729648 0 -342.51782563729648 -74.420557352932519 0 0 0 0 -193.92626691312762 -341.17130787269707 0 -341.17130787269707 -27.088416861275618 0 0 0 0 -99.301138992857886 -333.97591934224329 0 -333.97591934224329 -76.493933179324813 0 0 0 0 -169.40052525049396 -349.89183349628729 0 -349.89183349628729 -115.43365053305752 0 0 0 0 -147.01311517643626 -410.9710590892937 0 -410.9710590892937 -89.872276519650768 0 0 0 0 -159.22759763600698 -379.68803915532953 0 -379.68803915532953 -33.048866019584239 0 0 0 0 -118.39969538220612 -420.18439803055662 0 -420.18439803055662 -86.95895787992049 0 0 0 0 -120.70931502075109 -405.5991945949354 0 -405.5991945949354 -163.18531507264561 0 0 0 0 -109.45323927144091 -374.253440782506 0 -374.253440782506 -106.59244719943672 0 0 0 0 -255.80032834054145 -456.8280452247418 0 -456.8280452247418 -38.880761773769336 0 0 0 0 -166.57561825691846 -354.01011887922596 0 -354.01011887922596 50.008552700979635 0 0 0 0 -59.122389418509556 -293.1349326776035 0 -293.1349326776035 -11.485399691053317 0 0 0 0 -103.40662126422103 -290.33945725844387 0 -290.33945725844387 19.653660482421401 0 0 0 0 -0.36802268149040174 -277.43045376126975 0 -277.43045376126975 -33.667597646599461 0 0 0 0 0.24345078908663709 -189.31351835351961 0 -189.31351835351961 29.084786471707048 0 0 0 0 209.53648633206467 -181.38726323650553 0 -181.38726323650553 -30.507710708450759 0 0 0 0 106.49068923266168 -145.31902787108265 0 -145.31902787108265 25.016468299749249 0 0 0 0 -102.32140707420331 -196.52338931523082 0 -196.52338931523082 46.90197209159669 0 0 0 0 211.65934704063693 -172.44655194265943 0 -172.44655194265943 2.4020091651000257 0 0 0 0 -29.222270752488839 -141.70806119710323 0 -141.70806119710323 -48.192960157284688 0 0 0 0 388.33391250693967 -239.3644805958138 0 -239.3644805958138 -18.88339100273879 0 0 0 0 -55.609455244446728 -54.360118317125981 0 -54.360118317125981 -27.426865545669926 0 0 0 0 -205.21094061817666 -100.50962893258384 0 -100.50962893258384 187.57608125098341 0 0 0 0 212.23517330781033 -47.544698257817799 0 -47.544698257817799 53.68273157711883 0 0 0 0 1212.3149265015236 -750.46657246346149 0 -750.46657246346149 -1478.3691014883734 0 0 0 0 -460.23468681331542 -291.51046533245972 0 -291.51046533245972 150.34753833193099 0 0 0 0 -63.556932255787146 -61.344586461868658 0 -61.344586461868658 -37.593874683752063 0 0 0 0 -155.25418007808548 -125.21921516567272 0 -125.21921516567272 -47.588690332515398 0 0 0 0 -18.8534663828259 -230.60532322897961 0 -230.60532322897961 -171.61683332038592 0 0 0 0 -210.84980687111602 -302.25079577634096 0 -302.25079577634096 -130.90104521617832 0 0 0 0 -29.944333140163508 -273.08274761299617 0 -273.08274761299617 -179.79505740814784 0 0 0 0 -68.700063701857289 -242.1935476419203 0 -242.1935476419203 -171.20897073129623 0 0 0 0 338.12683420644635 -181.51146377374596 0 -181.51146377374596 85.679164925591976 0 0 0 0 541.95798457013007 -146.91199412544665 0 -146.91199412544665 -38.769275877196378 0 0 0 0 -0.7469572289592179 -15.603215565086515 0 -15.603215565086515 -3.279123373792288 0 0 0 0 -211.76844845273479 -211.17503276281906 0 -211.17503276281906 -115.82821401237379 0 0 0 0 -439.61898445540282 -170.85280441166833 0 -170.85280441166833 -51.214148686819499 0 0 0 0 -134.849734332769 -92.934586854411464 0 -92.934586854411464 -44.709682545944816 0 0 0 0 243.11744446600278 -156.74257473204125 0 -156.74257473204125 -1.4850160058194888 0 0 0 0 -1.0901468847855482 -15.884732225055721 0 -15.884732225055721 -4.8343750071902747 0 0 0 0 195.65061762836672 -150.06699662201413 0 -150.06699662201413 48.005140609799128 0 0 0 0 180.72542309750861 -142.54989853413281 0 -142.54989853413281 49.138193510560086 0 0 0 0 -83.757592173202283 -20.842148119379999 0 -20.842148119379999 -18.813676051191578 0 0 0 0 -217.57032921537439 -77.029295895268774 0 -77.029295895268774 -13.940676451966283 0 0 0 0 -71.076712408888852 -73.63932430562636 0 -73.63932430562636 14.67363656354064 0 0 0 0 -97.418101405441121 -70.152381733081711 0 -70.152381733081711 21.401243523221638 0 0 0 0 -10.314638874770026 -42.504801009388757 0 -42.504801009388757 12.668998033710523 0 0 0 0 52.435515872202814 -69.850330703855434 0 -69.850330703855434 -52.218601026959732 0 0 0 0 -111.65969976539782 -57.376478633053921 0 -57.376478633053921 27.788468175509479 0 0 0 0 34.00617107834114 -2.4249828674255696 0 -2.4249828674255696 48.913163421515492 0 0 0 0 0.54844362991198592 -23.14023184603964 0 -23.14023184603964 -6.7295855979542694 0 0 0 0 120.05675742250605 -31.573469507591653 0 -31.573469507591653 -37.301314663160156 0 0 0 0 37.510671574269509 -21.675906451942865 0 -21.675906451942865 304.07826061136439 0 0 0 0 25.637963284360808 -0.50137275497939982 0 -0.50137275497939982 -3.6790518802204986 0 0 0 0 400.80351590576174 90.929253798316495 0 90.929253798316495 -294.61697997561805 0 0 0 0 601.19401042765821 -146.33448717303691 0 -146.33448717303691 -299.70821086860997 0 0 0 0 -51.058337078240584 -256.74751162636676 0 -256.74751162636676 1351.1171755552568 0 0 0 0 411.47864282906812 -1528.228671118748 0 -1528.228671118748 866.99453402235667 0 0 0 0 379.18740405101562 -453.22543304091232 0 -453.22543304091232 -121.00348265934008 0 0 0 0 624.7787800794431 -407.40051890390714 0 -407.40051890390714 -163.61778653037618 0 0 0 0 385.18309158540796 -465.28486499621067 0 -465.28486499621067 -96.749473394316738 0 0 0 0 311.86886626559135 -271.65526399955706 0 -271.65526399955706 -47.532774388667349 0 0 0 0 110.9178323168162 -230.28060306132102 0 -230.28060306132102 59.704861346650432 0 0 0 0 212.61875886233611 -430.26448520143822 0 -430.26448520143822 383.76800430877483 0 0 0 0 445.78031798384433 -1153.8014987919619 0 -1153.8014987919619 1471.4554669131467 0 0 0 0 -678.44277858628982 -219.2299189120622 0 -219.2299189120622 1686.3207999256119 0 0 0 0 -766.02677023580657 500.95017418328644 0 500.95017418328644 1104.0982715285572 0 0 0 0 366.31472395534928 -260.13686682197022 0 -260.13686682197022 316.63427669285738 0 0 0 0 -329.26248816803673 -361.37621889080037 0 -361.37621889080037 695.9638917672346 0 0 0 0 -858.45842022526267 35.373076531152037 0 35.373076531152037 484.67223879048834 0 0 0 0 358.01053817222419 180.11771590087301 0 180.11771590087301 -471.81437391170766 0 0 0 0 13.956081193586403 -137.74351255619715 0 -137.74351255619715 -4.7374893360413637 0 0 0 0 284.14986352851702 -501.2352889224494 0 -501.2352889224494 2028.9863835516153 0 0 0 0 1603.6959889219434 -1818.1260837246373 0 -1818.1260837246373 -1744.7291117666464 0 0 0 0 426.98807724967264 292.90091536580167 0 292.90091536580167 -1323.5484643990203 0 0 0 0 -154.15166349695755 -649.64230822376703 0 -649.64230822376703 -168.07009729284255 0 0 0 0 -26.614730012968721 -435.07333397753246 0 -435.07333397753246 -360.13740491800854 0 0 0 0 -405.09802544746162 160.07250648016634 0 160.07250648016634 7.7270439984276891 0 0 0 0 571.57978667414409 -353.43986834071256 0 -353.43986834071256 116.60667320869106 0 0 0 0 1019.5007038275587 47.184553132315159 0 47.184553132315159 139.98018108811812 0 0 0 0 697.48947207681613 -590.70659896576399 0 -590.70659896576399 59.185000633362506 0 0 0 0 54.419928651474265 -246.62404843597687 0 -246.62404843597687 70.904792480941978 0 0 0 0 467.44777747612989 -236.05904275345711 0 -236.05904275345711 -7.4394004665082321 0 0 0 0 -147.84609410296071 -571.2279321997521 0 -571.2279321997521 29.52310269818372 0 0 0 0 420.38181898558537 -429.53911019837233 0 -429.53911019837233 -20.828149117158318 0 0 0 0 -172.11165307571719 -154.27637758336277 0 -154.27637758336277 -40.804456786929222 0 0 0 0 -241.4224610187448 160.60336103457212 0 160.60336103457212 -256.37475606772568 0 0 0 0 10.065613304606691 -130.31491020896806 0 -130.31491020896806 0.14425362483075332 0 0 0 0 -556.22987952584117 -468.28180806522141 0 -468.28180806522141 221.95780590030699 0 0 0 0 -2.0881903318950208 -173.27682225787657 0 -173.27682225787657 31.824103925158852 0 0 0 0 11.53053880050172 -131.58769993046923 0 -131.58769993046923 -21.257067485792298 0 0 0 0 370.47238006368713 -321.07620613644298 0 -321.07620613644298 2.1266676922532497 0 0 0 0 370.53590280956246 -316.46854313891072 0 -316.46854313891072 -118.6295810745346 0 0 0 0 298.63788740375685 -439.69570520820707 0 -439.69570520820707 86.050754558070821 0 0 0 0 298.77168578113924 -250.11536634799813 0 -250.11536634799813 46.110415562895469 0 0 0 0 329.73375383525126 -252.13354514359344 0 -252.13354514359344 -130.01846866995402 0 0 0 0 -52.988149570206588 -100.36757001658771 0 -100.36757001658771 -48.746057886753988 0 0 0 0 333.43006544686068 -85.588691633685812 0 -85.588691633685812 -481.05913529932513 0 0 0 0 17.203688280889764 -148.29073847213112 0 -148.29073847213112 44.17804846819854 0 0 0 0 141.1395361290779 -165.91159443186007 0 -165.91159443186007 -38.172472069540163 0 0 0 0 145.04241190727134 -146.28040811271944 0 -146.28040811271944 1.5446066495096602 0 0 0 0 336.59642605424597 -205.03748480372724 0 -205.03748480372724 -28.542515205121163 0 0 0 0 174.44589792947227 -131.40694026451274 0 -131.40694026451274 68.186070161845237 0 0 0 0 343.17421273014043 -241.39001435310138 0 -241.39001435310138 5.9058374008545798 0 0 0 0 154.5839050629329 -177.54235105503994 0 -177.54235105503994 -33.144134619378747 0 0 0 0 99.698007126004086 -121.11589766215002 0 -121.11589766215002 9.5252217671541075 0 0 0 0 159.89166671227576 -97.363200738043588 0 -97.363200738043588 -52.644630134424233 0 0 0 0 59.636497824112666 -141.81745830748281 0 -141.81745830748281 32.89210624426596 0 0 0 0 54.144658380128021 -92.717022220168815 0 -92.717022220168815 -58.848673109609081 0 0 0 0 186.9530460641181 -194.62302737295136 0 -194.62302737295136 -116.07793325611374 0 0 0 0 274.81888643956336 -96.537871343808547 0 -96.537871343808547 -8.9511566247620067 0 0 0 0 119.20990285060634 -355.40860967629402 0 -355.40860967629402 668.55524780054861 0 0 0 0 8.110462855343485 6.2287351410478227 0 6.2287351410478227 -8.5515864796994787 0 0 0 0 269.27282356849355 -406.12010656609596 0 -406.12010656609596 94.835504774496258 0 0 0 0 58.090677507985674 -179.86562449076428 0 -179.86562449076428 -50.975340159700863 0 0 0 0 11.633645007055463 -127.77598221501094 0 -127.77598221501094 -42.028877620363097 0 0 0 0 316.31916297536418 -142.34327375306384 0 -142.34327375306384 195.71850572145468 0 0 0 0 1058.2760409891398 -187.42143678722732 0 -187.42143678722732 -773.02607978792366 0 0 0 0 -28.122349934921658 -127.13173792031168 0 -127.13173792031168 -15.198610140688288 0 0 0 0 522.91979486704713 -642.02435319716949 0 -642.02435319716949 -1133.1247450641904 0 0 0 0 -456.3608911844567 -312.06860238065929 0 -312.06860238065929 -459.47754361367515 0 0 0 0 711.02882333906655 -143.3836448421016 0 -143.3836448421016 -602.53654387324059 0 0 0 0 467.11321042977704 -45.861077074180798 0 -45.861077074180798 -259.26337106024221 0 0 0 0 -30.268942156762932 -142.71766926148575 0 -142.71766926148575 -77.022415358585022 0 0 0 0 473.74605087280474 24.453021673370131 0 24.453021673370131 476.79462485284967 0 0 0 0 13.615486617399982 -123.89839170232551 0 -123.89839170232551 -55.81537316557479 0 0 0 0 -56.466337500230111 -164.29945050746019 0 -164.29945050746019 -66.28616440080441 0 0 0 0 864.74968598321834 30.94167519734458 0 30.94167519734458 -430.406718576618 0 0 0 0 -125.00333029050967 413.78961656481306 0 413.78961656481306 21.39448353937405 0 0 0 0 -4.2336809760068839 -0.30154964052935984 0 -0.30154964052935984 12.598575641289415 0 0 0 0 236.23188532236077 -363.39107381574286 0 -363.39107381574286 227.51805526255885 0 0 0 0 121.33360190608073 -193.01136669259131 0 -193.01136669259131 -115.45124952926676 0 0 0 0 50.770582685872796 -128.29456238425814 0 -128.29456238425814 -78.147514141408465 0 0 0 0 128.26813301852235 -187.00474192033357 0 -187.00474192033357 -121.3181001522903 0 0 0 0 40.149423274750006 -159.05673617928073 0 -159.05673617928073 -79.748006518394959 0 0 0 0 41.223918051669898 -190.37734794981225 0 -190.37734794981225 -94.326023257515772 0 0 0 0 30.45168139636553 -220.69367282373832 0 -220.69367282373832 -132.88687980832037 0 0 0 0 -58.321685445989715 -210.81308165912424 0 -210.81308165912424 -88.417513918029726 0 0 0 0 93.106749742005377 -282.79916186382275 0 -282.79916186382275 -178.66219732779973 0 0 0 0 97.528989214137255 -255.15103771527492 0 -255.15103771527492 -120.35044889627625 0 0 0 0 72.441672451212071 -286.01689753223172 0 -286.01689753223172 -169.83978414331204 0 0 0 0 9.8318320214348205 -202.53046655286448 0 -202.53046655286448 -202.84892205282449 0 0 0 0 185.09158916739034 -259.88746905188668 0 -259.88746905188668 -181.98811905007233 0 0 0 0 -52.182020369789825 -381.17749589215373 0 -381.17749589215373 -119.66669650448875 0 0 0 0 -188.84911063792788 -293.46732530068687 0 -293.46732530068687 -180.86845150210502 0 0 0 0 -139.67891191205854 -230.09827453291291 0 -230.09827453291291 -100.18271371039157 0 0 0 0 -104.39948497993464 -246.00085977434628 0 -246.00085977434628 -97.356929260060042 0 0 0 0 -66.56114681053441 -240.4987968977689 0 -240.4987968977689 -290.78169892430742 0 0 0 0 -4.8154604217825181 -146.82145448166636 0 -146.82145448166636 -200.77320101762734 0 0 0 0 63.393858979917816 -51.62267689759409 0 -51.62267689759409 -8.3535809543448067 0 0 0 0 8.7925601096503669 -94.084539251761498 0 -94.084539251761498 -28.317656792200978 0 0 0 0 -5.801681208282389 -4.8704260957078986 0 -4.8704260957078986 -21.783074643211876 0 0 0 0 -26.263140222072252 -99.728319576252943 0 -99.728319576252943 -27.324613495478047 0 0 0 0 444.83663619833897 -839.26428841998677 0 -839.26428841998677 -509.08540482023272 0 0 0 0 75.472848897740732 -56.828209142034474 0 -56.828209142034474 15.730995870344231 0 0 0 0 -240.88784410932203 -193.45206821323563 0 -193.45206821323563 21.441831453383202 0 0 0 0 -69.428607466696121 -105.97538222632443 0 -105.97538222632443 -182.39369096503469 0 0 0 0 -152.36819902596108 -171.68147911632332 0 -171.68147911632332 -148.95667908198811 0 0 0 0 -333.27847050203127 -415.89353675042003 0 -415.89353675042003 -6.7941401526741174 0 0 0 0 155.62503096390719 -171.70572343747153 0 -171.70572343747153 -161.08381629921496 0 0 0 0 -129.70046057153831 -277.39360673659417 0 -277.39360673659417 334.47629831610357 0 0 0 0 199.14774250438131 -360.82852727976024 0 -360.82852727976024 -152.10223340696211 0 0 0 0 -47.704412694994971 -309.85029430076975 0 -309.85029430076975 -141.75285204385 0 0 0 0 64.888784641520033 -254.30607331098872 0 -254.30607331098872 -182.41107513559473 0 0 0 0 -60.167570856890961 -288.45771873254989 0 -288.45771873254989 -134.83105875713954 0 0 0 0 -412.95845403598014 -144.06059851239161 0 -144.06059851239161 -100.06219049394713 0 0 0 0 520.26151376876805 -43.752477130325133 0 -43.752477130325133 69.248036478385757 0 0 0 0 -0.53814509162151936 -10.212948478485046 0 -10.212948478485046 -1.0786337877964058 0 0 0 0 1029.7452398297137 -225.76911357835883 0 -225.76911357835883 -183.85206219967222 0 0 0 0 438.94015810394194 -436.0790744579308 0 -436.0790744579308 -131.96860402636639 0 0 0 0 -1041.9278025365238 -421.05037644057825 0 -421.05037644057825 17.013094358771014 0 0 0 0 170.67986585031031 -437.37831142113941 0 -437.37831142113941 -365.26725573531803 0 0 0 0 147.79479424233432 -358.66584229366708 0 -358.66584229366708 -416.72021918418977 0 0 0 0 0.0088335392501903698 -555.85592931568863 0 -555.85592931568863 -547.88994642057696 0 0 0 0 290.19782286151894 -403.22817047860735 0 -403.22817047860735 -621.8025658133738 0 0 0 0 316.51971878824406 -273.99531941429632 0 -273.99531941429632 -514.91628474036042 0 0 0 0 383.20737339707557 -299.76564905827399 0 -299.76564905827399 -692.72543945449979 0 0 0 0 378.94745104755566 -179.70501007065195 0 -179.70501007065195 -351.20484791219496 0 0 0 0 377.97851815447211 -358.12054354095017 0 -358.12054354095017 -350.13612081516476 0 0 0 0 457.6446153621946 -252.03439073461959 0 -252.03439073461959 -217.08820551359895 0 0 0 0 239.41832091804827 -322.8144547481661 0 -322.8144547481661 -257.15662873596557 0 0 0 0 240.7385530237807 -371.04952822151972 0 -371.04952822151972 -171.2312391809246 0 0 0 0 239.87720933172386 -415.36199398506869 0 -415.36199398506869 -63.987895685841067 0 0 0 0 317.45582364097936 -373.30863631168995 0 -373.30863631168995 -83.160221609767177 0 0 0 0 305.80588490937953 -336.31947262973699 0 -336.31947262973699 -160.06361772619493 0 0 0 0 412.94125944349798 -322.06913570828692 0 -322.06913570828692 -81.56551306549045 0 0 0 0 297.01445259027241 -383.24580167545173 0 -383.24580167545173 -35.031668401163188 0 0 0 0 288.57914635181078 -372.61703642952943 0 -372.61703642952943 -36.073891203741368 0 0 0 0 269.39034893614007 -408.48872426076559 0 -408.48872426076559 -23.486637460494421 0 0 0 0 218.38785550497778 -363.31861109473948 0 -363.31861109473948 -59.72065094174468 0 0 0 0 227.85717558363103 -409.11381236152556 0 -409.11381236152556 -41.93751323262768 0 0 0 0 129.62270387008903 -349.18223612173188 0 -349.18223612173188 56.353746603848776 0 0 0 0 84.727545166289929 -350.89664445777453 0 -350.89664445777453 -60.066250236377527 0 0 0 0 143.17869277053978 -453.2998378414286 0 -453.2998378414286 -160.80404430803446 0 0 0 0 0.13093609508359805 -484.69506021464531 0 -484.69506021464531 -212.61759834174518 0 0 0 0 119.43492019223049 -391.30669431160641 0 -391.30669431160641 -48.942040402984276 0 0 0 0 74.539127981086494 -302.43856760833842 0 -302.43856760833842 171.72032141183445 0 0 0 0 0.015404413381475024 -386.23399580887235 0 -386.23399580887235 99.071482502735307 0 0 0 0 154.91399875230854 -361.18821077722487 0 -361.18821077722487 59.637113139520807 0 0 0 0 118.17246319010428 -329.9777885166929 0 -329.9777885166929 221.52017411052111 0 0 0 0 119.9636284080043 -311.15038951908718 0 -311.15038951908718 173.31998071108706 0 0 0 0 0.073089578979151595 -307.70745711532714 0 -307.70745711532714 287.6648653847551 0 0 0 0 101.77642301518063 -296.49573113002452 0 -296.49573113002452 284.84873620566111 0 0 0 0 106.8091504112781 -271.97413578726741 0 -271.97413578726741 266.42610146446805 0 0 0 0 0.012016642679921327 -248.4886921355334 0 -248.4886921355334 277.16853271813591 0 0 0 0 -35.442425901179377 -102.26609586830864 0 -102.26609586830864 64.652292148399283 0 0 0 0 53.601254140026867 -126.37104253737743 0 -126.37104253737743 38.639772411182946 0 0 0 0 -24.792225614554809 -26.236281961847311 0 -26.236281961847311 -26.290167949762314 0 0 0 0 -10.227264189389416 -9.7600404693163227 0 -9.7600404693163227 12.351155361505555 0 0 0 0 251.3714128798747 -259.44043686653083 0 -259.44043686653083 184.17370873223899 0 0 0 0 261.71866186251282 -273.55017436092703 0 -273.55017436092703 202.78293344859617 0 0 0 0 356.49797624183702 -261.17933152089881 0 -261.17933152089881 183.14483687385268 0 0 0 0 238.7725455207983 -247.69073453212241 0 -247.69073453212241 277.5604326005955 0 0 0 0 234.69489231045009 -375.10938070107113 0 -375.10938070107113 321.2405080224853 0 0 0 0 684.22241385967936 -522.27900299863904 0 -522.27900299863904 303.09338854282032 0 0 0 0 242.49090000471915 -390.18668724538293 0 -390.18668724538293 430.27080043561182 0 0 0 0 39.451247789955232 -240.90502353098873 0 -240.90502353098873 338.0100692334272 0 0 0 0 -208.09598609671229 4.0653018823852562 0 4.0653018823852562 102.0517060462289 0 0 0 0 -1.7104207796565447 -2.7211570600622963 0 -2.7211570600622963 3.680367133717219 0 0 0 0 293.30341234830121 -235.84019725184066 0 -235.84019725184066 180.44045538319915 0 0 0 0 252.58954347298277 -361.75122852084746 0 -361.75122852084746 146.70666913604873 0 0 0 0 243.18348184679053 -275.6818155345336 0 -275.6818155345336 135.63765555149803 0 0 0 0 259.10790732663008 -369.63351237104507 0 -369.63351237104507 69.445280564200402 0 0 0 0 237.71805410912202 -388.44990440774563 0 -388.44990440774563 1.0402229143073782 0 0 0 0 283.4213378675704 -339.96651142411315 0 -339.96651142411315 -93.903134656131442 0 0 0 0 290.43621224912931 -405.15025488230731 0 -405.15025488230731 -58.646953044113616 0 0 0 0 278.1041162762267 -335.43514121010594 0 -335.43514121010594 20.18965821987149 0 0 0 0 164.27435984188924 -271.87099500852128 0 -271.87099500852128 61.071517937465615 0 0 0 0 302.11342675896594 -292.36935871970854 0 -292.36935871970854 122.82561666110814 0 0 0 0 64.999419473897433 -86.717884317584321 0 -86.717884317584321 -97.675180642886517 0 0 0 0 4.191223566773715 -7.193182726637815 0 -7.193182726637815 3.2463060999329336 0 0 0 0 182.70282259071246 -158.96787914040942 0 -158.96787914040942 -372.60397148304583 0 0 0 0 -24.732070255966391 -169.45825323098234 0 -169.45825323098234 17.421809231031148 0 0 0 0 -98.966126358514884 -90.778264309738915 0 -90.778264309738915 23.234840717946099 0 0 0 0 -136.22506068732037 -109.70752022266311 0 -109.70752022266311 41.560215698185857 0 0 0 0 241.20851044801384 -232.58325803434741 0 -232.58325803434741 99.308225836095517 0 0 0 0 -17.808368810565383 -13.500473224499274 0 -13.500473224499274 -3.3050035119292929 0 0 0 0 -65.570260742620349 -65.06346326166863 0 -65.06346326166863 5.1906088965618054 0 0 0 0 166.10120616346831 -273.70429632663763 0 -273.70429632663763 60.866207669383584 0 0 0 0 90.25227125841775 -308.62868443441585 0 -308.62868443441585 81.909938990551382 0 0 0 0 90.616702557742883 -271.84973661392416 0 -271.84973661392416 173.0200099709582 0 0 0 0 82.575419147673529 -162.45953358714905 0 -162.45953358714905 86.560351066911721 0 0 0 0 -27.119965098972273 -35.075770144885695 0 -35.075770144885695 -27.448350129930027 0 0 0 0 -48.13539677427616 -99.271868704532608 0 -99.271868704532608 74.67131600171524 0 0 0 0 42.253417571540922 -177.20066806971636 0 -177.20066806971636 170.99934128912085 0 0 0 0 -46.856792154707364 -100.22476484956746 0 -100.22476484956746 60.638027892717218 0 0 0 0 -4.3218271397233536 -50.448150607969382 0 -50.448150607969382 40.030170249780873 0 0 0 0 -96.792877878826403 -75.346254812446546 0 -75.346254812446546 6.9423831097956281 0 0 0 0 -92.390701791766332 -79.50834481430411 0 -79.50834481430411 9.6294979547747062 0 0 0 0 -39.088796836091205 -85.882247228855704 0 -85.882247228855704 34.940213460301038 0 0 0 0 -82.327793726930395 -42.467921540756834 0 -42.467921540756834 45.537270314736816 0 0 0 0 61.166170437325491 -109.63581990346484 0 -109.63581990346484 37.104364253973472 0 0 0 0 -38.179016292328015 -76.846575324147125 0 -76.846575324147125 73.951695305458998 0 0 0 0 -1098.244033019495 534.77504429210421 0 534.77504429210421 908.7119859257059 0 0 0 0 -2124.5031190082882 -545.31542054592001 0 -545.31542054592001 924.89914182967186 0 0 0 0 -149.12009197912994 -123.25208389185264 0 -123.25208389185264 73.000780166869845 0 0 0 0 24.227219388686123 -49.025117093367896 0 -49.025117093367896 37.300320127112251 0 0 0 0 -104.3402259668801 -70.459000908014787 0 -70.459000908014787 48.02779329358259 0 0 0 0 -106.6517679826211 -57.580872798745531 0 -57.580872798745531 3.4966359516765806 0 0 0 0 -98.336628898367053 -90.557906128520699 0 -90.557906128520699 9.0045103423308319 0 0 0 0 -92.377052345662378 -78.297799212739847 0 -78.297799212739847 -10.866187190772052 0 0 0 0 -706.96175265732427 16.63125412085077 0 16.63125412085077 767.27080421455321 0 0 0 0 -707.87115010271373 49.229168761467008 0 49.229168761467008 -328.6091907234877 0 0 0 0 -677.22928177576978 283.60376118718705 0 283.60376118718705 -101.82526104499902 0 0 0 0 -988.59295760421082 56.028946615311725 0 56.028946615311725 120.04445043037413 0 0 0 0 1.9371229678756663 -47.576059856635169 0 -47.576059856635169 20.041905110206319 0 0 0 0 -19.020611864055184 -43.322909798914935 0 -43.322909798914935 -24.979114710442534 0 0 0 0 -4.4618391448734371 -66.484787633385793 0 -66.484787633385793 12.543854796573896 0 0 0 0 -22.622458501064102 -139.21358331392094 0 -139.21358331392094 -102.09564773115744 0 0 0 0 -671.60383695920245 276.07618513752641 0 276.07618513752641 -176.39346054667476 0 0 0 0 -10.861843590402486 -9.6499385108078286 0 -9.6499385108078286 -13.165768502353195 0 0 0 0 282.12431251774069 325.46636512315013 0 325.46636512315013 -752.44542144975458 0 0 0 0 -195.01258171873633 -339.02114081686068 0 -339.02114081686068 -863.02569289147505 0 0 0 0 -513.98445868148701 -1205.1609097561868 0 -1205.1609097561868 -2622.4671429066293 0 0 0 0 -470.98440516745904 -577.51619298979858 0 -577.51619298979858 -953.52217443004974 0 0 0 0 -189.08282910089474 -411.82831080200594 0 -411.82831080200594 -1867.1631476772891 0 0 0 0 -996.31801257902407 -400.12834068804113 0 -400.12834068804113 351.05685829564754 0 0 0 0 -858.55238611105597 -1162.7017887575785 0 -1162.7017887575785 -1411.4133333302525 0 0 0 0 -1563.5404665822862 -1147.4485473704335 0 -1147.4485473704335 772.00878995734092 0 0 0 0 -1020.0912469262839 -727.59685770152282 0 -727.59685770152282 -127.00449974181174 0 0 0 0 -506.21035935537657 -620.45275357136416 0 -620.45275357136416 -348.03522605897524 0 0 0 0 -314.91510159773316 136.86885704988708 0 136.86885704988708 195.80582888273057 0 0 0 0 137.38627285469738 -363.89996769078914 0 -363.89996769078914 32.927357469350682 0 0 0 0 -56.223231606727211 -63.097367484631405 0 -63.097367484631405 -32.213832329222541 0 0 0 0 -275.68692282994743 -463.07678318207036 0 -463.07678318207036 356.27552966408302 0 0 0 0 413.03401700640097 -195.90059943270171 0 -195.90059943270171 101.26609732604447 0 0 0 0 462.16786994261201 -169.31514048430836 0 -169.31514048430836 31.178797152904735 0 0 0 0 250.80028478938038 -398.4768540564728 0 -398.4768540564728 19.202559073717566 0 0 0 0 337.84148571931291 -297.23721048624975 0 -297.23721048624975 -9.0125808428128948 0 0 0 0 359.40004015684826 -318.84283717022481 0 -318.84283717022481 2.6147039169572963 0 0 0 0 402.37945297145052 -303.79945411267727 0 -303.79945411267727 -39.987623053151765 0 0 0 0 501.21339051384712 -246.03197540997644 0 -246.03197540997644 -29.347447596970596 0 0 0 0 454.69911387376487 -188.43373244814029 0 -188.43373244814029 -8.2473747523908969 0 0 0 0 647.13441453978885 -68.195589102499071 0 -68.195589102499071 29.599425780539605 0 0 0 0 660.30041982437251 -241.53092972506784 0 -241.53092972506784 -125.13088784760475 0 0 0 0 539.21052206939203 453.58175510477759 0 453.58175510477759 124.02005421723152 0 0 0 0 0.34281738283695518 -18.23572081631994 0 -18.23572081631994 5.9838130644737646 0 0 0 0 444.30871488180128 -155.53103850162188 0 -155.53103850162188 32.573788228488411 0 0 0 0 -1091.3249700274901 994.5850995601686 0 994.5850995601686 1552.9952437195461 0 0 0 0 543.72282174951397 -166.61492465701303 0 -166.61492465701303 -58.062604621314676 0 0 0 0 474.76102278303006 -101.32192572550048 0 -101.32192572550048 76.420153334984207 0 0 0 0 -5449.3472707250621 -3044.6534197455258 0 -3044.6534197455258 5674.7013943874335 0 0 0 0 -1654.0707661958877 -1761.2703064251291 0 -1761.2703064251291 -977.57978638433269 0 0 0 0 -1361.3103926474578 -1528.3880136982953 0 -1528.3880136982953 -1066.5953825033939 0 0 0 0 5.1494672653508076 -6.6630715492163972 0 -6.6630715492163972 -16.490031953970558 0 0 0 0 -1777.1658170683077 -2282.2192385246926 0 -2282.2192385246926 -3792.1900940549094 0 0 0 0 1339.2055045670131 278.86760122734267 0 278.86760122734267 -263.4335814136648 0 0 0 0 548.47514898783993 -31.007902681565611 0 -31.007902681565611 124.1129501020514 0 0 0 0 1194.5678146454593 -141.65437893916896 0 -141.65437893916896 -558.33423855628462 0 0 0 0 460.71696871609311 -274.236942534023 0 -274.236942534023 -73.220363516891666 0 0 0 0 671.68602175149863 -564.26762572725966 0 -564.26762572725966 -885.70726997782913 0 0 0 0 -2639.2983931713316 -1793.4060992957766 0 -1793.4060992957766 -23.963345136417047 0 0 0 0 1949.9088657063548 -921.56395395642539 0 -921.56395395642539 1518.9623589474927 0 0 0 0 653.22990311146714 -770.02661484965574 0 -770.02661484965574 1509.4110765131491 0 0 0 0 -261.97048866531622 380.49901816503211 0 380.49901816503211 -1697.8853388233729 0 0 0 0 -224.04447446783888 501.85619518830777 0 501.85619518830777 -2457.1457263723751 0 0 0 0 220.11242600655532 -21.818717415857463 0 -21.818717415857463 -5215.1404424675202 0 0 0 0 -3.8178433797004345 -16.585219382685324 0 -16.585219382685324 -21.725988983206634 0 0 0 0 1107.097989403992 -3177.6715289125495 0 -3177.6715289125495 -3255.1011697710201 0 0 0 0 -14.445369423450813 -19.370476037166668 0 -19.370476037166668 -18.066063313813814 0 0 0 0 -1412.9144391383743 -2074.2469751089411 0 -2074.2469751089411 -1456.8018016490969 0 0 0 0 -398.55241979351558 138.89253151874073 0 138.89253151874073 -1309.8084807862924 0 0 0 0 -336.85677007609047 219.24537355566099 0 219.24537355566099 -1406.1487026664327 0 0 0 0 -399.36516436470265 202.91786985887848 0 202.91786985887848 -1334.2366041664027 0 0 0 0 -242.32378265741863 270.97660292349065 0 270.97660292349065 -1395.3214547302177 0 0 0 0 -23.684019931304874 -43.826343882651116 0 -43.826343882651116 -46.576867057458557 0 0 0 0 -486.15698504481406 61.992836888457987 0 61.992836888457987 -1214.2876071116921 0 0 0 0 -498.32701726141386 -210.61960518346086 0 -210.61960518346086 -1863.3144696380605 0 0 0 0 -124.97758061729837 104.50198148432992 0 104.50198148432992 -2562.995378657818 0 0 0 0 -1238.4666546684457 -1380.4725105126799 0 -1380.4725105126799 -2335.7449314063983 0 0 0 0 -1691.5054818122226 -1498.2520575636199 0 -1498.2520575636199 -2514.8610428199545 0 0 0 0 -403.78327333604102 -616.08358716657131 0 -616.08358716657131 -4356.6807558857499 0 0 0 0 -1324.1260440894257 -163.04848030323296 0 -163.04848030323296 188.01850853242217 0 0 0 0 -15.028033246042298 -16.965712770977902 0 -16.965712770977902 -15.196559150747319 0 0 0 0 52.556504155872972 -88.409224573185384 0 -88.409224573185384 -275.4017166227095 0 0 0 0 22.783346656171489 -20.433328315562903 0 -20.433328315562903 -417.46914780254929 0 0 0 0 -98.054635055246763 32.449230983786947 0 32.449230983786947 -347.28311515717996 0 0 0 0 -496.29122982401168 -489.88260430644573 0 -489.88260430644573 -155.71587076178912 0 0 0 0 111.34289416192041 59.03701205411835 0 59.03701205411835 -384.31229447545138 0 0 0 0 -1.3930775147455279 -41.372978835681806 0 -41.372978835681806 -455.83688777366842 0 0 0 0 129.12084566382691 96.843372707430262 0 96.843372707430262 -818.21493602997759 0 0 0 0 -30.744512079952983 215.1609877673302 0 215.1609877673302 -152.8546740815309 0 0 0 0 -67.956380576710217 -159.2708587047689 0 -159.2708587047689 97.899109374374348 0 0 0 0 -47.752346863763535 -39.546961261019192 0 -39.546961261019192 -27.53056141359475 0 0 0 0 -491.29437675466033 -614.38693313556178 0 -614.38693313556178 -632.61548666207818 0 0 0 0 -390.48574613369419 -54.759091742478631 0 -54.759091742478631 -747.13043776078848 0 0 0 0 -66.455717171174001 -51.64038745410339 0 -51.64038745410339 -33.782130484431306 0 0 0 0 177.78160721252061 32.561385552474121 0 32.561385552474121 -1698.1652955052723 0 0 0 0 -2546.2378213189659 -1503.6577740903103 0 -1503.6577740903103 711.84118535227208 0 0 0 0 -1372.9861549485213 -932.80480634866944 0 -932.80480634866944 -682.11091021873654 0 0 0 0 -1877.1043832920841 746.33991983264423 0 746.33991983264423 -352.91265269546966 0 0 0 0 -421.31088593309687 -216.50253235415539 0 -216.50253235415539 -279.06013060591795 0 0 0 0 99.082508486550068 -363.94981146582995 0 -363.94981146582995 -794.76731574383928 0 0 0 0 12.352476952772122 -438.96219010433924 0 -438.96219010433924 -244.5648429341436 0 0 0 0 -778.39563303400064 -145.14681464243313 0 -145.14681464243313 213.90824983739367 0 0 0 0 -736.92552052778774 328.56683284557039 0 328.56683284557039 4.8252552257072239 0 0 0 0 -257.29365800257074 -397.09327962580574 0 -397.09327962580574 264.85878618992592 0 0 0 0 -233.6180812647217 112.77018408376898 0 112.77018408376898 -3.6321539822142199 0 0 0 0 117.88082135810225 -794.96892144719277 0 -794.96892144719277 1013.1417386373723 0 0 0 0 125.57359572873975 -106.73505551150265 0 -106.73505551150265 475.39108066242989 0 0 0 0 -46.925539323652629 -581.54169087463742 0 -581.54169087463742 3081.453275088892 0 0 0 0 176.98591819843568 -589.30519582057104 0 -589.30519582057104 1125.6452762201789 0 0 0 0 482.94908126139671 -1168.9572051522191 0 -1168.9572051522191 1407.4889124009751 0 0 0 0 668.23138885786466 -5.8247694736492122 0 -5.8247694736492122 -118.24494348217013 0 0 0 0 98.676585144268586 -15.939074200576734 0 -15.939074200576734 3.2468124904939306 0 0 0 0 558.16476419394894 -385.87870905637919 0 -385.87870905637919 310.14933762938381 0 0 0 0 48.03855293628294 -526.73898137420292 0 -526.73898137420292 960.83765572325865 0 0 0 0 56.897733192363091 -5.1419034078623085 0 -5.1419034078623085 0.30885798607089487 0 0 0 0 -24.630699598783394 -635.41013479522826 0 -635.41013479522826 1591.4710141169653 0 0 0 0 111.16809949641174 -455.93916690349215 0 -455.93916690349215 1119.738293169894 0 0 0 0 511.60022756985563 -210.74565166602406 0 -210.74565166602406 942.59761278924998 0 0 0 0 76.151192605582764 -581.94958575221426 0 -581.94958575221426 997.45876167169445 0 0 0 0 243.88350262292079 -825.37683482939428 0 -825.37683482939428 1194.4397318894771 0 0 0 0 305.05067610866172 -674.80730094641717 0 -674.80730094641717 185.64113662196542 0 0 0 0 247.63880105738644 -468.35840767356285 0 -468.35840767356285 240.39163606826696 0 0 0 0 -233.86255924144643 -442.50403335679721 0 -442.50403335679721 276.96217612533655 0 0 0 0 265.64511469044373 -215.69807717551521 0 -215.69807717551521 -188.74021945651839 0 0 0 0 68.94506177896983 -347.57036424506055 0 -347.57036424506055 -269.03312448391989 0 0 0 0 195.05507256905548 -365.37919538260849 0 -365.37919538260849 -137.12961058352084 0 0 0 0 52.711225955947157 -470.90400135731511 0 -470.90400135731511 252.79669283216936 0 0 0 0 85.416135430190479 -847.3918895883362 0 -847.3918895883362 -173.94797368357467 0 0 0 0 135.66295140173861 -805.97172810251175 0 -805.97172810251175 -122.81150193151097 0 0 0 0 78.981637141399915 -618.55975139964482 0 -618.55975139964482 244.61617168862176 0 0 0 0 -49.040604966750834 -720.90422247997412 0 -720.90422247997412 636.25658684293376 0 0 0 0 -52.511364648016752 -676.77742376619062 0 -676.77742376619062 341.57475882803556 0 0 0 0 163.94277217576746 -747.85430193531829 0 -747.85430193531829 237.58721666811186 0 0 0 0 382.05330972508818 -1028.1636289735843 0 -1028.1636289735843 586.68581141257528 0 0 0 0 -177.86755843955325 -757.21890668974629 0 -757.21890668974629 1246.7046727074994 0 0 0 0 -244.35364969124203 -505.55526110908977 0 -505.55526110908977 576.89432112132044 0 0 0 0 -82.882109824829968 -445.64316360749035 0 -445.64316360749035 502.79652599960536 0 0 0 0 -189.42313857979025 -150.08755088260659 0 -150.08755088260659 376.64369124564018 0 0 0 0 26.484725455098669 -165.58672194713472 0 -165.58672194713472 -114.60536624473389 0 0 0 0 972.6208732361265 -705.26773387159483 0 -705.26773387159483 555.55799347447464 0 0 0 0 -15.596259311809263 -245.1139892549736 0 -245.1139892549736 -258.51338157116334 0 0 0 0 -141.38185263838386 16.468259037670578 0 16.468259037670578 676.89448926984733 0 0 0 0 0.02738839472925747 -19.610821322045901 0 -19.610821322045901 11.157352685359132 0 0 0 0 -32.668940059433226 -103.80365041284858 0 -103.80365041284858 179.64163439637559 0 0 0 0 16.441454969110893 -1.6012443236004685 0 -1.6012443236004685 8.79977844162201 0 0 0 0 156.31186663007247 -252.77739443496102 0 -252.77739443496102 34.958174361032434 0 0 0 0 231.36664534908778 -75.082384392148015 0 -75.082384392148015 -134.19283712048855 0 0 0 0 -78.671458272874588 -90.534141883272525 0 -90.534141883272525 -78.046048195807089 0 0 0 0 145.04263775056461 -188.56519484410092 0 -188.56519484410092 -102.31809382640495 0 0 0 0 34.834693195218279 -221.131943337964 0 -221.131943337964 111.04556291384506 0 0 0 0 185.6404254588997 -382.39194137647792 0 -382.39194137647792 140.13050466610821 0 0 0 0 -87.186436183466867 -419.34181308736788 0 -419.34181308736788 343.9005682233219 0 0 0 0 613.06128666647419 -557.76924413063352 0 -557.76924413063352 132.66356426731909 0 0 0 0 152.71617467677788 -276.51515100638517 0 -276.51515100638517 1.6628414288097702 0 0 0 0 570.75236392208899 9.5334885891988961 0 9.5334885891988961 -136.79692281706957 0 0 0 0 -5.5167671464317891 -12.690655895390094 0 -12.690655895390094 -12.066949474659392 0 0 0 0 319.45222619987908 -387.01420191293528 0 -387.01420191293528 358.04118884225977 0 0 0 0 133.42847255566448 -562.27372632268452 0 -562.27372632268452 436.04906998533443 0 0 0 0 133.3180482648313 -558.97279822239761 0 -558.97279822239761 408.12759121035651 0 0 0 0 248.10322762584838 -521.21894826046082 0 -521.21894826046082 205.2287812707541 0 0 0 0 685.28469362755277 -660.80308498552404 0 -660.80308498552404 -237.180526892118 0 0 0 0 1379.0637467021229 -75.473936939285011 0 -75.473936939285011 -500.71809385788401 0 0 0 0 797.74404595220403 -928.24171700518013 0 -928.24171700518013 -1487.688877638082 0 0 0 0 229.10666295611736 -1444.4480132580552 0 -1444.4480132580552 -1342.8611472031728 0 0 0 0 695.37898222307558 -992.24240932216048 0 -992.24240932216048 -906.92084467979384 0 0 0 0 460.89430903120956 -1127.3445385779751 0 -1127.3445385779751 -1233.235973418947 0 0 0 0 647.98186332150908 -1269.5038658787867 0 -1269.5038658787867 -1164.728011272128 0 0 0 0 327.83679957827553 -601.80338535970031 0 -601.80338535970031 -170.09196092203297 0 0 0 0 862.86022284908904 -690.4024624842649 0 -690.4024624842649 -912.60625185928075 0 0 0 0 -46.780624077859102 -641.0254035327257 0 -641.0254035327257 -244.65208225485105 0 0 0 0 40.75973243797489 -1003.2390258440334 0 -1003.2390258440334 -695.88957142851814 0 0 0 0 -127.84123071864451 -828.71348306189043 0 -828.71348306189043 -594.8613602444052 0 0 0 0 -324.46463008297724 -807.72281381073424 0 -807.72281381073424 -596.65211238159736 0 0 0 0 500.15066347601532 -943.2714572667569 0 -943.2714572667569 -938.34678177919386 0 0 0 0 -75.63534729505227 -1445.6526116628081 0 -1445.6526116628081 -1372.1667290008884 0 0 0 0 356.15375083303661 -744.69502077431298 0 -744.69502077431298 -1633.6095399449941 0 0 0 0 201.19157487420307 -749.41586191020428 0 -749.41586191020428 -1557.3310607047524 0 0 0 0 -1252.6441719555626 -1908.4260335086212 0 -1908.4260335086212 -1760.8977501661575 0 0 0 0 190.64550295079243 -595.53840212309433 0 -595.53840212309433 -3177.9391193915835 0 0 0 0 -353.37641084961069 479.89612805473007 0 479.89612805473007 -2299.5149758193224 0 0 0 0 -256.16019278659951 150.74594575208812 0 150.74594575208812 -1408.73403572598 0 0 0 0 11.823179527302273 -97.764477344112038 0 -97.764477344112038 -1974.4748670596496 0 0 0 0 518.55585810530465 -581.0862192688985 0 -581.0862192688985 -1247.4757052645132 0 0 0 0 254.6497655485 -594.32904219919055 0 -594.32904219919055 -1006.5377121666783 0 0 0 0 1398.6841768771264 402.11333459815023 0 402.11333459815023 -66.62635525720998 0 0 0 0 1881.2848297035598 -863.80994093577419 0 -863.80994093577419 -742.23177404980379 0 0 0 0 1092.2777696967532 -137.09904367696436 0 -137.09904367696436 -947.10642096092579 0 0 0 0 629.4900243076554 -849.88514402366036 0 -849.88514402366036 -684.85984658706809 0 0 0 0 970.82087181683164 -699.71100352392568 0 -699.71100352392568 -904.32373824139245 0 0 0 0 499.28034039206977 -1041.9210890742331 0 -1041.9210890742331 -1069.374031792041 0 0 0 0 934.93269132989371 -992.39997501065159 0 -992.39997501065159 -1229.937371958958 0 0 0 0 216.52503477255232 -165.60037402976741 0 -165.60037402976741 -95.288876020275893 0 0 0 0 258.96163070420153 252.57681309615509 0 252.57681309615509 280.7256706800822 0 0 0 0 -109.16731312210322 -181.52956034261297 0 -181.52956034261297 511.69304409487358 0 0 0 0 -107.96279222925659 -164.80412796326891 0 -164.80412796326891 257.71767891783384 0 0 0 0 -98.460358261589136 -169.68771642621005 0 -169.68771642621005 259.93589600491396 0 0 0 0 -160.35770812240662 -98.084605813662165 0 -98.084605813662165 287.85473014315539 0 0 0 0 966.77421064540977 64.437564988445047 0 64.437564988445047 -1562.1783425369631 0 0 0 0 432.18127994725364 787.12364067091676 0 787.12364067091676 8.6452779886349163 0 0 0 0 45.900724102451932 -162.83284940475824 0 -162.83284940475824 -2166.5951042487395 0 0 0 0 235.10843810052029 -519.03108999118649 0 -519.03108999118649 -862.04093845196257 0 0 0 0 -32.063067028819944 -22.534944836118566 0 -22.534944836118566 -3.7603122368025157 0 0 0 0 98.777953774449998 5.6190114083856315 0 5.6190114083856315 14.598025357784536 0 0 0 0 -317.54815464213607 53.301440791670757 0 53.301440791670757 -1216.907640010751 0 0 0 0 -23.298920681040329 -18.355053133123167 0 -18.355053133123167 -2.7456445354268499 0 0 0 0 67.099323990027187 -225.51305369869442 0 -225.51305369869442 337.14270359270643 0 0 0 0 -181.02520087085577 126.2115474564589 0 126.2115474564589 -1404.3626325263931 0 0 0 0 3.9831694619421114 -10.421072912072749 0 -10.421072912072749 28.830972367886108 0 0 0 0 75.95700680014852 -63.012779565495293 0 -63.012779565495293 232.51648145039508 0 0 0 0 136.62178218880581 -41.436816690798651 0 -41.436816690798651 297.34970347796298 0 0 0 0 -23.095212146843551 -21.631403712054635 0 -21.631403712054635 314.14054472869429 0 0 0 0 75.141632040656987 -170.79673205328641 0 -170.79673205328641 406.17161771429164 0 0 0 0 -41.427684924274217 -12.042397266985063 0 -12.042397266985063 757.41899665676283 0 0 0 0 0.16206550268287856 -10.000070909184075 0 -10.000070909184075 -17.04505273707429 0 0 0 0 -144.73002788450685 -331.31673750668551 0 -331.31673750668551 612.95931814990217 0 0 0 0 -7.5124590967025142 -48.535027034924497 0 -48.535027034924497 356.12111295565137 0 0 0 0 19.158493706716399 -195.31444961906618 0 -195.31444961906618 -224.89295071353627 0 0 0 0 68.99870420077059 -359.00289059957504 0 -359.00289059957504 -263.04621216052647 0 0 0 0 62.050149862754552 -66.140171807821105 0 -66.140171807821105 -8.7222483247096534 0 0 0 0 -29.780567407069611 -127.37181059160139 0 -127.37181059160139 315.80824559184111 0 0 0 0 -45.289714835394648 -62.97154500980426 0 -62.97154500980426 -32.598964184780726 0 0 0 0 20.599174033617601 -81.201914766392292 0 -81.201914766392292 285.98778390744701 0 0 0 0 -44.18067964745569 -316.61839538033564 0 -316.61839538033564 64.1837279715146 0 0 0 0 -20.08430689395658 -88.41310791021813 0 -88.41310791021813 13.106416791122626 0 0 0 0 -25.437567593588028 -55.611540681562474 0 -55.611540681562474 84.797285502198065 0 0 0 0 -23.271519456495298 -29.990999767558606 0 -29.990999767558606 455.47821466886671 0 0 0 0 1.1568638630064925 -78.790967557841441 0 -78.790967557841441 -27.049761941104919 0 0 0 0 0.71918550832924666 -10.90701479918755 0 -10.90701479918755 34.096571163857263 0 0 0 0 2.471061304349746 -115.91321911840429 0 -115.91321911840429 16.878653052126609 0 0 0 0 -691.20742554618118 -1697.3754856713131 0 -1697.3754856713131 -841.42440826970414 0 0 0 0 -5.2895126918237452 -14.753099345953956 0 -14.753099345953956 -16.406791236277471 0 0 0 0 -27.56651198692964 -37.847423815033579 0 -37.847423815033579 -42.852826737588281 0 0 0 0 494.76053670106921 1603.3309012619102 0 1603.3309012619102 -2122.0481426815368 0 0 0 0 -18.667281559231924 -238.64208085506107 0 -238.64208085506107 217.58847950094878 0 0 0 0 327.56743805573205 -438.61378516403784 0 -438.61378516403784 184.76326504880626 0 0 0 0 339.54835311710485 -119.16628778305494 0 -119.16628778305494 -71.810123919342004 0 0 0 0 232.26516789122252 12.501834258713643 0 12.501834258713643 242.47578425651227 0 0 0 0 3.3944986775967436 -102.85861142401488 0 -102.85861142401488 4.191140366116624 0 0 0 0 203.41110522033705 -202.05203484999583 0 -202.05203484999583 -227.03400285519456 0 0 0 0 -89.872786936946795 -114.72093285615301 0 -114.72093285615301 -50.156936731971655 0 0 0 0 24.137506843937445 -108.58607598245362 0 -108.58607598245362 -378.20474940261465 0 0 0 0 -1.9755908545822081 -99.02865962460622 0 -99.02865962460622 -20.005103429486311 0 0 0 0 -167.00579120454495 -278.64291889374363 0 -278.64291889374363 -152.1166773807272 0 0 0 0 -154.5805013129866 -218.19323659047222 0 -218.19323659047222 106.81329485497918 0 0 0 0 708.39384199309279 2139.5827089941058 0 2139.5827089941058 -1595.0229953114613 0 0 0 0 -545.81990576125099 -970.05520495015662 0 -970.05520495015662 -378.2804683245231 0 0 0 0 -409.32621852669399 -596.45542626831957 0 -596.45542626831957 430.7868911890564 0 0 0 0 -5.0988470064163494 -13.915789972035327 0 -13.915789972035327 -18.559504681943764 0 0 0 0 -755.1590481084495 352.78972076807804 0 352.78972076807804 -1507.5456879594421 0 0 0 0 -26.777270711808853 -37.697774353284217 0 -37.697774353284217 -35.763564429416583 0 0 0 0 101.96433798354701 -585.66434270765239 0 -585.66434270765239 814.34029895403728 0 0 0 0 74.229029870126396 -432.0046989395014 0 -432.0046989395014 427.81471142918599 0 0 0 0 297.39196104201255 -378.15395453363089 0 -378.15395453363089 428.38674021564657 0 0 0 0 85.696411448235267 -137.1184506668892 0 -137.1184506668892 109.42608646443114 0 0 0 0 -1695.3801246584917 -1792.4222667044087 0 -1792.4222667044087 -1591.3580936342769 0 0 0 0 -44.436793587676675 -52.948695110951093 0 -52.948695110951093 -35.126762378733403 0 0 0 0 291.82322948190267 -454.98961978786247 0 -454.98961978786247 20.768576256712549 0 0 0 0 -139.35992656355666 -161.29368694497316 0 -161.29368694497316 1286.490227705217 0 0 0 0 577.67177545742015 -345.80177564224869 0 -345.80177564224869 -152.01338207349181 0 0 0 0 246.78701730231842 -328.12616485145827 0 -328.12616485145827 1298.3907622120751 0 0 0 0 -6.928820619764565 -2.7213880392039016 0 -2.7213880392039016 -4.2731695860968557 0 0 0 0 531.97869555279613 190.70997248651838 0 190.70997248651838 16.559050541056422 0 0 0 0 -8.7966513421276318 -19.143284650290472 0 -19.143284650290472 -3.9181404431203504 0 0 0 0 232.88084980979329 -728.72090522758299 0 -728.72090522758299 1068.7558336019792 0 0 0 0 195.76369231427088 -412.41001898660397 0 -412.41001898660397 182.3285142537643 0 0 0 0 0.059666378154361155 8.9285132299473844 0 8.9285132299473844 -168.12595829337806 0 0 0 0 -135.83782466077537 -149.50416660380324 0 -149.50416660380324 172.31984855086193 0 0 0 0 -6.9414817893411964 -84.542673006337282 0 -84.542673006337282 27.064454528423084 0 0 0 0 0.68313266022576613 -59.668719730084064 0 -59.668719730084064 31.805416829871746 0 0 0 0 48.104904164822074 -149.66054812340371 0 -149.66054812340371 61.717896527505218 0 0 0 0 -40.98378047997079 -36.3872441908361 0 -36.3872441908361 -14.079244180586898 0 0 0 0 1.7476211990433512 -104.63557157250398 0 -104.63557157250398 45.856773003968556 0 0 0 0 11.755962274282638 -52.010822808451252 0 -52.010822808451252 -42.821319846445775 0 0 0 0 247.4714554498787 225.50421169463152 0 225.50421169463152 -623.1861901781449 0 0 0 0 0.14815917811938561 -341.88773409499117 0 -341.88773409499117 24.635380745210568 0 0 0 0 38.725661803575349 -26.120563000784387 0 -26.120563000784387 -388.84600078119547 0 0 0 0 -11.161861627981125 -0.17061149598666248 0 -0.17061149598666248 -0.37314966968547481 0 0 0 0 -7.7764331601501908 33.053250691205903 0 33.053250691205903 21.709321183472639 0 0 0 0 106.8663915337238 -114.88975427161495 0 -114.88975427161495 -27.692793743157381 0 0 0 0 -69.754624236811651 42.77192971346085 0 42.77192971346085 -11.359691903562634 0 0 0 0 53.752580171058071 109.22042248927391 0 109.22042248927391 -283.75354358715413 0 0 0 0 -29.640587444857715 -17.767825595860927 0 -17.767825595860927 -10.936024362194132 0 0 0 0 18.245183524064487 -181.86401266177927 0 -181.86401266177927 84.111601150449133 0 0 0 0 -147.53626913612243 -330.40374770415292 0 -330.40374770415292 266.1303582632645 0 0 0 0 -107.37155333245755 -371.00453394813121 0 -371.00453394813121 -147.83539289505279 0 0 0 0 -608.60464289673837 63.881170553155243 0 63.881170553155243 385.73787197152706 0 0 0 0 -81.525316724186723 -199.19572459125686 0 -199.19572459125686 -668.5319869259838 0 0 0 0 -81.026847521745367 -178.70121001775624 0 -178.70121001775624 156.99759432907013 0 0 0 0 58.840050479426282 -123.616193322654 0 -123.616193322654 -180.89845780097676 0 0 0 0 276.71250813500956 -565.12856343085878 0 -565.12856343085878 518.90097172221067 0 0 0 0 377.10065146817942 -297.31523991256836 0 -297.31523991256836 123.79794435840449 0 0 0 0 -6.968093793024309 -221.86807920790307 0 -221.86807920790307 258.16271972247341 0 0 0 0 166.49132897294476 -57.866114252201442 0 -57.866114252201442 187.07587796305597 0 0 0 0 -344.97718506670208 121.50370203085913 0 121.50370203085913 -1464.3717208729795 0 0 0 0 -412.73546049611468 -662.40311815577297 0 -662.40311815577297 917.19764994050638 0 0 0 0 -435.67944406999959 -811.45678902551845 0 -811.45678902551845 -37.643916398461442 0 0 0 0 -685.76425340949208 -299.97225696547684 0 -299.97225696547684 20.525188518011419 0 0 0 0 281.87147636691225 -306.40519445710379 0 -306.40519445710379 -57.019639339418063 0 0 0 0 1401.497396742081 -341.96764428007128 0 -341.96764428007128 -597.18000043537177 0 0 0 0 1000.9043499814288 -360.59860637340898 0 -360.59860637340898 -437.87396212511521 0 0 0 0 898.89555357026984 12.408071687634219 0 12.408071687634219 -561.70744003145774 0 0 0 0 427.40529710748524 -340.13220445188563 0 -340.13220445188563 -469.93111406118987 0 0 0 0 339.35153580055339 718.55521023337315 0 718.55521023337315 -144.03885707985319 0 0 0 0 1396.0389398174302 -87.135802855296788 0 -87.135802855296788 -588.59152249712952 0 0 0 0 -511.2848353353038 -655.7954683686512 0 -655.7954683686512 178.01208657491952 0 0 0 0 -9.0931286914449743 -6.947811364177511 0 -6.947811364177511 -4.9439278281896151 0 0 0 0 -242.25422962280572 197.90850097635848 0 197.90850097635848 201.74189333550021 0 0 0 0 -113.27414622725337 392.40660910005317 0 392.40660910005317 305.21448096080712 0 0 0 0 -17.510575891109966 -33.120570702481132 0 -33.120570702481132 -47.606940953988101 0 0 0 0 -381.54839360430924 -493.08778539087143 0 -493.08778539087143 -112.73222938770778 0 0 0 0 1027.4613495829835 -1416.4695137000417 0 -1416.4695137000417 -280.24549129038655 0 0 0 0 612.63784644784755 -459.49697131178254 0 -459.49697131178254 -312.08388512101374 0 0 0 0 -688.10827921138844 -133.71259582304629 0 -133.71259582304629 479.68101315483364 0 0 0 0 -22.263476504965126 -41.544902416412185 0 -41.544902416412185 -57.721943601014772 0 0 0 0 -442.33835683378857 306.08901461598725 0 306.08901461598725 565.71382246206485 0 0 0 0 682.12852837075479 -1043.7323561014491 0 -1043.7323561014491 -105.02057481580596 0 0 0 0 197.1787656116212 -29.389676835387945 0 -29.389676835387945 63.540120948237018 0 0 0 0 979.46117134536325 -419.70528834164361 0 -419.70528834164361 -44.845632805168862 0 0 0 0 -656.26045524861911 -13.834931665073782 0 -13.834931665073782 -160.30089177664195 0 0 0 0 -1499.376706178431 -350.72129686258268 0 -350.72129686258268 172.06915657473292 0 0 0 0 0.084329618730608402 -14.654319849660681 0 -14.654319849660681 -20.835368395883734 0 0 0 0 -1021.7294925871392 -420.69335547109222 0 -420.69335547109222 65.707534833027239 0 0 0 0 -0.9452968289874768 -16.908788867529097 0 -16.908788867529097 -27.743456443813898 0 0 0 0 102.90772124736395 -150.71059786397382 0 -150.71059786397382 94.756609073156142 0 0 0 0 56.653213395547937 -55.919680113853246 0 -55.919680113853246 -66.757804450084222 0 0 0 0 90.839656081516296 -104.94839151126507 0 -104.94839151126507 -2.8059919700681348 0 0 0 0 355.10516431067663 -70.996175003347162 0 -70.996175003347162 -52.512818638439057 0 0 0 0 -597.7588780437145 -96.727456079697731 0 -96.727456079697731 75.322373356633761 0 0 0 0 -1676.7845041838154 348.00033946061012 0 348.00033946061012 418.12891425771886 0 0 0 0 -3645.4351864555792 -1337.9737899861648 0 -1337.9737899861648 758.64622639493609 0 0 0 0 457.32344433579419 -2189.8537580945958 0 -2189.8537580945958 -2047.4945210279984 0 0 0 0 153.92209245436243 -116.19181218983795 0 -116.19181218983795 -90.280036535557883 0 0 0 0 16.619659617739131 -30.621832682294155 0 -30.621832682294155 -31.770251362106251 0 0 0 0 -6.8195750008864309 -12.149041562272714 0 -12.149041562272714 -18.956843591977758 0 0 0 0 96.079117710105493 -54.392917670595324 0 -54.392917670595324 -5.9453388993775036 0 0 0 0 138.55820136814145 -100.92525142824888 0 -100.92525142824888 -100.43049872097617 0 0 0 0 145.45080342283472 -108.00227708164311 0 -108.00227708164311 -189.04092682221017 0 0 0 0 -27.186341119469603 -63.840550260387033 0 -63.840550260387033 -47.344690817615458 0 0 0 0 -96.068686493264977 -313.52637900708942 0 -313.52637900708942 -404.03234430964221 0 0 0 0 -374.66871473798528 -217.24608886512578 0 -217.24608886512578 -142.20739156386117 0 0 0 0 -548.40346398692054 -474.86156220919656 0 -474.86156220919656 -334.01324421248864 0 0 0 0 -650.37341972682043 -772.27396084586144 0 -772.27396084586144 -661.11795899203571 0 0 0 0 -384.52302572957706 -489.12769136922725 0 -489.12769136922725 -362.22436418532743 0 0 0 0 -397.51725025089399 -352.902013230796 0 -352.902013230796 678.64295574113203 0 0 0 0 -538.34362600909662 -1016.8505920469979 0 -1016.8505920469979 -1061.2859570111323 0 0 0 0 -23.225085944344755 1316.8957457490142 0 1316.8957457490142 -985.60067808328677 0 0 0 0 -39.755650937862811 -64.43207388537121 0 -64.43207388537121 80.880063740536571 0 0 0 0 -28.825082395909703 -97.379865835046076 0 -97.379865835046076 -19.626489319336542 0 0 0 0 13.708619248287505 -53.796796133531878 0 -53.796796133531878 -1.8946513927082815 0 0 0 0 -5.1359516580597813 -48.365979953237968 0 -48.365979953237968 21.28799140031964 0 0 0 0 -8.2295690011434317 -52.845517577446621 0 -52.845517577446621 38.184570697608287 0 0 0 0 6.5232868292659987 -102.80058127439042 0 -102.80058127439042 -96.142089057480916 0 0 0 0 -180.9714492749772 318.22688416729216 0 318.22688416729216 773.71116718897042 0 0 0 0 524.17930153575435 -226.180667827457 0 -226.180667827457 -524.10641914060398 0 0 0 0 60.927311006977106 698.99363246757002 0 698.99363246757002 -1062.26127584817 0 0 0 0 -8.6789095048443414 235.0753826570508 0 235.0753826570508 528.73734912078362 0 0 0 0 -103.71045459114248 -837.76387741460348 0 -837.76387741460348 -597.95295793857076 0 0 0 0 -20.46197479480179 -134.94267221219343 0 -134.94267221219343 -52.927832145571301 0 0 0 0 -7.5573796566097258 -50.519185269202474 0 -50.519185269202474 29.338399430694899 0 0 0 0 -46.924711505067535 -120.87765844359456 0 -120.87765844359456 23.726221640121366 0 0 0 0 -2.270861304187008 -61.261204774716809 0 -61.261204774716809 -28.781756748488093 0 0 0 0 -20.940901071764529 -68.223474400569103 0 -68.223474400569103 -56.163222004292038 0 0 0 0 -31.475332014859589 -59.110947412933939 0 -59.110947412933939 53.714668033166703 0 0 0 0 -37.218048929324141 -141.39651842036255 0 -141.39651842036255 -4.3364652368836687 0 0 0 0 -1.5696374072576873 -43.966256460797013 0 -43.966256460797013 -31.636091803196905 0 0 0 0 91.459708421607502 -518.93499447329737 0 -518.93499447329737 -1566.0333325316496 0 0 0 0 108.39056784269633 -322.07789230189883 0 -322.07789230189883 -55.636950640016266 0 0 0 0 -34.652726591841542 -66.99201609501101 0 -66.99201609501101 -43.433331441413429 0 0 0 0 -789.56385750739719 -960.04577786235859 0 -960.04577786235859 663.68707692450971 0 0 0 0 -272.9254717878066 -725.71535607062106 0 -725.71535607062106 762.4248954220966 0 0 0 0 353.56526150539867 -422.72313104333261 0 -422.72313104333261 797.99771077240621 0 0 0 0 2.1431590921322368 -6.6769887748942489 0 -6.6769887748942489 0.34407337342726407 0 0 0 0 -84.010614165104926 -107.47033753450341 0 -107.47033753450341 195.46799960783756 0 0 0 0 -224.99524258891324 -156.38840421437544 0 -156.38840421437544 525.93493600948023 0 0 0 0 -1370.1841626648675 -1166.044551960993 0 -1166.044551960993 -2197.7800684614422 0 0 0 0 -1138.0023150702764 -301.70279380105967 0 -301.70279380105967 536.20425391820959 0 0 0 0 -11.042414249840363 -12.056661319166292 0 -12.056661319166292 -2.1665836339766065 0 0 0 0 -448.44299898749159 24.95828991090093 0 24.95828991090093 663.08381405019873 0 0 0 0 -1733.4745686756214 -1030.8969149541526 0 -1030.8969149541526 713.03312447253188 0 0 0 0 -32.896495973285028 -60.184375168891791 0 -60.184375168891791 -66.974657488535371 0 0 0 0 -707.57698085888114 -560.16502079382531 0 -560.16502079382531 -1147.4134139544371 0 0 0 0 -624.6424207889213 -1689.4912211200981 0 -1689.4912211200981 -1281.6815558421013 0 0 0 0 -1218.1672436954395 -758.62711813639908 0 -758.62711813639908 1682.7860334184079 0 0 0 0 72.349584918469191 -1579.6468622924149 0 -1579.6468622924149 1608.0269497685076 0 0 0 0 -54.486321464937646 -1406.6183455593218 0 -1406.6183455593218 -1477.9119389828666 0 0 0 0 -636.54592781513929 -3070.5432043558258 0 -3070.5432043558258 -3566.3380245014196 0 0 0 0 -1680.2310206317998 -1535.4801486388073 0 -1535.4801486388073 -368.92762566522288 0 0 0 0 -292.14463410931057 -2817.6321355414502 0 -2817.6321355414502 -4549.2168326717292 0 0 0 0 -20.750846042075409 -13.880500983865502 0 -13.880500983865502 4.8147305641553064 0 0 0 0 -131.61995000415482 -2105.2071123381647 0 -2105.2071123381647 -5447.29289701588 0 0 0 0 -1150.6276307505323 -1351.4128961929746 0 -1351.4128961929746 -3735.1549789676792 0 0 0 0 -835.07914347219048 -2617.414289437701 0 -2617.414289437701 17.297535336332658 0 0 0 0 -127.069151894073 293.10760460850724 0 293.10760460850724 -859.64716935088109 0 0 0 0 0.6962996707365896 -13.226422938864971 0 -13.226422938864971 -4.3795638209049486 0 0 0 0 42.224466362778912 -488.90300124966325 0 -488.90300124966325 -986.82733610257128 0 0 0 0 -267.21978209432564 -689.50231724694822 0 -689.50231724694822 -1009.9248854888046 0 0 0 0 -44.97004663459893 -51.686817837829722 0 -51.686817837829722 -57.017035501442052 0 0 0 0 -315.9360697241209 -485.38787780887287 0 -485.38787780887287 -1183.3291602786994 0 0 0 0 313.09546336655876 -2890.1659572299827 0 -2890.1659572299827 -4886.1940050577286 0 0 0 0 597.75672763271723 -1183.1682563614449 0 -1183.1682563614449 1116.0705225383026 0 0 0 0 429.60930146623286 -609.40959145839406 0 -609.40959145839406 -258.52859745798378 0 0 0 0 661.01779449039896 -547.23769190189523 0 -547.23769190189523 -989.17903790624405 0 0 0 0 -30.320422959210191 -42.294707705678206 0 -42.294707705678206 -47.385363959826933 0 0 0 0 -788.75198137084953 -254.71330644020782 0 -254.71330644020782 -610.37090276555682 0 0 0 0 255.11364957134356 228.23896035767757 0 228.23896035767757 -560.37856897064194 0 0 0 0 -492.8556402894028 -896.67159694846487 0 -896.67159694846487 -773.57158373695074 0 0 0 0 -318.89933659249436 -697.65552768425005 0 -697.65552768425005 -577.16143318102695 0 0 0 0 -116.21554835603456 -305.64863428152239 0 -305.64863428152239 -606.51827282073964 0 0 0 0 -336.23197247224743 -500.26795582117848 0 -500.26795582117848 -778.64038191272994 0 0 0 0 -93.418073194770841 -536.18981715691189 0 -536.18981715691189 -786.30383535261717 0 0 0 0 -134.54652349010757 -591.19644582971955 0 -591.19644582971955 -868.69069034461427 0 0 0 0 -128.53638775882609 -636.63996015991256 0 -636.63996015991256 -879.45130218721897 0 0 0 0 -255.39886651490815 -636.55319440394305 0 -636.55319440394305 -868.58645552503549 0 0 0 0 -311.65835355047602 -795.37419157716795 0 -795.37419157716795 -900.94856045305164 0 0 0 0 -257.05096382481861 -695.11614410402763 0 -695.11614410402763 -767.05844750071265 0 0 0 0 -252.1128623331897 -736.21056462725755 0 -736.21056462725755 -899.82732859229145 0 0 0 0 -165.70212944548257 -696.58241867633842 0 -696.58241867633842 -1051.9011895985313 0 0 0 0 -245.38857642002404 -863.50484713249898 0 -863.50484713249898 -1453.8106786262724 0 0 0 0 -252.82177647063509 -753.1903436811881 0 -753.1903436811881 -1140.1716567773692 0 0 0 0 -409.30596993450308 -791.6755328858344 0 -791.6755328858344 -716.80059258072288 0 0 0 0 -393.27632699196693 -937.98734089869686 0 -937.98734089869686 -913.8747268361476 0 0 0 0 -415.89927109182099 -832.84448189717068 0 -832.84448189717068 -655.25976685722708 0 0 0 0 -318.2716695915442 -749.23307707798085 0 -749.23307707798085 -649.69931416591862 0 0 0 0 -79.487258408462367 -582.40976601700186 0 -582.40976601700186 -535.66972430894384 0 0 0 0 -313.31801552680554 -778.89091346824353 0 -778.89091346824353 -600.45128482305154 0 0 0 0 -327.80073584994534 -597.17411391056885 0 -597.17411391056885 -692.28826353176919 0 0 0 0 37.320493183991971 -26.054074332754446 0 -26.054074332754446 13.936169308603425 0 0 0 0 -371.38293436384993 -535.04824707311491 0 -535.04824707311491 -546.05382763964917 0 0 0 0 32.970367616595183 -10.673597068781476 0 -10.673597068781476 -18.639942878017763 0 0 0 0 -285.97219908080297 -603.11449201855066 0 -603.11449201855066 -819.96706203924623 0 0 0 0 -264.83568037315126 -559.3367037465423 0 -559.3367037465423 -926.34936503753852 0 0 0 0 11.384539418722852 -40.586281129140843 0 -40.586281129140843 26.320333885509172 0 0 0 0 -18.136078169140092 -178.31880033347261 0 -178.31880033347261 10.657678006318747 0 0 0 0 49.10053062101656 -30.539294431356922 0 -30.539294431356922 -3.8582218790188847 0 0 0 0 62.164785614324501 -27.149478495164658 0 -27.149478495164658 -46.57345170500048 0 0 0 0 57.60042295375024 -49.123643831670051 0 -49.123643831670051 -94.766997055070533 0 0 0 0 -124.8499910626997 -106.13142577203325 0 -106.13142577203325 84.322701940924162 0 0 0 0 27.625135556086917 -38.280977742190032 0 -38.280977742190032 7.0721408002804651 0 0 0 0 45.952357176051009 -7.0346868469823676 0 -7.0346868469823676 5.032193705876125 0 0 0 0 -23.18532134630118 -23.964363697763247 0 -23.964363697763247 -1.445910902296518 0 0 0 0 -89.157806866831379 -13.629801175367902 0 -13.629801175367902 -0.81185151648969622 0 0 0 0 -40.646356954981457 -116.34029193712922 0 -116.34029193712922 160.41115372939385 0 0 0 0 504.35821511558606 -1239.825801046587 0 -1239.825801046587 1221.6496424256111 0 0 0 0 387.250932935538 -782.0065618497174 0 -782.0065618497174 927.29084252833127 0 0 0 0 573.46120376896579 -1057.3172140836687 0 -1057.3172140836687 413.70220777019858 0 0 0 0 571.20171149622183 -689.07462465585559 0 -689.07462465585559 51.410472970921546 0 0 0 0 29.830333345002146 -38.512951117056218 0 -38.512951117056218 31.849180892488221 0 0 0 0 441.88177367876051 -717.20901854820841 0 -717.20901854820841 477.73375793725427 0 0 0 0 838.92171643528854 -159.20409783098148 0 -159.20409783098148 91.609656428357994 0 0 0 0 6.5149503180010697 -10.814942830102694 0 -10.814942830102694 -0.61702862972410344 0 0 0 0 7.9918216769874562 -11.947395141076413 0 -11.947395141076413 4.6835722863979754 0 0 0 0 -3.5357983148034009 -5.8531238518021667 0 -5.8531238518021667 -0.50673526762734866 0 0 0 0 20.740455354053552 -6.8751090565269983 0 -6.8751090565269983 -0.95881752004424925 0 0 0 0 11.762315915550062 -34.44750496792949 0 -34.44750496792949 -4.6453404693020275 0 0 0 0 15.926918638433563 -672.4348091750071 0 -672.4348091750071 -1293.3151994403488 0 0 0 0 -308.70167705672793 -499.57303701554702 0 -499.57303701554702 -1012.4650477171272 0 0 0 0 32.551070551381486 -14.967367358008339 0 -14.967367358008339 5.1645151284863857 0 0 0 0 -288.35063444732805 -689.88783553395115 0 -689.88783553395115 -1051.6661355039651 0 0 0 0 32.032549744806602 -50.092410925022705 0 -50.092410925022705 -45.951596358325332 0 0 0 0 -242.02826499376533 -647.47891658992694 0 -647.47891658992694 -869.18242542489315 0 0 0 0 -112.41958378822892 -640.96756707985696 0 -640.96756707985696 -916.97778537039267 0 0 0 0 -131.63203415970202 -563.47646841007918 0 -563.47646841007918 -917.31084795351489 0 0 0 0 117.76091919417377 -706.83452103067975 0 -706.83452103067975 -944.59017211785977 0 0 0 0 20.732560003743856 -810.90427523834478 0 -810.90427523834478 -737.59589431795757 0 0 0 0 -18.251176747842692 -933.36418112439424 0 -933.36418112439424 -556.78779302440671 0 0 0 0 158.11558514574426 -912.03001812352159 0 -912.03001812352159 -761.56389209002373 0 0 0 0 -5.7045151157653891 -1000.148506122523 0 -1000.148506122523 -564.15570458180446 0 0 0 0 75.591742246600916 -548.77168561776853 0 -548.77168561776853 -1122.7623507914541 0 0 0 0 25.194590534141753 -758.17646945230808 0 -758.17646945230808 -942.45806206076668 0 0 0 0 219.23406107237679 -828.27949431107118 0 -828.27949431107118 -867.25123270476251 0 0 0 0 503.07382113276981 -1104.6155079791133 0 -1104.6155079791133 -831.74798086910596 0 0 0 0 126.13829126482597 -858.62522339800853 0 -858.62522339800853 -780.04516182024963 0 0 0 0 893.18710051606467 -194.13712107411266 0 -194.13712107411266 -2251.8368876973982 0 0 0 0 1385.2147942075389 -2304.8339499100548 0 -2304.8339499100548 3809.721992439765 0 0 0 0 2.4484177399643841 -1.9989182505134266 0 -1.9989182505134266 -0.61381053152781817 0 0 0 0 1501.2289655947825 -3297.6856468180194 0 -3297.6856468180194 2727.2840233214956 0 0 0 0 0.76939646754135538 -1.9142447908486417 0 -1.9142447908486417 -0.5388124768449245 0 0 0 0 3495.8193707170431 -1786.5772933281842 0 -1786.5772933281842 895.16178666061023 0 0 0 0 1757.9186737542041 -284.98075767126284 0 -284.98075767126284 845.08407244537375 0 0 0 0 665.01295771938749 -453.86648661608342 0 -453.86648661608342 2407.9893673936022 0 0 0 0 147.30110245925607 -1275.2161210781924 0 -1275.2161210781924 982.69868973913253 0 0 0 0 541.32106602098793 -951.24934134678915 0 -951.24934134678915 473.99241761417215 0 0 0 0 924.5844603998703 -1452.362565778385 0 -1452.362565778385 -528.68038370559225 0 0 0 0 541.78592485508125 -1270.9151021969992 0 -1270.9151021969992 -439.49020825390471 0 0 0 0 49.884452476399019 -1184.2373574645972 0 -1184.2373574645972 -154.66112194834568 0 0 0 0 -205.790766258433 -970.26333256282669 0 -970.26333256282669 -172.47218758533927 0 0 0 0 -261.6598586876662 -709.40204883780825 0 -709.40204883780825 -343.42911728291074 0 0 0 0 117.67180442484823 -1081.1308611009499 0 -1081.1308611009499 -182.79373423356446 0 0 0 0 -286.00591206137324 -888.61654227440158 0 -888.61654227440158 424.9077368920116 0 0 0 0 -642.81117649842054 -787.65867985184013 0 -787.65867985184013 -213.70509296947421 0 0 0 0 99.634339448733954 -618.15300822504651 0 -618.15300822504651 -1181.8800740421284 0 0 0 0 282.91148906710441 -740.34365596847783 0 -740.34365596847783 -283.6316503015114 0 0 0 0 187.98419391771313 -78.135348859897931 0 -78.135348859897931 -156.4177646330354 0 0 0 0 538.44696298829513 -592.70556661620503 0 -592.70556661620503 -154.62576916404942 0 0 0 0 237.91390975100694 -764.04669909470476 0 -764.04669909470476 91.44676199083915 0 0 0 0 250.13401092379354 19.046015770567465 0 19.046015770567465 -478.18347355912556 0 0 0 0 859.54053786486475 -379.33386515640268 0 -379.33386515640268 -15.658960241242312 0 0 0 0 853.65959198548808 -903.54257095538196 0 -903.54257095538196 939.72694641706767 0 0 0 0 797.80631002911832 -1201.4875824999472 0 -1201.4875824999472 625.09517570116441 0 0 0 0 794.0141927524819 -829.9893706983421 0 -829.9893706983421 537.1087522614107 0 0 0 0 474.79374789370922 -298.29559332192002 0 -298.29559332192002 693.19608524000068 0 0 0 0 -98.190158086945303 -471.95364036471074 0 -471.95364036471074 -791.20186828527949 0 0 0 0 -547.63340601527671 -371.03111561517653 0 -371.03111561517653 -512.80839088030916 0 0 0 0 -83.689610492394422 -384.03071177823949 0 -384.03071177823949 -939.42416492041957 0 0 0 0 -146.33769745804602 -659.42421918488981 0 -659.42421918488981 -463.98722483589518 0 0 0 0 -247.26310325427403 -755.04762513536753 0 -755.04762513536753 -532.77289356272377 0 0 0 0 -150.82800473083626 -624.96106930984024 0 -624.96106930984024 -616.5940413122662 0 0 0 0 -0.14907084284641314 -570.39098152654697 0 -570.39098152654697 -692.54161341657164 0 0 0 0 9.1085283069114666 -686.07053509449906 0 -686.07053509449906 -606.43216809623846 0 0 0 0 -32.134510665899143 -773.3886544288107 0 -773.3886544288107 -712.65628237463534 0 0 0 0 -24.325386873009847 -870.03028743582399 0 -870.03028743582399 -520.13882921749246 0 0 0 0 116.51753571438894 -811.87327899460979 0 -811.87327899460979 -924.23364463423786 0 0 0 0 150.35435425232572 -726.100724892789 0 -726.100724892789 -706.84029862024227 0 0 0 0 -0.1098139507957967 -660.1882212788878 0 -660.1882212788878 -652.75099065760878 0 0 0 0 76.617006237604073 -636.79736588597734 0 -636.79736588597734 -658.72152227416154 0 0 0 0 0.40600769617594779 -613.67858252402584 0 -613.67858252402584 -663.12786239331035 0 0 0 0 220.20966968184803 -136.58883738927398 0 -136.58883738927398 -107.59695047247078 0 0 0 0 24.177481939201243 -846.2722289682024 0 -846.2722289682024 -935.20727015742887 0 0 0 0 -137.5693762054143 -687.47789989339799 0 -687.47789989339799 -874.33499696759827 0 0 0 0 -65.806546875275671 -616.40252363433501 0 -616.40252363433501 -902.83970960199076 0 0 0 0 12.315651911339955 -675.81220357757775 0 -675.81220357757775 -824.60917932621851 0 0 0 0 -5.1077023459997122 -1.4313790178567274 0 -1.4313790178567274 0.94995430735873754 0 0 0 0 264.31374367771787 -390.67246529454133 0 -390.67246529454133 -1226.6314340362096 0 0 0 0 48.510861386872421 -528.84335745022236 0 -528.84335745022236 337.78982450276089 0 0 0 0 18.38549310657254 -722.16556953142663 0 -722.16556953142663 -631.07287197362893 0 0 0 0 97.074349455622723 -636.96431957987079 0 -636.96431957987079 -744.3459259227202 0 0 0 0 150.03753574144503 -345.30524751119083 0 -345.30524751119083 -387.85153061180608 0 0 0 0 389.0712272557721 -319.9183236819481 0 -319.9183236819481 -698.52491731089685 0 0 0 0 395.69062655087328 -328.35642207893761 0 -328.35642207893761 -859.22737582842819 0 0 0 0 265.29758998865509 -512.1098043121724 0 -512.1098043121724 -1020.5383939289277 0 0 0 0 0.223235740997209 -494.97333255432699 0 -494.97333255432699 201.09422951570741 0 0 0 0 380.46161089235102 -145.86585590515097 0 -145.86585590515097 -1143.1167554809426 0 0 0 0 -5.3502787321889969 -1.2953999653022947 0 -1.2953999653022947 1.0288340011619965 0 0 0 0 388.03001857444178 -84.092218731795583 0 -84.092218731795583 -644.0519259443281 0 0 0 0 -16.27476016691071 -41.530514357582433 0 -41.530514357582433 -20.757279552970431 0 0 0 0 -44.248364133294672 -45.974864689822425 0 -45.974864689822425 -3.8955861715658102 0 0 0 0 4.8042896221627736 -29.165986860308692 0 -29.165986860308692 -23.423294568938161 0 0 0 0 1.6980942155933008 -55.337785439809522 0 -55.337785439809522 -13.024709995297599 0 0 0 0 -2.7448250307352282 -60.074090427151532 0 -60.074090427151532 -9.1267044095682195 0 0 0 0 0.1463148721086327 -54.653421718576283 0 -54.653421718576283 -9.6023810466285795 0 0 0 0 8.1135726814391091 6.2479269424729864 0 6.2479269424729864 -64.15501276118448 0 0 0 0 269.13636314991163 -184.94030194394873 0 -184.94030194394873 -57.783564753059181 0 0 0 0 134.8772218619124 -155.65125913939846 0 -155.65125913939846 51.106412513574469 0 0 0 0 236.81911908934126 -120.83342724756221 0 -120.83342724756221 -27.439704597345553 0 0 0 0 -88.584907883967389 1223.2775245816738 0 1223.2775245816738 247.27560686244396 0 0 0 0 6.7728260856343923 -5.203536218785942 0 -5.203536218785942 4.942741697852739 0 0 0 0 -64.588006364210742 -76.59537188988179 0 -76.59537188988179 -16.645353072935904 0 0 0 0 -1670.5523663831991 -42.101471065470832 0 -42.101471065470832 923.72245727544214 0 0 0 0 821.3149642454373 -932.61332603980554 0 -932.61332603980554 324.13444033253472 0 0 0 0 7.8653045520381006 -14.894456653460963 0 -14.894456653460963 -51.082956450562676 0 0 0 0 402.51696549064945 448.61035782202089 0 448.61035782202089 -2219.1024718696426 0 0 0 0 128.32590484031243 -53.709845431920257 0 -53.709845431920257 811.51304634226835 0 0 0 0 12.707489250514868 -27.965451663981725 0 -27.965451663981725 9.5774127810774417 0 0 0 0 -1146.6160490897018 -1752.6013895751094 0 -1752.6013895751094 651.51656431955053 0 0 0 0 -226.44759234570665 -81.104246104107006 0 -81.104246104107006 13.220475921290927 0 0 0 0 -83.57537675794083 -1.1726577116455701 0 -1.1726577116455701 -72.347596244944725 0 0 0 0 165.2634587752982 -232.02247870180872 0 -232.02247870180872 -48.284718277631328 0 0 0 0 -36.384990187594667 -67.175017100104014 0 -67.175017100104014 -218.02840506540088 0 0 0 0 -66.508354329911526 -112.67716401590587 0 -112.67716401590587 55.821083519280364 0 0 0 0 -115.34931018143834 -98.255897028800973 0 -98.255897028800973 36.322328107082285 0 0 0 0 -121.98247986810748 -121.14135654718848 0 -121.14135654718848 -33.211841622993234 0 0 0 0 11.386834992065531 -19.548881881946116 0 -19.548881881946116 0.70661929803662815 0 0 0 0 15.002098415221553 -58.919375916593708 0 -58.919375916593708 -57.710549888346577 0 0 0 0 -10.427628284254752 -32.596367291724164 0 -32.596367291724164 -21.136328819833579 0 0 0 0 12.853588932295679 -182.8001776912788 0 -182.8001776912788 -144.95424749391532 0 0 0 0 -27.35038470366635 -114.74646061653402 0 -114.74646061653402 -54.930173477623612 0 0 0 0 22.403651109306338 -16.978511475936564 0 -16.978511475936564 13.7726566915685 0 0 0 0 45.160714374447707 -80.213056701584719 0 -80.213056701584719 -56.281017806750697 0 0 0 0 -63.550309896818362 -74.523722086130874 0 -74.523722086130874 13.732418245446752 0 0 0 0 43.122741186991334 -137.45142486414989 0 -137.45142486414989 50.344096422064467 0 0 0 0 33.507390905055217 -8.4555260541528696 0 -8.4555260541528696 -15.15768795425538 0 0 0 0 58.945406575017842 -21.251999724132475 0 -21.251999724132475 -37.668613200890832 0 0 0 0 9.6835827640315983 -52.1448236922879 0 -52.1448236922879 -29.2457834261877 0 0 0 0 167.09086379769724 -66.420698032627115 0 -66.420698032627115 -27.952022785062582 0 0 0 0 66.473928157152841 7.9629220088172588 0 7.9629220088172588 -16.188542112708092 0 0 0 0 -5.5992871306499552 -24.351836340272541 0 -24.351836340272541 -13.185336759679899 0 0 0 0 -57.353729951224523 -13.283866749268782 0 -13.283866749268782 1.7660417474398855 0 0 0 0 -32.423503337427974 -25.863217423393507 0 -25.863217423393507 -15.963183886022307 0 0 0 0 -37.31610565376468 -15.249033909887658 0 -15.249033909887658 -18.514596045613871 0 0 0 0 -22.102576087112539 -53.991184136393713 0 -53.991184136393713 -10.934547840908635 0 0 0 0 20.651995337742846 -36.016217670214246 0 -36.016217670214246 7.198765139473835 0 0 0 0 4.6196995933714788 -66.304805776991998 0 -66.304805776991998 7.8462492845428642 0 0 0 0 -17.760357405815739 -45.148474861300201 0 -45.148474861300201 -8.9770377971866537 0 0 0 0 -28.886221415261389 -35.816856483284937 0 -35.816856483284937 30.002398574986728 0 0 0 0 -0.029828178201569244 -36.242813434975687 0 -36.242813434975687 25.503500252896629 0 0 0 0 5.1087526569554029 -23.313270609677147 0 -23.313270609677147 -13.992670165709569 0 0 0 0 4.4402494931127876 -30.690509909669345 0 -30.690509909669345 8.4274450012599118 0 0 0 0 -32.093212582723936 -9.4649307312138262 0 -9.4649307312138262 5.6787266359606292 0 0 0 0 0.33728056538905093 -5.3448115846940709 0 -5.3448115846940709 -6.9417783768367372 0 0 0 0 6.9876674355433579 4.0652173292278064 0 4.0652173292278064 -13.778223425988067 0 0 0 0 1.779476759519298 6.9407914391596535 0 6.9407914391596535 -9.3316159659547324 0 0 0 0 22.4095289693214 -41.866394085722277 0 -41.866394085722277 -126.93622541443619 0 0 0 0 7.389915639651008 -16.696255981296417 0 -16.696255981296417 -168.91142760418006 0 0 0 0 -0.021978911667247303 -51.510459977595019 0 -51.510459977595019 -93.240562306498759 0 0 0 0 -6.2808840689743874 -5.7689586258014742 0 -5.7689586258014742 -2.9792634230341442 0 0 0 0 -11.058080566523131 -32.692725628563494 0 -32.692725628563494 -76.92930701898149 0 0 0 0 -2.2319132159464061 -8.6534420349053107 0 -8.6534420349053107 -52.644535294413799 0 0 0 0 20.587934776892268 3.8005783310524066 0 3.8005783310524066 -54.53514818156998 0 0 0 0 -35.698401682473332 -8.8591746869770986 0 -8.8591746869770986 7.6884903645948555 0 0 0 0 -70.336489452165551 2.8934960703772958 0 2.8934960703772958 -11.04758092679549 0 0 0 0 -2.0476222866856766 -2.1781410845860592 0 -2.1781410845860592 0.1559874990332446 0 0 0 0 -17.361379158557611 -10.678923376662169 0 -10.678923376662169 -35.185505890549393 0 0 0 0 2.0024492525851088 -33.791424572055831 0 -33.791424572055831 -25.254216080732419 0 0 0 0 6.1629906780144665 -49.542711330992915 0 -49.542711330992915 -67.119609409346594 0 0 0 0 11.483505213982426 -6.8303087229833181 0 -6.8303087229833181 -36.10513332667324 0 0 0 0 1.3550584157637786 -15.122863651471562 0 -15.122863651471562 -41.671198284937418 0 0 0 0 0.046448777517070994 -50.670292472736037 0 -50.670292472736037 -7.0602458503635717 0 0 0 0 -2.7385759725426624 4.5563420136652724 0 4.5563420136652724 0.47983623986021939 0 0 0 0 -24.598958452261286 -27.104898902762216 0 -27.104898902762216 67.001391048179357 0 0 0 0 -348.29715488795773 -630.12625784410193 0 -630.12625784410193 -673.39868809200561 0 0 0 0 38.91759678532253 -96.087146690340887 0 -96.087146690340887 -353.40250283524801 0 0 0 0 0.024308982852447512 -479.77366435931651 0 -479.77366435931651 -879.62296199028788 0 0 0 0 -99.494886748259887 -389.01120164099848 0 -389.01120164099848 -962.08604411847045 0 0 0 0 125.22061924624722 -58.765808709140401 0 -58.765808709140401 37.845515907072695 0 0 0 0 7.8567095152700404 -1.8173537993029072 0 -1.8173537993029072 -7.8883644816532126 0 0 0 0 -355.02676798420725 -192.56296070694953 0 -192.56296070694953 -491.11582335465937 0 0 0 0 -6.039652348688378 -5.924695490576255 0 -5.924695490576255 -1.2816582013079767 0 0 0 0 -127.51082816917915 -169.75252912187716 0 -169.75252912187716 17.842879013522179 0 0 0 0 121.99692509757006 54.704612429515691 0 54.704612429515691 -40.984668118473564 0 0 0 0 267.04479852571967 267.81728093686252 0 267.81728093686252 -1176.8901063559942 0 0 0 0 -3.6876354210246518 -2.628684145063545 0 -2.628684145063545 -5.3930305267848908 0 0 0 0 -226.09474510262953 -164.24602623676765 0 -164.24602623676765 -126.05961988720082 0 0 0 0 -30.962284867651761 -38.436275785061298 0 -38.436275785061298 -16.970781220255958 0 0 0 0 74.881848525459645 35.191910432949953 0 35.191910432949953 10.971843762570643 0 0 0 0 -6.6083622914593434 -50.040886456903536 0 -50.040886456903536 5.2681240907913889 0 0 0 0 3.6707679292493367 -7.1236259993386568 0 -7.1236259993386568 -8.2124292349857129 0 0 0 0 27.63477175524531 -15.624709886440058 0 -15.624709886440058 -16.543760220072045 0 0 0 0 116.22018609102815 -1.2982302619566326 0 -1.2982302619566326 -99.33945012568438 0 0 0 0 -0.69647799252925324 -84.250022640798306 0 -84.250022640798306 -138.40503150770382 0 0 0 0 11.880372084240662 -22.00232639520982 0 -22.00232639520982 -39.127249100944027 0 0 0 0 34.611395360290771 13.927356898602739 0 13.927356898602739 -57.589400210446911 0 0 0 0 -22.601878570247209 -0.10569561739976052 0 -0.10569561739976052 -54.555598024756364 0 0 0 0 23.915138743903071 -5.463297489283633 0 -5.463297489283633 -34.06807011712209 0 0 0 0 178.13557266094722 -181.00447760988027 0 -181.00447760988027 -5.9520604188801371 0 0 0 0 33.137672431708779 -23.363664571508707 0 -23.363664571508707 -150.55512318904221 0 0 0 0 61.891785339917988 -56.598396744695492 0 -56.598396744695492 -59.820739120521466 0 0 0 0 8.7192200698239049 -33.230083624662456 0 -33.230083624662456 1.7916800161255964 0 0 0 0 -10.388400240596638 -18.768252501806728 0 -18.768252501806728 54.821292417153018 0 0 0 0 1.6402501681105832 -3.2491692010822533 0 -3.2491692010822533 -3.5850883813127687 0 0 0 0 -6.448284752102154 -30.44471148204704 0 -30.44471148204704 3.3840609417710112 0 0 0 0 -33.243680433151894 -10.972916931626969 0 -10.972916931626969 -84.149254533367639 0 0 0 0 -135.86130303243408 2.5111763368622633 0 2.5111763368622633 137.17733554817823 0 0 0 0 71.025963594205678 -68.552007837090059 0 -68.552007837090059 -199.49509904337538 0 0 0 0 -23.402289332560031 -44.620046988202375 0 -44.620046988202375 -39.573586105194408 0 0 0 0 -153.40932375995908 -71.829787429989665 0 -71.829787429989665 -139.86878504656488 0 0 0 0 11.475399135614985 -31.723520356004144 0 -31.723520356004144 -55.336481604733763 0 0 0 0 253.13347098726081 -139.64758516325128 0 -139.64758516325128 -251.98274741810746 0 0 0 0 -114.80763645075604 -107.08939390142564 0 -107.08939390142564 -150.55659701714467 0 0 0 0 -0.044903732608442937 -10.030165582470715 0 -10.030165582470715 -0.71246439438147036 0 0 0 0 -117.93738167430274 -109.62243039679015 0 -109.62243039679015 128.94799033752497 0 0 0 0 -55.366514378838474 -325.090837858741 0 -325.090837858741 -489.13124748773407 0 0 0 0 10.275559526558368 -4.448376142272906 0 -4.448376142272906 -7.7643955232476216 0 0 0 0 -8.8971752785728313 77.972791266336571 0 77.972791266336571 -63.768913918102044 0 0 0 0 -44.644826959294733 -89.355703919220105 0 -89.355703919220105 -131.00397206701746 0 0 0 0 10.741595112835057 -18.250140683769132 0 -18.250140683769132 -18.393848011925002 0 0 0 0 -92.658009868580848 -113.05564696658985 0 -113.05564696658985 -43.681415862643917 0 0 0 0 30.71436773968162 -79.749142077969736 0 -79.749142077969736 -229.90841814601299 0 0 0 0 -19.163465996272862 -161.75092529733956 0 -161.75092529733956 -191.11071136634564 0 0 0 0 -220.70589631050825 -209.89468919555657 0 -209.89468919555657 -200.05692151892436 0 0 0 0 110.41274180496112 -86.233601666041068 0 -86.233601666041068 -150.67907202629431 0 0 0 0 38.633271540398709 -72.633758004230913 0 -72.633758004230913 -152.75749078107765 0 0 0 0 28.611851132242009 -87.494078440533485 0 -87.494078440533485 -94.595844660885632 0 0 0 0 1.215247459593229 -118.56045830558287 0 -118.56045830558287 -105.91230832116707 0 0 0 0 50.62835671447101 -135.03518149999582 0 -135.03518149999582 -152.65233316415106 0 0 0 0 18.19925221754238 -74.748244682923541 0 -74.748244682923541 -122.84556285508006 0 0 0 0 68.599956834688783 -57.560115790191048 0 -57.560115790191048 -122.92616668052506 0 0 0 0 225.76833938807249 42.600309499299328 0 42.600309499299328 -143.54402317562199 0 0 0 0 239.13574835000327 -11.173865400298382 0 -11.173865400298382 -118.07919543552998 0 0 0 0 -77.564853367453907 -76.456054605718236 0 -76.456054605718236 90.279577945970232 0 0 0 0 149.79720195211121 -152.82125237644868 0 -152.82125237644868 -82.839749665610725 0 0 0 0 -97.006036853592377 41.845893699821318 0 41.845893699821318 -100.55680892983219 0 0 0 0 1945.6041106068005 -151.83653279994905 0 -151.83653279994905 742.23053957137927 0 0 0 0 13.329471700169961 33.239368520422431 0 33.239368520422431 -392.73552245604515 0 0 0 0 31.222786348813713 2.6265503579949439 0 2.6265503579949439 -3.9800949284055207 0 0 0 0 239.93186476896517 -1584.8115155699488 0 -1584.8115155699488 1095.2663254902873 0 0 0 0 1.6919127023796818 -10.561070639970325 0 -10.561070639970325 11.453893177293281 0 0 0 0 1799.9285850376473 -313.61230952464757 0 -313.61230952464757 -2.6771024062909419 0 0 0 0 1606.0066878008656 -1344.9147381029834 0 -1344.9147381029834 130.75489528487378 0 0 0 0 946.91706691475702 -755.18597244774719 0 -755.18597244774719 276.04837377485819 0 0 0 0 38.490901842131279 -44.335230033728294 0 -44.335230033728294 36.03744972939603 0 0 0 0 578.19677291635162 -724.90393206240014 0 -724.90393206240014 128.62634841064573 0 0 0 0 573.17955085600261 -812.44124806129548 0 -812.44124806129548 363.44345017967862 0 0 0 0 37.101722311263984 2.371760570966444 0 2.371760570966444 -6.6749622744321897 0 0 0 0 365.53335700958269 -642.05189842901018 0 -642.05189842901018 299.91600123971875 0 0 0 0 400.60445150994929 -391.24781932860787 0 -391.24781932860787 -435.8105749557435 0 0 0 0 -376.1641557366238 -152.67921116627986 0 -152.67921116627986 421.14569772937102 0 0 0 0 -544.08382964361226 -613.81096555433032 0 -613.81096555433032 692.3597531064006 0 0 0 0 312.89587050559931 -1054.2233941704471 0 -1054.2233941704471 662.56777513006818 0 0 0 0 228.35583563370164 -465.94665925939626 0 -465.94665925939626 151.95962223302922 0 0 0 0 183.48365721041046 416.28462307806694 0 416.28462307806694 -1177.8518698395346 0 0 0 0 -10.133802387373919 -3.25974770794042 0 -3.25974770794042 -2.3513485743953595 0 0 0 0 -292.75555658648955 161.67254227174999 0 161.67254227174999 -235.05627980995177 0 0 0 0 381.76823302329285 -334.70520282846701 0 -334.70520282846701 -292.91963385804956 0 0 0 0 -17.060355197667377 -258.60060333817091 0 -258.60060333817091 -89.785422158922302 0 0 0 0 140.07506479765289 119.95508853403589 0 119.95508853403589 -633.59881727142783 0 0 0 0 -170.33566561502812 -233.96277912062578 0 -233.96277912062578 393.77790797888883 0 0 0 0 180.93179176363628 -184.7036265230272 0 -184.7036265230272 -62.754561464877042 0 0 0 0 414.3763067323016 -961.09720949417533 0 -961.09720949417533 971.87996607654441 0 0 0 0 96.181725496891886 -819.93559287420794 0 -819.93559287420794 978.47112469765125 0 0 0 0 29.465052680490771 -903.88824149353604 0 -903.88824149353604 1502.9392581888678 0 0 0 0 987.28976032973151 -865.27088995522354 0 -865.27088995522354 373.00239919869637 0 0 0 0 10.739075809222413 -399.66483252537 0 -399.66483252537 484.44831509437063 0 0 0 0 19.528832503638114 -6.0900769981672056 0 -6.0900769981672056 65.555471032683272 0 0 0 0 196.29672226213734 -477.95024045447644 0 -477.95024045447644 161.57432320369116 0 0 0 0 109.91336618401692 -340.56003095329288 0 -340.56003095329288 581.20964224651107 0 0 0 0 1628.933251968454 -782.16632618141011 0 -782.16632618141011 380.04323132291029 0 0 0 0 254.82733478205046 546.98673376621446 0 546.98673376621446 -765.00424105826824 0 0 0 0 708.14802805017098 -1861.2512687128474 0 -1861.2512687128474 1723.9571792274328 0 0 0 0 12.913508216461025 -0.42817933326773527 0 -0.42817933326773527 -1.8971619586300648 0 0 0 0 1220.5818959944881 192.84716871663113 0 192.84716871663113 -783.77529307560599 0 0 0 0 -71.563661714375485 -295.61136531167722 0 -295.61136531167722 18.278304014493187 0 0 0 0 1.7285088921865963 -1.3776297498236261 0 -1.3776297498236261 -0.26814560603704507 0 0 0 0 1001.5887629439239 -82.329008157794306 0 -82.329008157794306 -1384.8036195746972 0 0 0 0 236.79627359309234 256.00985961727565 0 256.00985961727565 -453.48147484502988 0 0 0 0 -121.72029417696467 -921.65616465121911 0 -921.65616465121911 664.56090087885968 0 0 0 0 172.65044233447406 30.354572626292793 0 30.354572626292793 316.90374034336128 0 0 0 0 113.51006714507821 -280.10071291065833 0 -280.10071291065833 197.62192526471335 0 0 0 0 -208.59163849641482 44.195630072053973 0 44.195630072053973 -57.516807646912639 0 0 0 0 15.521027235965448 60.027623233877421 0 60.027623233877421 54.314273581665475 0 0 0 0 -64.64501921957708 -171.80873569651885 0 -171.80873569651885 841.32395320356682 0 0 0 0 338.55583547140122 -346.27031089040975 0 -346.27031089040975 332.38617829717259 0 0 0 0 270.97205238114111 73.408110975055024 0 73.408110975055024 -193.98160418277985 0 0 0 0 125.34825906254991 71.335844545814325 0 71.335844545814325 -152.57856250402983 0 0 0 0 169.18672184483148 -28.610492007093853 0 -28.610492007093853 -71.433024900703458 0 0 0 0 -46.604910470283357 40.256295727958786 0 40.256295727958786 28.761154175379488 0 0 0 0 -55.513827971706633 -67.006514900660477 0 -67.006514900660477 -37.234251847898122 0 0 0 0 24.138727766281932 -27.260548210409652 0 -27.260548210409652 6.0445445801898359 0 0 0 0 141.21431343437871 -72.629663411076763 0 -72.629663411076763 -145.99323038070725 0 0 0 0 5.8960480757132245 -63.765549411837583 0 -63.765549411837583 20.477082919329405 0 0 0 0 4.0925755256184644 0.18668736534038999 0 0.18668736534038999 -78.658771017887034 0 0 0 0 -7.8435803043248598 -26.361626677764434 0 -26.361626677764434 63.638899156809202 0 0 0 0 153.92174507366144 -31.151553016490652 0 -31.151553016490652 -109.33906996355654 0 0 0 0 50.257680200396862 -34.982292996514389 0 -34.982292996514389 -156.50915562076261 0 0 0 0 -46.600303375365911 -21.421580562069721 0 -21.421580562069721 -104.43040665035733 0 0 0 0 443.10339753684821 -71.506821742375905 0 -71.506821742375905 -147.56947675374249 0 0 0 0 1.1018681145823486 -0.32133808516812223 0 -0.32133808516812223 -69.354477908107981 0 0 0 0 -548.87925972524681 -540.24677230852103 0 -540.24677230852103 -400.69442048275232 0 0 0 0 10.933093014667179 -16.73209829749198 0 -16.73209829749198 6.0041815576133786 0 0 0 0 -537.38756909765652 -667.30266655033483 0 -667.30266655033483 -599.73308200767497 0 0 0 0 -493.32919777743291 -819.22734701058903 0 -819.22734701058903 -841.43644025460526 0 0 0 0 -507.1846648403689 -583.6431318399857 0 -583.6431318399857 -627.44221454975195 0 0 0 0 8.7848965396787548 -10.644706484968715 0 -10.644706484968715 8.6880563236836963 0 0 0 0 130.06985038080893 -258.94229776113934 0 -258.94229776113934 -245.01447236249442 0 0 0 0 -1224.9504162009689 -583.97218084231281 0 -583.97218084231281 -295.41170972313557 0 0 0 0 -721.17028821782151 -971.25535968790427 0 -971.25535968790427 -1264.8040964585816 0 0 0 0 -598.70533395906386 -622.57766529332002 0 -622.57766529332002 -447.59925927932636 0 0 0 0 -345.30389783011924 -264.12451353624419 0 -264.12451353624419 -400.43756958118684 0 0 0 0 1271.3169385658402 -14.271076955272292 0 -14.271076955272292 -82.504095085027075 0 0 0 0 5.2546394199225688 -3.3551332230892115 0 -3.3551332230892115 -64.425918100581214 0 0 0 0 -586.43972756084258 -517.95590802364131 0 -517.95590802364131 -135.04396653411095 0 0 0 0 91.974886519514257 -816.11540672822593 0 -816.11540672822593 -773.64700920570976 0 0 0 0 -1373.3744334682124 -1112.9975882293438 0 -1112.9975882293438 -518.29980721835091 0 0 0 0 -495.4391336760018 -497.96524417160617 0 -497.96524417160617 -514.4287316089758 0 0 0 0 4.8323982203245919 -2.8811660694019565 0 -2.8811660694019565 -2.1313201574786262 0 0 0 0 2287.4546956222621 1080.6329449403929 0 1080.6329449403929 431.71000249727513 0 0 0 0 2106.062629918335 244.07960809686483 0 244.07960809686483 -174.32005128090532 0 0 0 0 1661.8362197211536 -80.787072392988193 0 -80.787072392988193 -881.92928283261426 0 0 0 0 1146.7679635672248 501.15099636747618 0 501.15099636747618 327.31908444783949 0 0 0 0 -593.93605321162613 -872.06942700812942 0 -872.06942700812942 -531.96753327587794 0 0 0 0 15.317183371637668 -9.0784251300440246 0 -9.0784251300440246 -7.9186862518189116 0 0 0 0 1502.4918566332199 594.72346526325418 0 594.72346526325418 -205.76209737273894 0 0 0 0 507.08108677784912 31.413655646785628 0 31.413655646785628 70.81832063890397 0 0 0 0 249.91972433627234 -483.29874809324247 0 -483.29874809324247 -345.65352638529293 0 0 0 0 669.23775658935483 55.97370858573413 0 55.97370858573413 -177.30116655328311 0 0 0 0 689.82174712093547 -777.84809435294301 0 -777.84809435294301 -1084.9381086136909 0 0 0 0 582.29865392055945 -1145.5825295903924 0 -1145.5825295903924 -1582.0024796783109 0 0 0 0 1131.8583216220431 -152.86344145666953 0 -152.86344145666953 -898.87194377696142 0 0 0 0 -1540.3948975122184 -464.42746307021298 0 -464.42746307021298 -528.57459101327709 0 0 0 0 166.87313956295839 -223.80696230799367 0 -223.80696230799367 -530.76528266333185 0 0 0 0 -17.5335486555432 -425.7575219562043 0 -425.7575219562043 -1225.6195423975441 0 0 0 0 -2218.6278218432708 -1531.371898798132 0 -1531.371898798132 -787.72557607499766 0 0 0 0 1778.8455521536234 240.10907703071643 0 240.10907703071643 -4.4019737305570743 0 0 0 0 1.8179873352108302 -3.3964060081795253 0 -3.3964060081795253 -22.640094302894681 0 0 0 0 -476.21564193128143 -2015.6692565992198 0 -2015.6692565992198 -1484.6927477207537 0 0 0 0 4.5332611376219347 -4.2185687526349938 0 -4.2185687526349938 0.92023540418668404 0 0 0 0 -902.3563727021683 -995.50682553939259 0 -995.50682553939259 -1265.5804267495114 0 0 0 0 12.382956342502439 -318.82216535690713 0 -318.82216535690713 223.95963449380361 0 0 0 0 -16.87631184339989 -394.56356295596925 0 -394.56356295596925 212.53276419108442 0 0 0 0 20.9915378327496 -244.35636918871751 0 -244.35636918871751 100.98342757194769 0 0 0 0 -429.82663183764089 -83.910681698209373 0 -83.910681698209373 350.52626558500924 0 0 0 0 -1.4739525076491873 -6.3772898453577227 0 -6.3772898453577227 0.78325283295143411 0 0 0 0 -189.43149980797898 -695.96218463475088 0 -695.96218463475088 262.59162541172827 0 0 0 0 -145.29795871304304 -525.49091366770699 0 -525.49091366770699 553.34753473252931 0 0 0 0 -586.52818409061729 219.14542406323017 0 219.14542406323017 263.72997221397236 0 0 0 0 -32.577190022650029 88.766329573842086 0 88.766329573842086 294.15318194864085 0 0 0 0 -1065.4383585414616 -383.25360531140905 0 -383.25360531140905 537.88001278465345 0 0 0 0 1.0068527439725585 -270.09879250561062 0 -270.09879250561062 840.64395135718587 0 0 0 0 -517.03064044978237 -858.96069028894999 0 -858.96069028894999 345.27293233587989 0 0 0 0 98.644064554595388 -140.3074574919865 0 -140.3074574919865 -56.810772764511057 0 0 0 0 -27.64160329211154 -200.15936547420279 0 -200.15936547420279 -84.453839245856216 0 0 0 0 -227.88237117855169 -394.8315454509866 0 -394.8315454509866 -562.73286531480335 0 0 0 0 -0.54507122021577814 -4.6852138110527903 0 -4.6852138110527903 -9.0173561555149035 0 0 0 0 -1660.709714626093 -575.55241349151402 0 -575.55241349151402 -41.057293364065117 0 0 0 0 -1115.4277634202153 156.88601303781252 0 156.88601303781252 -180.65473164654395 0 0 0 0 -2299.8903960435855 -139.24316772581005 0 -139.24316772581005 267.83638925444393 0 0 0 0 1171.0429851847257 857.33686346247828 0 857.33686346247828 -986.52356187818805 0 0 0 0 -200.74469343110104 231.89245241879689 0 231.89245241879689 -89.608933150491794 0 0 0 0 -498.7538259291905 -653.34028986866178 0 -653.34028986866178 539.69073159187974 0 0 0 0 143.6344191080716 -291.75595263280411 0 -291.75595263280411 -677.15960935980547 0 0 0 0 -302.37370912059851 -481.59558292313886 0 -481.59558292313886 -360.39234290538298 0 0 0 0 -259.84690723172389 -294.95680712245667 0 -294.95680712245667 102.00842489725619 0 0 0 0 -167.35107048618374 132.29160419844266 0 132.29160419844266 107.91089395751624 0 0 0 0 473.40181757829851 97.092228679182881 0 97.092228679182881 -302.09788541600574 0 0 0 0 687.82912874977046 -225.35477641744001 0 -225.35477641744001 -108.73347405929235 0 0 0 0 -22.506636963685679 -38.170602881108266 0 -38.170602881108266 -51.939496434229994 0 0 0 0 287.54245017067296 -273.88063935573155 0 -273.88063935573155 196.57132496621125 0 0 0 0 272.1289825134736 -92.685473813324279 0 -92.685473813324279 81.650186183440383 0 0 0 0 395.96359986494645 -158.92871271331387 0 -158.92871271331387 116.51408320981136 0 0 0 0 230.27225975156762 -135.47571164865985 0 -135.47571164865985 239.52943944915023 0 0 0 0 -3.0871994667612626 -2.9480587754893008 0 -2.9480587754893008 0.37528092725463758 0 0 0 0 3.0776203646964859 -576.26167792848355 0 -576.26167792848355 -1047.5740499250824 0 0 0 0 -267.47460046445485 -91.912164178113017 0 -91.912164178113017 1267.8156218902222 0 0 0 0 285.06144690391375 -306.57471587515465 0 -306.57471587515465 -63.389985985821113 0 0 0 0 478.15469827194465 -253.50354867705755 0 -253.50354867705755 -311.52693722733238 0 0 0 0 410.6044190141256 -184.64503588387743 0 -184.64503588387743 -40.585045752202859 0 0 0 0 104.66219586312945 -106.42717235220334 0 -106.42717235220334 -17.425428752045264 0 0 0 0 530.75186128281348 -83.548900277528446 0 -83.548900277528446 39.01716325552843 0 0 0 0 226.77040981699247 1085.9650642644119 0 1085.9650642644119 817.56576704920008 0 0 0 0 12.224136123026256 -61.182506239922077 0 -61.182506239922077 -43.364422925602412 0 0 0 0 -1.9056498679515244 -26.709115691791368 0 -26.709115691791368 39.301592318055413 0 0 0 0 61.214331473049242 -23.767316325182037 0 -23.767316325182037 80.053610299015418 0 0 0 0 -3.298934230729003 1.4635379599029648 0 1.4635379599029648 9.0950790350549937 0 0 0 0 -100.89348802248423 119.24151077881834 0 119.24151077881834 -910.75572952340008 0 0 0 0 -779.54442225786624 -1460.5190971856064 0 -1460.5190971856064 -17.05159106523206 0 0 0 0 -893.2933414830477 474.37361589925422 0 474.37361589925422 1034.621176204455 0 0 0 0 -370.96022074716166 874.95408112829318 0 874.95408112829318 860.72485583253729 0 0 0 0 -262.74073722108733 405.75927548119216 0 405.75927548119216 957.21373765534372 0 0 0 0 64.391477243887493 -179.16983173612971 0 -179.16983173612971 384.26058548802757 0 0 0 0 -242.56672806484858 474.28317537940893 0 474.28317537940893 704.04375855397666 0 0 0 0 7.994220604592897 -8.4606887315951269 0 -8.4606887315951269 -13.503680583478769 0 0 0 0 70.136967930418905 -336.10617738248402 0 -336.10617738248402 807.85165616023733 0 0 0 0 3.0666473247288195 -14.507910237450602 0 -14.507910237450602 1.9863800026416811 0 0 0 0 -18.032425601792056 -135.59293196917133 0 -135.59293196917133 23.769775241191383 0 0 0 0 11.675555536730826 -42.780174390068225 0 -42.780174390068225 64.352843402934354 0 0 0 0 -1.5674382195866201 -143.52966587316769 0 -143.52966587316769 -12.44722632347839 0 0 0 0 -12.870843309763586 -118.07285290579603 0 -118.07285290579603 3.3695661126403138 0 0 0 0 -28.901786991365952 -125.87207494709583 0 -125.87207494709583 60.04719882865902 0 0 0 0 6.4200764413108118 -121.65936237142887 0 -121.65936237142887 30.911789591162233 0 0 0 0 -82.333852622221457 -117.02204259476639 0 -117.02204259476639 65.366423499697703 0 0 0 0 -1.2310610316635575 -105.03541757877247 0 -105.03541757877247 82.532793975078675 0 0 0 0 -13.894290788917374 -36.155804876960133 0 -36.155804876960133 -36.319030839870891 0 0 0 0 42.164390610298142 -148.52981916000408 0 -148.52981916000408 28.257487191818655 0 0 0 0 213.08420909028791 -328.55484735983555 0 -328.55484735983555 233.1860643234686 0 0 0 0 79.607603333744919 -109.68020374364642 0 -109.68020374364642 67.449743581746588 0 0 0 0 -53.317485247403965 -81.876571247656102 0 -81.876571247656102 60.167114263342228 0 0 0 0 -43.271319921987015 -142.86256759610842 0 -142.86256759610842 80.301770165038761 0 0 0 0 -16.46345937809383 -146.87189821186621 0 -146.87189821186621 174.34234198683407 0 0 0 0 -60.852964120356773 -24.935412219172576 0 -24.935412219172576 58.14813826266618 0 0 0 0 60.984007496590493 -54.671358675532247 0 -54.671358675532247 -61.254417860414833 0 0 0 0 -60.771099430523464 -3.8363329966923629 0 -3.8363329966923629 186.2618373184232 0 0 0 0 -17.802125261973458 -22.854303328351335 0 -22.854303328351335 10.435629405354803 0 0 0 0 -158.42142781885195 -5.5108531944060815 0 -5.5108531944060815 348.69297293346608 0 0 0 0 -41.290450063039316 51.149519891481759 0 51.149519891481759 -0.16629861468391027 0 0 0 0 18.391987897295621 -97.777497336159286 0 -97.777497336159286 36.018003921071795 0 0 0 0 -12.381058756682137 -65.645759886220333 0 -65.645759886220333 17.25653137304387 0 0 0 0 -17.762509700987721 -106.19440275575835 0 -106.19440275575835 105.31659309472889 0 0 0 0 6.8530815726464311 -55.989826227263109 0 -55.989826227263109 75.37847780149815 0 0 0 0 -112.72991345729679 -77.15855069058307 0 -77.15855069058307 109.85989546831843 0 0 0 0 10.567161809740355 -86.092607388105534 0 -86.092607388105534 71.295018711505691 0 0 0 0 -22.3194723270135 -53.39546394541685 0 -53.39546394541685 45.896226946584648 0 0 0 0 -56.097194718699029 -97.964555311058575 0 -97.964555311058575 14.690255749170319 0 0 0 0 23.351945158269416 -53.324784444498931 0 -53.324784444498931 44.262829713640429 0 0 0 0 -67.547666127051343 -342.274069217332 0 -342.274069217332 -336.67942857572052 0 0 0 0 -28.870865888602566 -87.454919532231543 0 -87.454919532231543 100.54971277208824 0 0 0 0 7.780813203862067 -63.626146379435127 0 -63.626146379435127 69.590747693025122 0 0 0 0 -323.23398128675763 -587.10272099389113 0 -587.10272099389113 -464.14003094557847 0 0 0 0 -462.90201177977724 -784.47269781387877 0 -784.47269781387877 -212.05738137114531 0 0 0 0 -386.60438674776378 -770.50360713117334 0 -770.50360713117334 -209.68282153439941 0 0 0 0 -508.9426827308489 -353.25593368065893 0 -353.25593368065893 -20.543253525567707 0 0 0 0 -276.60337069450179 -316.18046358577703 0 -316.18046358577703 -15.472036856008344 0 0 0 0 -16.270519996514679 -38.712649764646528 0 -38.712649764646528 74.361961991007689 0 0 0 0 21.444466403932893 256.95512537343529 0 256.95512537343529 457.86454642558238 0 0 0 0 -1254.6417442219099 -1154.6314139596216 0 -1154.6314139596216 -85.800276779205888 0 0 0 0 -1266.769829199533 -336.38625314188539 0 -336.38625314188539 1312.749981556728 0 0 0 0 -842.48919572564773 -640.48210850701435 0 -640.48210850701435 408.07057058882492 0 0 0 0 -706.44225638790522 -1034.9021763908422 0 -1034.9021763908422 -488.57903229349176 0 0 0 0 -1741.5401259922946 -2099.0234177303064 0 -2099.0234177303064 -1194.3631506718375 0 0 0 0 -1578.0387606191034 -417.33541634748417 0 -417.33541634748417 -1198.8018674498599 0 0 0 0 -368.18024513925775 -858.56636671876913 0 -858.56636671876913 -286.29946265730541 0 0 0 0 -73.012230810621986 -667.09207704293658 0 -667.09207704293658 -452.3954019286175 0 0 0 0 -562.65557495471148 -889.49204875423675 0 -889.49204875423675 -300.40759500404238 0 0 0 0 -755.32321876220522 -1077.7734783887172 0 -1077.7734783887172 -328.23738755728118 0 0 0 0 -215.55880901461933 -973.00650344052701 0 -973.00650344052701 -1016.2319809707697 0 0 0 0 -144.70439921042998 -747.60693571167212 0 -747.60693571167212 -522.25005022075493 0 0 0 0 -167.92014133476187 -161.83480275989859 0 -161.83480275989859 -320.96478404152731 0 0 0 0 15.014183846987407 -52.209744300411955 0 -52.209744300411955 -2.8247214719823859 0 0 0 0 59.648284810653422 -414.80806497426966 0 -414.80806497426966 -648.72307920234744 0 0 0 0 -58.407214340026258 -564.10638836509315 0 -564.10638836509315 -837.31860527367098 0 0 0 0 148.73799809644697 -220.53836717907689 0 -220.53836717907689 -837.16794212994387 0 0 0 0 104.04316058082622 -364.01160769023409 0 -364.01160769023409 -1291.5126359725255 0 0 0 0 34.423089154413901 -592.08395043744531 0 -592.08395043744531 -1022.7341358705826 0 0 0 0 81.758570559846703 -640.75298550901061 0 -640.75298550901061 -1143.5244698426977 0 0 0 0 -240.82486379193142 345.06663389808091 0 345.06663389808091 -598.90958032623166 0 0 0 0 212.04083449847531 -60.836680607877497 0 -60.836680607877497 -547.75656879838789 0 0 0 0 44.744219508342212 -305.48116899421439 0 -305.48116899421439 -599.32032309309579 0 0 0 0 11.82781967765186 -53.509802317355934 0 -53.509802317355934 20.957385147958121 0 0 0 0 34.405882176244631 -55.172335687289888 0 -55.172335687289888 43.362002771827974 0 0 0 0 18.919836046367493 -50.418448216162716 0 -50.418448216162716 28.070402377810922 0 0 0 0 -393.80563414350036 0.80380550106201554 0 0.80380550106201554 101.62341359784477 0 0 0 0 -944.44131835416192 -308.79640339345497 0 -308.79640339345497 172.91127635672456 0 0 0 0 57.080228470469592 76.446078554261476 0 76.446078554261476 121.23300997132901 0 0 0 0 -199.00435201852815 -144.19716545713891 0 -144.19716545713891 86.84356294393001 0 0 0 0 30.790755238876272 -66.568670893852158 0 -66.568670893852158 39.824046328503755 0 0 0 0 220.77063916710904 -213.89915059535269 0 -213.89915059535269 -92.112996234172897 0 0 0 0 -12.81836002660134 -43.943041270587685 0 -43.943041270587685 21.20688137554464 0 0 0 0 -1037.701269319281 -46.332552701205714 0 -46.332552701205714 114.65353860380128 0 0 0 0 45.573452623444609 215.87662044891476 0 215.87662044891476 -252.59527772822184 0 0 0 0 -1324.0819029584527 486.78133762333891 0 486.78133762333891 -132.2951128640052 0 0 0 0 -15.588618088934652 -18.037773935356626 0 -18.037773935356626 -0.64816486536934548 0 0 0 0 -1119.9882578336692 -1929.3125360945232 0 -1929.3125360945232 -3243.4023129781126 0 0 0 0 205.65608995550429 575.13404489352979 0 575.13404489352979 -2379.0291302876576 0 0 0 0 0.18368491968061562 -6.4408644520464691 0 -6.4408644520464691 -4.1285878843261798 0 0 0 0 57.978559733724069 -1103.8436175207885 0 -1103.8436175207885 -2994.27863901612 0 0 0 0 7.6086421844363201 1.6853260342912222 0 1.6853260342912222 6.0956705653296979 0 0 0 0 -1318.1975193883118 -2033.2208405398706 0 -2033.2208405398706 -3056.5026456855267 0 0 0 0 -2070.6011091668915 -1026.8161739873613 0 -1026.8161739873613 -752.95829960975607 0 0 0 0 113.92928984228638 -806.92223544773879 0 -806.92223544773879 -1220.3843750659289 0 0 0 0 -72.246773116647091 111.49303307649643 0 111.49303307649643 -4492.6512698458391 0 0 0 0 -2897.7645149127347 -248.95885297597852 0 -248.95885297597852 409.44302057335153 0 0 0 0 -2843.9060678248061 -1829.4489992821473 0 -1829.4489992821473 122.41394934752316 0 0 0 0 652.87530108628198 154.89190582420633 0 154.89190582420633 -36.654918053289293 0 0 0 0 16.825456436589661 -17.990918765061195 0 -17.990918765061195 -6.2740271938491503 0 0 0 0 33.187830570328515 160.55624881140102 0 160.55624881140102 -610.94761378056137 0 0 0 0 90.599689724607742 -73.885991372058925 0 -73.885991372058925 -935.63937108957907 0 0 0 0 -336.20070618280442 -571.36549714515422 0 -571.36549714515422 -185.55323116532236 0 0 0 0 -208.39168652231456 -811.54382984458789 0 -811.54382984458789 -1339.1154310962593 0 0 0 0 -499.46010859191301 -767.82784665851068 0 -767.82784665851068 -313.36856032328797 0 0 0 0 -905.32231101370417 -310.47128548983892 0 -310.47128548983892 396.74317750420232 0 0 0 0 -739.69463965870091 -1254.9533710363539 0 -1254.9533710363539 77.071171626863361 0 0 0 0 -743.34369607595727 -1194.99693369124 0 -1194.99693369124 -598.86893148135277 0 0 0 0 -1497.2940764176019 -767.29773319794185 0 -767.29773319794185 134.98588795974501 0 0 0 0 -660.06884078675648 -591.04957576042216 0 -591.04957576042216 -59.752165573474485 0 0 0 0 -595.92549475262058 -397.44626609419356 0 -397.44626609419356 138.46103658157517 0 0 0 0 -328.3808111413382 -351.99730708619609 0 -351.99730708619609 -147.00398619615589 0 0 0 0 -538.45052637738991 -444.4541792365635 0 -444.4541792365635 50.895459640458284 0 0 0 0 -698.00656528634136 -707.18383759568314 0 -707.18383759568314 -225.7923803676822 0 0 0 0 -507.92556687042816 -820.40753137096181 0 -820.40753137096181 -616.59322278984473 0 0 0 0 -417.2522913046414 -224.9073048838909 0 -224.9073048838909 -200.60633476773728 0 0 0 0 -489.2336684733018 -572.93326449177039 0 -572.93326449177039 -390.1239271411614 0 0 0 0 -413.64996897488891 -287.6891764021093 0 -287.6891764021093 -12.913498402995174 0 0 0 0 -112.2515066358319 -120.5022447875308 0 -120.5022447875308 -103.93586395564489 0 0 0 0 -0.087373747548554093 -63.972656661178917 0 -63.972656661178917 34.02244921757665 0 0 0 0 30.976757303207563 -47.929714528745109 0 -47.929714528745109 41.576635138132019 0 0 0 0 -8.9063712658025906 -82.842439517942694 0 -82.842439517942694 23.937416322078207 0 0 0 0 42.319035531501868 -63.915120382269379 0 -63.915120382269379 27.976954891077185 0 0 0 0 39.553282225351381 -58.401443748656959 0 -58.401443748656959 43.298826571722174 0 0 0 0 35.063467204385233 -74.867033553024157 0 -74.867033553024157 33.295091630527168 0 0 0 0 -6.6511095160198579 -38.629890745215221 0 -38.629890745215221 0.062306093002177931 0 0 0 0 70.286597602142137 -94.744610964902677 0 -94.744610964902677 30.990186279188492 0 0 0 0 52.836251851542329 -75.557155197195243 0 -75.557155197195243 35.998602338106139 0 0 0 0 -4.1533590240488536 -26.357295350896152 0 -26.357295350896152 9.3542176155399375 0 0 0 0 65.689474416329176 -71.08953201877739 0 -71.08953201877739 23.188894389699271 0 0 0 0 28.954869025437802 -75.960131615185674 0 -75.960131615185674 39.72796175655094 0 0 0 0 -169.31103869911749 -117.30530334491777 0 -117.30530334491777 89.31632951204665 0 0 0 0 -20.88510867256025 -7.7099033465388445 0 -7.7099033465388445 16.662246576594669 0 0 0 0 37.704862544909815 -49.068835759736913 0 -49.068835759736913 37.47135166644216 0 0 0 0 -254.25633757177275 -285.92052510404028 0 -285.92052510404028 99.62271394002164 0 0 0 0 -280.4842054452165 -2.0260633939033141 0 -2.0260633939033141 128.99223875797907 0 0 0 0 -175.28246017391211 -171.86481267676572 0 -171.86481267676572 1.3499271654727636 0 0 0 0 30.86983989647706 -68.397478081918962 0 -68.397478081918962 81.084879955596989 0 0 0 0 33.321729461109271 -50.61266447271835 0 -50.61266447271835 40.50587464021379 0 0 0 0 34.137868364958564 -43.991061189893337 0 -43.991061189893337 28.464038192479734 0 0 0 0 -38.216313284749049 -91.322976458068297 0 -91.322976458068297 -5.6317243217563373 0 0 0 0 -10.683432606732822 -92.973902038502274 0 -92.973902038502274 -61.941817522601923 0 0 0 0 -56.786689966684207 -114.81077884323895 0 -114.81077884323895 -83.882397436536849 0 0 0 0 72.027974644826315 -35.63505287855385 0 -35.63505287855385 -55.450169326546416 0 0 0 0 15.808789125784017 -43.139577555986307 0 -43.139577555986307 36.464605216939503 0 0 0 0 -31.532941800542176 -80.726337148575112 0 -80.726337148575112 29.551782904716674 0 0 0 0 -40.802437886669736 -27.480677800203651 0 -27.480677800203651 64.615473649034129 0 0 0 0 20.913999907594189 -72.413239519135459 0 -72.413239519135459 15.607328487123596 0 0 0 0 24.777572305501963 -45.008862892442266 0 -45.008862892442266 19.192267147882376 0 0 0 0 38.073817085730298 -48.258066154311337 0 -48.258066154311337 32.167427587133915 0 0 0 0 18.53264059077992 -71.288251447545917 0 -71.288251447545917 3.9921839388262015 0 0 0 0 1.6258124461164698 -107.86071507193265 0 -107.86071507193265 -53.437314690090716 0 0 0 0 36.249004144079663 -69.573827432825965 0 -69.573827432825965 13.237494947679807 0 0 0 0 14.79073001613142 -69.440574802676565 0 -69.440574802676565 13.82006213531713 0 0 0 0 46.630318363572144 -45.607530406666527 0 -45.607530406666527 32.286574648742231 0 0 0 0 -8.887655735219596 -66.922147012999631 0 -66.922147012999631 13.265770430385601 0 0 0 0 21.24748286340764 -94.200909090526693 0 -94.200909090526693 20.016057378903497 0 0 0 0 -298.93026026578445 -216.71585808931195 0 -216.71585808931195 43.553423182602273 0 0 0 0 -207.8419611803256 -293.65826873572223 0 -293.65826873572223 -185.55521938460879 0 0 0 0 -320.28662605660793 -334.24331447109944 0 -334.24331447109944 -15.368728228400869 0 0 0 0 -150.75349244826066 -219.86059446256331 0 -219.86059446256331 -20.613580675308185 0 0 0 0 -51.487909321054758 -97.944637658943975 0 -97.944637658943975 28.672396224617842 0 0 0 0 39.179711914889367 -57.260383292825821 0 -57.260383292825821 36.28793941072621 0 0 0 0 -7.7778786252019927 -136.72169201413635 0 -136.72169201413635 -42.718020307296683 0 0 0 0 -26.88752631848547 -94.079176240451488 0 -94.079176240451488 -0.35540476103778929 0 0 0 0 -31.244287779089063 -104.36575295438524 0 -104.36575295438524 -55.660000071336981 0 0 0 0 52.22624459517948 -32.781230728826188 0 -32.781230728826188 -61.369125865700198 0 0 0 0 -20.075127063425327 -33.249637875825051 0 -33.249637875825051 52.229647103166059 0 0 0 0 18.95749829836177 -33.625445132674223 0 -33.625445132674223 17.62280714075942 0 0 0 0 23.586807309846336 -57.43233865205184 0 -57.43233865205184 -23.29218460930133 0 0 0 0 -62.455464475948247 -58.898390163372824 0 -58.898390163372824 32.382443899172358 0 0 0 0 -2711.632075097441 1021.0901211072051 0 1021.0901211072051 74.463003299490083 0 0 0 0 68.480804073816785 -75.231126120277494 0 -75.231126120277494 48.648992092058549 0 0 0 0 26.13763154294395 -31.377701703882494 0 -31.377701703882494 3.1677055196748825 0 0 0 0 15.306460251065971 -9.8520817768634501 0 -9.8520817768634501 5.7810643002223685 0 0 0 0 976.43602483347058 -518.36556125676725 0 -518.36556125676725 221.28169703486492 0 0 0 0 226.96238236827776 -32.747314202271809 0 -32.747314202271809 11.054334245432983 0 0 0 0 -243.62321863509715 247.58219855991774 0 247.58219855991774 -123.50125315044716 0 0 0 0 -115.15195710456464 474.96550930769445 0 474.96550930769445 -500.53823925944744 0 0 0 0 -9.6327815279311721 -2.6893797247138593 0 -2.6893797247138593 0.05320005245053494 0 0 0 0 2712.9047145303339 -3240.7633424930973 0 -3240.7633424930973 -144.19254774944511 0 0 0 0 198.41987818732741 -40.40114584377443 0 -40.40114584377443 -53.28424436453497 0 0 0 0 237.40174103327445 -67.4446338723792 0 -67.4446338723792 -63.752602303633466 0 0 0 0 275.24929697689367 170.31823151788558 0 170.31823151788558 40.775221300777048 0 0 0 0 159.02946081751725 -107.97151010297239 0 -107.97151010297239 17.943140058399877 0 0 0 0 23.810641295444924 -24.102466531262365 0 -24.102466531262365 8.6342802391789633 0 0 0 0 -59.685221507184906 -30.559169859276153 0 -30.559169859276153 5.5380419170833193 0 0 0 0 -61.300180236881715 -49.337224742972467 0 -49.337224742972467 -34.464509245481167 0 0 0 0 28.967150917713298 -61.169796463687817 0 -61.169796463687817 -36.578574473140179 0 0 0 0 1.6488257532473654 -125.08990734171675 0 -125.08990734171675 -100.48949661780352 0 0 0 0 2.2501500270256543 -102.49269751507387 0 -102.49269751507387 -12.995193378126714 0 0 0 0 2.8858907115791226 -37.384862535851425 0 -37.384862535851425 22.394330250084749 0 0 0 0 58.748201549358782 -22.311005367781036 0 -22.311005367781036 2.0769698163494468 0 0 0 0 -31.498036948571098 -133.14601992752432 0 -133.14601992752432 -64.077167114912299 0 0 0 0 -3.1344580784716527 -76.932368841029529 0 -76.932368841029529 -52.812898596996092 0 0 0 0 -22.055724728526059 -50.436391679359986 0 -50.436391679359986 34.784027841999261 0 0 0 0 -21.332222191151232 -82.679557063034736 0 -82.679557063034736 -114.61227235141996 0 0 0 0 -17.352373066976725 -80.417035724094603 0 -80.417035724094603 -113.61454724110081 0 0 0 0 37.973039761171094 -91.509021691857924 0 -91.509021691857924 -371.99043851000897 0 0 0 0 -9.4697625584813068 -64.334087439725408 0 -64.334087439725408 -149.29620540524775 0 0 0 0 5.8396483549725531 -10.242726803882618 0 -10.242726803882618 -1.1548167259283915 0 0 0 0 35.1228512673041 -62.683747237605218 0 -62.683747237605218 -7.6704564943903719 0 0 0 0 11.575283342492185 -99.501275341222936 0 -99.501275341222936 469.26233040068473 0 0 0 0 -56.082631280500209 -8.20758563416166 0 -8.20758563416166 603.11678593236138 0 0 0 0 114.95720186499238 -124.05645311881381 0 -124.05645311881381 319.29526940167125 0 0 0 0 43.355513933944167 -69.316149895821582 0 -69.316149895821582 4.0124814095433976 0 0 0 0 32.049935698392801 -62.576468922750792 0 -62.576468922750792 0.0012100217136321589 0 0 0 0 54.21087633982097 -76.979861045727375 0 -76.979861045727375 35.491190993139753 0 0 0 0 44.220735311888347 -66.113330194150876 0 -66.113330194150876 0.015897427889285609 0 0 0 0 53.040032287157374 -82.748984562073019 0 -82.748984562073019 18.842726591130486 0 0 0 0 42.600552321928546 -62.106549702775482 0 -62.106549702775482 -8.1553689396440667 0 0 0 0 33.313444739222177 -284.55597579768801 0 -284.55597579768801 -134.94174153708445 0 0 0 0 30.113815604388947 -22.608964610408293 0 -22.608964610408293 184.52157037338475 0 0 0 0 -49.670443837705534 -501.88696396071464 0 -501.88696396071464 423.05605060507514 0 0 0 0 -599.33945422776742 -461.23117998479574 0 -461.23117998479574 262.43676612489799 0 0 0 0 -907.6839098915043 299.71483104740764 0 299.71483104740764 658.93442551873159 0 0 0 0 -4.762681970430549 -17.728055458438554 0 -17.728055458438554 5.464935316336323 0 0 0 0 108.46306574406481 443.32629176019691 0 443.32629176019691 452.69082486678963 0 0 0 0 -153.20345787936822 -84.864313706591929 0 -84.864313706591929 205.96036052625277 0 0 0 0 -27.018195034833752 -24.196213810649567 0 -24.196213810649567 5.9687602593237443 0 0 0 0 2.1179836226845055 -7.2044996588014101 0 -7.2044996588014101 -0.65483930042770311 0 0 0 0 -203.63260151038412 -285.62702608328254 0 -285.62702608328254 888.57558617218456 0 0 0 0 -128.00848351093009 -198.94819811239722 0 -198.94819811239722 85.06327343142766 0 0 0 0 -31.480433267191984 -237.18784090045665 0 -237.18784090045665 349.29327713816019 0 0 0 0 -11.49110579596163 -90.152950261879596 0 -90.152950261879596 -105.53060554756667 0 0 0 0 -32.46427548004732 -48.887962939994765 0 -48.887962939994765 34.089470730327406 0 0 0 0 15.097896042941272 -19.623433577296183 0 -19.623433577296183 -27.625963866981976 0 0 0 0 363.33524311584188 172.70475748697936 0 172.70475748697936 -57.729443901072955 0 0 0 0 -13.62740994743217 -33.598806820042228 0 -33.598806820042228 -24.705830861232243 0 0 0 0 19.689879527806795 -20.13547022861647 0 -20.13547022861647 -16.490535001459705 0 0 0 0 -1.9543330905289622 -78.287278949072061 0 -78.287278949072061 -30.072467786681955 0 0 0 0 258.12542010770994 96.577468553834478 0 96.577468553834478 -47.151822308551345 0 0 0 0 369.86756327982584 135.14977840568463 0 135.14977840568463 -77.306622218340635 0 0 0 0 187.2565582850948 -129.22710419340001 0 -129.22710419340001 -155.06126289094391 0 0 0 0 796.67477862794476 -155.69332976164151 0 -155.69332976164151 -193.5364184899081 0 0 0 0 376.76681174497935 180.82926186699478 0 180.82926186699478 149.15714838748681 0 0 0 0 -191.44014433107805 -558.49118041282054 0 -558.49118041282054 -99.784063068405885 0 0 0 0 68.15257284872132 -351.48865152100188 0 -351.48865152100188 -130.60054073615174 0 0 0 0 51.616640655300728 -63.050308076519435 0 -63.050308076519435 30.798238279296811 0 0 0 0 53.407188244353165 34.958107667313016 0 34.958107667313016 -351.8111578837561 0 0 0 0 14.222553588188021 -318.04682166461134 0 -318.04682166461134 169.29744650621433 0 0 0 0 -823.03033639465866 -138.88329869689915 0 -138.88329869689915 454.61386520497035 0 0 0 0 -261.84245545857539 -36.658405812969988 0 -36.658405812969988 1558.635616871703 0 0 0 0 460.39891049163998 535.13550081722497 0 535.13550081722497 99.07233583330526 0 0 0 0 -263.15781478036695 230.01315189107959 0 230.01315189107959 -174.27627259909059 0 0 0 0 969.72534835056285 -1096.8378007810388 0 -1096.8378007810388 667.86656331636914 0 0 0 0 635.41273240523878 49.923288699341356 0 49.923288699341356 -19.626730031188345 0 0 0 0 6.953608989843417 -5.1900494292771668 0 -5.1900494292771668 -9.5101666410130861 0 0 0 0 1462.3101069064578 -790.05123728880426 0 -790.05123728880426 298.25076990318485 0 0 0 0 944.57692315321765 487.52437543527049 0 487.52437543527049 313.55958064898732 0 0 0 0 2665.9322902903659 -333.73413416539552 0 -333.73413416539552 -1532.9311437615688 0 0 0 0 39.718609274483242 -58.484791273675512 0 -58.484791273675512 -7.5662929302827173 0 0 0 0 -0.59953879201202653 -98.78885125182569 0 -98.78885125182569 96.566717029269057 0 0 0 0 40.710295959142968 -58.854846882575657 0 -58.854846882575657 121.89815672934128 0 0 0 0 874.78328598913504 -1293.9552030146442 0 -1293.9552030146442 297.74226260103751 0 0 0 0 -1125.0532216620632 -856.09910715703154 0 -856.09910715703154 631.47276076415437 0 0 0 0 -379.38968614960322 372.25885749858571 0 372.25885749858571 -742.59180259349523 0 0 0 0 -367.5777291287377 168.97161643776053 0 168.97161643776053 -62.298352241472458 0 0 0 0 -24.869450710826186 -65.202576200595217 0 -65.202576200595217 47.573098824509316 0 0 0 0 -786.70723212164012 530.47732668834215 0 530.47732668834215 275.088815380499 0 0 0 0 17.077712223506239 -82.368460593092408 0 -82.368460593092408 6.0720557230546746 0 0 0 0 -664.29124042687909 1058.1868155521606 0 1058.1868155521606 -1529.3286063644919 0 0 0 0 26.444622253358489 -59.122070751194826 0 -59.122070751194826 -1.5097258449286386 0 0 0 0 -4.2780535297788447 -34.914537169621326 0 -34.914537169621326 110.08175988857147 0 0 0 0 92.071905307748239 -83.422023050537973 0 -83.422023050537973 -0.084101054337224923 0 0 0 0 19.288135188774703 -13.07858749635264 0 -13.07858749635264 6.1344566012174937 0 0 0 0 49.753310790518299 -104.82077859330457 0 -104.82077859330457 0.077184292642855576 0 0 0 0 -24.027241579880865 -118.34295871761424 0 -118.34295871761424 69.650476075708866 0 0 0 0 37.32604039220314 -63.244785835828225 0 -63.244785835828225 0.029212212801212445 0 0 0 0 32.681004425845458 -55.680666988861049 0 -55.680666988861049 -12.00789074710724 0 0 0 0 54.728505727376614 -43.709874379892426 0 -43.709874379892426 -38.439951866137562 0 0 0 0 39.424153435440019 -36.800879587108767 0 -36.800879587108767 -15.398633563074904 0 0 0 0 53.025195512870937 -46.69172348442234 0 -46.69172348442234 12.012767845068236 0 0 0 0 123.08865322997735 -122.42692368444841 0 -122.42692368444841 32.194467300243559 0 0 0 0 -13.824471515137702 -36.903012868948281 0 -36.903012868948281 -2.4900821639389505 0 0 0 0 39.90424135948706 -131.86958845249319 0 -131.86958845249319 61.305678914271994 0 0 0 0 112.14646859653294 -35.050864153949078 0 -35.050864153949078 -14.498447743215365 0 0 0 0 31.645796271613904 -41.976427506886694 0 -41.976427506886694 0.38027307209815753 0 0 0 0 129.74431111762533 -22.343664602238277 0 -22.343664602238277 -139.22666794506949 0 0 0 0 -189.38946216924523 -241.32628016592571 0 -241.32628016592571 176.72435787199356 0 0 0 0 187.54150394583121 -133.36346209103067 0 -133.36346209103067 24.83969511045143 0 0 0 0 -39.169926201138878 -83.003842799735139 0 -83.003842799735139 160.26880515391531 0 0 0 0 134.15698075314867 -164.70998645731743 0 -164.70998645731743 63.534582558524562 0 0 0 0 -19.747832994108592 -54.169029209152598 0 -54.169029209152598 20.665120596308498 0 0 0 0 25.592789703870295 -51.417581396932121 0 -51.417581396932121 -42.313086112503356 0 0 0 0 40.978107637813082 -123.97112441820718 0 -123.97112441820718 -20.268895795757999 0 0 0 0 56.531554763758322 -81.079180941713275 0 -81.079180941713275 -84.083840995052014 0 0 0 0 -13.835696518460622 -9.4153165490801882 0 -9.4153165490801882 2.294531490892723 0 0 0 0 155.52331826803857 16.377272496945807 0 16.377272496945807 -14.983006807422498 0 0 0 0 12.979989983231576 -10.471246917450941 0 -10.471246917450941 -7.6142995499913013 0 0 0 0 166.15279880499293 -78.588573090602949 0 -78.588573090602949 -134.06699637597194 0 0 0 0 116.70568512563477 -148.225713675929 0 -148.225713675929 -175.54347576659347 0 0 0 0 20.135000141570714 -8.9992079900393094 0 -8.9992079900393094 -109.44365788227225 0 0 0 0 44.563369453273481 -71.299398613118683 0 -71.299398613118683 61.131177223302075 0 0 0 0 54.042993504515096 -80.814258526810846 0 -80.814258526810846 32.439231174749295 0 0 0 0 332.2242303453022 101.65738377399066 0 101.65738377399066 -173.73760797741124 0 0 0 0 1163.3367280765378 -1294.9385586910357 0 -1294.9385586910357 -913.8207786695566 0 0 0 0 -15.758207805862185 104.17832064697723 0 104.17832064697723 -500.90717864677572 0 0 0 0 237.75356573180761 -224.32465312347995 0 -224.32465312347995 -416.03239300752466 0 0 0 0 -3192.1996206251788 -180.88321833503142 0 -180.88321833503142 475.67544449080015 0 0 0 0 362.93057131560636 -79.03358131195273 0 -79.03358131195273 -751.07173982241511 0 0 0 0 67.988358758832874 -72.39595625710821 0 -72.39595625710821 41.123263034041841 0 0 0 0 115.15168627093954 -61.500409338063037 0 -61.500409338063037 -342.02076357915939 0 0 0 0 13.591102926382746 -26.43399158278703 0 -26.43399158278703 0.84794244455872558 0 0 0 0 10.352764774841489 -58.726613487728173 0 -58.726613487728173 0.31884251098017558 0 0 0 0 -2.8632726246141829 -126.33750588931434 0 -126.33750588931434 -20.019088161090622 0 0 0 0 162.76345526904333 -332.76765614913893 0 -332.76765614913893 -429.19580540663264 0 0 0 0 42.037577596760912 -30.484428941814656 0 -30.484428941814656 23.065278295969108 0 0 0 0 12.811863599228673 -233.34840853077185 0 -233.34840853077185 -91.625595880483161 0 0 0 0 373.06521436487674 31.311759223957779 0 31.311759223957779 -346.46394759585382 0 0 0 0 77.280628681677626 -37.69118763464212 0 -37.69118763464212 -10.33009878147277 0 0 0 0 72.925791718971368 -69.695946398373962 0 -69.695946398373962 50.062659018545929 0 0 0 0 73.345571571742767 -260.60665754999354 0 -260.60665754999354 -15.744600585996523 0 0 0 0 14.029881978567573 -301.11259314376366 0 -301.11259314376366 -286.05120018054731 0 0 0 0 211.51869269716553 -163.52041069965344 0 -163.52041069965344 -300.324225498327 0 0 0 0 353.53506112814648 -371.0205816647067 0 -371.0205816647067 -195.14325463802379 0 0 0 0 61.855044065909169 -381.86904663631867 0 -381.86904663631867 -176.54986399161862 0 0 0 0 -61.448351355124032 -319.3502888216608 0 -319.3502888216608 -37.274543734092731 0 0 0 0 -68.66556905786274 -494.80581474369319 0 -494.80581474369319 -163.48956124666438 0 0 0 0 741.86302196193719 -299.42184974026895 0 -299.42184974026895 -406.48029542728909 0 0 0 0 -40.782523262947507 -445.39575051563224 0 -445.39575051563224 -145.71082496392773 0 0 0 0 667.32277824545963 125.34201225013385 0 125.34201225013385 43.547950118227163 0 0 0 0 294.41782889790557 -232.53849751648613 0 -232.53849751648613 29.653819386912801 0 0 0 0 -184.02324159853742 -141.43476285659563 0 -141.43476285659563 -70.416530796341249 0 0 0 0 3.1246423020613179 2.5658454146745555 0 2.5658454146745555 -96.572731711596077 0 0 0 0 210.0950321522032 -69.779551214765888 0 -69.779551214765888 -371.25504623411689 0 0 0 0 45.523812508356059 -196.45341782936885 0 -196.45341782936885 -176.42778610813548 0 0 0 0 369.75532679933531 -315.29492242495689 0 -315.29492242495689 -155.0976509250977 0 0 0 0 846.74026652677276 436.0868741295053 0 436.0868741295053 -134.41247595080495 0 0 0 0 -245.40144221801893 -466.97914452187979 0 -466.97914452187979 -631.63571340275666 0 0 0 0 -12.128170995187247 -118.52037613993161 0 -118.52037613993161 -265.87341134788221 0 0 0 0 -430.407409085994 -524.40482768283618 0 -524.40482768283618 -438.51712260904606 0 0 0 0 -342.6327334330781 -616.92398938471706 0 -616.92398938471706 -658.08896223668125 0 0 0 0 -435.03898468644184 -513.44119293473341 0 -513.44119293473341 -495.86905232132267 0 0 0 0 -1260.1705179908604 -868.63916516425525 0 -868.63916516425525 -550.24448735733313 0 0 0 0 419.74442591706338 326.93648295673665 0 326.93648295673665 -612.78505973517895 0 0 0 0 0.89644319658918903 -7.1917229677265198 0 -7.1917229677265198 -16.081809770902908 0 0 0 0 -355.8748361277685 -67.559475188143551 0 -67.559475188143551 -1142.3069054484367 0 0 0 0 -405.34451330834418 -816.44178494521998 0 -816.44178494521998 -1280.0099379491148 0 0 0 0 -1096.0774037973461 -202.34735527263183 0 -202.34735527263183 -211.7714063419553 0 0 0 0 -375.76642983031343 -384.0843521110146 0 -384.0843521110146 -72.319516195091637 0 0 0 0 -329.29428767393256 -420.08698451478085 0 -420.08698451478085 -190.17383044971211 0 0 0 0 -567.44817608442099 -126.82339680381119 0 -126.82339680381119 -2.3477911577356281 0 0 0 0 -183.18297278671525 -5.1770733339726576 0 -5.1770733339726576 -296.47406584414421 0 0 0 0 -141.14387561904732 -97.020545463521557 0 -97.020545463521557 -110.01350332800939 0 0 0 0 -120.05380599982163 -7.037455433717696 0 -7.037455433717696 -416.81387744896347 0 0 0 0 -400.84134631357301 -202.46812421672803 0 -202.46812421672803 -325.75781258817005 0 0 0 0 24.015658345073462 111.20108814846753 0 111.20108814846753 -19.956820369090565 0 0 0 0 1.2317129020520952 -143.94650105004985 0 -143.94650105004985 -271.05340205310495 0 0 0 0 126.09452537217294 -42.216991267618141 0 -42.216991267618141 7.5913413668749854 0 0 0 0 30.019241550297011 89.844707548603765 0 89.844707548603765 -172.33495752529052 0 0 0 0 70.797808994422667 -171.94203008948534 0 -171.94203008948534 16.587194056890439 0 0 0 0 27.711869459453737 151.56258573744708 0 151.56258573744708 152.60037532557908 0 0 0 0 58.264755371140097 -34.891946396283913 0 -34.891946396283913 4.3542458239775499 0 0 0 0 604.72410905337892 -227.26959945695125 0 -227.26959945695125 -150.74287978705252 0 0 0 0 -153.08007981131959 -194.97646220692332 0 -194.97646220692332 -3.4198311891086632 0 0 0 0 99.827221518964507 78.682880803185981 0 78.682880803185981 -73.816936861645445 0 0 0 0 46.685899686563062 -179.79702357546194 0 -179.79702357546194 -164.97839421132812 0 0 0 0 0.60765195585281617 -1.5865098420728287 0 -1.5865098420728287 3.1040436228173292 0 0 0 0 191.56526922975172 74.461821688815689 0 74.461821688815689 -29.569945364986779 0 0 0 0 -534.4491856477398 101.53567478019977 0 101.53567478019977 -88.039603590790648 0 0 0 0 44.991749674165476 -25.215292654616391 0 -25.215292654616391 17.488613878571925 0 0 0 0 54.623586131987395 22.061266823220649 0 22.061266823220649 -36.325505851697017 0 0 0 0 7.4478764526138548 -123.48204098287533 0 -123.48204098287533 20.902360854845028 0 0 0 0 283.08939786856354 -88.842145108385012 0 -88.842145108385012 -89.473130054306239 0 0 0 0 125.0833797933301 -50.923202275749645 0 -50.923202275749645 -73.583258267462952 0 0 0 0 114.81949068416725 -86.975292627801537 0 -86.975292627801537 -127.40289664616284 0 0 0 0 141.20723123537027 -73.167477480972593 0 -73.167477480972593 -122.47245181968901 0 0 0 0 2.1356862461252604 -85.160505390114849 0 -85.160505390114849 -58.969292208537809 0 0 0 0 31.789454619495245 -37.322545909137204 0 -37.322545909137204 -7.4248935946785188 0 0 0 0 3.264238303527236 -44.246935448085424 0 -44.246935448085424 -12.14759523178509 0 0 0 0 -149.86742740089539 -138.06187735102139 0 -138.06187735102139 -75.436130947142374 0 0 0 0 23.451077704532906 -40.748976880018517 0 -40.748976880018517 -1.8958975973083536 0 0 0 0 47.577437664498575 -38.754540983529296 0 -38.754540983529296 -12.899594754620921 0 0 0 0 27.004423830891028 -62.452216920857609 0 -62.452216920857609 22.431741266598692 0 0 0 0 30.533324529940728 -56.919204758269188 0 -56.919204758269188 -0.029400299812550656 0 0 0 0 3.9705300172958005 -5.2482610846868738 0 -5.2482610846868738 -0.22264283451002598 0 0 0 0 3.5204733631690033 -14.641711109259631 0 -14.641711109259631 0.017090799257857725 0 0 0 0 9.5004971726375516 -22.916008926116774 0 -22.916008926116774 44.605210012538009 0 0 0 0 -17.627006401686231 -60.864517416732269 0 -60.864517416732269 65.613684361436754 0 0 0 0 25.453706237938604 -68.48251719513064 0 -68.48251719513064 0.12576553109661601 0 0 0 0 7.9307894811499864 -38.133001672453247 0 -38.133001672453247 -10.804102736947243 0 0 0 0 15.353068193734373 -41.873314092271755 0 -41.873314092271755 9.7232486546228891 0 0 0 0 19.097840040980373 -40.974586764030391 0 -40.974586764030391 -13.477129837934626 0 0 0 0 12.421753264457379 -42.39578088144782 0 -42.39578088144782 -3.7595863801493898 0 0 0 0 25.612114637420746 -27.785058979250607 0 -27.785058979250607 -114.17537892695691 0 0 0 0 -1.272320420948688 -47.366996666708076 0 -47.366996666708076 0.54153924314283586 0 0 0 0 -3.5640124634373933 -74.501013061410049 0 -74.501013061410049 -15.798515931507154 0 0 0 0 14.938619276392274 -79.370360335713485 0 -79.370360335713485 -80.702015140879666 0 0 0 0 -8.2494162239891011 -90.138439238082356 0 -90.138439238082356 -125.62087632656039 0 0 0 0 17.650797485141084 -42.279342735477258 0 -42.279342735477258 -111.59504362556618 0 0 0 0 16.753130576131923 -19.856949131870735 0 -19.856949131870735 -53.845653701647052 0 0 0 0 0.2000212156916632 -9.0053828731319641 0 -9.0053828731319641 5.0845168511284529 0 0 0 0 31.767620804130615 -23.63776465489471 0 -23.63776465489471 -5.7202735324927119 0 0 0 0 -70.270950056175934 -250.54033032561711 0 -250.54033032561711 -122.6559900232096 0 0 0 0 6.411365874767057 -9.7345338824897283 0 -9.7345338824897283 -14.606227813181903 0 0 0 0 -34.140186677221209 -51.953285323965247 0 -51.953285323965247 -147.23762082823669 0 0 0 0 -124.30488446990785 -60.358452790729643 0 -60.358452790729643 115.61769561930123 0 0 0 0 -101.2479079659679 -400.30104495172418 0 -400.30104495172418 -75.059666198387276 0 0 0 0 -189.75925814584116 -315.16866734566247 0 -315.16866734566247 -156.87510776544514 0 0 0 0 -94.293996923894156 -447.33239243007847 0 -447.33239243007847 -320.48155759006568 0 0 0 0 291.85719385911852 -697.78476870889494 0 -697.78476870889494 -190.88779743170016 0 0 0 0 326.3414418376924 -188.49993284453376 0 -188.49993284453376 -512.47109375357104 0 0 0 0 105.1477104354999 -64.114793642314908 0 -64.114793642314908 -916.03973049300839 0 0 0 0 145.70781292713946 -303.22148614072648 0 -303.22148614072648 -569.81439384480473 0 0 0 0 -37.506856515974505 -288.75270705702133 0 -288.75270705702133 -306.63500045033652 0 0 0 0 20.827751268055465 -14.929508758446403 0 -14.929508758446403 -17.616308739899182 0 0 0 0 6.3464840021624696 -53.837693750392646 0 -53.837693750392646 -35.150168047417537 0 0 0 0 12.265186562013696 -59.935213055905479 0 -59.935213055905479 -52.097769115658593 0 0 0 0 9.7715058619655792 -39.859038424465581 0 -39.859038424465581 23.037902350077161 0 0 0 0 1.4633362467317284 -46.169435625277316 0 -46.169435625277316 -0.92464205032257496 0 0 0 0 29.883829330123262 -59.544427435481339 0 -59.544427435481339 -128.04995840854099 0 0 0 0 -8.0154521278236643 42.008661064370244 0 42.008661064370244 -129.04171637597028 0 0 0 0 1.8916944744171929 -38.646316364190909 0 -38.646316364190909 -5.2656845933690306 0 0 0 0 -3.9773061881013518 -3.519043346512845 0 -3.519043346512845 0.31362712332696674 0 0 0 0 31.91401029650433 -0.4708774309092405 0 -0.4708774309092405 -37.400201068376191 0 0 0 0 3.5243519348732661 -14.643530161905801 0 -14.643530161905801 -0.013535008329199627 0 0 0 0 -0.011590234062168747 -74.175693214056082 0 -74.175693214056082 -68.294472142515588 0 0 0 0 -5.1806324663339183 -60.932736402355658 0 -60.932736402355658 -56.2625744548277 0 0 0 0 13.559129865898456 -13.751618695101413 0 -13.751618695101413 -2.2328896713144957 0 0 0 0 6.6620023890864104 -42.636506743496284 0 -42.636506743496284 185.58082670267595 0 0 0 0 28.556171833511144 -108.79087040927925 0 -108.79087040927925 -35.481517961074132 0 0 0 0 -74.313095800578594 -91.05168912926456 0 -91.05168912926456 -0.033893921327985861 0 0 0 0 2.0322388135900553 -7.969309381989774 0 -7.969309381989774 -1.1092857368983005 0 0 0 0 -5.9982024034208621 -38.709373258102204 0 -38.709373258102204 19.074839601224909 0 0 0 0 39.317471124406438 -0.061213031323859468 0 -0.061213031323859468 -270.14737210187013 0 0 0 0 6.2109423443616834 -26.98802056859131 0 -26.98802056859131 55.015101371434866 0 0 0 0 0.51223981633739868 -5.0718692107585071 0 -5.0718692107585071 11.079852427705617 0 0 0 0 -95.64229965992854 -109.22200456655992 0 -109.22200456655992 24.452889114443678 0 0 0 0 5.5957218919098537 -39.378349498094508 0 -39.378349498094508 -38.72396835587034 0 0 0 0 50.819561801559757 -122.81726972997421 0 -122.81726972997421 -271.1542389751412 0 0 0 0 -0.47138606710188924 -47.951577638078817 0 -47.951577638078817 -23.02571048730649 0 0 0 0 -62.983931539056357 -351.25178747266182 0 -351.25178747266182 -228.54162118593013 0 0 0 0 -16.929883966779016 -63.126576654756718 0 -63.126576654756718 -32.804934476676863 0 0 0 0 -15.878840266435873 -74.469401899041259 0 -74.469401899041259 -14.773101509359549 0 0 0 0 0.073610572900861371 -3.8003518785065467 0 -3.8003518785065467 -20.450011076054501 0 0 0 0 -0.028343557030893862 -76.976908639640897 0 -76.976908639640897 -36.588746340625221 0 0 0 0 101.62171370550641 2.4279835012857802 0 2.4279835012857802 -1251.7571624106367 0 0 0 0 0.22228724855813198 -107.87444210985996 0 -107.87444210985996 -843.0854430191539 0 0 0 0 147.8063817860675 -298.47366153083567 0 -298.47366153083567 -557.75579970989202 0 0 0 0 1.6644733533757972 68.399260193335067 0 68.399260193335067 -861.72647848524502 0 0 0 0 6.0008661628480411 -33.569274625123114 0 -33.569274625123114 -104.69624136214992 0 0 0 0 -107.18113451446698 -69.308706354066089 0 -69.308706354066089 -495.21317547238141 0 0 0 0 -0.86362356857428157 -230.31379171178148 0 -230.31379171178148 -268.52160823646409 0 0 0 0 -101.00716688879766 -58.026577982986055 0 -58.026577982986055 -490.7023441640049 0 0 0 0 -573.94312760425964 -468.09600139300164 0 -468.09600139300164 -364.10399728748598 0 0 0 0 2796.6940408530936 -1184.5394582983499 0 -1184.5394582983499 -63.667511840933003 0 0 0 0 -662.88183558426681 -578.20703074085031 0 -578.20703074085031 -465.09271519808681 0 0 0 0 5.0747737611441082 -23.553535280002393 0 -23.553535280002393 -74.04798103863402 0 0 0 0 4.5402263719609195 -27.142393599076826 0 -27.142393599076826 -91.718377439853782 0 0 0 0 940.31756343956476 -571.08100082908504 0 -571.08100082908504 -283.26999498574878 0 0 0 0 466.37740899377968 -204.76367641724937 0 -204.76367641724937 175.07242129899532 0 0 0 0 -277.16628731944365 -626.98398403746251 0 -626.98398403746251 -105.59463283912191 0 0 0 0 -25.839727903919993 -159.79624503183732 0 -159.79624503183732 -18.313423496310861 0 0 0 0 464.17763078669668 -690.77176168299047 0 -690.77176168299047 -317.40474985486071 0 0 0 0 1495.107994314516 -138.23085564056237 0 -138.23085564056237 -159.39478695351863 0 0 0 0 348.33740847055742 -616.34627658873069 0 -616.34627658873069 283.49606122619298 0 0 0 0 146.81168988433274 764.72584093135674 0 764.72584093135674 -1045.614703789397 0 0 0 0 118.71968565174029 -402.59618082855013 0 -402.59618082855013 -1819.5192382869063 0 0 0 0 375.16265763918636 40.509800648265809 0 40.509800648265809 -1123.5539863950949 0 0 0 0 -219.65535121299763 -666.34963766963119 0 -666.34963766963119 -1141.8318193969026 0 0 0 0 324.99542808892147 51.431326496287511 0 51.431326496287511 -832.66058974072803 0 0 0 0 -745.33321419649474 -573.93094541622077 0 -573.93094541622077 -559.91466999193653 0 0 0 0 1.6746971167967786 -0.54752437130497356 0 -0.54752437130497356 -21.375998296041757 0 0 0 0 -294.41243610534002 -412.3957400736399 0 -412.3957400736399 -602.66463919117814 0 0 0 0 -300.76050175761338 -76.146204419666901 0 -76.146204419666901 -12.556072194733133 0 0 0 0 4027.8663233223306 -72.671947716357863 0 -72.671947716357863 -1012.6218882836984 0 0 0 0 5282.0702116661851 982.97811631858349 0 982.97811631858349 -2711.6059616863786 0 0 0 0 -3582.3027195916657 -1689.7358719237745 0 -1689.7358719237745 288.12301313578791 0 0 0 0 2.2617332029641162 -6.8366543049734787 0 -6.8366543049734787 -30.920588271892086 0 0 0 0 -981.46412265102845 -2139.0333551721997 0 -2139.0333551721997 -1731.8708032007744 0 0 0 0 0.38485992654750589 -395.66177983983653 0 -395.66177983983653 718.65050216001691 0 0 0 0 -1241.3376151123084 -1228.7041105054377 0 -1228.7041105054377 882.39144028050941 0 0 0 0 1000.5319006976933 -889.85981669854664 0 -889.85981669854664 -619.9594487658178 0 0 0 0 -718.83298015495529 -1069.6228793260234 0 -1069.6228793260234 -552.27967596769668 0 0 0 0 0.21135094788041897 -754.48964761857496 0 -754.48964761857496 -781.34791991507518 0 0 0 0 -1.0008636069433123 -407.87507967384227 0 -407.87507967384227 1958.9933519669285 0 0 0 0 -1285.7090277839015 -301.33075340867072 0 -301.33075340867072 -498.12043509710929 0 0 0 0 5.1886487285965188 -4.5670105497041504 0 -4.5670105497041504 10.676298415230406 0 0 0 0 -4.8564683859549405 -71.996456379827578 0 -71.996456379827578 19.202424237497326 0 0 0 0 85.594835272929231 -0.37973492965102196 0 -0.37973492965102196 -244.87761332548689 0 0 0 0 -3.2408735144227805 -6.9970985623380102 0 -6.9970985623380102 3.5688859021006465 0 0 0 0 -90.938385108856892 -122.90863794393954 0 -122.90863794393954 541.78358996308816 0 0 0 0 25.763643429709909 -6.4478651909579696 0 -6.4478651909579696 2.6129031971606054 0 0 0 0 126.58077891526773 -519.57263801494264 0 -519.57263801494264 337.2213101437228 0 0 0 0 187.52141851559281 38.96797466588032 0 38.96797466588032 470.10440786933759 0 0 0 0 -192.06506846014236 -193.15972822569893 0 -193.15972822569893 48.121335960837314 0 0 0 0 157.79409643479084 -186.24286878225394 0 -186.24286878225394 232.71589290467091 0 0 0 0 18.059702729482524 -95.629222906965879 0 -95.629222906965879 210.57981383253355 0 0 0 0 84.691284103722865 -125.18117813908611 0 -125.18117813908611 220.6669074340607 0 0 0 0 73.790731448994848 -154.62459263453093 0 -154.62459263453093 256.66934592943289 0 0 0 0 99.153515866231828 -79.140745129843708 0 -79.140745129843708 37.111113862600178 0 0 0 0 91.994599771513506 -94.845693175260976 0 -94.845693175260976 68.421055598029653 0 0 0 0 60.564783749054186 -160.65574192642816 0 -160.65574192642816 126.91239401143685 0 0 0 0 3.7372241854018853 -15.359686333005641 0 -15.359686333005641 30.834073839458455 0 0 0 0 11.803271118667908 -89.13670449948404 0 -89.13670449948404 231.97127954324242 0 0 0 0 18.668470032258483 -56.146320624771761 0 -56.146320624771761 15.424817338091088 0 0 0 0 -2.7271562515525147 -35.924994542379864 0 -35.924994542379864 25.559007535295677 0 0 0 0 -15.519768350968945 -28.83214654295616 0 -28.83214654295616 42.888326264155722 0 0 0 0 1.3141098079791789 -36.626326120174042 0 -36.626326120174042 78.765255607285667 0 0 0 0 27.472143224527827 -45.903988638536248 0 -45.903988638536248 40.818747802732105 0 0 0 0 14.952485391229857 -28.891687652328983 0 -28.891687652328983 52.29686036799103 0 0 0 0 -4.1616735897639217 -52.293365143427565 0 -52.293365143427565 78.592412896182395 0 0 0 0 10.943892825234933 -72.848770590330062 0 -72.848770590330062 93.738047514687082 0 0 0 0 -7.0857582582393661 -32.183264781720936 0 -32.183264781720936 33.67951511166757 0 0 0 0 20.262702424699327 -33.322227984028871 0 -33.322227984028871 16.282700057646252 0 0 0 0 -10.309464821068104 -50.969110992824426 0 -50.969110992824426 15.01766093018523 0 0 0 0 2.1590863807972482 -27.014362536278753 0 -27.014362536278753 35.755499471391943 0 0 0 0 0.70288503485780041 -39.914681121322445 0 -39.914681121322445 15.371067644074429 0 0 0 0 -12.510419645517686 -68.285319133196026 0 -68.285319133196026 23.163508450583322 0 0 0 0 9.0042611420058627 -33.386784086650778 0 -33.386784086650778 26.818243161802343 0 0 0 0 35.134108646198001 -48.051120510615874 0 -48.051120510615874 31.087320761667797 0 0 0 0 16.772742430464859 -57.813336030914797 0 -57.813336030914797 70.878020008327439 0 0 0 0 38.04202507518167 -29.712837105289168 0 -29.712837105289168 5.8705564231895977 0 0 0 0 40.17920621434132 -80.131855972547783 0 -80.131855972547783 -19.563732703456481 0 0 0 0 55.456328183037385 -73.773890276152088 0 -73.773890276152088 -18.073390685342019 0 0 0 0 -3.2719097026939661 -39.730203770107963 0 -39.730203770107963 8.2231341619112186 0 0 0 0 12.236258463552076 -108.4743274612556 0 -108.4743274612556 30.37923690021853 0 0 0 0 9.8650697846387629 -57.786421561890165 0 -57.786421561890165 -0.11750941400532611 0 0 0 0 -6.1719853604736272 -53.575594329056912 0 -53.575594329056912 14.377402801590506 0 0 0 0 12.251458327878709 -39.678792958306985 0 -39.678792958306985 21.899025506689213 0 0 0 0 5.7006414900313729 -23.881737227311788 0 -23.881737227311788 -10.743980012501567 0 0 0 0 28.997726815210626 -58.508658242171805 0 -58.508658242171805 39.559503320866497 0 0 0 0 -47.683998388201871 -53.069718202925287 0 -53.069718202925287 79.361780537321465 0 0 0 0 -14.521230517082275 -30.469570455514919 0 -30.469570455514919 29.332372001277975 0 0 0 0 -72.235828737406337 -74.954162451205775 0 -74.954162451205775 64.662155509256991 0 0 0 0 -51.588731161493342 -142.85619826195762 0 -142.85619826195762 209.72129829612095 0 0 0 0 -34.070754477617811 -115.52068601296924 0 -115.52068601296924 98.508855109947035 0 0 0 0 97.770979536035156 -215.46568752551866 0 -215.46568752551866 71.084408845228609 0 0 0 0 9.9536358517798362 -135.64544777502306 0 -135.64544777502306 32.100478505271894 0 0 0 0 23.063970607399824 -48.69565078792948 0 -48.69565078792948 -74.241321010340471 0 0 0 0 72.539052317319147 -156.64870370745484 0 -156.64870370745484 -52.301422787131742 0 0 0 0 101.51359928293095 -142.60079467897594 0 -142.60079467897594 -148.0327825974091 0 0 0 0 53.989193141669148 -109.06004467210369 0 -109.06004467210369 1.6909180646471214 0 0 0 0 11.730237519305081 -9.7003998837243444 0 -9.7003998837243444 8.254306828695178 0 0 0 0 259.33593112495373 76.079515851311044 0 76.079515851311044 40.890178901492618 0 0 0 0 125.58937327227613 -124.96428497688794 0 -124.96428497688794 -1.9019326941925101 0 0 0 0 216.32437824010594 -287.02421478385804 0 -287.02421478385804 209.48698930357932 0 0 0 0 107.18227764092808 -117.39626346777368 0 -117.39626346777368 22.90978807870124 0 0 0 0 34.443645190600364 -171.46917009723256 0 -171.46917009723256 -11.697501841175836 0 0 0 0 -3.4110809176036128 -59.14798501479163 0 -59.14798501479163 87.485552785772597 0 0 0 0 120.47903389075145 -197.0972197217925 0 -197.0972197217925 -259.32542235631263 0 0 0 0 79.78335978103496 -13.370005379896611 0 -13.370005379896611 98.292216136811476 0 0 0 0 89.460573511154962 -68.164420551495397 0 -68.164420551495397 40.058910472633499 0 0 0 0 -35.381714745584759 -194.48506243574957 0 -194.48506243574957 -9.4280556764570065 0 0 0 0 -154.39552110320437 -187.96253002756566 0 -187.96253002756566 -0.81364547284465516 0 0 0 0 99.333933419954832 -78.371838704759909 0 -78.371838704759909 44.106405984128855 0 0 0 0 80.136434254287451 -14.04098422457173 0 -14.04098422457173 115.64839134342037 0 0 0 0 -60.954466728851912 -267.23489438113029 0 -267.23489438113029 -42.074372859722644 0 0 0 0 148.82673404367597 181.18964626456 0 181.18964626456 -561.74328344303649 0 0 0 0 -36.741081061985824 140.74387850937273 0 140.74387850937273 -130.09017951716669 0 0 0 0 -3.2177604830054634 0.63722237230581413 0 0.63722237230581413 0.32293480177042966 0 0 0 0 337.06507636540482 -180.95736636944639 0 -180.95736636944639 133.58863804669818 0 0 0 0 -324.35985997014359 -125.01859288337801 0 -125.01859288337801 133.17293845064705 0 0 0 0 -464.43899292470087 -262.63928111389396 0 -262.63928111389396 13.645650677899539 0 0 0 0 -249.63474022333685 -190.79549034930824 0 -190.79549034930824 -2.0376993933787162 0 0 0 0 -272.88218413534923 -218.47753570016357 0 -218.47753570016357 40.064062299730722 0 0 0 0 -150.90213986311028 -193.67733346829846 0 -193.67733346829846 -31.759245378139894 0 0 0 0 -228.68034981561141 -12.105560404088465 0 -12.105560404088465 209.70939070994791 0 0 0 0 -307.3889236725372 -384.960081593621 0 -384.960081593621 -247.28643144127273 0 0 0 0 18.571643520723413 -87.188525307047414 0 -87.188525307047414 88.714195208896115 0 0 0 0 -29.007019652557943 -1.1524965999163612 0 -1.1524965999163612 17.412105794380182 0 0 0 0 -742.88318308245289 -531.0638614658892 0 -531.0638614658892 -298.58791825429944 0 0 0 0 -340.16395185746842 -108.3395462852277 0 -108.3395462852277 -47.456184833688894 0 0 0 0 -177.68327824236621 188.55874695479724 0 188.55874695479724 274.94662239638274 0 0 0 0 -0.79595944907832461 1.9752392190519004 0 1.9752392190519004 -3.2816047009422391 0 0 0 0 -120.5157578429953 -39.776597657502862 0 -39.776597657502862 31.546642248300486 0 0 0 0 2.2214831945246178 -82.069369164121952 0 -82.069369164121952 104.2085447848641 0 0 0 0 -348.12310761873232 -97.049706464509654 0 -97.049706464509654 236.08978569493047 0 0 0 0 8.5995308205510312 -1.6778842792587625 0 -1.6778842792587625 1.1222664186545757 0 0 0 0 409.4951993620889 14.64208779897308 0 14.64208779897308 -88.118517001465079 0 0 0 0 8.3087920563116313 11.59554449775078 0 11.59554449775078 41.971233038493665 0 0 0 0 774.87301855744954 -540.32343991582457 0 -540.32343991582457 -28.956010180176236 0 0 0 0 134.35283341799004 -452.48988653755077 0 -452.48988653755077 5.0429080543399323 0 0 0 0 120.49123439268806 524.99719370406092 0 524.99719370406092 636.675111790144 0 0 0 0 -240.78710669848806 48.034493577455578 0 48.034493577455578 33.510064253554447 0 0 0 0 -217.19205235299887 -143.09753019013442 0 -143.09753019013442 1467.4312090541935 0 0 0 0 360.05226710129864 -228.18787967855678 0 -228.18787967855678 -332.50485071761068 0 0 0 0 342.7686304879353 -763.4106488131074 0 -763.4106488131074 604.43329156833352 0 0 0 0 -0.74222344743181168 -12.406039036994912 0 -12.406039036994912 22.116075535594177 0 0 0 0 219.51447058155463 -33.755289026012179 0 -33.755289026012179 -341.43900777544468 0 0 0 0 37.204785215354605 -112.6246290646759 0 -112.6246290646759 142.1747269959742 0 0 0 0 54.18461117303741 -74.738564645356746 0 -74.738564645356746 83.383921450324124 0 0 0 0 71.648461148340402 -96.725433784988184 0 -96.725433784988184 80.850470072360253 0 0 0 0 4.005805461343698 -111.07404105755268 0 -111.07404105755268 58.731455082364846 0 0 0 0 -23.408865846340632 -57.684730242413934 0 -57.684730242413934 93.857579372510372 0 0 0 0 27.708676567173825 -103.94786305731395 0 -103.94786305731395 79.063461580110015 0 0 0 0 43.77988780236555 -60.314178846421385 0 -60.314178846421385 42.410785234889772 0 0 0 0 -331.02552653223847 -238.86904090062126 0 -238.86904090062126 454.72170706393081 0 0 0 0 -339.03234196937592 -159.58097616583109 0 -159.58097616583109 123.13432667970483 0 0 0 0 30.083548374372512 -106.04520319343706 0 -106.04520319343706 110.36125202640744 0 0 0 0 -182.58791035582908 -272.38029609193472 0 -272.38029609193472 199.77026711765211 0 0 0 0 -280.63361173603107 -339.60597391052579 0 -339.60597391052579 187.55354055628413 0 0 0 0 -258.12993081241439 -410.41823573854526 0 -410.41823573854526 57.713432665157598 0 0 0 0 61.487554014950547 -178.00914366455982 0 -178.00914366455982 -6.730327238648897 0 0 0 0 29.498277037908395 -190.65148714124098 0 -190.65148714124098 102.9278489764547 0 0 0 0 58.249601003763992 -132.75725344033094 0 -132.75725344033094 110.2305938358854 0 0 0 0 21.458631420858104 -135.16773729760365 0 -135.16773729760365 108.76077931763967 0 0 0 0 -381.11543435035946 348.69430016072511 0 348.69430016072511 -821.27129357532249 0 0 0 0 -3.871513578558984 -115.41668500946642 0 -115.41668500946642 3.6042410279204375 0 0 0 0 -17.952681315227892 -148.15095430166548 0 -148.15095430166548 220.61724572305684 0 0 0 0 32.087070059155167 -150.27951456079245 0 -150.27951456079245 117.53542139018828 0 0 0 0 25.705676571056756 -75.607601705429261 0 -75.607601705429261 123.01209744195512 0 0 0 0 -34.207356617829646 -67.356031609873753 0 -67.356031609873753 70.403973175787542 0 0 0 0 91.126445501566195 -35.096632093449443 0 -35.096632093449443 52.77539447126037 0 0 0 0 -1.2994910060879192 -66.382228311122162 0 -66.382228311122162 98.066488079610281 0 0 0 0 -1.7239739900540201 -122.62267388912406 0 -122.62267388912406 23.66257717749977 0 0 0 0 166.1359081446426 -161.77357776366989 0 -161.77357776366989 165.29229060028592 0 0 0 0 165.93596074884499 -204.20456812043426 0 -204.20456812043426 97.073875822417904 0 0 0 0 301.29446563502825 -72.247708392262211 0 -72.247708392262211 28.553986647340935 0 0 0 0 363.71259808071045 -367.88373141182092 0 -367.88373141182092 231.88114925644186 0 0 0 0 478.95723107390222 95.693174931104295 0 95.693174931104295 -753.5337978543248 0 0 0 0 12.742342179205252 -46.94071241911108 0 -46.94071241911108 8.6181931551792417 0 0 0 0 -37.115466865622238 -237.55376077134588 0 -237.55376077134588 -71.661392502646777 0 0 0 0 -132.41920324544481 -15.652001037924492 0 -15.652001037924492 94.422294829702878 0 0 0 0 44.694379357893752 -25.33890587792304 0 -25.33890587792304 1.6020236446676677 0 0 0 0 -17.929623701893433 -83.174668514329824 0 -83.174668514329824 -26.451917578899156 0 0 0 0 -53.213942566219323 -43.736504467665753 0 -43.736504467665753 -12.908544373421023 0 0 0 0 -71.502646272427228 -28.991168846856453 0 -28.991168846856453 3.0618913118669298 0 0 0 0 371.63319451618008 -24.969641758594662 0 -24.969641758594662 -30.351782912912313 0 0 0 0 200.81910463839449 -27.646162015134905 0 -27.646162015134905 -20.014099512205576 0 0 0 0 -219.7715511307324 12.188089313611272 0 12.188089313611272 39.911714176792884 0 0 0 0 -82.300608388361624 -21.409076011674216 0 -21.409076011674216 13.262135175351617 0 0 0 0 -79.885448013845235 -44.709747860020798 0 -44.709747860020798 434.19020037290466 0 0 0 0 -0.63698495880248629 -8.6073577436696738 0 -8.6073577436696738 -4.5624383769074512 0 0 0 0 -13.831806568930915 -143.1675703574947 0 -143.1675703574947 46.214767418365227 0 0 0 0 -17.430718066793446 -3.3773978768599022 0 -3.3773978768599022 10.525533878021946 0 0 0 0 17.365405565011315 -207.4875193611515 0 -207.4875193611515 133.23269197753325 0 0 0 0 -204.48741919503664 -155.25518701320834 0 -155.25518701320834 162.13082517874136 0 0 0 0 8.7294979480830079 -254.28852384446509 0 -254.28852384446509 -71.257607185310917 0 0 0 0 -145.47634782239766 -409.26026359175012 0 -409.26026359175012 244.55137230852415 0 0 0 0 -32.298148648467759 -87.404135202028556 0 -87.404135202028556 31.969687091084779 0 0 0 0 -5.2610671398895921 -78.724497242757806 0 -78.724497242757806 26.103176996169339 0 0 0 0 -60.103803400314064 -78.350927203682659 0 -78.350927203682659 33.78850309025438 0 0 0 0 -152.30764422046923 -125.80493136330551 0 -125.80493136330551 -0.53173889860045165 0 0 0 0 -12.685201023814361 -82.618312191748004 0 -82.618312191748004 68.972772604968242 0 0 0 0 64.788354065267413 -126.61872451120189 0 -126.61872451120189 -5.0685532781353686 0 0 0 0 -67.087347437984135 -78.468138534182799 0 -78.468138534182799 83.869883270570426 0 0 0 0 -6.1382527387686423 -84.823083641269477 0 -84.823083641269477 23.11666886403691 0 0 0 0 -7.6712985910942848 -102.02567369098759 0 -102.02567369098759 107.62091139981925 0 0 0 0 67.591141863522353 -150.7157859969011 0 -150.7157859969011 -82.76341875147773 0 0 0 0 -1.4349033742090569 -26.248611466912081 0 -26.248611466912081 18.667441042911094 0 0 0 0 23.08581202320056 -225.47118196651718 0 -225.47118196651718 245.16518839733362 0 0 0 0 34.916348994505825 -91.207413393960451 0 -91.207413393960451 230.50235561855334 0 0 0 0 113.91274953468721 -112.83734573794534 0 -112.83734573794534 84.905497735662124 0 0 0 0 68.71833765538031 -280.78128255566844 0 -280.78128255566844 110.49137201301346 0 0 0 0 253.23904287051118 -198.95613415944536 0 -198.95613415944536 -42.064575222699204 0 0 0 0 28.235717243306421 -26.204569835488918 0 -26.204569835488918 0.18037610727736819 0 0 0 0 282.04246344657076 -247.41719274484785 0 -247.41719274484785 39.145775498982402 0 0 0 0 -231.34076938493308 -152.38453215101617 0 -152.38453215101617 70.680697006435366 0 0 0 0 -135.63350525823626 -182.89837309232098 0 -182.89837309232098 40.973926066333661 0 0 0 0 -116.37544122844884 -92.523617456721695 0 -92.523617456721695 71.428709945525043 0 0 0 0 23.180334708614424 -80.31617615891588 0 -80.31617615891588 59.278117198050609 0 0 0 0 11.480689117801376 -91.379782317526406 0 -91.379782317526406 63.428602466883603 0 0 0 0 34.132417364219613 -109.79951410794934 0 -109.79951410794934 103.42035706467044 0 0 0 0 19.919283784913205 -40.846898615391183 0 -40.846898615391183 24.849087167167454 0 0 0 0 4.5570937834746914 -5.9742776496789531 0 -5.9742776496789531 14.174877205357603 0 0 0 0 76.343717959880451 -49.101124435246675 0 -49.101124435246675 -11.160225068786531 0 0 0 0 59.976894308339979 -36.699808981287788 0 -36.699808981287788 21.018458366364939 0 0 0 0 9.9023231032117707 -1.952975443763961 0 -1.952975443763961 -1.5121136236471102 0 0 0 0 33.728924755987919 -35.406176594297627 0 -35.406176594297627 27.176527653280857 0 0 0 0 26.620101394745081 -30.803341083594376 0 -30.803341083594376 -13.179859339371774 0 0 0 0 281.2587298052822 -187.05197738586867 0 -187.05197738586867 -157.16015982445242 0 0 0 0 -33.137748502529575 -141.48902836137495 0 -141.48902836137495 126.1668328687083 0 0 0 0 535.36510120706225 -101.84309133009083 0 -101.84309133009083 -21.54992566324654 0 0 0 0 271.18164773655008 -354.43874324536228 0 -354.43874324536228 351.27453566380427 0 0 0 0 487.55757451723912 -446.92358314958983 0 -446.92358314958983 510.27659364672218 0 0 0 0 234.82665703071689 -278.35608636582037 0 -278.35608636582037 192.06115231230797 0 0 0 0 116.18187117925845 -134.78666973761574 0 -134.78666973761574 290.96265123935882 0 0 0 0 141.04271887462528 -201.08746577562852 0 -201.08746577562852 460.2327593892478 0 0 0 0 520.07045316250878 -330.28547945384344 0 -330.28547945384344 489.06690526638704 0 0 0 0 24.758958857317339 8.6118270333718101 0 8.6118270333718101 144.91946384841867 0 0 0 0 576.0999875209709 -334.58462566337403 0 -334.58462566337403 91.559878212487092 0 0 0 0 575.78451940900413 -462.26820893930562 0 -462.26820893930562 231.42764871072723 0 0 0 0 58.272809392117779 -10.694633654056815 0 -10.694633654056815 -22.799724155833246 0 0 0 0 496.69566990196472 -486.92389139784791 0 -486.92389139784791 495.30142175421861 0 0 0 0 -31.195054281244666 22.426310451715835 0 22.426310451715835 128.91103940247558 0 0 0 0 531.7321534746734 -414.52005003855447 0 -414.52005003855447 635.93845703755505 0 0 0 0 594.23439445019176 -525.12629412831302 0 -525.12629412831302 385.16199573563063 0 0 0 0 -1.0724233169824444 -4.020443790189745 0 -4.020443790189745 6.176545210757638 0 0 0 0 215.26141807012027 -284.63166628559702 0 -284.63166628559702 -363.59477896103635 0 0 0 0 203.81399081950076 -191.71941883303225 0 -191.71941883303225 -261.39634467037104 0 0 0 0 125.59267848427407 -155.24543387242011 0 -155.24543387242011 -15.821430771116866 0 0 0 0 24.910640302696265 -357.99713197581877 0 -357.99713197581877 -178.2931386915152 0 0 0 0 -51.675534863519715 -132.6025788517145 0 -132.6025788517145 129.6777555377048 0 0 0 0 435.54506943523302 -167.86501103072078 0 -167.86501103072078 -37.386773271777201 0 0 0 0 254.7779739718535 -319.24685768422205 0 -319.24685768422205 123.48220936118742 0 0 0 0 710.30506973938282 -538.03793594575404 0 -538.03793594575404 178.7448634938919 0 0 0 0 732.08501317925129 144.49367256470805 0 144.49367256470805 97.82939055620227 0 0 0 0 392.61170097746071 317.98510121103027 0 317.98510121103027 -330.76372993228142 0 0 0 0 -8.5018708200411197 2.2968766164115095 0 2.2968766164115095 -0.13966251803600471 0 0 0 0 344.15198268459062 530.21421813192865 0 530.21421813192865 107.15219503434491 0 0 0 0 271.61074510731851 -195.7490495621023 0 -195.7490495621023 230.97770382253111 0 0 0 0 230.48321279565425 -96.694423586173798 0 -96.694423586173798 2.658523759804666 0 0 0 0 238.46581702952972 -160.09150807588594 0 -160.09150807588594 -35.16914242778148 0 0 0 0 428.0245218907985 -219.61044750595465 0 -219.61044750595465 -16.368583905976266 0 0 0 0 313.34866537295602 -154.79015423651435 0 -154.79015423651435 -40.888944459664344 0 0 0 0 152.83880446646799 -197.96273368730181 0 -197.96273368730181 -13.004910935967928 0 0 0 0 237.29925125880982 -185.01486452348763 0 -185.01486452348763 -11.035430123476544 0 0 0 0 161.09777713420226 -150.17060810026851 0 -150.17060810026851 -3.9806410967430566 0 0 0 0 189.72638492305123 -180.83280980523705 0 -180.83280980523705 -5.7711116244026925 0 0 0 0 154.45755834912961 -182.25405425804092 0 -182.25405425804092 4.2084083794616163 0 0 0 0 216.15202909466461 -247.79464328834729 0 -247.79464328834729 -14.964300169635862 0 0 0 0 176.40180553813116 -170.296827738297 0 -170.296827738297 -13.942886826946051 0 0 0 0 136.81680958318611 -214.49831263859414 0 -214.49831263859414 -33.849874097970314 0 0 0 0 146.84518930689956 -184.34582321440394 0 -184.34582321440394 -11.345190189807909 0 0 0 0 76.289314482157351 -260.69401087288134 0 -260.69401087288134 6.7743397022422869 0 0 0 0 148.5204051030596 -192.2320701956487 0 -192.2320701956487 -20.609645185744739 0 0 0 0 -8.4768381201502052 -311.32890042289728 0 -311.32890042289728 -12.608527077827603 0 0 0 0 -43.311831694416469 -250.95164069527527 0 -250.95164069527527 5.1445678078598576 0 0 0 0 55.975820011895848 -235.5656904179632 0 -235.5656904179632 -11.527055918151746 0 0 0 0 -95.96726214033697 -304.96254839510948 0 -304.96254839510948 23.428186824152363 0 0 0 0 -6.7969065067109113 -218.05779666282615 0 -218.05779666282615 28.646654027761542 0 0 0 0 152.05521278787637 -237.85779930153512 0 -237.85779930153512 4.1608811806690937 0 0 0 0 -2.4067709001537878 -252.05502531358798 0 -252.05502531358798 149.11011165950913 0 0 0 0 167.0467626634636 -264.83021434590773 0 -264.83021434590773 51.909143367578508 0 0 0 0 -22.99537589206011 -127.71124477106787 0 -127.71124477106787 197.02754525490673 0 0 0 0 229.74392399919452 -276.52741275340668 0 -276.52741275340668 50.586175713926423 0 0 0 0 86.725230641030066 -338.38185828307905 0 -338.38185828307905 232.52081712089421 0 0 0 0 95.709072246419964 -350.89783918244939 0 -350.89783918244939 611.83717282574798 0 0 0 0 -20.390145857258176 -111.13007202003791 0 -111.13007202003791 225.06441847802489 0 0 0 0 -20.300243295030668 -98.425450566086511 0 -98.425450566086511 35.014850153473162 0 0 0 0 38.495835565547168 -54.487030017000507 0 -54.487030017000507 36.502985131242895 0 0 0 0 -23.601516205671942 -45.296786349659669 0 -45.296786349659669 373.62044203584082 0 0 0 0 -114.7193371193498 -168.02630963478441 0 -168.02630963478441 -84.875303082291794 0 0 0 0 -122.09017097757896 -151.86305116424046 0 -151.86305116424046 19.32317111397424 0 0 0 0 -94.275832073653874 -271.06043851781578 0 -271.06043851781578 67.219405600882055 0 0 0 0 -184.23881016204177 -257.9766850562155 0 -257.9766850562155 -87.62825543578947 0 0 0 0 -98.520065014912689 -289.62771924246954 0 -289.62771924246954 -57.819421138920006 0 0 0 0 -145.77691668249099 -194.35565758470693 0 -194.35565758470693 -29.994105878373375 0 0 0 0 -238.32077266401757 -259.99593973906303 0 -259.99593973906303 11.573133858131769 0 0 0 0 -390.62476653632075 -319.95843451554902 0 -319.95843451554902 -144.04089058542741 0 0 0 0 -360.40584757343458 -243.20714696464711 0 -243.20714696464711 -61.365720930725729 0 0 0 0 -276.16046305205236 -322.60701722616795 0 -322.60701722616795 -44.018321363866562 0 0 0 0 -77.457694000779156 -115.29678229562523 0 -115.29678229562523 -8.1630858418211574 0 0 0 0 33.758604127736625 -76.19325190551497 0 -76.19325190551497 2.3890041517518057 0 0 0 0 -512.00546441815823 -214.70563524654426 0 -214.70563524654426 -72.26968379302707 0 0 0 0 0.45374008321959991 -99.722018920485425 0 -99.722018920485425 -6.2513629039281113 0 0 0 0 -650.13739992459523 -374.66492886175001 0 -374.66492886175001 -70.124815606002812 0 0 0 0 -288.36319268586522 -200.35426453877881 0 -200.35426453877881 -2.9181749903873424 0 0 0 0 -323.27207196230302 -297.86191970689106 0 -297.86191970689106 -139.67715545794636 0 0 0 0 -303.30646437923861 -145.24141174342367 0 -145.24141174342367 -75.668850200514498 0 0 0 0 -282.67090898260722 -187.02429960359223 0 -187.02429960359223 -10.312796871134196 0 0 0 0 -51.454868860628281 -63.604277168768789 0 -63.604277168768789 -38.841912720971237 0 0 0 0 -393.70379624910856 -278.89510146661087 0 -278.89510146661087 -202.47059117611207 0 0 0 0 -486.57643154521065 -262.90096388936945 0 -262.90096388936945 -290.94204164289113 0 0 0 0 -208.87926022052852 -121.80222170749039 0 -121.80222170749039 -129.63860501363524 0 0 0 0 -327.59718233202875 62.761263017964666 0 62.761263017964666 -360.11869173513696 0 0 0 0 -296.09549396067814 -59.254317191635892 0 -59.254317191635892 -677.79894144591526 0 0 0 0 -225.82039245727356 -303.29269553434278 0 -303.29269553434278 86.418119749188918 0 0 0 0 -272.71089926399873 39.140845689878915 0 39.140845689878915 34.177952734113205 0 0 0 0 -9.3537287535864664 -29.460888904794245 0 -29.460888904794245 -30.413028908720349 0 0 0 0 -101.15701585386705 136.19763852969481 0 136.19763852969481 -161.76942024815799 0 0 0 0 36.164008524508972 -52.628829363289697 0 -52.628829363289697 53.417628565417544 0 0 0 0 39.380153773111402 -7.6480702036888601 0 -7.6480702036888601 -2.7946041063226801 0 0 0 0 34.800566228892421 -25.533257572347793 0 -25.533257572347793 30.853440443781437 0 0 0 0 45.460124512501352 -18.586855978061067 0 -18.586855978061067 -3.8364062692271546 0 0 0 0 51.311969563612365 -29.547086019898416 0 -29.547086019898416 -22.503276355942944 0 0 0 0 51.4616188178843 -0.22685881179313583 0 -0.22685881179313583 17.614912129021832 0 0 0 0 44.087804158578365 -26.040983376795339 0 -26.040983376795339 -36.0416620526521 0 0 0 0 -57.667584865957906 -163.6251110365265 0 -163.6251110365265 -84.219586058577988 0 0 0 0 -808.85107444651658 -1239.0559010499273 0 -1239.0559010499273 -605.3534098668315 0 0 0 0 -2.6607788128810057 -24.818740276599243 0 -24.818740276599243 26.04196971058073 0 0 0 0 -108.83480331859755 -576.39389689558266 0 -576.39389689558266 -1539.0399721104623 0 0 0 0 -341.81101204494189 -20.882046236365568 0 -20.882046236365568 182.94774607894942 0 0 0 0 34.63651249690929 -119.40258822870527 0 -119.40258822870527 53.25698901767305 0 0 0 0 15.129630327954146 -114.92315767168111 0 -114.92315767168111 7.5756263795337873 0 0 0 0 -3.8785921698872698 -66.590305669975947 0 -66.590305669975947 -29.45961350256367 0 0 0 0 -559.30802303983364 -565.16460309079412 0 -565.16460309079412 -644.0001742166769 0 0 0 0 -587.04183120519156 -394.55661675367082 0 -394.55661675367082 -615.2391171691761 0 0 0 0 -742.32829651415523 -966.83074893661251 0 -966.83074893661251 -66.43013865291141 0 0 0 0 36.937708999184906 -132.66972641645154 0 -132.66972641645154 -113.17327120738582 0 0 0 0 -556.64062352408655 -751.60988091465879 0 -751.60988091465879 -208.73803925747052 0 0 0 0 -631.33941336791031 -753.75030343879189 0 -753.75030343879189 -167.62504328740033 0 0 0 0 -534.81696729024407 -654.92653388893086 0 -654.92653388893086 -431.06018014307483 0 0 0 0 -552.1159810021054 -491.80488467644318 0 -491.80488467644318 -573.08181847059313 0 0 0 0 -633.01874482625863 -610.81262131303083 0 -610.81262131303083 -354.23892559067463 0 0 0 0 -585.27861238166224 -533.20546436234144 0 -533.20546436234144 -280.08768714949838 0 0 0 0 -629.02818225149531 -437.93805698712822 0 -437.93805698712822 -449.14764945785282 0 0 0 0 -655.82079463664559 -335.99402873047075 0 -335.99402873047075 -450.32590303035613 0 0 0 0 -1145.6149041984463 -1354.396711589914 0 -1354.396711589914 -436.5097033981292 0 0 0 0 265.13556577288546 -192.91770734544843 0 -192.91770734544843 -257.73136668631923 0 0 0 0 155.42984322103439 -147.57992997285328 0 -147.57992997285328 -1633.7759344688457 0 0 0 0 -1592.1151241993794 -371.96141428448027 0 -371.96141428448027 322.88844891371264 0 0 0 0 135.90475118972245 251.74364317301661 0 251.74364317301661 -251.6921657743386 0 0 0 0 -15.191412272307559 -16.114285763716587 0 -16.114285763716587 -10.642150744870037 0 0 0 0 -544.01132651334046 -704.47662606194353 0 -704.47662606194353 -467.85855932216509 0 0 0 0 -137.0261449204263 -306.91159409724787 0 -306.91159409724787 -344.05404604959767 0 0 0 0 -74.255178374238312 -167.8732847047504 0 -167.8732847047504 -67.762910866411403 0 0 0 0 122.7448641749578 -136.35335141077763 0 -136.35335141077763 -289.71406494901203 0 0 0 0 13.193830584198423 -32.754355196296629 0 -32.754355196296629 -12.49278754004888 0 0 0 0 -722.05755995871732 -558.80606867494498 0 -558.80606867494498 91.185803882253822 0 0 0 0 45.079455170846217 -77.944744975316624 0 -77.944744975316624 36.677987431185457 0 0 0 0 -733.57660395395942 -349.47306870702596 0 -349.47306870702596 -319.97346023831051 0 0 0 0 -753.4586190184491 -459.2901494497055 0 -459.2901494497055 -210.75412821513601 0 0 0 0 -761.95395745502901 -391.9588837784213 0 -391.9588837784213 -298.40833312115865 0 0 0 0 17.594155513448641 -158.26034885595436 0 -158.26034885595436 -17.884576222219039 0 0 0 0 -755.39614356475067 -373.25376919108021 0 -373.25376919108021 -307.0708217008505 0 0 0 0 841.94841792727675 -711.8923888229765 0 -711.8923888229765 -639.21715889362167 0 0 0 0 -682.87061828479636 -483.12010538099275 0 -483.12010538099275 -223.2981861572116 0 0 0 0 -697.46734719257802 -480.141848271036 0 -480.141848271036 -190.9495555422036 0 0 0 0 -658.79770185012603 -481.09339064471715 0 -481.09339064471715 -232.52458242436114 0 0 0 0 -721.41717872262234 -452.55902301787864 0 -452.55902301787864 -208.0529570656945 0 0 0 0 -706.81958289351314 -399.89912849459506 0 -399.89912849459506 -349.09609740153246 0 0 0 0 -626.73544580355519 -607.85272157663712 0 -607.85272157663712 -184.04587151447777 0 0 0 0 -633.9212253302685 -653.13007710814418 0 -653.13007710814418 -102.05417441343889 0 0 0 0 -700.44471935456386 -553.49879792732827 0 -553.49879792732827 -47.005993563681841 0 0 0 0 -686.25652549392544 -668.17404321717913 0 -668.17404321717913 27.972074853692902 0 0 0 0 -655.11032434891604 -882.24276315218549 0 -882.24276315218549 265.31777937606967 0 0 0 0 -750.70360771467676 -667.98604548945877 0 -667.98604548945877 39.441531071337522 0 0 0 0 -644.13567895444794 -752.25626284638747 0 -752.25626284638747 -153.22917045644135 0 0 0 0 -757.66389290435473 -690.77500107532251 0 -690.77500107532251 487.38842051199754 0 0 0 0 23.075595321388903 -14.388121013559555 0 -14.388121013559555 -22.344201704369851 0 0 0 0 -115.58081716517336 -146.22304091371552 0 -146.22304091371552 0.51680251308425795 0 0 0 0 -62.947885022134869 -120.58622353450482 0 -120.58622353450482 -37.206366624748625 0 0 0 0 9.8382377157977317 -96.227626283970721 0 -96.227626283970721 -60.792284588437667 0 0 0 0 376.07401243579807 54.412487071545911 0 54.412487071545911 -231.12283153989119 0 0 0 0 -6.9147564343802514 -150.36445556050967 0 -150.36445556050967 -0.62414336279380223 0 0 0 0 0.31248237586623873 -148.73442720519779 0 -148.73442720519779 -21.154700377130212 0 0 0 0 -668.90684946863621 -49.885640886204783 0 -49.885640886204783 -167.07117095481954 0 0 0 0 -9.4768310919399426 -18.350873375380168 0 -18.350873375380168 -21.0119435832882 0 0 0 0 770.31778780434979 782.81262154155411 0 782.81262154155411 -338.3059340723994 0 0 0 0 -654.73463789487869 -514.78380784377805 0 -514.78380784377805 -659.91794309415855 0 0 0 0 -706.50391602679156 -10.145115128179896 0 -10.145115128179896 -1.1742236133723054 0 0 0 0 297.08197853079764 -483.85709637922992 0 -483.85709637922992 -33.629737490133266 0 0 0 0 274.15425231718109 -1171.8988977749032 0 -1171.8988977749032 -325.08107501170889 0 0 0 0 -842.75747706997208 -765.03162773992881 0 -765.03162773992881 122.95833264858811 0 0 0 0 2051.0117016474542 253.06476019087131 0 253.06476019087131 -81.969909152539913 0 0 0 0 -9.8451893878258261 -7.0350480619816693 0 -7.0350480619816693 11.383128443292719 0 0 0 0 339.7298855878762 -339.69192738047423 0 -339.69192738047423 -255.52951450838373 0 0 0 0 -890.63431739770022 -554.40782637061784 0 -554.40782637061784 -247.39937241980806 0 0 0 0 1137.8785927354438 -343.04358532329752 0 -343.04358532329752 101.40756443829741 0 0 0 0 -848.32387226527499 -489.0164248317451 0 -489.0164248317451 -257.97809213813161 0 0 0 0 -2.8081799354257377 10.126053448548134 0 10.126053448548134 2.1329072775245663 0 0 0 0 1389.4781115123187 -27.802616703542299 0 -27.802616703542299 -552.39496901696839 0 0 0 0 -75.000575603975449 8.8561105701519409 0 8.8561105701519409 -252.96996733453125 0 0 0 0 -5.8135444919199983 -12.894902059090001 0 -12.894902059090001 -0.43714205331542644 0 0 0 0 -599.9218888609139 -441.25634388935941 0 -441.25634388935941 -353.2691217729589 0 0 0 0 -258.181028218969 89.315135895740241 0 89.315135895740241 133.85649614405702 0 0 0 0 -13.365153538868981 1.5399475376844762 0 1.5399475376844762 12.380964791094812 0 0 0 0 -74.450156910416027 -446.88714804386797 0 -446.88714804386797 315.54380853674957 0 0 0 0 -879.65846693070489 -445.91643086523982 0 -445.91643086523982 -281.77666511482676 0 0 0 0 -967.36850745623815 -422.53815432179545 0 -422.53815432179545 -230.41137423533655 0 0 0 0 -10.321027254579491 7.6198582603681189 0 7.6198582603681189 13.1765122735261 0 0 0 0 -926.86288345514913 -475.19601769585279 0 -475.19601769585279 -192.61339459384908 0 0 0 0 -1133.1684771742221 -764.71607091410806 0 -764.71607091410806 -328.50001820010948 0 0 0 0 -917.07486341625918 -343.19566919383942 0 -343.19566919383942 -235.16968706886837 0 0 0 0 -12.038494048252005 -14.08882512139661 0 -14.08882512139661 20.798006134448656 0 0 0 0 -386.835159751834 -817.03184015186707 0 -817.03184015186707 -727.21077800652711 0 0 0 0 338.51890751635074 -474.82293523481349 0 -474.82293523481349 -254.98527930866112 0 0 0 0 749.99288717500167 72.25767862626526 0 72.25767862626526 -412.24313190802059 0 0 0 0 504.48450989960111 -635.03983087187953 0 -635.03983087187953 -456.42395706934622 0 0 0 0 -91.304916583671002 -536.74539120614645 0 -536.74539120614645 -239.44497053645318 0 0 0 0 -192.78646657901118 -766.70552392171521 0 -766.70552392171521 -267.88471122668125 0 0 0 0 -292.69279406747955 -569.29184625577909 0 -569.29184625577909 -61.591663918166887 0 0 0 0 -395.23262990602234 -747.90387969094081 0 -747.90387969094081 -259.66833007032983 0 0 0 0 -31.010485373612028 219.14525078708539 0 219.14525078708539 -110.63624425945454 0 0 0 0 -421.56860897815204 -746.06534005358117 0 -746.06534005358117 -210.04406645870768 0 0 0 0 -286.75662759024999 -696.92269122384459 0 -696.92269122384459 -410.48278369804029 0 0 0 0 17.890612491974025 -64.123123232697253 0 -64.123123232697253 61.108907687186729 0 0 0 0 6.2298249484103394 -34.950067115471825 0 -34.950067115471825 3.3536076065367695 0 0 0 0 2.9289748465816956 -45.72959206275118 0 -45.72959206275118 47.708590234891744 0 0 0 0 6.3348205610382138 -44.341873328005022 0 -44.341873328005022 34.143918006142485 0 0 0 0 7.5812661944397064 -48.734213238485559 0 -48.734213238485559 27.86617503635253 0 0 0 0 56.627400269440841 -52.016961730172625 0 -52.016961730172625 83.096767702023499 0 0 0 0 -134.93784089834662 -51.847692503142753 0 -51.847692503142753 -684.87671562704054 0 0 0 0 3.5999423380807798 -11.605753821028031 0 -11.605753821028031 9.1327514959778497 0 0 0 0 -92.341154808993451 -518.78420333443501 0 -518.78420333443501 -291.04553692345507 0 0 0 0 87.373861286730971 -280.97191837456194 0 -280.97191837456194 -616.21338742837543 0 0 0 0 59.47989940046682 -424.29209715384786 0 -424.29209715384786 -617.26394266242278 0 0 0 0 5.5331775619637256 -25.782789996152445 0 -25.782789996152445 24.026805645472734 0 0 0 0 -244.20480083904113 -371.50984431682809 0 -371.50984431682809 -397.89184640729218 0 0 0 0 65.71594910742715 -524.27691012778087 0 -524.27691012778087 -799.54049909312744 0 0 0 0 -0.5760861187275168 -33.246187344852046 0 -33.246187344852046 1.570431366108572 0 0 0 0 -16.310441731635365 -39.503384491086763 0 -39.503384491086763 27.210008593181556 0 0 0 0 7.1414942538322066 -34.464720501262491 0 -34.464720501262491 0.59106808446813375 0 0 0 0 -13.390421642208821 -63.413866761988174 0 -63.413866761988174 34.982486387598328 0 0 0 0 2.1846503839842626 -47.374728522634541 0 -47.374728522634541 45.190769860259024 0 0 0 0 -12.574267769214373 -39.457855365188692 0 -39.457855365188692 -2.1684890399273158 0 0 0 0 -8.9384805368317757 -60.58808017008414 0 -60.58808017008414 53.116529049271776 0 0 0 0 -18.841092228423804 -46.742816478217719 0 -46.742816478217719 18.833311736292671 0 0 0 0 21.966261810630385 -73.218875797043438 0 -73.218875797043438 143.89144760595809 0 0 0 0 24.530952291504946 -80.399061846313998 0 -80.399061846313998 111.77331563705229 0 0 0 0 5.2965030006144218 -26.97745647685381 0 -26.97745647685381 14.272607347716587 0 0 0 0 -10.87179389008088 -31.626820408302592 0 -31.626820408302592 7.2320428847597213 0 0 0 0 -18.757877033694513 -23.005915520614963 0 -23.005915520614963 19.931573921095989 0 0 0 0 4.9261881664251845 -23.931422255288581 0 -23.931422255288581 6.2111478182088149 0 0 0 0 -1.8853951349738054 -95.308204546265188 0 -95.308204546265188 123.4595325525006 0 0 0 0 -17.460281338595458 -44.84290391345948 0 -44.84290391345948 54.913310215694139 0 0 0 0 3.855918386821017 -9.0025848824326999 0 -9.0025848824326999 -9.4930570302537376 0 0 0 0 421.46410405842198 -196.56740942869783 0 -196.56740942869783 -40.929741711704992 0 0 0 0 51.146368939371314 -251.79725120199873 0 -251.79725120199873 230.82364662965119 0 0 0 0 9.4400800668518059 -302.31587985052465 0 -302.31587985052465 170.53895915116482 0 0 0 0 -287.61535134735459 -305.66784254577942 0 -305.66784254577942 176.51837917047669 0 0 0 0 -0.53355068339581635 -58.070212739693488 0 -58.070212739693488 -13.981617541401413 0 0 0 0 -8.0923043363436591 -67.441115534864366 0 -67.441115534864366 -50.600277768917294 0 0 0 0 63.386564272397663 -128.5275073513767 0 -128.5275073513767 172.48054553222755 0 0 0 0 31.805028804168614 -61.498932022857844 0 -61.498932022857844 142.54651623239624 0 0 0 0 4.3599528315896521 -6.7287626016363902 0 -6.7287626016363902 2.0302805169340843 0 0 0 0 1.5796276207001938 -149.25222973521704 0 -149.25222973521704 -350.37060548477166 0 0 0 0 -56.457644776619418 -47.793259906422463 0 -47.793259906422463 -56.675668302050326 0 0 0 0 -14.945410109554643 -59.262155847629643 0 -59.262155847629643 47.799144140831686 0 0 0 0 97.009632298970246 -22.247697503742529 0 -22.247697503742529 38.334629722565296 0 0 0 0 -9.2210698306189443 -76.986154731624993 0 -76.986154731624993 31.921979665174149 0 0 0 0 4.2405676534690429 -73.847784195444547 0 -73.847784195444547 18.932112248156045 0 0 0 0 -27.965564602083759 -67.235407838044921 0 -67.235407838044921 62.523740771830489 0 0 0 0 -20.392938563414305 -55.320991282200069 0 -55.320991282200069 54.432121069690737 0 0 0 0 -16.791940718278056 -67.515558586077532 0 -67.515558586077532 62.270449397692573 0 0 0 0 -25.111526256670913 -27.432335492587299 0 -27.432335492587299 120.50968783113058 0 0 0 0 -12.01771120736521 -97.575641964453098 0 -97.575641964453098 -72.325960158774251 0 0 0 0 14.763308403576957 -91.553449460803677 0 -91.553449460803677 -141.66115800832631 0 0 0 0 7.5436790429466782 -3.6608656954867911 0 -3.6608656954867911 3.6714605627639685 0 0 0 0 15.21964259636616 -39.409916266319925 0 -39.409916266319925 -22.365698556400616 0 0 0 0 8.1878889707004419 -73.902141073100211 0 -73.902141073100211 -12.062921257631388 0 0 0 0 -8.4037619627924869 -80.911149282263068 0 -80.911149282263068 1.4444463812142203 0 0 0 0 9.3451720190824403 -32.931171969528805 0 -32.931171969528805 29.926504489724834 0 0 0 0 -5.0551849675248377 -63.306679910034291 0 -63.306679910034291 25.096568771681859 0 0 0 0 17.715565968797989 -55.638181623224966 0 -55.638181623224966 31.766124770194125 0 0 0 0 1.7019572207000415 -29.590763594539396 0 -29.590763594539396 -5.3552502803261177 0 0 0 0 -19.828240684990305 -65.969160997992731 0 -65.969160997992731 25.079682776835398 0 0 0 0 -9.2686166942876298 -84.43160719968364 0 -84.43160719968364 13.565299877285725 0 0 0 0 22.99075920721225 -87.036550563942001 0 -87.036550563942001 1.6468951850947633 0 0 0 0 23.402728201878574 -43.005645983489565 0 -43.005645983489565 36.935611084686911 0 0 0 0 21.599754961789586 -80.50667038798565 0 -80.50667038798565 12.883225262738051 0 0 0 0 18.237645353069411 -60.495902725774954 0 -60.495902725774954 16.052140862092699 0 0 0 0 23.764304980257293 -49.336703937777202 0 -49.336703937777202 12.957147258872283 0 0 0 0 -15.660609991027741 -68.382460360167897 0 -68.382460360167897 31.550636916252188 0 0 0 0 -78.200142531422898 -71.069066795214894 0 -71.069066795214894 12.6539841973281 0 0 0 0 11.076820414928079 47.564465130366443 0 47.564465130366443 303.680394604904 0 0 0 0 -33.564609919980285 -62.272637538990239 0 -62.272637538990239 -75.289800889673643 0 0 0 0 -42.958382904630042 -68.584438376726439 0 -68.584438376726439 49.198381601431066 0 0 0 0 -44.801976407563345 -52.333221202250002 0 -52.333221202250002 71.529636471772449 0 0 0 0 -17.45908685476752 -97.300289655773668 0 -97.300289655773668 -35.072470423241612 0 0 0 0 1.5262887056092893 -38.59858467835862 0 -38.59858467835862 10.385941161885057 0 0 0 0 -52.603934822480369 77.577525917346065 0 77.577525917346065 174.08075367913261 0 0 0 0 40.296509008221619 -47.099477791627578 0 -47.099477791627578 122.94027793695568 0 0 0 0 -15.427236138952139 55.892419338611944 0 55.892419338611944 77.605805006656738 0 0 0 0 -38.692970420597703 -14.247500111276167 0 -14.247500111276167 0.89066392455424648 0 0 0 0 35.513240383319499 -0.0058995043145841919 0 -0.0058995043145841919 166.69310763351677 0 0 0 0 -89.011958690134634 83.603293630905682 0 83.603293630905682 129.36690172707313 0 0 0 0 -54.618265079945559 -65.059375458113209 0 -65.059375458113209 77.367433342544246 0 0 0 0 -186.93189983606862 17.110053567710565 0 17.110053567710565 240.62178254044557 0 0 0 0 -86.434587713825749 -69.004184748206171 0 -69.004184748206171 154.10909117288247 0 0 0 0 -356.84110581678397 7.0325551019050181 0 7.0325551019050181 140.79890772675571 0 0 0 0 -197.99345176614588 -93.217813903305796 0 -93.217813903305796 317.85644210917235 0 0 0 0 -60.367397163434362 19.685675930391881 0 19.685675930391881 287.43141878407914 0 0 0 0 -120.56120621370064 -78.589005960442591 0 -78.589005960442591 371.62143764326174 0 0 0 0 -45.941449895632104 -117.56939260246872 0 -117.56939260246872 39.383531810683053 0 0 0 0 -165.78650974667107 8.170665260804526 0 8.170665260804526 424.82723025306768 0 0 0 0 1.2331539107211711 -2.3824938819124384 0 -2.3824938819124384 -0.8429592424743646 0 0 0 0 92.543278228142299 -150.77962039387785 0 -150.77962039387785 -138.33097870222991 0 0 0 0 -198.89295346724248 -101.70113326645514 0 -101.70113326645514 482.31412213749354 0 0 0 0 -37.373623918373369 -60.247196731000116 0 -60.247196731000116 -8.7301677057392197 0 0 0 0 9.3889808552641512 -32.626129647700708 0 -32.626129647700708 -3.8278159356679282 0 0 0 0 -2.4821232452814002 -141.69019767937425 0 -141.69019767937425 315.54647203957575 0 0 0 0 -23.576401871545585 -48.914218597135516 0 -48.914218597135516 27.731377780206259 0 0 0 0 -1.5168397101333539 -128.41681870912726 0 -128.41681870912726 -101.59021730476525 0 0 0 0 -33.655026858788915 -67.420842013729271 0 -67.420842013729271 -91.717337726004189 0 0 0 0 -582.21724880667171 -14.459794678550679 0 -14.459794678550679 -45.939961383264745 0 0 0 0 -191.52556151899626 -178.89620124774228 0 -178.89620124774228 32.016685539943865 0 0 0 0 -236.18540671600203 -103.72990054373804 0 -103.72990054373804 65.973790535645094 0 0 0 0 -196.47757425093005 -41.801748506863078 0 -41.801748506863078 52.30859629745828 0 0 0 0 -75.955459466553293 -181.42953651628341 0 -181.42953651628341 -277.39880274972529 0 0 0 0 -67.062118672212819 -191.72464546014089 0 -191.72464546014089 -24.972944469376671 0 0 0 0 13.591186544450466 -269.00923221799894 0 -269.00923221799894 -191.75686528242659 0 0 0 0 7.3764778882715518 -24.99952327652683 0 -24.99952327652683 -9.3830038373405387 0 0 0 0 82.990836781391408 -141.33086908901168 0 -141.33086908901168 -22.330833254382014 0 0 0 0 36.066616810843698 -114.10259428698919 0 -114.10259428698919 6.6273077148944139 0 0 0 0 -64.224580471898662 -152.8132075486792 0 -152.8132075486792 4.5917116072814679 0 0 0 0 -65.489569988151743 -138.72557979947305 0 -138.72557979947305 31.895793946634512 0 0 0 0 -32.296297000633786 -124.26868989598006 0 -124.26868989598006 15.556808686102158 0 0 0 0 -77.023838218374294 -36.318399090494495 0 -36.318399090494495 52.429461190011352 0 0 0 0 -117.72139651954058 -93.471474608377321 0 -93.471474608377321 66.11821921938099 0 0 0 0 -132.14676956362382 -118.20927038358059 0 -118.20927038358059 45.130570629466092 0 0 0 0 -104.32355225117499 -71.874569366664218 0 -71.874569366664218 18.707655426755082 0 0 0 0 -70.177944835391827 -108.93728717477643 0 -108.93728717477643 45.821560248747119 0 0 0 0 -104.52637086686445 -64.197682203302975 0 -64.197682203302975 64.636872393657541 0 0 0 0 -135.32146036607446 -78.234602353099035 0 -78.234602353099035 61.984758702194085 0 0 0 0 7.2228559058768127 -25.573586375606041 0 -25.573586375606041 30.873074643816722 0 0 0 0 19.118673659297201 -40.058971625025151 0 -40.058971625025151 35.057436705799773 0 0 0 0 6.4654556994678813 -0.89834309114043975 0 -0.89834309114043975 -1.1638088261619259 0 0 0 0 42.862627813447034 -45.061817194742616 0 -45.061817194742616 72.113257995224558 0 0 0 0 20.674056855481467 -4.4595539450965589 0 -4.4595539450965589 42.879367871602881 0 0 0 0 95.162866378363105 -60.206569621193921 0 -60.206569621193921 0.34440962164080702 0 0 0 0 -74.526945906371111 -44.916914310946595 0 -44.916914310946595 81.794747318112059 0 0 0 0 -57.080448177955986 -57.160501051155734 0 -57.160501051155734 -48.975092916833091 0 0 0 0 7.4010814914358605 -11.774545297544762 0 -11.774545297544762 0.28241431279977292 0 0 0 0 -75.128532319882652 -1.1855143494904041 0 -1.1855143494904041 -17.009576637210557 0 0 0 0 -29.871727159469344 -54.219498638647423 0 -54.219498638647423 23.108117834582245 0 0 0 0 422.13567289158527 0.97620308175100945 0 0.97620308175100945 -281.52902373101824 0 0 0 0 16.754423550585997 -33.637217413814177 0 -33.637217413814177 -4.4734495607270901 0 0 0 0 -3.387193733768072 -56.882880390512582 0 -56.882880390512582 11.862838132408797 0 0 0 0 14.703595894757655 -61.554548178295136 0 -61.554548178295136 12.974941712309374 0 0 0 0 7.8416451758239418 -52.266182246807148 0 -52.266182246807148 51.495014470885508 0 0 0 0 -2.5603359485101294 -25.832435083743945 0 -25.832435083743945 -14.661436129964102 0 0 0 0 5.7577673607229372 -31.983034462828073 0 -31.983034462828073 10.019970185770944 0 0 0 0 8.0799847052476252 -36.943186986914952 0 -36.943186986914952 41.411985014565289 0 0 0 0 7.5810469654261396 -49.929390440487623 0 -49.929390440487623 21.308766839618329 0 0 0 0 13.034780136025802 -68.973801621243183 0 -68.973801621243183 12.745976175297983 0 0 0 0 10.902648051723332 -35.262479805006024 0 -35.262479805006024 10.77751000468524 0 0 0 0 0.67690767131603025 -58.029687873779949 0 -58.029687873779949 -11.810223361375392 0 0 0 0 4.4180189619510202 -38.991360601081396 0 -38.991360601081396 14.867212773751817 0 0 0 0 -2.578642347030609 -32.481572461995 0 -32.481572461995 19.808337594199827 0 0 0 0 -1.0298069958821543 -38.982885416652607 0 -38.982885416652607 20.633264860167401 0 0 0 0 -1.1991602431805006 -26.947602901853713 0 -26.947602901853713 0.49659647429564302 0 0 0 0 3.8877158680115826 -39.662535807961831 0 -39.662535807961831 20.568423243519646 0 0 0 0 0.88026053688736283 -33.156615564432286 0 -33.156615564432286 32.705899516469799 0 0 0 0 14.858129593824842 -19.626941781063351 0 -19.626941781063351 26.888421081148408 0 0 0 0 54.651785557281983 -48.203018305779551 0 -48.203018305779551 2.989771088672569 0 0 0 0 33.061153898597695 -43.425677344202995 0 -43.425677344202995 48.740076360758394 0 0 0 0 -9.3726697868452931 4.7873778415713844 0 4.7873778415713844 6.7746440083145103 0 0 0 0 -48.718308167757641 -75.511071682427428 0 -75.511071682427428 1.7591646762739401 0 0 0 0 20.89255017738833 -19.594063787368214 0 -19.594063787368214 36.131794244894991 0 0 0 0 10.759770306569237 -5.0385326754413597 0 -5.0385326754413597 -0.49403608573908286 0 0 0 0 -67.6453851599872 -97.166907644867024 0 -97.166907644867024 27.429018186521716 0 0 0 0 -68.398449929183698 -104.21656578217517 0 -104.21656578217517 1.8873456197470659 0 0 0 0 -15.598381211282685 -86.786800995017984 0 -86.786800995017984 27.209321388581884 0 0 0 0 -97.38103880554263 -41.445663794715074 0 -41.445663794715074 37.137082286499208 0 0 0 0 -7.1542808937374502 -109.68263405609468 0 -109.68263405609468 9.4497112738026772 0 0 0 0 -43.660188786197978 -92.883376783771382 0 -92.883376783771382 9.3413297096558381 0 0 0 0 -0.34954526770889061 -118.15144301849796 0 -118.15144301849796 11.997615007509012 0 0 0 0 15.848593163900659 -90.06079564806555 0 -90.06079564806555 -24.807960406993516 0 0 0 0 -10.669005140924128 -90.464557589773904 0 -90.464557589773904 23.664089551108191 0 0 0 0 -21.033191829235875 -92.343954531468626 0 -92.343954531468626 26.071790918009356 0 0 0 0 2.1254451191998669 -30.917447342893865 0 -30.917447342893865 35.630154062940164 0 0 0 0 7.8502268040073773 -26.283823757406331 0 -26.283823757406331 32.722070207625222 0 0 0 0 -6.7252553472426371 -87.377501242001017 0 -87.377501242001017 22.451716840529116 0 0 0 0 -27.417602625377185 -59.215346708369907 0 -59.215346708369907 21.763507010837202 0 0 0 0 84.406380321044708 -63.173616601663525 0 -63.173616601663525 -98.524140545887349 0 0 0 0 5.1864792188268325 -10.410016812822718 0 -10.410016812822718 -3.0591669645124853 0 0 0 0 17.243441370665096 -55.900760028351215 0 -55.900760028351215 54.719156860184739 0 0 0 0 22.007679954060563 -50.350798643665399 0 -50.350798643665399 34.455399192377939 0 0 0 0 293.25780347410182 -62.89000672280963 0 -62.89000672280963 -0.22701124877494294 0 0 0 0 12.436997206844353 -13.613983599387211 0 -13.613983599387211 -8.2591947205073666 0 0 0 0 42.037351187500462 -148.25804324492492 0 -148.25804324492492 150.37927667205804 0 0 0 0 -83.396056818055513 -47.869853282587428 0 -47.869853282587428 195.60310560112703 0 0 0 0 -46.423654665864888 -14.364266013071756 0 -14.364266013071756 70.029844018805306 0 0 0 0 -3.2843097068437856 3.532954738752089 0 3.532954738752089 4.9507328927666094 0 0 0 0 -17.121194804029074 -46.418893843743717 0 -46.418893843743717 15.902403010913986 0 0 0 0 -16.525089823408052 -51.767416081187548 0 -51.767416081187548 58.311296462044993 0 0 0 0 7.584546051111829 -55.416754337558814 0 -55.416754337558814 30.124471068353159 0 0 0 0 -21.892082406234096 -26.045463533133926 0 -26.045463533133926 -9.8113781338246895 0 0 0 0 -8.4452270238398341 -61.681748477865767 0 -61.681748477865767 29.972960719576804 0 0 0 0 -7.3826021288041375 -59.939077733244631 0 -59.939077733244631 11.343877440660435 0 0 0 0 25.58676956994168 -48.568919506389648 0 -48.568919506389648 67.282348520500818 0 0 0 0 145.65648141823476 -12.707878629626066 0 -12.707878629626066 -30.150515761662973 0 0 0 0 26.838847999499649 -75.29164058140168 0 -75.29164058140168 110.24936251589679 0 0 0 0 14.73858165529964 -88.497002627584152 0 -88.497002627584152 7.6367293786024675 0 0 0 0 69.579639856357971 -108.09539874927577 0 -108.09539874927577 80.504760085546877 0 0 0 0 59.675765835578204 -80.463311484243604 0 -80.463311484243604 43.616409446309262 0 0 0 0 9.563647440301466 -13.591850646381431 0 -13.591850646381431 3.6765108439428786 0 0 0 0 22.738477321894607 -121.40100962358702 0 -121.40100962358702 67.598622517500189 0 0 0 0 -28.580751654983032 -17.197192307910882 0 -17.197192307910882 70.21021700995334 0 0 0 0 -48.692257199320011 -27.649671768260305 0 -27.649671768260305 64.839039457889157 0 0 0 0 33.245768004126148 -32.925616206877748 0 -32.925616206877748 33.940091979049612 0 0 0 0 -19.040599633248348 -55.947613339856616 0 -55.947613339856616 24.104942591948202 0 0 0 0 3.0284424557444822 1.8587667867575988 0 1.8587667867575988 -6.2299766874105558 0 0 0 0 -365.8385475147079 -23.358231869831798 0 -23.358231869831798 20.383415397780482 0 0 0 0 -126.23111465832335 -6.0083407742640702 0 -6.0083407742640702 0.88885608997952659 0 0 0 0 -34.439523458757321 -147.24208711550455 0 -147.24208711550455 -57.502959841280244 0 0 0 0 -34.736775404016953 -171.86313506611623 0 -171.86313506611623 -46.549300180835417 0 0 0 0 -119.09288436257339 -187.29393069152138 0 -187.29393069152138 -3.4673600091628032 0 0 0 0 -47.72552882990567 -128.62556824347121 0 -128.62556824347121 44.03231622686144 0 0 0 0 -35.55731688002561 -171.14250874360732 0 -171.14250874360732 91.390983768273145 0 0 0 0 -62.4825743168185 -112.76722762062855 0 -112.76722762062855 171.04202296517906 0 0 0 0 -61.550935217191181 -120.75444491633789 0 -120.75444491633789 69.884784416935872 0 0 0 0 -35.180332765070489 -93.69833037693752 0 -93.69833037693752 88.220587783987867 0 0 0 0 -30.014990144118201 -128.32714084052714 0 -128.32714084052714 64.631608156894799 0 0 0 0 -57.54686884943294 -170.42706711270876 0 -170.42706711270876 27.065318581648171 0 0 0 0 -31.567111776012098 -137.08596860778744 0 -137.08596860778744 23.227826000074856 0 0 0 0 -22.088982650453545 -108.22882428314188 0 -108.22882428314188 48.191562664258527 0 0 0 0 -13.741180033073761 -105.36040423595114 0 -105.36040423595114 37.244060218918094 0 0 0 0 9.9733345313143218 -130.91236520918028 0 -130.91236520918028 1.0125781768438173 0 0 0 0 5.6780550917537767 -115.69827320676995 0 -115.69827320676995 6.535561484284699 0 0 0 0 -0.67941676298505627 -150.15644886060909 0 -150.15644886060909 -33.728444125081296 0 0 0 0 84.02174133752851 -73.645808306740946 0 -73.645808306740946 -98.975448056589812 0 0 0 0 48.357015173373838 -165.38840257094125 0 -165.38840257094125 -47.296597608103184 0 0 0 0 26.267390668530822 -50.134850394776919 0 -50.134850394776919 29.650775973876591 0 0 0 0 36.05756959883729 -48.876203930885822 0 -48.876203930885822 38.365868906708783 0 0 0 0 -15.552235608553019 -72.921380503121327 0 -72.921380503121327 75.294618000800256 0 0 0 0 8.1844675700267544 -71.299585158965783 0 -71.299585158965783 17.734781263592595 0 0 0 0 25.603514361372191 -56.631478142394371 0 -56.631478142394371 27.169396639372053 0 0 0 0 -13.025946180023311 -72.62334335372725 0 -72.62334335372725 48.48172401143529 0 0 0 0 5.4120124661785667 -175.0325054388195 0 -175.0325054388195 -179.67812727575074 0 0 0 0 10.427873815235216 51.736952341474534 0 51.736952341474534 25.445742623582191 0 0 0 0 -231.16960751842998 -232.80473137300578 0 -232.80473137300578 -81.714775590357021 0 0 0 0 123.98786092025694 -290.27166446326009 0 -290.27166446326009 -109.36497855169 0 0 0 0 1.7390198025065331 -14.001127982081812 0 -14.001127982081812 13.594843838816644 0 0 0 0 -4.3904926457325928 -383.8721704095733 0 -383.8721704095733 -131.32645677989422 0 0 0 0 -202.6146054134224 -178.03493958692707 0 -178.03493958692707 -20.162534700561082 0 0 0 0 -14.174512568170826 -55.392789258746575 0 -55.392789258746575 35.777238797550282 0 0 0 0 -64.822336201104918 -108.5889034219872 0 -108.5889034219872 14.577175549282401 0 0 0 0 38.486608955878182 -148.25538571599463 0 -148.25538571599463 -150.14359490401694 0 0 0 0 54.657301526196534 -61.180735696929332 0 -61.180735696929332 -24.65918284955842 0 0 0 0 10.369778706368379 -10.356657087927687 0 -10.356657087927687 -1.2393326401783753 0 0 0 0 11.129287055206078 -24.429219703029958 0 -24.429219703029958 -82.704208235110855 0 0 0 0 -32.121495292580221 -80.45754932212003 0 -80.45754932212003 -65.736925639343099 0 0 0 0 0.9083675369474804 -65.446584855773835 0 -65.446584855773835 -61.165883219277021 0 0 0 0 -6.247878524412954 -70.135687276997487 0 -70.135687276997487 -17.591871181270108 0 0 0 0 -1.2940532124557649 -33.000702947298123 0 -33.000702947298123 -40.603592665647739 0 0 0 0 14.089484946842276 -13.983530818808504 0 -13.983530818808504 -21.160346674267203 0 0 0 0 26.781736728171381 -28.043207008526224 0 -28.043207008526224 -8.2409801041794708 0 0 0 0 -10.62096699272827 -10.57061749187821 0 -10.57061749187821 -6.0517605672113177 0 0 0 0 -10.771513289922353 -28.121309681457035 0 -28.121309681457035 -2.8208604890492666 0 0 0 0 9.6641691782497219 -37.06023463375459 0 -37.06023463375459 22.76565409093746 0 0 0 0 -43.843450245625718 -1.2847238304602797 0 -1.2847238304602797 43.958311780894292 0 0 0 0 -91.511219559986785 207.64244449569378 0 207.64244449569378 240.9832572597079 0 0 0 0 493.63809733201924 -266.28432877206069 0 -266.28432877206069 125.39810352431959 0 0 0 0 -24.182345754466951 -68.84507702216797 0 -68.84507702216797 229.9931926332938 0 0 0 0 3.447377690485709 0.24166925671329409 0 0.24166925671329409 -2.7896143273791267 0 0 0 0 -10.352345006394899 62.361546438070945 0 62.361546438070945 70.218095560121583 0 0 0 0 15.550904081826047 -60.863916344740574 0 -60.863916344740574 0.0014675256970804185 0 0 0 0 17.268779319835744 -61.441969855343899 0 -61.441969855343899 -7.2644153726413165 0 0 0 0 21.74184361899097 -63.095499374423525 0 -63.095499374423525 0.72180516929074656 0 0 0 0 -26.006688854569802 -182.98660486029985 0 -182.98660486029985 493.2067475541553 0 0 0 0 111.21157176728593 -49.698582090350101 0 -49.698582090350101 106.19298906539916 0 0 0 0 -9.4950336989131756 -22.700876936229179 0 -22.700876936229179 399.04057518727495 0 0 0 0 14.573135240691443 -12.988021633997107 0 -12.988021633997107 -2.5757749834266193 0 0 0 0 79.406237953196978 -179.24066191908787 0 -179.24066191908787 236.14687579973543 0 0 0 0 32.952908555918839 12.347909392345173 0 12.347909392345173 279.96788835249026 0 0 0 0 25.661862455913706 -130.1983118243802 0 -130.1983118243802 335.90856183873257 0 0 0 0 22.125081353903624 -61.671034232995225 0 -61.671034232995225 0.0014763224025955424 0 0 0 0 25.841066687950672 -62.325064025746428 0 -62.325064025746428 -7.5117784637858378 0 0 0 0 31.39892532741942 -65.069849909079494 0 -65.069849909079494 0.94145431185279449 0 0 0 0 10.507684122370847 -83.465816301555606 0 -83.465816301555606 346.11843555091764 0 0 0 0 0.38800408947281539 -110.89767184481025 0 -110.89767184481025 378.62518343633928 0 0 0 0 32.708962009695824 -101.36322180391289 0 -101.36322180391289 296.55026164582159 0 0 0 0 -37.215029462968232 -112.22152905738039 0 -112.22152905738039 46.512494627255364 0 0 0 0 -26.680909144306497 -79.191444906115066 0 -79.191444906115066 59.262775444338331 0 0 0 0 -59.644299705105368 -105.56085436194553 0 -105.56085436194553 79.935450454941019 0 0 0 0 -80.429486338238348 -126.84950927601312 0 -126.84950927601312 74.576967931701802 0 0 0 0 -50.149388623482082 -183.43359564806451 0 -183.43359564806451 -68.623739502378157 0 0 0 0 12.213129288546043 -72.754806269062101 0 -72.754806269062101 42.335373315523611 0 0 0 0 -0.78667949552618666 -96.09006475158094 0 -96.09006475158094 25.752960852958495 0 0 0 0 -0.34489869115577676 -89.985724135607597 0 -89.985724135607597 23.341473169042729 0 0 0 0 1.0869178755674511 -34.336879445705563 0 -34.336879445705563 -18.606768618439673 0 0 0 0 -1.0610189356339106 -83.940714689888409 0 -83.940714689888409 45.664487242000178 0 0 0 0 -17.064116603243747 -65.757028904627077 0 -65.757028904627077 59.991091096208038 0 0 0 0 -40.711189219844528 -70.713184891472338 0 -70.713184891472338 74.404836279310985 0 0 0 0 -48.909129243140342 -101.30977697843628 0 -101.30977697843628 69.144727753853658 0 0 0 0 -41.177822872501565 -70.263129053761077 0 -70.263129053761077 130.46076200346579 0 0 0 0 100.56779655072751 -160.62528480577748 0 -160.62528480577748 112.67051776357403 0 0 0 0 9.0443843999692035 -80.495690207757434 0 -80.495690207757434 65.219231399940327 0 0 0 0 -0.025929899871698581 -105.16790946379479 0 -105.16790946379479 83.762571460858453 0 0 0 0 13.935246405417274 -3.069539691292448 0 -3.069539691292448 179.50859149141797 0 0 0 0 137.70385529945634 -20.959280936134746 0 -20.959280936134746 34.253031210741028 0 0 0 0 45.25011312332208 -14.348302497863187 0 -14.348302497863187 -33.426883304025978 0 0 0 0 12.34412219915248 -10.913341915671481 0 -10.913341915671481 38.260498124214791 0 0 0 0 7.263805149050313 -87.35638664313592 0 -87.35638664313592 65.959113149792756 0 0 0 0 35.535535310671548 -75.111328571510967 0 -75.111328571510967 64.880671696300851 0 0 0 0 0.26952967891702428 -78.474873162587755 0 -78.474873162587755 68.033114320307504 0 0 0 0 -1.313631034051582 -4.1819404819548822 0 -4.1819404819548822 -1.0315352341170581 0 0 0 0 436.4221126574339 -127.42417152240523 0 -127.42417152240523 -424.20882688408892 0 0 0 0 -17.140928884604364 -83.080785653670318 0 -83.080785653670318 91.451752220658818 0 0 0 0 164.39550826408959 -134.46113047112885 0 -134.46113047112885 188.74299942635116 0 0 0 0 136.65646014901358 -131.27411848396878 0 -131.27411848396878 459.24158254594659 0 0 0 0 -7.3511905095097063 -8.2836939631762903 0 -8.2836939631762903 0.56814780622480754 0 0 0 0 23.081287922192132 -28.707900266163051 0 -28.707900266163051 -30.031443823212612 0 0 0 0 -353.05394723640347 71.559880347602302 0 71.559880347602302 128.72621505254938 0 0 0 0 -114.17660236725351 -156.35179551932379 0 -156.35179551932379 94.564787853945745 0 0 0 0 -89.159956654591952 4.8783714785531629 0 4.8783714785531629 299.50223125312914 0 0 0 0 -271.29726204255712 -55.154572215076769 0 -55.154572215076769 478.96021858362656 0 0 0 0 15.51638394614838 -60.922374237074109 0 -60.922374237074109 1.0569196912401821 0 0 0 0 13.664914403250805 -59.590184470977647 0 -59.590184470977647 -7.056219152926527 0 0 0 0 14.870558754177182 -59.494445621763589 0 -59.494445621763589 0.0017592584581197139 0 0 0 0 14.959378990433834 -59.115179079554764 0 -59.115179079554764 0.84632284895633347 0 0 0 0 84.192983717715833 -61.468371423325152 0 -61.468371423325152 417.74208281705796 0 0 0 0 16.846971664883313 -58.182847335730912 0 -58.182847335730912 0.00095768636674620211 0 0 0 0 15.213084816231856 -58.127131584509641 0 -58.127131584509641 -6.7831236584653993 0 0 0 0 -17.382910086846096 -16.900385466200532 0 -16.900385466200532 500.57073924923316 0 0 0 0 20.59599829086801 -73.3187077146722 0 -73.3187077146722 540.1607198385027 0 0 0 0 2.0659730377362848 -5.6734202359683934 0 -5.6734202359683934 0.41816627490500302 0 0 0 0 -257.90162740879168 -198.55530245407135 0 -198.55530245407135 -302.02917548213736 0 0 0 0 110.30117467172386 -58.010803331882926 0 -58.010803331882926 -249.64699911566277 0 0 0 0 76.376871700740594 -2.9395268467342248 0 -2.9395268467342248 -5.5207230956002604 0 0 0 0 11.729453726031352 -56.812355103218579 0 -56.812355103218579 315.79547164135147 0 0 0 0 16.901244782024605 -57.906674768687481 0 -57.906674768687481 1.2283450957183959 0 0 0 0 17.278300797531642 -56.71099843996771 0 -56.71099843996771 -7.9242181814834822 0 0 0 0 -4.5300035492837196 -67.335370771383168 0 -67.335370771383168 327.30093479760399 0 0 0 0 18.307045305104111 -55.822950877714902 0 -55.822950877714902 0.0021422327216830553 0 0 0 0 16.717094982101116 -47.240935843074112 0 -47.240935843074112 324.8348844156717 0 0 0 0 19.1723279783469 -57.659917605159649 0 -57.659917605159649 1.0916741358756639 0 0 0 0 18.331347781759177 -55.605119655062481 0 -55.605119655062481 1.8031832995184232 0 0 0 0 9.2858195447661274 -38.036609715498344 0 -38.036609715498344 201.92473580795922 0 0 0 0 18.18484734557569 -34.857888436890789 0 -34.857888436890789 194.9353622693161 0 0 0 0 11.858096884598766 -12.374317638215359 0 -12.374317638215359 18.903341136213381 0 0 0 0 -40.984164908019011 15.00015602982603 0 15.00015602982603 164.16146588615993 0 0 0 0 -9.0862358854820116 -7.9347585959064872 0 -7.9347585959064872 23.868075807003692 0 0 0 0 14.442693420714932 -38.914099767294829 0 -38.914099767294829 191.73389517044416 0 0 0 0 110.42519934629672 -41.587614299729466 0 -41.587614299729466 87.034705511890934 0 0 0 0 381.74556379450951 -203.43073124816874 0 -203.43073124816874 154.54970180867349 0 0 0 0 -121.89012757269666 36.565810173735372 0 36.565810173735372 65.84230677402229 0 0 0 0 -165.85233444717596 -139.43573482614011 0 -139.43573482614011 279.33109631008119 0 0 0 0 7.3201743863974116 20.936953939191881 0 20.936953939191881 -10.658947376228753 0 0 0 0 2.032340590019885 -55.974446689157048 0 -55.974446689157048 337.52127199168899 0 0 0 0 7.2977204132741917 -6.282551181656487 0 -6.282551181656487 -1.863990558232326 0 0 0 0 -2.832289919642335 -36.837281753614661 0 -36.837281753614661 6.7204354421410244 0 0 0 0 -15.459860515751558 -10.785143116364452 0 -10.785143116364452 10.774927475998439 0 0 0 0 -10.581964550729026 -60.978550779487705 0 -60.978550779487705 169.10456572163093 0 0 0 0 -9.4913863506308189 -49.510337186322431 0 -49.510337186322431 155.0166803523316 0 0 0 0 -10.094471717675333 -10.700411458266899 0 -10.700411458266899 0.065412344600190409 0 0 0 0 -2.3677906469814367 -15.580973947800203 0 -15.580973947800203 97.290978491473766 0 0 0 0 5.226650441523816 -42.496220611123135 0 -42.496220611123135 198.05158153999946 0 0 0 0 19.047832159558311 -51.23712640631129 0 -51.23712640631129 0.0047417839037679115 0 0 0 0 8.8756245765036983 -23.778879990743761 0 -23.778879990743761 7.8674765079958888 0 0 0 0 -2.3136150980499224 -46.537816540854692 0 -46.537816540854692 108.23659227835014 0 0 0 0 -5.869279024429332 -17.414234271990949 0 -17.414234271990949 101.4233911919365 0 0 0 0 -21.502520664242184 -22.707808066232246 0 -22.707808066232246 165.69051730708452 0 0 0 0 -61.315195649833186 24.752029140741797 0 24.752029140741797 162.10286728016217 0 0 0 0 -16.418825726410432 -30.002122089426848 0 -30.002122089426848 164.07257931877393 0 0 0 0 1.2372560551157221 -36.295549640170066 0 -36.295549640170066 156.84914546215441 0 0 0 0 -0.85258164504193701 -23.981410095380852 0 -23.981410095380852 160.36482074786909 0 0 0 0 0.11014533480373245 -18.070505240792102 0 -18.070505240792102 33.837196493768758 0 0 0 0 -16.238398306792078 -35.027574385458138 0 -35.027574385458138 172.66322298842715 0 0 0 0 -19.500948251103068 -51.252859829588488 0 -51.252859829588488 155.91702767746756 0 0 0 0 -10.69230086330208 -45.744791737146443 0 -45.744791737146443 152.79878744827874 0 0 0 0 -20.005713330087019 -42.340647268341854 0 -42.340647268341854 160.05632932402659 0 0 0 0 -7.8312457491447276 -55.071766955064959 0 -55.071766955064959 152.43916145100957 0 0 0 0 -28.019656088894408 -52.284128216051613 0 -52.284128216051613 -16.146295527531038 0 0 0 0 1.5117448239470832 -8.4570836260681972 0 -8.4570836260681972 119.98262709844857 0 0 0 0 -16.861152683156988 -38.329081611095376 0 -38.329081611095376 38.523282089801938 0 0 0 0 -7.170552863035482 -33.729503294103779 0 -33.729503294103779 158.70702327956678 0 0 0 0 -40.371703148023698 -37.457256983223488 0 -37.457256983223488 4.0675962712266482 0 0 0 0 -2.3294840282469522 -73.572649265872315 0 -73.572649265872315 231.96558912436012 0 0 0 0 -13.543358430673592 -7.1167159178449424 0 -7.1167159178449424 24.643751708220236 0 0 0 0 -3.8122167352357792 -59.494914775321377 0 -59.494914775321377 107.33665052102879 0 0 0 0 -6.5382571520039221 -51.545347159154289 0 -51.545347159154289 59.020890378526957 0 0 0 0 -6.223409511774662 -34.433926126439474 0 -34.433926126439474 38.308604530800949 0 0 0 0 -18.119671213155293 -26.355261750112646 0 -26.355261750112646 37.569187662694617 0 0 0 0 -29.355550328440586 -35.105869547809561 0 -35.105869547809561 65.263300837134011 0 0 0 0 -12.846480584955451 -41.23322631728783 0 -41.23322631728783 18.872761335583789 0 0 0 0 -55.660112758214382 -15.635522060569201 0 -15.635522060569201 6.7966233468177961 0 0 0 0 -17.861809490981901 -27.950248401288832 0 -27.950248401288832 18.201934008698174 0 0 0 0 -22.898880238361016 -28.750868674120284 0 -28.750868674120284 -1.2872202672951971 0 0 0 0 -16.566115714980697 -42.760235615423881 0 -42.760235615423881 -13.713906034390675 0 0 0 0 -10.326621833606623 -37.784635115800484 0 -37.784635115800484 -9.9282984235178446 0 0 0 0 19.667917853803374 -90.005137018073583 0 -90.005137018073583 43.050197408148961 0 0 0 0 19.710647993553721 -85.1891976287734 0 -85.1891976287734 42.641876171139302 0 0 0 0 8.7943479108507745 -63.899882524056011 0 -63.899882524056011 91.767302942556853 0 0 0 0 175.75843152810558 -179.25852112402208 0 -179.25852112402208 82.212338648387231 0 0 0 0 68.194858400776866 -15.750383594713639 0 -15.750383594713639 56.730356090032728 0 0 0 0 148.88787987535761 -49.871643987455172 0 -49.871643987455172 22.8705525129335 0 0 0 0 40.291633489097876 -58.263633596987347 0 -58.263633596987347 29.200407720607473 0 0 0 0 18.672414422315342 -59.517236509957002 0 -59.517236509957002 31.507120182795916 0 0 0 0 -7.5118525476141969 -18.815866002161044 0 -18.815866002161044 -4.4022348265181108 0 0 0 0 59.747033941595873 -62.753637581212388 0 -62.753637581212388 30.208825118359528 0 0 0 0 17.216112358219107 -73.491523001968744 0 -73.491523001968744 45.626133649191615 0 0 0 0 54.37457030216774 -81.356845151929519 0 -81.356845151929519 34.776028722582851 0 0 0 0 33.899833777271851 -73.155340089011588 0 -73.155340089011588 14.38442028305144 0 0 0 0 -21.237747798900642 -15.96105983197404 0 -15.96105983197404 -14.052644613194957 0 0 0 0 25.799641980083834 -79.599266533274204 0 -79.599266533274204 43.909924484902149 0 0 0 0 4.8211908128578216 -30.237988281478465 0 -30.237988281478465 0.06617682779324241 0 0 0 0 -3.2225233436183771 -63.094695312727708 0 -63.094695312727708 22.106325545304571 0 0 0 0 -36.436494551428041 -33.273000137189229 0 -33.273000137189229 29.139900855720043 0 0 0 0 -9.7670944222864122 -29.092683041937988 0 -29.092683041937988 6.6081532304640973 0 0 0 0 17.742459266110018 -22.758332121522471 0 -22.758332121522471 7.8830599329376128 0 0 0 0 -90.521609212676594 3.8813109013863141 0 3.8813109013863141 30.330656673875637 0 0 0 0 -8.553655768491808 -20.102278757061868 0 -20.102278757061868 -9.6328262763345265 0 0 0 0 43.217107256887175 -61.349016520216537 0 -61.349016520216537 -1.3270163792476524 0 0 0 0 -9.9412900858478679 -21.945534071317525 0 -21.945534071317525 14.284299390419619 0 0 0 0 11.204164842380123 -3.4182894553268852 0 -3.4182894553268852 34.940921819477808 0 0 0 0 115.87354233896986 -44.344555813469924 0 -44.344555813469924 -4.5276896892173681 0 0 0 0 10.662340250899433 -8.6742256644211011 0 -8.6742256644211011 -8.2263367709092563 0 0 0 0 -130.62843492904722 -37.036702816738398 0 -37.036702816738398 60.150042520384886 0 0 0 0 -4.2203791711108352 67.345789151710051 0 67.345789151710051 105.04977698685252 0 0 0 0 -287.56674318929436 -98.454994960979093 0 -98.454994960979093 123.53587231896563 0 0 0 0 96.685810641847638 -39.405897143024049 0 -39.405897143024049 31.80057427479187 0 0 0 0 477.77295016742573 91.858337051307899 0 91.858337051307899 -10.43277401427622 0 0 0 0 251.19337777462442 -300.23250512601953 0 -300.23250512601953 205.3417537365749 0 0 0 0 13.495212096324394 -64.28706605482148 0 -64.28706605482148 503.73826427132008 0 0 0 0 2.5144674314379927 2.0477366721661951 0 2.0477366721661951 -1.6730684312639426 0 0 0 0 575.81418279602622 -451.59155186550197 0 -451.59155186550197 -466.21711812951253 0 0 0 0 -8.2545864633851522 -5.3088038070192454 0 -5.3088038070192454 12.434830491335106 0 0 0 0 2.4039215141565364 -149.5819638245157 0 -149.5819638245157 346.40926256307284 0 0 0 0 289.44552012068743 -97.876258024269191 0 -97.876258024269191 -17.503474019235 0 0 0 0 -147.77877675661694 -187.64072064666834 0 -187.64072064666834 -107.29973650287138 0 0 0 0 -7.2529830392816663 -12.350483848222609 0 -12.350483848222609 3.7078283219883872 0 0 0 0 -254.75135800729186 30.009981342358515 0 30.009981342358515 57.635593033781333 0 0 0 0 -106.30628440646615 112.05938475909352 0 112.05938475909352 169.7238480221713 0 0 0 0 76.205105853605346 -48.702291899404372 0 -48.702291899404372 129.96384241437772 0 0 0 0 -84.449475633198745 -201.28111085930141 0 -201.28111085930141 101.2162280713128 0 0 0 0 -219.46259326045947 -43.144737162634556 0 -43.144737162634556 175.21713439869927 0 0 0 0 12.83098831722338 -15.78061125564173 0 -15.78061125564173 4.9624511973063363 0 0 0 0 -136.02990254290125 47.337781630085374 0 47.337781630085374 -33.819509915832896 0 0 0 0 92.315621830057353 -30.702830980531871 0 -30.702830980531871 24.348444277027738 0 0 0 0 7.4119321631569619 -45.777718811494196 0 -45.777718811494196 31.2365494389378 0 0 0 0 -10.871611771795795 -37.216553137702569 0 -37.216553137702569 24.773232019914815 0 0 0 0 2.9977483817347093 -62.390507070696913 0 -62.390507070696913 17.84760709227703 0 0 0 0 1.6143113821308361 -66.135031040437752 0 -66.135031040437752 45.699945542117348 0 0 0 0 19.794391449831892 -55.381068789087294 0 -55.381068789087294 29.123512337886496 0 0 0 0 -13.631706615080475 -48.229308688620222 0 -48.229308688620222 29.570324067314687 0 0 0 0 -5.9192334518971705 -32.860340149011137 0 -32.860340149011137 20.318597831684912 0 0 0 0 -9.7567325443487611 -35.25045531416437 0 -35.25045531416437 -4.0168899117040269 0 0 0 0 -96.607296905398471 -60.803299164719647 0 -60.803299164719647 8.3382697479100898 0 0 0 0 -31.239555978435419 -46.354341828458928 0 -46.354341828458928 -4.9083651354158064 0 0 0 0 -185.93696035164612 159.53948874477646 0 159.53948874477646 390.05722897571832 0 0 0 0 -4.4489541336579492 -1.0810993495761636 0 -1.0810993495761636 1.8391596700359685 0 0 0 0 -3.6235293824338441 5.2002252104284707 0 5.2002252104284707 103.83296019316185 0 0 0 0 40.877530065918108 -49.219998733089596 0 -49.219998733089596 64.122354460778297 0 0 0 0 -382.5681349574661 -244.62665038125124 0 -244.62665038125124 95.891351635887986 0 0 0 0 -403.15882228873897 -86.585152467898297 0 -86.585152467898297 171.33581031841459 0 0 0 0 -276.24284882000575 -266.60595419413585 0 -266.60595419413585 -65.765592921670759 0 0 0 0 -292.70853081506721 -192.66358341893647 0 -192.66358341893647 85.177296026173281 0 0 0 0 -164.88678974091818 -130.71270775028825 0 -130.71270775028825 69.509599779965356 0 0 0 0 -238.74152376181155 -168.82644164227531 0 -168.82644164227531 84.567502195350244 0 0 0 0 -43.511279014497795 -43.832615815659921 0 -43.832615815659921 41.637801730938577 0 0 0 0 111.31212080843397 -174.64279703570355 0 -174.64279703570355 28.940119514172693 0 0 0 0 25.60667967149584 -72.078860599354812 0 -72.078860599354812 63.701415110845119 0 0 0 0 -35.32336296855965 -35.924713010979758 0 -35.924713010979758 201.23705407322268 0 0 0 0 147.38592071541279 -166.05232801488455 0 -166.05232801488455 58.999572205066215 0 0 0 0 -207.08020432648664 39.225636018891237 0 39.225636018891237 76.687263843603432 0 0 0 0 19.200705136583565 -20.019951340720581 0 -20.019951340720581 16.285423505003564 0 0 0 0 -61.188075873074375 -41.044444122852951 0 -41.044444122852951 31.165420846162249 0 0 0 0 -89.784714990139037 -208.08141123745008 0 -208.08141123745008 66.532570185944678 0 0 0 0 82.776333889543821 -162.96802850430686 0 -162.96802850430686 80.241574102692539 0 0 0 0 76.097513748576603 -144.61384843097039 0 -144.61384843097039 52.641107280469441 0 0 0 0 102.32636896776285 -130.95981639163529 0 -130.95981639163529 55.850986365287099 0 0 0 0 53.06853765233609 -133.09459721251915 0 -133.09459721251915 63.891014066335629 0 0 0 0 18.97372708765397 -68.207505381069495 0 -68.207505381069495 25.561246597128047 0 0 0 0 90.347973544416163 -107.31199602184643 0 -107.31199602184643 77.088456428339668 0 0 0 0 -110.52253753458353 -33.540081480881781 0 -33.540081480881781 30.518096781088389 0 0 0 0 14.544880473892022 -24.084809265319478 0 -24.084809265319478 17.612753548775459 0 0 0 0 -65.852270088794683 -49.524011583448811 0 -49.524011583448811 31.882282736474167 0 0 0 0 97.644034441916574 -145.71169332189129 0 -145.71169332189129 60.734905152465217 0 0 0 0 -179.35457050522018 49.401845122498344 0 49.401845122498344 111.14548297038709 0 0 0 0 -212.26344707416683 5.3686767229955876 0 5.3686767229955876 139.45937571526156 0 0 0 0 -410.09233408134969 -90.08653397251328 0 -90.08653397251328 107.40629663571599 0 0 0 0 -193.32776662825563 91.57660710838536 0 91.57660710838536 -11.443520928092767 0 0 0 0 -119.24314760915513 -0.57008177455281839 0 -0.57008177455281839 -93.952108903744374 0 0 0 0 -23.685177556994901 -20.606780571531885 0 -20.606780571531885 -1.1371380271185103 0 0 0 0 -437.57595409617443 -429.09875234224819 0 -429.09875234224819 -25.450105241005076 0 0 0 0 -527.2719782863096 -190.86703478537675 0 -190.86703478537675 404.13610372056428 0 0 0 0 -69.844836901996928 -58.950381732730193 0 -58.950381732730193 -14.621386275789263 0 0 0 0 -34.087834618890156 -72.093890415813803 0 -72.093890415813803 66.050528874766314 0 0 0 0 -16.023201753938665 -17.633070060460341 0 -17.633070060460341 24.418405740667481 0 0 0 0 18.658430433054491 -150.76242420329072 0 -150.76242420329072 116.39629226131365 0 0 0 0 -227.95898961766488 -165.76510428109032 0 -165.76510428109032 116.98461794817922 0 0 0 0 -108.30555569116495 6.6939341111647082 0 6.6939341111647082 107.5298356009007 0 0 0 0 -320.86473441073713 22.285907195386244 0 22.285907195386244 256.65203125425614 0 0 0 0 -177.26823892397732 58.58963377829059 0 58.58963377829059 209.54048518370837 0 0 0 0 4.878628432375578 -42.796095127646254 0 -42.796095127646254 36.968084749209282 0 0 0 0 27.968786408425331 -80.565898546923563 0 -80.565898546923563 -48.562815662298817 0 0 0 0 13.374119222064635 -63.434658434565108 0 -63.434658434565108 32.568300148558677 0 0 0 0 -38.094967802931933 -50.667802562558791 0 -50.667802562558791 44.348417455072195 0 0 0 0 75.820881866813579 -150.88295468060824 0 -150.88295468060824 37.952699661189399 0 0 0 0 -18.499092255015967 -69.291090295300819 0 -69.291090295300819 66.551822293364239 0 0 0 0 -12.297478910325481 -44.858468320366228 0 -44.858468320366228 114.97016200528014 0 0 0 0 -2.5191819900737755 -42.242072477558395 0 -42.242072477558395 73.824586173417629 0 0 0 0 -10.403700550808026 -22.878396846543183 0 -22.878396846543183 123.01465344254393 0 0 0 0 0.33929491771777975 -50.410684594957274 0 -50.410684594957274 139.57330063311383 0 0 0 0 7.9418089011142001 -51.176615524542285 0 -51.176615524542285 137.98814914039394 0 0 0 0 -15.175431468965144 -33.616004432202317 0 -33.616004432202317 128.97965646127705 0 0 0 0 -11.14942277578178 -6.0126180481590836 0 -6.0126180481590836 -2.0871561035271284 0 0 0 0 -36.059625621523082 -62.263200156859966 0 -62.263200156859966 257.92599888822588 0 0 0 0 -7.5517430347390473 -5.4373003689106554 0 -5.4373003689106554 -0.0094648883386980742 0 0 0 0 -10.063337368736597 -10.558645617000366 0 -10.558645617000366 0.65756051166681573 0 0 0 0 -265.03323931131411 58.832125805041869 0 58.832125805041869 182.00774841124075 0 0 0 0 -320.0940052169658 -32.849159518882516 0 -32.849159518882516 153.09764642774826 0 0 0 0 -1.5595157762040799 -67.371204710405436 0 -67.371204710405436 127.59549102555866 0 0 0 0 -7.5510035811795007 -5.4340408169173315 0 -5.4340408169173315 0.0033390729659004137 0 0 0 0 -103.82044181178617 151.75060654044864 0 151.75060654044864 94.028104149387218 0 0 0 0 -4.0009547483417922 -5.3499784747489798 0 -5.3499784747489798 -0.26824978307489289 0 0 0 0 -646.69113787840956 92.441850504939794 0 92.441850504939794 276.48009546233516 0 0 0 0 -379.62256332386164 180.91767895211524 0 180.91767895211524 209.32057788989914 0 0 0 0 -769.20175631079985 -468.12554353482119 0 -468.12554353482119 -30.155261356616393 0 0 0 0 -211.39617445084787 -108.86508252964995 0 -108.86508252964995 157.14666267372377 0 0 0 0 -490.08230712298064 -414.46364837736473 0 -414.46364837736473 137.51550645660609 0 0 0 0 118.94368735665921 -623.5570460837771 0 -623.5570460837771 -574.28211078897584 0 0 0 0 -995.08014532066682 -1129.058761247612 0 -1129.058761247612 -375.61243823546101 0 0 0 0 -569.26904617749369 -599.93258122719271 0 -599.93258122719271 -0.40134450390178245 0 0 0 0 -1482.4213221479986 -798.83631294148654 0 -798.83631294148654 0.030634113810191616 0 0 0 0 -2076.1200038135503 -918.87753073181375 0 -918.87753073181375 -388.80367307382403 0 0 0 0 -2213.2212146114089 -1679.8077706024669 0 -1679.8077706024669 -791.42618237080751 0 0 0 0 -2084.2457183841689 -1249.205198849435 0 -1249.205198849435 -865.93381630789372 0 0 0 0 480.40533473007326 -135.0729038051868 0 -135.0729038051868 -32.177445411245571 0 0 0 0 -3736.142196691766 -1763.5759602985345 0 -1763.5759602985345 -327.88804222024919 0 0 0 0 -9.0397144008365053 -6.9260402445135583 0 -6.9260402445135583 -7.1752794835816758 0 0 0 0 -105.74681821716877 -70.426259133964777 0 -70.426259133964777 85.007707952783676 0 0 0 0 -51.507858355652729 -46.543328513457737 0 -46.543328513457737 -20.500406606277721 0 0 0 0 -53.341668950755775 -448.49162293205154 0 -448.49162293205154 206.63229572089767 0 0 0 0 -3166.1517801572718 -1133.1632094274828 0 -1133.1632094274828 -606.74823610839667 0 0 0 0 -2492.4884805036236 -1239.0504448325082 0 -1239.0504448325082 -710.44796449050045 0 0 0 0 -17.623319112604026 -1.586135929249906 0 -1.586135929249906 53.441881099772104 0 0 0 0 -3017.337878862294 -1307.7039120058034 0 -1307.7039120058034 -342.10001736064442 0 0 0 0 -90.51033693298632 -63.283520819022669 0 -63.283520819022669 32.200985661125742 0 0 0 0 -50.79675861259966 -29.467344522934582 0 -29.467344522934582 19.962034791991755 0 0 0 0 -65.667887662214554 -49.778978012335983 0 -49.778978012335983 -27.320741478928682 0 0 0 0 -86.117452505786787 -102.13241308245051 0 -102.13241308245051 95.344585016318888 0 0 0 0 -258.72197508450063 -247.44335964535276 0 -247.44335964535276 638.79683888884028 0 0 0 0 -26.751267799098514 -174.20763610618815 0 -174.20763610618815 255.31181649351493 0 0 0 0 -390.2811815466971 -102.20894836229127 0 -102.20894836229127 302.14722489417181 0 0 0 0 157.52033861708696 -151.64960380269622 0 -151.64960380269622 218.2338615245244 0 0 0 0 -672.64345858583329 -450.29154034966632 0 -450.29154034966632 -490.44174869148992 0 0 0 0 -754.82224453862364 -465.70113440512068 0 -465.70113440512068 0.25493658476625569 0 0 0 0 -684.59214227235861 -415.80691822167137 0 -415.80691822167137 -240.48443235002924 0 0 0 0 -967.79835768720477 -673.78661358258432 0 -673.78661358258432 -705.37462188882637 0 0 0 0 -966.97641816314717 -627.28322133525216 0 -627.28322133525216 -210.68988676565277 0 0 0 0 -4.2082625348753737 -6.3591602772961551 0 -6.3591602772961551 12.773385355273035 0 0 0 0 -1051.9378734167003 -917.09409226090065 0 -917.09409226090065 -747.46190602899878 0 0 0 0 -634.63473771100325 -303.82564967401777 0 -303.82564967401777 -0.60803436899732333 0 0 0 0 -1450.5349792590678 -921.17124388486991 0 -921.17124388486991 -663.10775793624634 0 0 0 0 -6.3196988725385381 -2.4363485282140971 0 -2.4363485282140971 7.1162652782563214 0 0 0 0 -1977.695452074473 -1119.2977533138619 0 -1119.2977533138619 -1.1720656627509243 0 0 0 0 -1445.5613978433805 -1006.5376512617258 0 -1006.5376512617258 -559.74261817123624 0 0 0 0 -1941.7910036919893 -832.64713657782704 0 -832.64713657782704 -603.7019421060977 0 0 0 0 -1614.6012549075349 -960.88002433540532 0 -960.88002433540532 -804.53281465632608 0 0 0 0 -2448.4053283058029 -904.69484217818899 0 -904.69484217818899 -517.32146189681953 0 0 0 0 -2606.2441161542829 -664.19971787737086 0 -664.19971787737086 -355.81283309975697 0 0 0 0 -1904.4888789630677 -1026.1962532399557 0 -1026.1962532399557 -587.26267421864031 0 0 0 0 -1882.6369632385758 -755.29282322876679 0 -755.29282322876679 -365.93651842713007 0 0 0 0 -1585.1719029826208 -765.29397086563586 0 -765.29397086563586 -628.00939470462617 0 0 0 0 -1074.1188677670834 -696.36077679332811 0 -696.36077679332811 -740.18056309284293 0 0 0 0 -1032.9421066957102 -841.38064156129622 0 -841.38064156129622 -701.83111911593005 0 0 0 0 -737.56438384199646 -653.7270000962526 0 -653.7270000962526 -651.31568361251266 0 0 0 0 -746.20459942070488 -935.24556545443943 0 -935.24556545443943 -609.88269316073274 0 0 0 0 -0.86531792744801805 -10.118004000092071 0 -10.118004000092071 15.56812327768057 0 0 0 0 -1255.0219870855653 -1111.1764910252969 0 -1111.1764910252969 -450.7186796175456 0 0 0 0 -1327.9752963766077 -1745.1041105587083 0 -1745.1041105587083 1224.918810862815 0 0 0 0 -1413.4182505028421 -1285.811298619823 0 -1285.811298619823 1139.1664756560058 0 0 0 0 -843.60458028414359 -766.53627368326124 0 -766.53627368326124 -371.22474021014932 0 0 0 0 -350.5884446003729 -1575.9620368260366 0 -1575.9620368260366 748.40956194895261 0 0 0 0 -174.52769170565534 -717.26913353520285 0 -717.26913353520285 -247.3313069017313 0 0 0 0 -1014.2772144564224 -958.83184307724878 0 -958.83184307724878 -207.88225114419765 0 0 0 0 -1277.6199209194929 -772.42123124942736 0 -772.42123124942736 915.3994496846135 0 0 0 0 -1490.2705259901632 -1230.2283762823281 0 -1230.2283762823281 0.97969870443921536 0 0 0 0 -1072.499626895928 -488.81671520751752 0 -488.81671520751752 -446.61525993674877 0 0 0 0 -2828.1406124557507 -1198.8599610831297 0 -1198.8599610831297 -64.734477992162283 0 0 0 0 -1957.7505254288553 -571.30311548829195 0 -571.30311548829195 -424.44472647568909 0 0 0 0 -2339.9683325095884 -1480.8357703618312 0 -1480.8357703618312 167.84023895105929 0 0 0 0 -2.3876568610687272 -8.2636039310588671 0 -8.2636039310588671 36.740847484895653 0 0 0 0 57.333140490060032 -1409.2077176276289 0 -1409.2077176276289 -411.02838797877484 0 0 0 0 -947.60701534270265 -862.32142108153494 0 -862.32142108153494 -683.07616848639736 0 0 0 0 -745.44480794103401 -1537.3106556056391 0 -1537.3106556056391 -16.261822814209154 0 0 0 0 108.6077236093879 -1778.382175113511 0 -1778.382175113511 -208.10695466675679 0 0 0 0 -653.36872842229786 -1747.616213564339 0 -1747.616213564339 -388.8337356216216 0 0 0 0 0.27406813629660576 -6.9545459071760547 0 -6.9545459071760547 7.9499505350241293 0 0 0 0 -1679.9666860524812 -58.254641666586394 0 -58.254641666586394 -83.267738491799719 0 0 0 0 -652.02549424636527 -1931.463440750289 0 -1931.463440750289 -1016.6128806597844 0 0 0 0 32.56612918409246 -2080.7922561609666 0 -2080.7922561609666 -325.13132860223413 0 0 0 0 -1965.1260614637995 -442.21182441310611 0 -442.21182441310611 97.227057785785291 0 0 0 0 0.96711579259664404 -8.4655296622968876 0 -8.4655296622968876 12.09378748353987 0 0 0 0 -2003.7071419607091 -1253.4106369413785 0 -1253.4106369413785 983.32495032195584 0 0 0 0 -72.54312703578762 -133.58028511551674 0 -133.58028511551674 -8.5327394296655257 0 0 0 0 -67.19429773660886 -124.45282747242891 0 -124.45282747242891 -8.4594821407418976 0 0 0 0 -126.4021977803859 -235.28882433073159 0 -235.28882433073159 -198.10530543749337 0 0 0 0 -118.96672058199147 67.149559774068621 0 67.149559774068621 -157.13158884635777 0 0 0 0 -81.985095895106497 -120.9226182691491 0 -120.9226182691491 -16.433579161443049 0 0 0 0 -99.372232570749475 -46.901198906525678 0 -46.901198906525678 17.480965066482895 0 0 0 0 -85.44184632910401 -89.803064441352035 0 -89.803064441352035 -43.06318825542985 0 0 0 0 -160.6401913724967 -86.05124850626089 0 -86.05124850626089 12.932448709441815 0 0 0 0 -7.0128701437943093 -3.6030957219608979 0 -3.6030957219608979 50.768182896926419 0 0 0 0 -152.3646845186413 -84.146090411035402 0 -84.146090411035402 9.4956357229675632 0 0 0 0 -152.18237458566 -113.92583691229811 0 -113.92583691229811 16.558503277403361 0 0 0 0 -197.98822819488942 -84.415997300577146 0 -84.415997300577146 33.110463774035452 0 0 0 0 -213.48719782933404 -74.510937431317871 0 -74.510937431317871 28.459211031535233 0 0 0 0 -182.24121718360766 -159.16780776793166 0 -159.16780776793166 -33.673468291701283 0 0 0 0 -69.546868195175193 -74.680297778853856 0 -74.680297778853856 27.79543984789052 0 0 0 0 -105.76552864000769 -146.44238027204119 0 -146.44238027204119 33.975837697114912 0 0 0 0 -128.76483642321364 -137.97632282384802 0 -137.97632282384802 128.41268024136662 0 0 0 0 -7.1895956423781655 -0.7588935659590561 0 -0.7588935659590561 2.3885516872636288 0 0 0 0 -100.9177521916863 -13.809429250453832 0 -13.809429250453832 221.24751966205076 0 0 0 0 -204.60738090419181 109.2947912223899 0 109.2947912223899 346.04408298269846 0 0 0 0 -198.84890306567831 -187.36968600336695 0 -187.36968600336695 -3.3974283934367122 0 0 0 0 -229.33246861197767 -63.410873644490493 0 -63.410873644490493 245.7338527625252 0 0 0 0 38.999941765287076 62.26868827564067 0 62.26868827564067 -0.72226933855563402 0 0 0 0 -119.57867069086569 -149.27616290777223 0 -149.27616290777223 91.955364918809209 0 0 0 0 -21.559617155002343 -153.42505791678559 0 -153.42505791678559 -123.69729044968517 0 0 0 0 -343.79591117612472 118.73842091365077 0 118.73842091365077 -82.363161094224779 0 0 0 0 97.948097718519421 -78.372290039442305 0 -78.372290039442305 -34.718349410846713 0 0 0 0 311.42246008744041 -317.41406295957859 0 -317.41406295957859 195.42035455770747 0 0 0 0 -18.628080575376202 -226.41407597987518 0 -226.41407597987518 233.65505788871087 0 0 0 0 -615.84728279124101 -101.95943248770345 0 -101.95943248770345 275.05434821368544 0 0 0 0 -216.30953698630401 -188.39888315202552 0 -188.39888315202552 263.30910302518532 0 0 0 0 296.82935080199604 -412.96739870774036 0 -412.96739870774036 353.09195144551632 0 0 0 0 195.13006975541794 -223.25681437324965 0 -223.25681437324965 292.24702064989106 0 0 0 0 162.34995525652721 -258.87814768065618 0 -258.87814768065618 254.773964778753 0 0 0 0 378.91752151304172 -440.08246814321319 0 -440.08246814321319 190.41336700541433 0 0 0 0 169.04870953336285 -436.81577248736721 0 -436.81577248736721 200.19785053527448 0 0 0 0 -44.312719688578909 -413.0888656609568 0 -413.0888656609568 491.36762712278869 0 0 0 0 -89.111265725659905 -46.684305516617314 0 -46.684305516617314 125.29508651077049 0 0 0 0 -3.9052117508857265 -0.86222949629734558 0 -0.86222949629734558 1.6111832163952897 0 0 0 0 0.2479272803193453 106.94880680563801 0 106.94880680563801 329.94653661210032 0 0 0 0 -84.050733546562697 9.2284957272859174 0 9.2284957272859174 81.432930295413826 0 0 0 0 0.1501346269840198 -4.459171334149346 0 -4.459171334149346 13.770126563774284 0 0 0 0 -251.95595544252319 -170.0319837361385 0 -170.0319837361385 763.11379239716916 0 0 0 0 -346.78780130021914 -1652.0960584406348 0 -1652.0960584406348 403.36928548332071 0 0 0 0 -235.06458898539859 -282.20194044499658 0 -282.20194044499658 728.78527366361595 0 0 0 0 733.24994457601861 -537.08748994473717 0 -537.08748994473717 -100.1255368933198 0 0 0 0 397.80109693122358 -832.56570935271884 0 -832.56570935271884 550.9907445863937 0 0 0 0 -1720.8439027460117 -790.21462465982768 0 -790.21462465982768 -334.8868368587282 0 0 0 0 -737.27082968220202 -933.97226577281253 0 -933.97226577281253 -1341.3362555262429 0 0 0 0 -310.04513968576066 -1505.3156113646401 0 -1505.3156113646401 -755.86299238281208 0 0 0 0 -659.50933848524801 -1302.8609955161373 0 -1302.8609955161373 194.76986122273956 0 0 0 0 -829.32534575640602 -682.33569799877296 0 -682.33569799877296 74.42185310611967 0 0 0 0 -252.17632318099982 -648.65687833190441 0 -648.65687833190441 -446.97930781749892 0 0 0 0 -1328.1216612339049 -776.0583054038143 0 -776.0583054038143 -35.776288622349966 0 0 0 0 -749.10770652768406 -728.69222356026876 0 -728.69222356026876 -564.97606598936545 0 0 0 0 -821.4436350687829 -662.49370658766566 0 -662.49370658766566 -106.08809701318387 0 0 0 0 -764.77787400273155 -779.39120430769253 0 -779.39120430769253 122.43923626700416 0 0 0 0 0.21998102087673033 -619.59454910868226 0 -619.59454910868226 27.698096875275951 0 0 0 0 -400.04009657767892 -301.37851379797212 0 -301.37851379797212 -43.777926345166634 0 0 0 0 -121.87741702027415 -283.42333419556962 0 -283.42333419556962 238.74292450922076 0 0 0 0 -350.25060703027339 -696.30455673821416 0 -696.30455673821416 118.57288929191418 0 0 0 0 -773.68200960786635 -545.21743830692139 0 -545.21743830692139 208.4619693295972 0 0 0 0 117.31489593877268 -338.27101437131932 0 -338.27101437131932 97.83372677108855 0 0 0 0 465.18934709796667 -514.56200900828117 0 -514.56200900828117 156.03577700180176 0 0 0 0 201.35982185258763 -293.44551302243781 0 -293.44551302243781 327.16167889494682 0 0 0 0 62.406445183336473 -476.53600670275409 0 -476.53600670275409 440.91043050386361 0 0 0 0 423.75898268093079 -367.81198148996918 0 -367.81198148996918 299.57136158033973 0 0 0 0 691.90636968070976 -373.44947204376513 0 -373.44947204376513 293.96853491211368 0 0 0 0 521.34893553479378 -628.81199205036319 0 -628.81199205036319 660.66799404990161 0 0 0 0 -42.03061764222366 -48.649810395407258 0 -48.649810395407258 545.17704852178576 0 0 0 0 -13.326910717194551 -193.53296082367888 0 -193.53296082367888 1203.3843061362859 0 0 0 0 4.6333634436269904 -3.6010182324799302 0 -3.6010182324799302 3.8238296720474807 0 0 0 0 420.49727446059751 -638.8589241015452 0 -638.8589241015452 765.16444566039718 0 0 0 0 229.2469111517712 37.935132932747365 0 37.935132932747365 5.3903750489262166 0 0 0 0 0.75251781696470488 1.5756227174438848 0 1.5756227174438848 -1.7170568998149065 0 0 0 0 -999.51933177782485 -700.33765677272095 0 -700.33765677272095 -188.89758546961821 0 0 0 0 394.41198461511522 -384.03893988270283 0 -384.03893988270283 243.38958686331171 0 0 0 0 -21.841718665142253 -147.11298258477473 0 -147.11298258477473 158.1177219684032 0 0 0 0 11.543908698767154 -13.433078214880823 0 -13.433078214880823 3.0956670549950616 0 0 0 0 15.302322884650494 10.053015815326944 0 10.053015815326944 8.9484206811175682 0 0 0 0 30.02351442258805 -88.928919647165458 0 -88.928919647165458 188.89055574379745 0 0 0 0 0.87648325312652986 -4.9314690399064176 0 -4.9314690399064176 1.126648455268878 0 0 0 0 87.192044091092612 -224.17478901259165 0 -224.17478901259165 -266.71556706912816 0 0 0 0 -103.6173248742125 135.7861938427086 0 135.7861938427086 79.140104841368156 0 0 0 0 28.820613557410979 -103.00962864012763 0 -103.00962864012763 30.189601574005792 0 0 0 0 16.25621127524235 -31.449250440560377 0 -31.449250440560377 22.353021742170824 0 0 0 0 52.444480433074204 -53.170894810304162 0 -53.170894810304162 -72.093736949827871 0 0 0 0 3.3858229917977027 -37.69192677309934 0 -37.69192677309934 -44.687615147918905 0 0 0 0 32.008701109465619 -73.399332127533853 0 -73.399332127533853 -50.869308962137438 0 0 0 0 60.681554930601123 -42.030724566749996 0 -42.030724566749996 -143.16098854626762 0 0 0 0 -17.63158643664093 -23.387232648329018 0 -23.387232648329018 -0.23254943546376694 0 0 0 0 28.106877088259353 -101.42706153444124 0 -101.42706153444124 27.100865509972209 0 0 0 0 -1.9926886371780199 -17.476051739331524 0 -17.476051739331524 -2.0000555846634356 0 0 0 0 476.35225258450373 -175.88417749400833 0 -175.88417749400833 -556.84798829504143 0 0 0 0 56.33303923989849 -17.905515020408188 0 -17.905515020408188 7.1718225392792192 0 0 0 0 302.57316948575317 -293.85212951055291 0 -293.85212951055291 -84.927605438744649 0 0 0 0 19.735763176859109 20.624930365876935 0 20.624930365876935 -83.190678613842465 0 0 0 0 -10.983354734144086 3.4283284980047029 0 3.4283284980047029 24.007646445148566 0 0 0 0 -27.901494902647755 -280.67281900705711 0 -280.67281900705711 -228.12552663889073 0 0 0 0 78.828966955902104 -42.434224496649421 0 -42.434224496649421 1.2412322729543348 0 0 0 0 -187.42002458279876 -264.22348642203724 0 -264.22348642203724 122.03937079189927 0 0 0 0 172.12534492067607 -72.977912784488581 0 -72.977912784488581 -485.20040416318807 0 0 0 0 438.16488944792945 -633.6341545949399 0 -633.6341545949399 181.58907698621624 0 0 0 0 -246.73404386099355 -370.83358289123862 0 -370.83358289123862 -253.92961053253384 0 0 0 0 530.35367654325091 -414.07611987690325 0 -414.07611987690325 -800.34102597687161 0 0 0 0 277.0766171958403 104.13610523158422 0 104.13610523158422 -922.09744099969976 0 0 0 0 -429.25075483370347 196.39866096798505 0 196.39866096798505 96.452619790070457 0 0 0 0 18.860031720104175 -6.2981161692221121 0 -6.2981161692221121 2.2560934126136658 0 0 0 0 891.06133122606479 55.895174861660053 0 55.895174861660053 -2353.6495392372617 0 0 0 0 -367.12590010684289 -358.71362257946748 0 -358.71362257946748 905.22001356097462 0 0 0 0 -6.7883064160284334 3.6835382768987301 0 3.6835382768987301 1.6620725219711261 0 0 0 0 536.7589872250901 -507.22778126908815 0 -507.22778126908815 -2110.5260644555892 0 0 0 0 85.83569429216368 -389.87399691840983 0 -389.87399691840983 155.23999092502345 0 0 0 0 114.85325699748809 -180.0852264017104 0 -180.0852264017104 120.73779684237755 0 0 0 0 -14.655174522205414 -29.272921586834002 0 -29.272921586834002 75.024257468942977 0 0 0 0 63.201118745045946 -99.859808816821243 0 -99.859808816821243 56.061239039641151 0 0 0 0 44.991812502013843 -98.767209922841886 0 -98.767209922841886 44.41070232241519 0 0 0 0 2127.8338362359596 -6.0859944476032979 0 -6.0859944476032979 -2067.1105106608993 0 0 0 0 -95.035839983938786 -806.77621660576551 0 -806.77621660576551 -499.0472414806427 0 0 0 0 -142.90510055548657 -600.59699256083331 0 -600.59699256083331 -560.98283980658744 0 0 0 0 -136.06660080314032 -1188.8055260882829 0 -1188.8055260882829 623.11403227689152 0 0 0 0 673.82591931249772 -1252.06253406834 0 -1252.06253406834 -748.60544327663956 0 0 0 0 216.60298894282096 112.38396328898671 0 112.38396328898671 1148.5364260480783 0 0 0 0 -228.73573461816704 -346.05730784403568 0 -346.05730784403568 183.74349826918478 0 0 0 0 -224.7033553273568 -396.62635998579935 0 -396.62635998579935 597.30271262701717 0 0 0 0 -113.72982007436804 -6.1386920670192922 0 -6.1386920670192922 586.57506257051136 0 0 0 0 206.92138508094013 -389.10527566850942 0 -389.10527566850942 507.14863807060465 0 0 0 0 335.33884522860353 -271.75471658535389 0 -271.75471658535389 845.32207335362909 0 0 0 0 -48.225988769634569 -56.792374073585961 0 -56.792374073585961 176.27387731882482 0 0 0 0 146.94891168197137 -568.07802916395303 0 -568.07802916395303 1114.9579902461483 0 0 0 0 701.68372140648353 -723.4863050207241 0 -723.4863050207241 611.22160572768189 0 0 0 0 -36.46338480203849 -420.98412837986689 0 -420.98412837986689 -524.14543325648992 0 0 0 0 -721.12888135453431 -463.00712037503035 0 -463.00712037503035 -428.94563917763298 0 0 0 0 -654.7458369171618 -644.16635166913329 0 -644.16635166913329 -353.64943532311008 0 0 0 0 -1477.6249086624448 -696.74383382493397 0 -696.74383382493397 -58.807991891953861 0 0 0 0 -995.13129601828041 -970.44520037847178 0 -970.44520037847178 -532.11630783547298 0 0 0 0 -901.8419787824605 -694.26826784503646 0 -694.26826784503646 -353.80464478360955 0 0 0 0 -606.75625390451023 -800.32445875091798 0 -800.32445875091798 -647.84069694625214 0 0 0 0 48.841107127038413 -587.36030677631788 0 -587.36030677631788 -713.30030107524362 0 0 0 0 214.75170272965624 -397.52974341278605 0 -397.52974341278605 -640.6222877241089 0 0 0 0 36.005728621559683 -483.82807369562215 0 -483.82807369562215 -598.51938674692792 0 0 0 0 369.11091440926975 -212.83707836284157 0 -212.83707836284157 -562.95879256172339 0 0 0 0 0.75657625179337629 -261.31083086769104 0 -261.31083086769104 -560.21738599217497 0 0 0 0 92.195998677734678 -477.51276944142592 0 -477.51276944142592 -626.87204426070093 0 0 0 0 391.18430071987677 -455.86622891660954 0 -455.86622891660954 -679.91832391195203 0 0 0 0 1.6257768234392529 -2.1941559341569246 0 -2.1941559341569246 -4.3292226307365809 0 0 0 0 -6.7469631644986521 -11.973920675422619 0 -11.973920675422619 20.861906629168232 0 0 0 0 -354.71498362764396 -340.53223392805376 0 -340.53223392805376 -19.49575468567491 0 0 0 0 154.78162739227992 -383.9835824248803 0 -383.9835824248803 -563.82256387668895 0 0 0 0 141.90264302713331 -67.737011335935676 0 -67.737011335935676 -22.420085963455676 0 0 0 0 -14.479838769089838 -73.045954216897371 0 -73.045954216897371 116.70202790669282 0 0 0 0 52.342606419995548 -103.13197568619279 0 -103.13197568619279 -12.229770780198272 0 0 0 0 -976.73331659098039 -1350.4202540448314 0 -1350.4202540448314 -1969.5152539333303 0 0 0 0 -32.323160456238583 -0.64628629232851154 0 -0.64628629232851154 -25.373830358603875 0 0 0 0 1990.0039277924516 -4057.9616451725888 0 -4057.9616451725888 -7030.2170079971984 0 0 0 0 -1374.6682336571175 388.18721568481124 0 388.18721568481124 832.05969544904656 0 0 0 0 -1380.7328165289218 -549.62147543564788 0 -549.62147543564788 -1287.6846283238847 0 0 0 0 39.040056059834171 -83.030099927988857 0 -83.030099927988857 -84.51840514348828 0 0 0 0 -1250.3440779412413 -387.95488967488927 0 -387.95488967488927 -1552.1060360461997 0 0 0 0 -1085.4908051632228 -601.37396557157626 0 -601.37396557157626 -1601.2377665034146 0 0 0 0 -907.75758742536709 -237.09269667119952 0 -237.09269667119952 169.65255241544219 0 0 0 0 541.9100114194589 -591.48352170544968 0 -591.48352170544968 47.327922981232405 0 0 0 0 116.62362275129999 -71.89341379115649 0 -71.89341379115649 -252.50728649408848 0 0 0 0 -2149.4336973686695 -2732.9496961257537 0 -2732.9496961257537 -1575.4334355659084 0 0 0 0 -880.46144828646584 -510.64648955752546 0 -510.64648955752546 -32.626146729511674 0 0 0 0 -3974.1375954221294 -853.31972078536637 0 -853.31972078536637 597.76387006453297 0 0 0 0 -15.225572905195918 -112.48628281224308 0 -112.48628281224308 -13.805158666066362 0 0 0 0 -4263.6497901948169 131.99388001374973 0 131.99388001374973 -239.91917414977797 0 0 0 0 1081.287323198907 183.19111326905841 0 183.19111326905841 -468.26577142663882 0 0 0 0 124.19826022624329 -1555.9989836789318 0 -1555.9989836789318 -2385.6401612790505 0 0 0 0 -371.10554176684673 -12.16967958729947 0 -12.16967958729947 587.33155714189343 0 0 0 0 -28.215820121877073 -109.92859017974894 0 -109.92859017974894 17.362739776905634 0 0 0 0 -15.733905918379605 -605.30742668196763 0 -605.30742668196763 -526.95097473083297 0 0 0 0 -263.01368184878083 -1497.4159356992022 0 -1497.4159356992022 -768.40760072265402 0 0 0 0 -522.10385868127196 -1169.8627850485354 0 -1169.8627850485354 -1006.4735441414814 0 0 0 0 -23.032279082428431 -33.678637541015632 0 -33.678637541015632 268.00826656536083 0 0 0 0 -20.5545300374433 -109.32081462191408 0 -109.32081462191408 7.3575746292625794 0 0 0 0 28.565767056759796 45.349986943765543 0 45.349986943765543 311.14907351890724 0 0 0 0 -24.882572384020023 -97.583098968971171 0 -97.583098968971171 91.903117214365921 0 0 0 0 -47.642341315633004 -13.43575992912173 0 -13.43575992912173 79.776864355712235 0 0 0 0 148.50884421008232 -210.88219582728925 0 -210.88219582728925 197.0015811874182 0 0 0 0 1.0241653434073896 -11.914585068728186 0 -11.914585068728186 -4.6764615416832953 0 0 0 0 114.05099097964558 90.458350955253991 0 90.458350955253991 30.845209378458094 0 0 0 0 -659.61570572097844 -392.70379558372952 0 -392.70379558372952 229.1044891383317 0 0 0 0 -838.23974025753705 -242.15889704384608 0 -242.15889704384608 -70.07962672697613 0 0 0 0 -8.6893348986837964 -8.5537255007278077 0 -8.5537255007278077 7.4144854584505708 0 0 0 0 61.873642629265305 -66.98521881011402 0 -66.98521881011402 -745.76336949842516 0 0 0 0 -390.90721459911583 -911.01061279400892 0 -911.01061279400892 -1015.5741110141826 0 0 0 0 -716.87355136813858 -1266.2519371744129 0 -1266.2519371744129 -403.12109887643601 0 0 0 0 -961.8186006658616 -646.7635822307202 0 -646.7635822307202 -616.5722476755036 0 0 0 0 -146.35469936901791 -302.5685737272579 0 -302.5685737272579 -9.9916915051435353 0 0 0 0 -815.25589059328195 -1103.5996388611093 0 -1103.5996388611093 -467.41799021822226 0 0 0 0 -1330.5913791680869 -1449.8307432570873 0 -1449.8307432570873 -694.25270007434301 0 0 0 0 -637.21914996005216 -1215.7396651403833 0 -1215.7396651403833 -840.2826691003138 0 0 0 0 -647.17408044137846 -920.17353384607122 0 -920.17353384607122 -1172.9803238359018 0 0 0 0 -717.62445364795713 -496.93053532173508 0 -496.93053532173508 -847.06053334193712 0 0 0 0 -1418.1780213330785 -955.08130878813972 0 -955.08130878813972 -446.54883809169405 0 0 0 0 -1352.0292601763981 -404.26235778796126 0 -404.26235778796126 -468.58886775639257 0 0 0 0 -1024.442847339742 -1470.8349409907969 0 -1470.8349409907969 -1731.4154673370067 0 0 0 0 333.7876849388158 -1322.4413670262365 0 -1322.4413670262365 -774.99858816800406 0 0 0 0 -820.57193076592375 -777.72379702535545 0 -777.72379702535545 536.48482125718147 0 0 0 0 -451.29997921186077 -1732.0002714796647 0 -1732.0002714796647 -741.51951052309596 0 0 0 0 -2.2889133059098405 -4.1016203744231703 0 -4.1016203744231703 -13.269214769132759 0 0 0 0 -2909.6076754021342 -971.66841507663776 0 -971.66841507663776 207.31928442031494 0 0 0 0 -827.50558269972771 -861.2202928537572 0 -861.2202928537572 190.64833274515695 0 0 0 0 -810.38575084027252 -950.21719580651552 0 -950.21719580651552 92.569148166308878 0 0 0 0 -852.29359812572875 -1141.6864734511 0 -1141.6864734511 -218.38708809943637 0 0 0 0 -640.58985355899495 -1701.8942382756068 0 -1701.8942382756068 579.79755350368941 0 0 0 0 -477.50781705978261 -1769.6952728266151 0 -1769.6952728266151 -629.50805585714988 0 0 0 0 -1280.287943074065 -753.40185848067631 0 -753.40185848067631 582.0870269191073 0 0 0 0 1.0596175178971521 -8.6395906593389213 0 -8.6395906593389213 10.50187591213728 0 0 0 0 718.81872724046116 -2971.7273602201603 0 -2971.7273602201603 -400.14351837983122 0 0 0 0 -1313.7760840027622 -1100.6166947112652 0 -1100.6166947112652 853.79883327499556 0 0 0 0 -1116.2136893148563 -1001.9569218072429 0 -1001.9569218072429 269.05055675876793 0 0 0 0 -1310.0727528177085 -470.29853742325213 0 -470.29853742325213 -63.241389520990197 0 0 0 0 -1285.3409900361075 -800.65404728813155 0 -800.65404728813155 211.75110709079308 0 0 0 0 -1667.5356975760203 -1567.0503803262368 0 -1567.0503803262368 -783.80497035878943 0 0 0 0 -990.03212166790399 -853.00934073316603 0 -853.00934073316603 -1051.1564340495097 0 0 0 0 -2704.2693358340548 -128.190801248551 0 -128.190801248551 -1865.7640001177933 0 0 0 0 -170.73253188871604 -1420.5060754051683 0 -1420.5060754051683 -644.97215099749155 0 0 0 0 1.7194358269164098 -7.0123710210639842 0 -7.0123710210639842 5.6276859087208777 0 0 0 0 -337.7783546763676 -1782.7145600756339 0 -1782.7145600756339 -632.03516578467679 0 0 0 0 -255.26559766002174 -1553.788935095421 0 -1553.788935095421 -456.14455610084406 0 0 0 0 -219.84923340054411 -1601.1304188520589 0 -1601.1304188520589 -433.52990011975635 0 0 0 0 -234.72991587151773 -1260.3587305386754 0 -1260.3587305386754 -523.91963057534304 0 0 0 0 -192.25129260532049 -1537.2864790094172 0 -1537.2864790094172 -480.61252618941944 0 0 0 0 -554.00887137972313 -928.33779696034617 0 -928.33779696034617 -1050.8250095176045 0 0 0 0 -469.47092109770165 -803.24020945359371 0 -803.24020945359371 -852.77146965425345 0 0 0 0 -269.95245664157846 -1324.3733357198653 0 -1324.3733357198653 -627.47924715587578 0 0 0 0 -310.05079946115802 -1275.7706489401608 0 -1275.7706489401608 -791.0723549289396 0 0 0 0 1.5832354617609639 -15.042570496976111 0 -15.042570496976111 19.227872863274342 0 0 0 0 -1985.6405934819777 -1654.9082362820482 0 -1654.9082362820482 -595.96029542290489 0 0 0 0 -1486.3274676199799 -446.17353714382625 0 -446.17353714382625 -780.38938512031018 0 0 0 0 219.86765123340592 -829.12279784140992 0 -829.12279784140992 -237.36615749399061 0 0 0 0 0.35722587834788655 -19.062685888236064 0 -19.062685888236064 -34.626862381633714 0 0 0 0 301.96145391479877 -47.342199005288421 0 -47.342199005288421 -20.957674212520942 0 0 0 0 184.28658109775279 -929.01549248529773 0 -929.01549248529773 -68.12928303904755 0 0 0 0 115.46473882121973 -734.41699132169379 0 -734.41699132169379 251.13339265191462 0 0 0 0 -306.07458884439257 -565.34518971163197 0 -565.34518971163197 -46.686703637475148 0 0 0 0 -937.18709340714122 -1206.7094469412114 0 -1206.7094469412114 -70.791357094654813 0 0 0 0 -737.58680183202523 -1815.8587513612874 0 -1815.8587513612874 -516.96956851682626 0 0 0 0 -506.85728685365029 -1552.5596067731531 0 -1552.5596067731531 -216.60751227859873 0 0 0 0 -135.48185170289071 -1393.5898090409755 0 -1393.5898090409755 -285.17679939510708 0 0 0 0 -265.82059104634391 -1205.7078250429331 0 -1205.7078250429331 44.169165523839183 0 0 0 0 396.09714433859335 -729.66793856448203 0 -729.66793856448203 103.00671328185126 0 0 0 0 21.731838109000819 -1125.5662489807873 0 -1125.5662489807873 -244.24635931923694 0 0 0 0 -302.77829062749515 -1459.5678497231565 0 -1459.5678497231565 -224.42124620522372 0 0 0 0 -165.31530809332617 -1337.7963367512275 0 -1337.7963367512275 -460.19604650273686 0 0 0 0 -53.736735363185289 -883.75886519913911 0 -883.75886519913911 -301.25019073540898 0 0 0 0 403.68216402377584 -692.04076435224852 0 -692.04076435224852 -56.116970907838549 0 0 0 0 -10.13661438645795 -1117.9102157209563 0 -1117.9102157209563 -118.28531769022811 0 0 0 0 503.19984169946838 -802.03171438464778 0 -802.03171438464778 13.701883031055331 0 0 0 0 1189.2898880593129 -386.32340831420152 0 -386.32340831420152 182.30258793191751 0 0 0 0 1609.1252573185775 -907.56352150894236 0 -907.56352150894236 829.43315648625139 0 0 0 0 8.9138968011592112 -3.7681788903721269 0 -3.7681788903721269 -6.7616739769056267 0 0 0 0 1021.957308512603 -183.67081025437801 0 -183.67081025437801 367.55669125900022 0 0 0 0 1086.0384914454262 -353.12858367980516 0 -353.12858367980516 549.01476386212744 0 0 0 0 113.40979844488902 -181.14049401209923 0 -181.14049401209923 120.55161021664208 0 0 0 0 4.3242693865347235 -32.320275445131813 0 -32.320275445131813 -45.194094350861405 0 0 0 0 233.70675160887185 -193.58729990207939 0 -193.58729990207939 119.11220218131166 0 0 0 0 64.325113916529517 -227.97751056768175 0 -227.97751056768175 169.61865628970554 0 0 0 0 103.67037024564343 -179.2614374669065 0 -179.2614374669065 166.62910095691586 0 0 0 0 98.080935193902405 -226.66062327535474 0 -226.66062327535474 95.28838504885789 0 0 0 0 41.228607385157375 -162.48106973731774 0 -162.48106973731774 80.561823840394936 0 0 0 0 409.31608640942068 -283.59118274169305 0 -283.59118274169305 15.665906240930781 0 0 0 0 76.883903041452868 -258.16000802503549 0 -258.16000802503549 136.11379849881632 0 0 0 0 48.540193713168264 -377.72012153740798 0 -377.72012153740798 68.455364572044346 0 0 0 0 318.70300287628197 -326.22599246641039 0 -326.22599246641039 57.128529651614372 0 0 0 0 711.50905533044534 -12.647508711183036 0 -12.647508711183036 -461.35930202368763 0 0 0 0 75.677260595977714 -274.34897568919405 0 -274.34897568919405 -139.02370298616006 0 0 0 0 -29.591067133180331 -208.82089373008057 0 -208.82089373008057 -169.55374391339137 0 0 0 0 176.66734563510545 -279.39070594491204 0 -279.39070594491204 -609.52924550001626 0 0 0 0 -84.317404928075121 -513.01948379862733 0 -513.01948379862733 -564.71249827701831 0 0 0 0 -800.47880538032769 -1159.5115064611527 0 -1159.5115064611527 -911.67398149534711 0 0 0 0 275.28901617087831 -641.01463123119902 0 -641.01463123119902 -1115.2314254208759 0 0 0 0 165.23344972972336 -401.70841992394708 0 -401.70841992394708 -457.13021087410743 0 0 0 0 274.07494849553041 -265.78532163095952 0 -265.78532163095952 -433.94523137673241 0 0 0 0 72.439703605150839 -139.28739273481665 0 -139.28739273481665 -8.1158335157379042 0 0 0 0 159.86933334539935 -431.70366364780057 0 -431.70366364780057 -165.18761435730266 0 0 0 0 430.49808422920614 -525.45473824851797 0 -525.45473824851797 -29.70407099739532 0 0 0 0 264.83996626349108 -69.730734953249339 0 -69.730734953249339 271.56683462999354 0 0 0 0 698.71312490011042 -416.5624473699354 0 -416.5624473699354 125.75665844003379 0 0 0 0 206.80110082120154 -239.59959733842697 0 -239.59959733842697 64.804889998253202 0 0 0 0 75.704294668168586 -203.36683341550088 0 -203.36683341550088 206.26467957458226 0 0 0 0 80.709737304998271 -172.37116308587429 0 -172.37116308587429 212.42458433929278 0 0 0 0 229.010368104995 -301.69105382195721 0 -301.69105382195721 227.14444271885441 0 0 0 0 190.86288226458419 -277.25381975208438 0 -277.25381975208438 217.80074351186704 0 0 0 0 2.8400175207152927 -31.332073222006471 0 -31.332073222006471 -42.322307700606132 0 0 0 0 -12.176977818147861 -61.752991835528519 0 -61.752991835528519 75.579793941331445 0 0 0 0 2.6795048242336463 -32.281747420568308 0 -32.281747420568308 -43.16953418032233 0 0 0 0 -10.958749141369481 -223.23045786746661 0 -223.23045786746661 125.69553545420058 0 0 0 0 202.00595552769209 -165.5143160780035 0 -165.5143160780035 173.24540164104837 0 0 0 0 42.532861863815924 -30.472641343032592 0 -30.472641343032592 6.2025276690255851 0 0 0 0 -3.4099671198033334 -11.256656119066449 0 -11.256656119066449 18.124885474073039 0 0 0 0 -48.616673303753487 -61.540388083929429 0 -61.540388083929429 106.07368948576914 0 0 0 0 1819.5623479201349 -549.41702979413822 0 -549.41702979413822 -179.24260032382153 0 0 0 0 1.6679193571980804 -0.8919880933318538 0 -0.8919880933318538 2.9008123832945785 0 0 0 0 -179.31875763383869 -6.4820820803870447 0 -6.4820820803870447 30.763549361923651 0 0 0 0 -18.326592894234636 -145.68043167718133 0 -145.68043167718133 -140.73605920429691 0 0 0 0 -103.26854513341823 -46.553921124184853 0 -46.553921124184853 -117.3685796110949 0 0 0 0 -75.712208457171073 -82.081577406665019 0 -82.081577406665019 -402.20546508367988 0 0 0 0 2420.1143767978701 -680.1422935499686 0 -680.1422935499686 -219.76512924558483 0 0 0 0 -254.9605897544825 -97.807239934911195 0 -97.807239934911195 -77.684447435283801 0 0 0 0 1523.4079031006841 -852.5270384423784 0 -852.5270384423784 29.793265570595395 0 0 0 0 1556.6681982697992 -730.8822575160666 0 -730.8822575160666 11.929043540207203 0 0 0 0 1303.2428898092112 -414.14716830105317 0 -414.14716830105317 -270.91766866503167 0 0 0 0 -105.45918927082676 47.368124111148063 0 47.368124111148063 211.65169523024815 0 0 0 0 12.384818756983975 0.53557975187171536 0 0.53557975187171536 -6.3566961817515448 0 0 0 0 1164.7171637752763 -591.04541175129998 0 -591.04541175129998 -403.3645778467702 0 0 0 0 89.9682221661933 -18.625125295395264 0 -18.625125295395264 -162.77833593612013 0 0 0 0 18.300071306824975 49.302284528748714 0 49.302284528748714 -67.231757694113185 0 0 0 0 10.951844510193041 72.117868415181874 0 72.117868415181874 -130.54523424204672 0 0 0 0 148.19137034757296 -405.03966993484937 0 -405.03966993484937 -749.82762960257242 0 0 0 0 50.036160127828396 8.39616271677545 0 8.39616271677545 -10.799270529085959 0 0 0 0 87.325504418733999 -40.112851608764686 0 -40.112851608764686 -149.49645277412492 0 0 0 0 94.622557810746002 -132.63145855884068 0 -132.63145855884068 1.7394148850871716 0 0 0 0 123.69789399688307 -77.321851278771646 0 -77.321851278771646 -161.81432043699897 0 0 0 0 63.425949862066773 -62.982819353521336 0 -62.982819353521336 -357.29730927711353 0 0 0 0 65.279000582631852 -34.795804260618752 0 -34.795804260618752 -105.09959257490118 0 0 0 0 -953.02878139238601 -885.91954906015599 0 -885.91954906015599 -247.86011820618296 0 0 0 0 -1764.3833005516717 -790.4346972641797 0 -790.4346972641797 658.29670417658053 0 0 0 0 -989.16227814007289 -506.72278539050603 0 -506.72278539050603 -42.211548801118624 0 0 0 0 -1308.7951048085888 -403.59289969196834 0 -403.59289969196834 -805.74302978895139 0 0 0 0 3.6177131857977685 -14.696257173198575 0 -14.696257173198575 18.333121283321191 0 0 0 0 -1556.1677483263638 -1269.4089467130243 0 -1269.4089467130243 -651.98616078461055 0 0 0 0 -2164.2643158727951 -1545.1348779770924 0 -1545.1348779770924 -507.76319114660146 0 0 0 0 -1044.5894634835131 -1271.9746243573754 0 -1271.9746243573754 -1149.5374221661041 0 0 0 0 -1292.257198429179 -828.66461069037541 0 -828.66461069037541 -236.62524579052115 0 0 0 0 -515.29119200559217 -883.74636781270965 0 -883.74636781270965 -711.52202564297477 0 0 0 0 -921.7321802430306 -1060.9248651991657 0 -1060.9248651991657 -479.57300160150044 0 0 0 0 -196.88259977617417 -1120.1933476405538 0 -1120.1933476405538 -568.61941929528257 0 0 0 0 -510.25776277952946 -703.49135529604609 0 -703.49135529604609 -280.80586805241182 0 0 0 0 -62.520578068390023 -867.02355792149319 0 -867.02355792149319 -346.46565234909849 0 0 0 0 18.532188494165894 -579.07542901480338 0 -579.07542901480338 -334.46271163766505 0 0 0 0 -553.14871190975828 -690.3553230339021 0 -690.3553230339021 -33.574424808699405 0 0 0 0 -416.90956559834012 -801.47421287593897 0 -801.47421287593897 -447.8013665091421 0 0 0 0 -581.16325756604601 -814.43743762388476 0 -814.43743762388476 180.46299018402351 0 0 0 0 -619.17631781839009 -564.80998791739694 0 -564.80998791739694 225.42715738760307 0 0 0 0 -0.96982080877933186 -609.4416365189827 0 -609.4416365189827 22.909524248039816 0 0 0 0 -242.45829862915707 -444.73072817883804 0 -444.73072817883804 -82.493136805016547 0 0 0 0 385.5028076433664 -713.99640910781454 0 -713.99640910781454 53.9966389805777 0 0 0 0 398.10893719940213 -404.64937776961597 0 -404.64937776961597 98.156058447646501 0 0 0 0 -6.9290306176044396 -595.01084105482732 0 -595.01084105482732 270.81887826084858 0 0 0 0 955.17192816788156 -486.07377457775874 0 -486.07377457775874 -78.29410369582547 0 0 0 0 32.02892385099949 -473.09915169710985 0 -473.09915169710985 -42.046715017175302 0 0 0 0 -73.433883220063763 -779.73007294529452 0 -779.73007294529452 -51.365162387373857 0 0 0 0 356.4096728261793 -615.62307973823044 0 -615.62307973823044 -213.02747463863125 0 0 0 0 50.05159909453505 -1010.3093345527886 0 -1010.3093345527886 -186.04546730202856 0 0 0 0 454.77493905164738 -775.75721558498481 0 -775.75721558498481 -39.994240538624581 0 0 0 0 1071.6421477264375 -751.43045444437303 0 -751.43045444437303 248.74288240301394 0 0 0 0 1439.2701311240962 -811.57925074013474 0 -811.57925074013474 -29.429682698566467 0 0 0 0 920.01510556612629 -491.88376136709121 0 -491.88376136709121 -40.580474209913518 0 0 0 0 990.19652018073248 -414.30992364659323 0 -414.30992364659323 90.33286054317432 0 0 0 0 527.72301525707735 -821.06584187562112 0 -821.06584187562112 -56.320536569633987 0 0 0 0 943.34804143218207 -420.68064018379664 0 -420.68064018379664 373.26186515226436 0 0 0 0 1734.3951179656433 -185.78893405458075 0 -185.78893405458075 106.68486494028184 0 0 0 0 950.28064833534881 -668.73337565612746 0 -668.73337565612746 111.79506990229129 0 0 0 0 882.19512461946579 -583.55161704163766 0 -583.55161704163766 184.04407898383215 0 0 0 0 1666.6979815463419 -503.3781595355249 0 -503.3781595355249 23.455022567810374 0 0 0 0 1496.692210516896 -798.87638723247801 0 -798.87638723247801 29.499105876137037 0 0 0 0 1026.5499902267256 -651.43762104996131 0 -651.43762104996131 173.27679221762082 0 0 0 0 364.38738602079684 -715.04177592799533 0 -715.04177592799533 333.46176695979375 0 0 0 0 344.44929712295198 -626.824263698094 0 -626.824263698094 179.09874808939639 0 0 0 0 -14.68097767882864 -647.3775131184957 0 -647.3775131184957 387.33142266370123 0 0 0 0 -29.82380109114456 -605.37388493161416 0 -605.37388493161416 391.54862393266012 0 0 0 0 955.75019256535234 -646.04324460870885 0 -646.04324460870885 134.00701408734312 0 0 0 0 882.76751370568218 -587.39876953528437 0 -587.39876953528437 52.721692912455183 0 0 0 0 340.88659643627761 -570.81627076794393 0 -570.81627076794393 266.32869403780205 0 0 0 0 321.99248626691042 -504.70585177905377 0 -504.70585177905377 175.64655268733623 0 0 0 0 -59.468554914536071 -551.60486823838437 0 -551.60486823838437 300.25692997974693 0 0 0 0 -313.35719752502337 -529.71415503133903 0 -529.71415503133903 319.39696323155658 0 0 0 0 -293.66403722036921 -650.18764398642816 0 -650.18764398642816 200.39687180976034 0 0 0 0 -457.1414992724167 -637.63381449898588 0 -637.63381449898588 392.12022294843337 0 0 0 0 -233.08941491926089 -692.06393895560177 0 -692.06393895560177 375.44330270256614 0 0 0 0 -151.61706552430405 -553.93693031932344 0 -553.93693031932344 468.12604678230127 0 0 0 0 -222.39113477486535 -624.35142733849352 0 -624.35142733849352 478.1737542253868 0 0 0 0 -266.84446676651714 -582.00328621666995 0 -582.00328621666995 473.41921677929349 0 0 0 0 143.70984209372546 -806.60527880082373 0 -806.60527880082373 60.968111051653977 0 0 0 0 -101.06547002882144 -701.29063763291924 0 -701.29063763291924 468.3315457374556 0 0 0 0 -272.36288459654315 -864.20275396149373 0 -864.20275396149373 433.51571854889335 0 0 0 0 -250.93787063569471 -778.57774097978836 0 -778.57774097978836 697.48201269295532 0 0 0 0 41.880391483879066 -1092.3144396187563 0 -1092.3144396187563 -155.01176284640678 0 0 0 0 -600.76469008243294 -1155.7733614095487 0 -1155.7733614095487 1579.2304755616351 0 0 0 0 -14.747314851818373 -420.43303896381985 0 -420.43303896381985 1039.6638810489094 0 0 0 0 -527.07553424270009 -1387.899463217007 0 -1387.899463217007 484.51245494995965 0 0 0 0 -282.17770593526075 -741.27780096462811 0 -741.27780096462811 654.97951988648856 0 0 0 0 -264.45572189961968 -633.72330483401311 0 -633.72330483401311 688.62785024475306 0 0 0 0 326.8212469021546 -1192.0042460223485 0 -1192.0042460223485 688.63412028178573 0 0 0 0 -1000.9605376132349 -865.71912619805516 0 -865.71912619805516 894.77074998793978 0 0 0 0 -977.5559602299254 -997.8485793807049 0 -997.8485793807049 1528.2134292427363 0 0 0 0 -708.1699231538405 -1897.3359119120287 0 -1897.3359119120287 413.51001461109263 0 0 0 0 -1020.6707168713911 -903.89192607406585 0 -903.89192607406585 650.94919312596903 0 0 0 0 -330.48865358310286 -1147.5611600289412 0 -1147.5611600289412 693.18799153249711 0 0 0 0 -432.11260964857502 -675.48290687404369 0 -675.48290687404369 200.81762553716544 0 0 0 0 -929.45389949213131 -1177.6812401066854 0 -1177.6812401066854 765.96688643778907 0 0 0 0 55.148652539508475 -486.97544312341779 0 -486.97544312341779 -390.71455086414062 0 0 0 0 -975.32327475659167 -278.9532952804002 0 -278.9532952804002 -164.3055393321265 0 0 0 0 -0.84882733228170082 -5.8678378675828355 0 -5.8678378675828355 8.744117625362378 0 0 0 0 296.90668995169835 -1337.3868591234495 0 -1337.3868591234495 -893.11564326500229 0 0 0 0 4.33956401214094 -2.8644726489301036 0 -2.8644726489301036 -5.0195904192016769 0 0 0 0 335.53270790794863 -1771.2401286022196 0 -1771.2401286022196 634.41487084273831 0 0 0 0 49.171267456069472 -342.11344051074411 0 -342.11344051074411 664.45706432907764 0 0 0 0 450.94667494873283 -394.7494318891695 0 -394.7494318891695 153.35519954646588 0 0 0 0 413.52740604334394 -505.04107746841328 0 -505.04107746841328 -156.41953756289217 0 0 0 0 755.25100182764072 -904.05184773647488 0 -904.05184773647488 670.72824782677344 0 0 0 0 1018.4143415999933 -270.8727341684571 0 -270.8727341684571 349.46926652502225 0 0 0 0 9.743148304798666 -3.3518580373036002 0 -3.3518580373036002 -10.248591364772267 0 0 0 0 845.08083610901485 -848.08844278111337 0 -848.08844278111337 464.00661003601272 0 0 0 0 564.18498157435533 -305.59451673783769 0 -305.59451673783769 47.776564492131001 0 0 0 0 708.22425389234559 -480.27823854946473 0 -480.27823854946473 -81.15001886250684 0 0 0 0 243.54989040495275 -186.43288587713323 0 -186.43288587713323 58.329129290868877 0 0 0 0 690.7419377128208 -469.24472184770275 0 -469.24472184770275 -0.061993733441340737 0 0 0 0 938.77004363812057 -431.30221277101191 0 -431.30221277101191 -69.883999614685308 0 0 0 0 -37.537587411947243 -503.77992569885464 0 -503.77992569885464 -0.063081296830205247 0 0 0 0 -410.23104409993539 -176.04235207277088 0 -176.04235207277088 -65.952306585160841 0 0 0 0 -824.31759415161287 -492.07256645350571 0 -492.07256645350571 73.986062597061391 0 0 0 0 -696.6421762319078 -343.42063600981783 0 -343.42063600981783 -58.793244160304312 0 0 0 0 2.0493561443561958 -21.153999998260993 0 -21.153999998260993 -31.544254728502892 0 0 0 0 488.1734155938575 -563.54479430910214 0 -563.54479430910214 834.58337318457779 0 0 0 0 -86.547335876755824 -803.03507445407013 0 -803.03507445407013 144.70171488114283 0 0 0 0 557.87827742822265 -386.79239450928435 0 -386.79239450928435 -306.90241841899115 0 0 0 0 -113.69496458466074 -313.87507371959418 0 -313.87507371959418 -543.17353911211831 0 0 0 0 79.062723858529353 -513.45637234218884 0 -513.45637234218884 -340.05638514775637 0 0 0 0 -117.03256388028694 -328.52268484489377 0 -328.52268484489377 -256.6490506240516 0 0 0 0 59.965876936792483 -2.1928365981113984 0 -2.1928365981113984 -15.590349658094908 0 0 0 0 1504.5910252043104 332.0619805772003 0 332.0619805772003 -53.132719393906882 0 0 0 0 863.74774207187875 -1122.0227298453392 0 -1122.0227298453392 1115.8930206956211 0 0 0 0 10.126149524622832 -10.915020469386945 0 -10.915020469386945 -3.110527583751491 0 0 0 0 2311.0277590306359 -881.77974029426696 0 -881.77974029426696 -227.58705861980525 0 0 0 0 1476.8699779133203 -1316.1140617102719 0 -1316.1140617102719 1088.3705125173437 0 0 0 0 1004.6126683176772 -240.67649724262446 0 -240.67649724262446 1089.5928153631935 0 0 0 0 1914.637947048519 -1037.2123277740502 0 -1037.2123277740502 453.99693004484288 0 0 0 0 1362.589733487901 -583.28363891217305 0 -583.28363891217305 77.886901845951797 0 0 0 0 1803.9999662914415 -1212.1877159564319 0 -1212.1877159564319 459.00090832916612 0 0 0 0 1982.012672745951 -1022.4149634854766 0 -1022.4149634854766 182.43198506781482 0 0 0 0 9.2185617118996106 -1.5697037006133314 0 -1.5697037006133314 -7.1385772922269553 0 0 0 0 1924.9950780087383 -1348.1838706276758 0 -1348.1838706276758 429.29669615929106 0 0 0 0 736.12270916631678 -534.38873354639509 0 -534.38873354639509 -0.70335247291950509 0 0 0 0 724.4859561297344 -149.1158470378723 0 -149.1158470378723 -381.08902695629513 0 0 0 0 1747.7824220708626 -1075.2475016948392 0 -1075.2475016948392 0.52195905288681388 0 0 0 0 1624.8900170992129 -654.71228143072221 0 -654.71228143072221 -761.63600339792902 0 0 0 0 2082.5196835983588 -1014.7146519453891 0 -1014.7146519453891 8.2771578518986644 0 0 0 0 -3.8243331640017715 -7.0355174249170815 0 -7.0355174249170815 -8.3767013888362953 0 0 0 0 -2219.5038381642134 -194.09007720318914 0 -194.09007720318914 390.55429881450254 0 0 0 0 892.84493253102119 -2212.7153924282538 0 -2212.7153924282538 0.4396921401739492 0 0 0 0 2370.1838794606374 1025.3147182245302 0 1025.3147182245302 176.35099580303358 0 0 0 0 12.499114183479122 -8.9790432164434151 0 -8.9790432164434151 7.7205817460323942 0 0 0 0 -849.33834118166851 -514.3413430693472 0 -514.3413430693472 -1.0803046401852043 0 0 0 0 651.94809931681084 -229.19916072227352 0 -229.19916072227352 -109.87712324295717 0 0 0 0 375.57773431448368 -86.784154784450948 0 -86.784154784450948 -180.89219157837215 0 0 0 0 471.58004179375712 -339.95837386049971 0 -339.95837386049971 -296.96243180800957 0 0 0 0 -65.073479121056153 -192.03895011429267 0 -192.03895011429267 -567.14414679380207 0 0 0 0 356.17337905250315 -120.49070914348704 0 -120.49070914348704 -560.88604171352927 0 0 0 0 68.554778563843911 -52.964840665848385 0 -52.964840665848385 35.539662941786105 0 0 0 0 454.98343788225839 -453.75406509290815 0 -453.75406509290815 -665.43980851361994 0 0 0 0 -941.14900184357248 -1163.8141037846653 0 -1163.8141037846653 -838.59699934179662 0 0 0 0 419.98559457986266 -149.54403007746441 0 -149.54403007746441 -594.14675530928798 0 0 0 0 39.294177414800942 -31.230860985115839 0 -31.230860985115839 19.26824933752124 0 0 0 0 1070.7977834262092 451.31536092008173 0 451.31536092008173 -193.31551000889158 0 0 0 0 338.48750786027722 331.42545326627351 0 331.42545326627351 -102.35211964129121 0 0 0 0 -1068.4208768400131 -1103.4116012858722 0 -1103.4116012858722 -850.16967362940341 0 0 0 0 -1068.5119964978221 -932.70799346649801 0 -932.70799346649801 -617.97540325546288 0 0 0 0 -1070.5040937991434 -922.53730577911483 0 -922.53730577911483 -502.03646592632867 0 0 0 0 -980.20095071883406 -765.11602669747663 0 -765.11602669747663 -463.22926282682602 0 0 0 0 -1257.5211484557585 -828.51539931172738 0 -828.51539931172738 -0.032065825347672217 0 0 0 0 -1339.7522714874576 -985.6876816521908 0 -985.6876816521908 -281.64974944977439 0 0 0 0 -1406.7058176120117 -1006.6559680574283 0 -1006.6559680574283 -0.16274949164653663 0 0 0 0 -1417.6794383843226 -1122.8976761200829 0 -1122.8976761200829 -210.89252207579557 0 0 0 0 -1347.6937097561313 -1076.7614677840465 0 -1076.7614677840465 -248.03395297991665 0 0 0 0 -1239.0848830747127 -993.63643891739775 0 -993.63643891739775 -281.66003630148464 0 0 0 0 -1307.7274272668874 -1127.4266062646202 0 -1127.4266062646202 -496.52217310626293 0 0 0 0 -1279.1052923109237 -1184.8567368975055 0 -1184.8567368975055 -0.030686831742059439 0 0 0 0 -1430.6645209726485 -1054.7230424484933 0 -1054.7230424484933 -111.64878677582601 0 0 0 0 -1391.3183603559301 -1238.5428667705419 0 -1238.5428667705419 -183.35734398917702 0 0 0 0 -1202.5646056780643 -1006.1092272710193 0 -1006.1092272710193 -339.683646255231 0 0 0 0 -1414.160970308425 -1125.5258382487227 0 -1125.5258382487227 -371.9966970156529 0 0 0 0 -1578.6084964168986 -1283.4027386698144 0 -1283.4027386698144 -433.16251746496346 0 0 0 0 -1428.250887235663 -1391.3348692831059 0 -1391.3348692831059 -782.18350742271286 0 0 0 0 -1396.8590738413768 -1125.2433832899405 0 -1125.2433832899405 -668.11745721660554 0 0 0 0 -1079.9041940671887 -1114.471844543652 0 -1114.471844543652 -517.0998815279454 0 0 0 0 -1447.3582693309381 -1254.5840154462421 0 -1254.5840154462421 -416.19362987863133 0 0 0 0 -1290.0322732823261 -1321.6434939131723 0 -1321.6434939131723 -718.24483260104898 0 0 0 0 -1332.2051692055829 -1194.7052191953844 0 -1194.7052191953844 -510.24066284175206 0 0 0 0 -1494.8387459131773 -1109.4196086352458 0 -1109.4196086352458 -987.77304256115167 0 0 0 0 -955.47283450691612 -1311.7884047673288 0 -1311.7884047673288 -826.22777869993297 0 0 0 0 -707.25955937002436 -715.53526810648327 0 -715.53526810648327 35.397837295779027 0 0 0 0 -757.67463042135569 -675.28102615220996 0 -675.28102615220996 491.69437485426897 0 0 0 0 -1303.0573361848365 -1454.4153164112795 0 -1454.4153164112795 -854.70757596701151 0 0 0 0 71.710604879625009 -82.611520479450689 0 -82.611520479450689 51.857211165848867 0 0 0 0 -18.001780294522177 -532.14958252781071 0 -532.14958252781071 -1368.7017624256914 0 0 0 0 -1851.3220697906663 -1717.6774872972956 0 -1717.6774872972956 -1355.8680257842643 0 0 0 0 13.37327915623815 -18.216996573132576 0 -18.216996573132576 -6.9260901283605563 0 0 0 0 -38.070506718053963 -31.841349489052789 0 -31.841349489052789 19.368186813471056 0 0 0 0 -327.09129226594814 -616.58987223880831 0 -616.58987223880831 -266.55485707317257 0 0 0 0 -303.69183074055763 -208.91920565493638 0 -208.91920565493638 -141.90517739293864 0 0 0 0 -262.28300131950527 -287.82033651389065 0 -287.82033651389065 -278.32641391243669 0 0 0 0 -362.02147185520153 -350.51448914333014 0 -350.51448914333014 -203.00858661343227 0 0 0 0 -362.06531481945422 -119.18510615694686 0 -119.18510615694686 392.53065338853048 0 0 0 0 -442.91470045410097 -228.2516774507676 0 -228.2516774507676 254.22749055421446 0 0 0 0 -267.68971002528269 -205.24350828850584 0 -205.24350828850584 148.94802996100043 0 0 0 0 -664.34378868810018 -560.58736915508052 0 -560.58736915508052 256.60866386694397 0 0 0 0 -1603.6055999347591 -1546.4308318367403 0 -1546.4308318367403 -878.15869548518822 0 0 0 0 -1526.4741790377011 -1436.066521139961 0 -1436.066521139961 -1033.7075009998225 0 0 0 0 -1508.4746745512821 -1728.7382606182946 0 -1728.7382606182946 -1681.8047243148321 0 0 0 0 -1404.0807686785411 -1564.9435230404124 0 -1564.9435230404124 -1511.1062443639967 0 0 0 0 -80.210407953964534 -14.891409006381025 0 -14.891409006381025 24.650056598310726 0 0 0 0 -1517.2522993936436 -1405.0101744511194 0 -1405.0101744511194 -1313.7835972168468 0 0 0 0 -1689.982456008147 -1622.2715874751739 0 -1622.2715874751739 -1345.7493724585511 0 0 0 0 -1375.5968916799466 -1633.8579248211609 0 -1633.8579248211609 -1505.0715916894842 0 0 0 0 -1445.139030731254 -1684.9393939598231 0 -1684.9393939598231 -1499.7853403771587 0 0 0 0 -1355.6317024133314 -1629.036357892317 0 -1629.036357892317 -1925.7503292090259 0 0 0 0 -1338.2436943649082 -1359.4465745650086 0 -1359.4465745650086 -1799.1815250905347 0 0 0 0 -1366.8396125311265 -1342.6259659453644 0 -1342.6259659453644 -1667.702521369938 0 0 0 0 -1771.1601575147361 -1893.3136118850816 0 -1893.3136118850816 -1471.3007037832867 0 0 0 0 524.26945902255102 225.04922306774097 0 225.04922306774097 147.92065878183348 0 0 0 0 -1308.5860277604952 -1708.0113929520812 0 -1708.0113929520812 -3475.0947606432019 0 0 0 0 977.52373987884494 -528.02839554946695 0 -528.02839554946695 -804.72131709361565 0 0 0 0 33.76818276926474 -63.954381731126375 0 -63.954381731126375 36.18061703247588 0 0 0 0 -728.10935581699596 -118.79901872493792 0 -118.79901872493792 524.97676831264107 0 0 0 0 6.546115446020849 -241.0101038525172 0 -241.0101038525172 -154.97864009148907 0 0 0 0 27.854382290883223 -134.2875223037845 0 -134.2875223037845 -103.91594761039596 0 0 0 0 306.75005173590034 -234.60348742324277 0 -234.60348742324277 -205.72493695720914 0 0 0 0 150.78691051588976 -5.3786576908023562 0 -5.3786576908023562 -36.415537708729971 0 0 0 0 2.40967533742608 -2.3772369508317297 0 -2.3772369508317297 -0.24803140708263527 0 0 0 0 -699.15825576381758 -526.05365330482891 0 -526.05365330482891 -106.09484238972072 0 0 0 0 581.34543609453249 165.35300321574323 0 165.35300321574323 -25.075924914330244 0 0 0 0 533.2501546155836 -248.53910802613245 0 -248.53910802613245 -95.447272369856364 0 0 0 0 -6.4105280951480381 -2.4445131778193172 0 -2.4445131778193172 37.335096907278057 0 0 0 0 -199.5611144376162 -527.63196375992266 0 -527.63196375992266 -374.16040872482699 0 0 0 0 60.333723172606653 -46.035641045962734 0 -46.035641045962734 32.346933019362609 0 0 0 0 -465.17747478025558 -189.84039127870346 0 -189.84039127870346 -81.698111660574796 0 0 0 0 -76.817956029903144 -1011.7818044701417 0 -1011.7818044701417 -206.7750338598853 0 0 0 0 -779.99016076599946 -257.9456648301566 0 -257.9456648301566 56.841922662919387 0 0 0 0 -663.96849177076365 -284.46156743972097 0 -284.46156743972097 711.01159873598954 0 0 0 0 -11.535530534027203 -98.150211930063961 0 -98.150211930063961 92.824717321956996 0 0 0 0 -203.35558747861069 12.696537890355103 0 12.696537890355103 247.11868208747183 0 0 0 0 -205.95236150885376 -72.545501833774324 0 -72.545501833774324 77.64043430890888 0 0 0 0 -274.00292264692689 -133.91705740257748 0 -133.91705740257748 47.569979754800443 0 0 0 0 -122.51157912205963 -116.24255671199353 0 -116.24255671199353 -35.692877578840125 0 0 0 0 21.709822567458918 -80.509332133887995 0 -80.509332133887995 -19.182868194155617 0 0 0 0 -313.96337242712616 -133.41643126439885 0 -133.41643126439885 130.67614170309389 0 0 0 0 -288.78937585017411 -132.99946962084505 0 -132.99946962084505 71.073327974416316 0 0 0 0 -91.759223231405485 -166.07031655363971 0 -166.07031655363971 -99.673763724626042 0 0 0 0 -75.732995618149289 -34.742198378284229 0 -34.742198378284229 45.061861249618232 0 0 0 0 -235.94908636441687 -41.722097005695105 0 -41.722097005695105 141.53256597342261 0 0 0 0 -271.10810547599249 -119.22187587198277 0 -119.22187587198277 -14.659834131365642 0 0 0 0 -242.82608058821643 -30.245021743241523 0 -30.245021743241523 -22.42424506388943 0 0 0 0 -223.42405225346738 -57.944974881946109 0 -57.944974881946109 -7.4830854481988354 0 0 0 0 192.69250882271081 -49.107863335276988 0 -49.107863335276988 65.637258741946425 0 0 0 0 -1.490004730865313 -70.553491411070979 0 -70.553491411070979 -24.933534224348932 0 0 0 0 -44.115917953698954 9.7114369217160856 0 9.7114369217160856 -62.516367159812944 0 0 0 0 -178.60630136916006 -36.265483881696127 0 -36.265483881696127 -26.568697362410603 0 0 0 0 -176.74848792214834 -9.6538929531934627 0 -9.6538929531934627 166.96595483020064 0 0 0 0 -54.574769933446078 -272.08403749824356 0 -272.08403749824356 -92.951014800077246 0 0 0 0 -0.57315851942036034 0.27322795066555727 0 0.27322795066555727 -0.34865542427360197 0 0 0 0 979.85296356457548 -36.85044557985384 0 -36.85044557985384 -56.286171187115542 0 0 0 0 392.351221953395 -364.137156579367 0 -364.137156579367 62.413511240396474 0 0 0 0 894.87192957943626 -763.53736469314026 0 -763.53736469314026 369.98712496898952 0 0 0 0 307.42638483182964 -313.22506617230829 0 -313.22506617230829 105.88640198879148 0 0 0 0 273.65429004748148 -304.61463412020385 0 -304.61463412020385 126.88680073160504 0 0 0 0 339.32833662349731 -358.38812581432285 0 -358.38812581432285 159.62770081196504 0 0 0 0 160.74505688959471 -350.82839775744651 0 -350.82839775744651 409.60723160591442 0 0 0 0 429.93833663449914 -483.9944571339438 0 -483.9944571339438 215.51360882399604 0 0 0 0 152.62022983029601 -244.97083927773201 0 -244.97083927773201 339.92057541003305 0 0 0 0 7.634331419351696 -32.131696020790656 0 -32.131696020790656 -43.636619145548991 0 0 0 0 35.42983932226889 -60.146531562884775 0 -60.146531562884775 -97.160473563650157 0 0 0 0 48.485648722111364 -13.21492248782306 0 -13.21492248782306 -100.99208917729266 0 0 0 0 35.370046638544011 13.649778882902922 0 13.649778882902922 -21.849132922772668 0 0 0 0 238.40355154166173 -181.99281033503939 0 -181.99281033503939 -804.08480381804111 0 0 0 0 108.4054860519318 396.0061075180929 0 396.0061075180929 -879.57158734690165 0 0 0 0 3.4159445997649982 -1.7665079944923434 0 -1.7665079944923434 -6.0421014703453011 0 0 0 0 1315.4930697122836 -90.515345374653407 0 -90.515345374653407 -27.889256856506108 0 0 0 0 474.26958013113472 -333.00852697186929 0 -333.00852697186929 -706.93604961328674 0 0 0 0 1232.8215870212662 -1051.8249897311689 0 -1051.8249897311689 -83.846240086801117 0 0 0 0 231.32944053191386 398.16633037813153 0 398.16633037813153 590.68003628197766 0 0 0 0 -218.73185464000562 -506.22268646040175 0 -506.22268646040175 1222.427662424132 0 0 0 0 135.72468655978832 -488.1630703913977 0 -488.1630703913977 1112.2793413205072 0 0 0 0 13.623623143291354 -6.3811008583382431 0 -6.3811008583382431 -8.7256605606311552 0 0 0 0 -4.8240388876874931 -1781.0645921034302 0 -1781.0645921034302 -2093.0307029257601 0 0 0 0 -754.55081010213325 -1009.5837016140504 0 -1009.5837016140504 -601.07780506536074 0 0 0 0 -4.3155377534322668 -17.609106820243426 0 -17.609106820243426 -37.976194583812969 0 0 0 0 3430.1910106867654 -2206.7228537820556 0 -2206.7228537820556 -2628.8652039473236 0 0 0 0 -1.9488551308104434 -12.981623839516118 0 -12.981623839516118 -17.687118906707553 0 0 0 0 347.66627091896953 788.99145971550024 0 788.99145971550024 6031.9502173163346 0 0 0 0 -6086.6634474175517 -5590.0341537795903 0 -5590.0341537795903 48.984136158846646 0 0 0 0 -7.0135027767835822 -14.527866830518207 0 -14.527866830518207 -13.802383002442866 0 0 0 0 1515.798487577471 -1473.8528431427258 0 -1473.8528431427258 1.4037343196541769 0 0 0 0 2690.4577841192659 -1142.9735604966263 0 -1142.9735604966263 24.993542202792014 0 0 0 0 -6.6374548598687397 -2647.1138571289557 0 -2647.1138571289557 478.26451486352016 0 0 0 0 2110.0590888409643 -6651.3233775511908 0 -6651.3233775511908 -9522.0714863644389 0 0 0 0 1037.1428268035816 -1035.0597544594348 0 -1035.0597544594348 812.43166222721629 0 0 0 0 13.541600201220717 -1904.9104581543797 0 -1904.9104581543797 177.05230680416571 0 0 0 0 577.6790325823531 -2630.2473131942097 0 -2630.2473131942097 -928.21730439439125 0 0 0 0 1209.6717448660056 -1159.0130900059921 0 -1159.0130900059921 244.93732949910918 0 0 0 0 356.43804289300169 -1667.8441633314505 0 -1667.8441633314505 -0.062374175409786403 0 0 0 0 493.92634461670241 -1758.9178503376352 0 -1758.9178503376352 -430.69094292963564 0 0 0 0 472.48575227646506 -1760.2910381587571 0 -1760.2910381587571 -314.00141809007619 0 0 0 0 948.93000663192652 -1412.1134744474439 0 -1412.1134744474439 -1420.1412315109919 0 0 0 0 1401.0805141545425 -1662.6231137197756 0 -1662.6231137197756 -1642.3466928351845 0 0 0 0 1747.5570906982757 -232.01877201753086 0 -232.01877201753086 -3097.3112588836248 0 0 0 0 531.02904647888499 -2936.5747994550184 0 -2936.5747994550184 -2154.7924229342607 0 0 0 0 1199.3007852515439 -2353.297088844527 0 -2353.297088844527 -3247.9669444863266 0 0 0 0 1065.5205308402074 -1094.7701038426021 0 -1094.7701038426021 -852.90661391729373 0 0 0 0 1148.3512708891649 492.59675411528588 0 492.59675411528588 -119.14054130823934 0 0 0 0 783.24734972653096 -1423.695762445539 0 -1423.695762445539 801.10375559671957 0 0 0 0 1146.2114617091429 -936.81952589951106 0 -936.81952589951106 -755.0199995754665 0 0 0 0 909.61776652281696 -958.27523255883716 0 -958.27523255883716 -702.41619767222437 0 0 0 0 1192.0925518625299 -977.72452301702288 0 -977.72452301702288 -1197.4088613904823 0 0 0 0 769.37255664590339 -1155.8310370499676 0 -1155.8310370499676 -974.4537450830976 0 0 0 0 444.45767024028464 -724.60547303949716 0 -724.60547303949716 -735.64600877388875 0 0 0 0 245.79243915251573 -1060.199834144878 0 -1060.199834144878 -597.55591877127154 0 0 0 0 -229.09169225707956 -1002.3920085647542 0 -1002.3920085647542 -590.99645683329436 0 0 0 0 985.5666906691331 -1273.8185829482463 0 -1273.8185829482463 -922.4957215928589 0 0 0 0 288.24065478084958 -1365.0858699238524 0 -1365.0858699238524 -756.33112153415277 0 0 0 0 -92.069686751470726 -1476.2067266220511 0 -1476.2067266220511 -0.39652935143385548 0 0 0 0 85.824912348354701 -1414.7303863300913 0 -1414.7303863300913 -235.15782934750314 0 0 0 0 -500.89694119514752 -1103.665030114651 0 -1103.665030114651 -295.11713498158497 0 0 0 0 -292.69491517962888 -1213.6361896603557 0 -1213.6361896603557 -296.95461477375648 0 0 0 0 -782.32845101611747 -1275.6748495861211 0 -1275.6748495861211 -0.066153743173344992 0 0 0 0 -1160.562660826341 -991.83705602932605 0 -991.83705602932605 -157.31453453900076 0 0 0 0 -1041.5568102339748 -1182.667985348111 0 -1182.667985348111 -164.86096308000697 0 0 0 0 -1497.6694872275475 -1142.9906151734831 0 -1142.9906151734831 -261.70688870165031 0 0 0 0 -238.02733132813137 -942.98074360954524 0 -942.98074360954524 -515.07323668911704 0 0 0 0 -797.78419200020289 -856.9210570694413 0 -856.9210570694413 -382.36832728509034 0 0 0 0 -1123.2499825314007 -776.01810291626316 0 -776.01810291626316 -400.27442424089531 0 0 0 0 -1052.1170840259292 -1138.8813328233882 0 -1138.8813328233882 -622.92435266260873 0 0 0 0 -1813.2055287667317 -1572.8513210358797 0 -1572.8513210358797 -881.09087261019158 0 0 0 0 -1536.6631241998039 -1062.8321117976111 0 -1062.8321117976111 -534.2289643221884 0 0 0 0 -484.62892941659084 -963.47885348004638 0 -963.47885348004638 -662.23923991825723 0 0 0 0 -1532.6806462443346 -650.74509409474558 0 -650.74509409474558 -372.88730085041607 0 0 0 0 -942.60789070697501 -317.44578476635797 0 -317.44578476635797 -66.147984935465502 0 0 0 0 -1990.3388530205411 -1755.4436917697894 0 -1755.4436917697894 -806.32755350898515 0 0 0 0 -1912.066302866624 -1462.9259082526296 0 -1462.9259082526296 -1852.106346798013 0 0 0 0 -1729.9553581540822 -1410.6312072602705 0 -1410.6312072602705 -1198.3229924668558 0 0 0 0 -2417.0094820345985 -2305.1450997116481 0 -2305.1450997116481 -1554.2124143090623 0 0 0 0 -1140.720929083298 159.5398994362331 0 159.5398994362331 2372.9580771493202 0 0 0 0 -2120.2897313606809 -4077.7815950111835 0 -4077.7815950111835 -4490.4507408024219 0 0 0 0 -22.972903160006751 0.42663551566215574 0 0.42663551566215574 -0.11966757373804171 0 0 0 0 -2959.5399245218723 -3049.6197791103914 0 -3049.6197791103914 435.28531061853573 0 0 0 0 -235.17466768232407 -652.92418907367392 0 -652.92418907367392 -1549.5316727310128 0 0 0 0 -474.52802788816916 -758.75295538740465 0 -758.75295538740465 -667.14998097845819 0 0 0 0 -3981.9001339100942 -5692.3262414704222 0 -5692.3262414704222 -3008.3284131787223 0 0 0 0 204.2223998264526 -1862.316455710592 0 -1862.316455710592 -6061.3346824130713 0 0 0 0 -2558.3354221919799 -3891.4017883247107 0 -3891.4017883247107 -925.56527951022144 0 0 0 0 -1588.3952429917699 -2437.7037500522929 0 -2437.7037500522929 -939.12381784865283 0 0 0 0 -4178.7318580154824 -3463.2157475008426 0 -3463.2157475008426 -1005.9333320836886 0 0 0 0 -2819.0577333268884 -1258.6585605597502 0 -1258.6585605597502 -1047.0677024262814 0 0 0 0 -487.26144128073065 -633.18821993709571 0 -633.18821993709571 1373.623437195085 0 0 0 0 1229.5505451182835 -2059.9396589338212 0 -2059.9396589338212 55.392031320225215 0 0 0 0 2097.2476121113868 -2827.8963309402316 0 -2827.8963309402316 -1026.0613799548883 0 0 0 0 1225.7744379789219 -835.11420135773369 0 -835.11420135773369 -208.34862626632093 0 0 0 0 -98.444506213643763 893.94840296715483 0 893.94840296715483 -8215.9201188543229 0 0 0 0 -41.751664511476122 -47.157076873159724 0 -47.157076873159724 -33.645869605579151 0 0 0 0 41.690240075353586 13.767767290045185 0 13.767767290045185 -8.4160145421498669 0 0 0 0 1006.9385067083131 -3934.8680055765763 0 -3934.8680055765763 4273.3921418880927 0 0 0 0 -3047.2161350908464 -1894.7362147751992 0 -1894.7362147751992 1022.56018678291 0 0 0 0 -2804.6626983990427 -11369.641140662599 0 -11369.641140662599 -6382.8119939517637 0 0 0 0 -124.00166404526681 -141.96036025242938 0 -141.96036025242938 -487.27693317792728 0 0 0 0 -127.96586735968594 1290.7633896178158 0 1290.7633896178158 -4413.1670947953971 0 0 0 0 1731.4955180793477 -1044.6770586168277 0 -1044.6770586168277 1706.6070931746362 0 0 0 0 -1.9136548558106483 -31.72007914261907 0 -31.72007914261907 -30.204332966977006 0 0 0 0 1.2409121233328619 -42.50485033744107 0 -42.50485033744107 -61.657530693537694 0 0 0 0 1932.3525264682412 -2542.9705532171629 0 -2542.9705532171629 1394.1247363403381 0 0 0 0 456.03021449205698 -761.88649809296476 0 -761.88649809296476 -186.43397134006227 0 0 0 0 1525.9087643662715 -1055.3460073192036 0 -1055.3460073192036 -358.7395933222142 0 0 0 0 1139.9777803571924 -1295.3582902153757 0 -1295.3582902153757 1247.0699661315593 0 0 0 0 -150.35986877357936 -1249.7182558712011 0 -1249.7182558712011 -305.94570316869067 0 0 0 0 286.73018676569336 -669.70849584483949 0 -669.70849584483949 189.99084187846711 0 0 0 0 586.01036838820437 -703.26320595422294 0 -703.26320595422294 -773.92054512196046 0 0 0 0 511.73358364813612 -956.42621853711898 0 -956.42621853711898 -673.92138115915077 0 0 0 0 -300.68579989236605 -535.40690413487027 0 -535.40690413487027 -434.08745807429659 0 0 0 0 1079.2617288020356 -649.7213403885653 0 -649.7213403885653 -696.32127891120035 0 0 0 0 1135.6373010905245 -1255.7130201128293 0 -1255.7130201128293 -273.00526553866803 0 0 0 0 1236.7147060198477 -1002.9682565801195 0 -1002.9682565801195 -736.39656560238654 0 0 0 0 1201.2886860933941 -1404.6678213653358 0 -1404.6678213653358 -211.8457280981529 0 0 0 0 1389.7001944878139 -1345.9758982725325 0 -1345.9758982725325 -226.34893259365344 0 0 0 0 1694.0681033136789 -1841.8722553269617 0 -1841.8722553269617 -44.60499512750539 0 0 0 0 179.8850628128348 -27.407660331937223 0 -27.407660331937223 -208.48135447732056 0 0 0 0 -3.7630047228302601 -42.74973314990828 0 -42.74973314990828 -68.083196767980951 0 0 0 0 -18.415587497918722 -48.630801483267248 0 -48.630801483267248 -23.560694477359789 0 0 0 0 26.764271876134444 -108.86104612887721 0 -108.86104612887721 -2.1901267964567523 0 0 0 0 39.551958215899333 -9.0605708307793833 0 -9.0605708307793833 -17.146127704779303 0 0 0 0 1646.2928112060035 -960.25121904051048 0 -960.25121904051048 -104.41284846469352 0 0 0 0 1615.3645843610866 -1521.9760102234068 0 -1521.9760102234068 -119.10783357995388 0 0 0 0 8.829691873806695 -8.4268129307358492 0 -8.4268129307358492 -7.9921024235172808 0 0 0 0 16.380124925810378 -108.88521500147181 0 -108.88521500147181 26.296538511349354 0 0 0 0 -136.90276290113979 -89.733273628280585 0 -89.733273628280585 11.583889788758825 0 0 0 0 80.207697600984829 -33.132646914629731 0 -33.132646914629731 -11.052486167405732 0 0 0 0 11.292147000933937 -38.182403728866902 0 -38.182403728866902 -48.27877469467856 0 0 0 0 224.52585180787719 -182.00449419154029 0 -182.00449419154029 -3212.5890035768389 0 0 0 0 1759.7215406805335 -285.88511078639567 0 -285.88511078639567 -1842.5816180696129 0 0 0 0 2454.3942334342282 -553.7369411928521 0 -553.7369411928521 -2870.0978551176668 0 0 0 0 2265.7642981223762 -745.0315614236024 0 -745.0315614236024 -2793.1342332441091 0 0 0 0 2472.0487266948621 -418.7205154218027 0 -418.7205154218027 -2756.5538616235717 0 0 0 0 1530.2046367987132 -379.59553256974323 0 -379.59553256974323 1033.249449256662 0 0 0 0 1166.670752996899 -2835.2982250413188 0 -2835.2982250413188 2305.3120364277129 0 0 0 0 2096.0769213575695 -2316.2149665238685 0 -2316.2149665238685 180.90664706196367 0 0 0 0 1406.9355978365638 -2149.3845055567654 0 -2149.3845055567654 -2471.1549571958603 0 0 0 0 1293.0414746772731 -1325.1437189152784 0 -1325.1437189152784 110.98344374496446 0 0 0 0 2126.8278633970767 -1468.0616519868345 0 -1468.0616519868345 -2039.1956960030366 0 0 0 0 2104.5909493928484 -1196.8794474811148 0 -1196.8794474811148 -2632.3064901461476 0 0 0 0 1932.7011919619981 -908.7436720700789 0 -908.7436720700789 -1924.8196054917644 0 0 0 0 2110.6981165023171 -964.62626148838899 0 -964.62626148838899 -3991.5353833992267 0 0 0 0 1130.798047713819 -1138.8285840028111 0 -1138.8285840028111 -2533.0309639848128 0 0 0 0 1695.1205240119743 -909.61081635168739 0 -909.61081635168739 -3597.3211204350227 0 0 0 0 2105.32320001669 218.70687378957518 0 218.70687378957518 -4887.3543840478524 0 0 0 0 2525.3173241818731 -596.97365003165032 0 -596.97365003165032 -3723.7912342738273 0 0 0 0 -4.4771839165041456 -3048.3557985176303 0 -3048.3557985176303 -2837.9796140110557 0 0 0 0 1477.7725894358882 -1004.1231475285022 0 -1004.1231475285022 -8691.7471815133449 0 0 0 0 1847.9008931113858 -524.27767131584551 0 -524.27767131584551 -6706.8267035701429 0 0 0 0 559.61589819734218 2896.6176431786589 0 2896.6176431786589 -8006.9038424349128 0 0 0 0 1393.0262515863287 -1684.4486736101535 0 -1684.4486736101535 -3842.2875563143461 0 0 0 0 1002.067937708518 -795.38947070411814 0 -795.38947070411814 1042.7214203879121 0 0 0 0 -458.91085294292134 -1746.2498981984463 0 -1746.2498981984463 771.25176063965773 0 0 0 0 5.2801030314651598 -4.4301941129730835 0 -4.4301941129730835 -0.59053465332405608 0 0 0 0 2.5199451121152379 -2916.8676932437957 0 -2916.8676932437957 3787.3278457538836 0 0 0 0 1479.0330903877475 -916.00386768290628 0 -916.00386768290628 -4187.2332415353158 0 0 0 0 -25.693015172204468 -295.05447816604283 0 -295.05447816604283 31.453729211389145 0 0 0 0 -19.698537375543395 -47.573638402520132 0 -47.573638402520132 -75.277994524089991 0 0 0 0 297.92361354760942 233.16881495722191 0 233.16881495722191 -3182.6865796595521 0 0 0 0 8.761406015841942 -7.2291179079036709 0 -7.2291179079036709 -21.783678350023365 0 0 0 0 -32.635888681172219 -621.90678129179514 0 -621.90678129179514 -2461.2251348556165 0 0 0 0 2.34500719958125 -24.589897744021187 0 -24.589897744021187 -102.15857937671313 0 0 0 0 1187.5392325665598 495.21480349297053 0 495.21480349297053 -6575.2731615159428 0 0 0 0 268.7267153862922 -611.40572163634351 0 -611.40572163634351 -2673.0672105134363 0 0 0 0 -343.43244051912916 163.12690881658636 0 163.12690881658636 1061.2112023227382 0 0 0 0 -1.8735199651709422 -7.341679662443255 0 -7.341679662443255 -18.532717124466274 0 0 0 0 771.67803857373656 -561.24496631092188 0 -561.24496631092188 -1742.838946744203 0 0 0 0 -686.7517341056373 -336.42124656931264 0 -336.42124656931264 -1251.5781080952584 0 0 0 0 1259.4760643020127 164.33516199479345 0 164.33516199479345 -1628.2609992475482 0 0 0 0 -684.57643590414955 -4.3400093109885347 0 -4.3400093109885347 824.84801486480865 0 0 0 0 0.12021644861670211 384.92612957047822 0 384.92612957047822 -3852.8482304881036 0 0 0 0 331.02023322784225 -184.98695159720228 0 -184.98695159720228 -184.01413485093508 0 0 0 0 3.7720833532576137 -33.87952683755492 0 -33.87952683755492 -93.090211131771923 0 0 0 0 -0.1864482851483982 -148.58845316082764 0 -148.58845316082764 41.094833735318389 0 0 0 0 2.2173125990724998 -6.509698422392205 0 -6.509698422392205 -0.46313216909243238 0 0 0 0 -537.28494520380627 2151.0828309615463 0 2151.0828309615463 -4603.7467612840555 0 0 0 0 -2762.7929447141942 3683.9174497828935 0 3683.9174497828935 -4933.2044471163535 0 0 0 0 -2.8357901088407971 -13.208752672663579 0 -13.208752672663579 -32.193085659337896 0 0 0 0 2102.5464115626901 5.8904550193158229 0 5.8904550193158229 -2987.941582626343 0 0 0 0 2302.2113858555676 -417.35964049525501 0 -417.35964049525501 -2767.6932158321142 0 0 0 0 1814.0164922281674 1928.9311368692406 0 1928.9311368692406 -3292.161481147923 0 0 0 0 265.8187978851347 500.94289597877651 0 500.94289597877651 -2193.0828565362608 0 0 0 0 842.10031017765868 111.55236709365272 0 111.55236709365272 -545.92542444134597 0 0 0 0 7.8390966767838108 -269.45708269574288 0 -269.45708269574288 -1122.5095295752108 0 0 0 0 23.711193861275547 11.903488364276875 0 11.903488364276875 -6.3342167568233663 0 0 0 0 2169.0574653824442 -1517.3343835706328 0 -1517.3343835706328 -900.78567868294522 0 0 0 0 2686.3272894538241 -693.09580325689603 0 -693.09580325689603 -2307.262542195007 0 0 0 0 1190.7731628503825 -204.11423594755615 0 -204.11423594755615 -777.60460102162324 0 0 0 0 1807.935211666394 -498.18334784347462 0 -498.18334784347462 -2644.4718300783425 0 0 0 0 1544.3432520559873 -1068.3497971018369 0 -1068.3497971018369 -2814.5634485199307 0 0 0 0 2058.2433697972447 -140.76553886258625 0 -140.76553886258625 -2196.7541206328642 0 0 0 0 620.46739281289047 -456.07552649354329 0 -456.07552649354329 -3265.5800700613818 0 0 0 0 666.20074116154865 -178.51881764708378 0 -178.51881764708378 -2356.4445033386874 0 0 0 0 -207.33677482990606 -1007.3428382392885 0 -1007.3428382392885 -1168.732564114267 0 0 0 0 614.7402067782532 -1254.0406617174885 0 -1254.0406617174885 -2359.0086990913883 0 0 0 0 -127.07666899260948 -1451.3446204456122 0 -1451.3446204456122 -1237.6727115247049 0 0 0 0 -1196.6682427630876 -985.49427955254214 0 -985.49427955254214 -815.41677499086654 0 0 0 0 -150.41112231220177 -766.10351697864098 0 -766.10351697864098 -1006.4756449699344 0 0 0 0 185.87353989243275 -1212.4111680422502 0 -1212.4111680422502 -1118.3001942886476 0 0 0 0 410.16642456338741 -964.18105900297815 0 -964.18105900297815 -1287.1296924259805 0 0 0 0 1760.3589087490545 -1095.9710223691181 0 -1095.9710223691181 -1594.9357200488739 0 0 0 0 711.08075768049457 -1458.2465050790634 0 -1458.2465050790634 -747.94946710396221 0 0 0 0 837.20667331127333 -313.66313828977582 0 -313.66313828977582 -1349.1267781258939 0 0 0 0 851.09907914203359 -742.93473919098324 0 -742.93473919098324 -1731.9027008821286 0 0 0 0 415.2597682254418 -449.26237237923488 0 -449.26237237923488 -605.42677811677277 0 0 0 0 889.9638852257267 -915.33714135412811 0 -915.33714135412811 -1151.0823809112189 0 0 0 0 161.58842559551704 -873.9925477609504 0 -873.9925477609504 -973.72912359827751 0 0 0 0 14.87497278845575 -16.889662119034142 0 -16.889662119034142 14.123889196427399 0 0 0 0 155.4196405186085 -801.09932539683359 0 -801.09932539683359 -1077.5017656158016 0 0 0 0 115.63258434765521 -755.16918906219871 0 -755.16918906219871 -376.9132193105761 0 0 0 0 -161.2096482974448 355.0159069194633 0 355.0159069194633 209.98885893844272 0 0 0 0 11.458114410923429 -14.544044152253775 0 -14.544044152253775 19.371644999855903 0 0 0 0 -156.83203050964221 -355.14406614727341 0 -355.14406614727341 -230.5344996432832 0 0 0 0 -263.36416709342302 -247.24673647998861 0 -247.24673647998861 118.9956249705865 0 0 0 0 -222.51005096017616 -87.123210055899108 0 -87.123210055899108 233.41213582119235 0 0 0 0 291.42639231368958 -165.84600789785327 0 -165.84600789785327 -210.08360569651268 0 0 0 0 -393.53626704207272 -418.02776297106902 0 -418.02776297106902 26.881029554700945 0 0 0 0 14.176555425376918 -0.11262134297595594 0 -0.11262134297595594 -56.328509700337975 0 0 0 0 -270.60889738390688 425.76899219682673 0 425.76899219682673 -838.12779291655352 0 0 0 0 270.49936317539687 208.3249239122506 0 208.3249239122506 -53.274034549598582 0 0 0 0 30.080760993780473 -34.952437201677981 0 -34.952437201677981 15.98477000967307 0 0 0 0 -233.22707204642938 -25.69119009753922 0 -25.69119009753922 142.02565730452625 0 0 0 0 -1315.9213065121985 -1443.075880126431 0 -1443.075880126431 -748.73692928766832 0 0 0 0 -119.80122127340292 -453.58207855456567 0 -453.58207855456567 -208.50031875472632 0 0 0 0 11.82787988028042 -16.975037907283991 0 -16.975037907283991 17.809087586517364 0 0 0 0 388.9255941138108 -247.28656117466198 0 -247.28656117466198 -484.69764959739405 0 0 0 0 -1535.3519109178014 -1708.8517486802884 0 -1708.8517486802884 -691.47416427376447 0 0 0 0 -456.76930034362158 -1609.6124649974408 0 -1609.6124649974408 -2361.2276962221949 0 0 0 0 -702.50400708883535 -1821.2532148176397 0 -1821.2532148176397 -2475.2715577265189 0 0 0 0 -862.98584740568185 -2429.815890461723 0 -2429.815890461723 -4399.3047862510721 0 0 0 0 -275.20132890014793 -978.99417669700051 0 -978.99417669700051 -4893.9079500812804 0 0 0 0 267.42444941680878 -1235.2533549130603 0 -1235.2533549130603 -5415.3325328147257 0 0 0 0 671.02201255202817 -455.82223907041043 0 -455.82223907041043 -3923.260386875656 0 0 0 0 -6462.9948236644268 -2704.6860240382121 0 -2704.6860240382121 -710.38659534609178 0 0 0 0 -1104.2456306990352 -3325.7701068727183 0 -3325.7701068727183 -8996.2361353324086 0 0 0 0 -5448.4096129141981 -5117.3709226957653 0 -5117.3709226957653 -4640.8235002740403 0 0 0 0 -2479.3154341656482 -2302.9100765694748 0 -2302.9100765694748 -3904.1035412058627 0 0 0 0 -2442.2490166167845 -1900.2356970234687 0 -1900.2356970234687 -2309.4510448127403 0 0 0 0 -5061.0081624374434 -552.86673459969461 0 -552.86673459969461 -451.22243332007201 0 0 0 0 113.7206902004109 -87.377459618823195 0 -87.377459618823195 -176.57184017452528 0 0 0 0 -2231.9930619174847 -205.39331408162252 0 -205.39331408162252 -1507.9420790034928 0 0 0 0 9.9020350942595314 -18.554971480844699 0 -18.554971480844699 11.223345320672536 0 0 0 0 -1268.3464942219143 -2174.7305855700688 0 -2174.7305855700688 -2259.0170851034927 0 0 0 0 348.7906277827642 -250.03414973614599 0 -250.03414973614599 -44.530272766656708 0 0 0 0 48.302176334149522 -39.311260250670159 0 -39.311260250670159 6.8954796120974606 0 0 0 0 -57.1560361587035 -90.116684697844903 0 -90.116684697844903 -170.93768669798737 0 0 0 0 11.607011161889282 2.9117300535135087 0 2.9117300535135087 -63.41654343244943 0 0 0 0 -119.7161012608849 -292.5925453153468 0 -292.5925453153468 -1247.7655812539742 0 0 0 0 -502.53940918625449 -507.83324434676615 0 -507.83324434676615 26.738397661189083 0 0 0 0 -348.36822821063106 -435.50944527344836 0 -435.50944527344836 -1121.8591058003949 0 0 0 0 3.6423023707150364 -12.813520565230988 0 -12.813520565230988 -23.65262313292169 0 0 0 0 -961.5079394428758 -5738.1453742419835 0 -5738.1453742419835 -10237.850498585394 0 0 0 0 1925.1597619285167 1214.9997577891045 0 1214.9997577891045 -2030.839544057264 0 0 0 0 51.339974042550125 -39.161080407930797 0 -39.161080407930797 24.778842954251104 0 0 0 0 -209.70553665678017 -77.567800912031089 0 -77.567800912031089 -868.81436292755461 0 0 0 0 -94.482951960788341 -28.459712398656848 0 -28.459712398656848 -116.6803215337859 0 0 0 0 -417.59269798977766 -208.32029179572419 0 -208.32029179572419 -7.6856643794671982 0 0 0 0 -45.741274404383148 -232.56974964244 0 -232.56974964244 -236.22197952709394 0 0 0 0 45.524807185516693 -1.971695475607703 0 -1.971695475607703 -26.184177268005442 0 0 0 0 -146.44202512371703 -238.47931465748115 0 -238.47931465748115 -219.99763537172112 0 0 0 0 9.9577599049056005 -5.2260858828169034 0 -5.2260858828169034 -7.4049861384871178 0 0 0 0 -307.55961042665876 -200.150913573656 0 -200.150913573656 -193.82722132478375 0 0 0 0 -123.43489131782553 -183.10710528632626 0 -183.10710528632626 -267.52215965028154 0 0 0 0 -236.03675437578931 -148.07618926413124 0 -148.07618926413124 -155.93197546689771 0 0 0 0 -195.26128971790604 -234.89755572423746 0 -234.89755572423746 -304.85911395025323 0 0 0 0 0.54954332109417692 -4.3440582473027121 0 -4.3440582473027121 0.57476922299821354 0 0 0 0 102.72979156704969 108.94488476149854 0 108.94488476149854 -192.15325744308939 0 0 0 0 -86.364706198000931 -255.0424693984678 0 -255.0424693984678 373.1935335455637 0 0 0 0 12.680991833859764 -11.882871720259402 0 -11.882871720259402 3.3745508898823573 0 0 0 0 -57.635500388103537 -333.76013634962146 0 -333.76013634962146 -780.4518536448013 0 0 0 0 15.303903188847471 -36.084136579775077 0 -36.084136579775077 -25.58636573208787 0 0 0 0 -19.732222588252625 -42.201892479803064 0 -42.201892479803064 1.3266568628605455 0 0 0 0 24.468909066014817 -16.454777307268387 0 -16.454777307268387 4.165697465878047 0 0 0 0 -62.871580697574245 -130.79632733844119 0 -130.79632733844119 -3.6056310543499421 0 0 0 0 62.562182671797927 -257.62849285031552 0 -257.62849285031552 -370.70676848771109 0 0 0 0 4.453950287643579 -19.504345368782595 0 -19.504345368782595 22.915928554869993 0 0 0 0 44.506306731374934 -145.0623200511327 0 -145.0623200511327 47.406993718119338 0 0 0 0 176.866022162023 207.48408917553024 0 207.48408917553024 451.95202546415385 0 0 0 0 -5.0367951308688816 -3.5371503946725511 0 -3.5371503946725511 5.2751756988897114 0 0 0 0 420.11521305475617 193.579914406233 0 193.579914406233 111.37031781116093 0 0 0 0 353.40094026531733 -328.45799264679226 0 -328.45799264679226 -233.12804376208805 0 0 0 0 -90.216392217756948 -27.355712727225182 0 -27.355712727225182 -95.515335598116508 0 0 0 0 -383.35512700715481 -496.58887320844224 0 -496.58887320844224 -133.70923931323341 0 0 0 0 282.89900771128305 -135.45760133535805 0 -135.45760133535805 -161.17792357932194 0 0 0 0 1.7742492830292349 -4.2985478037886082 0 -4.2985478037886082 6.2911129305523446 0 0 0 0 361.49766516562704 264.36115493170655 0 264.36115493170655 44.002596718841232 0 0 0 0 -314.48878382837574 -281.54749326712772 0 -281.54749326712772 -491.30927197181154 0 0 0 0 -809.9909380133322 -823.69215637416346 0 -823.69215637416346 -613.5325300473778 0 0 0 0 -128.97398545344186 -300.02420684898243 0 -300.02420684898243 -981.60132997427718 0 0 0 0 -483.96462488980615 -299.42554548822227 0 -299.42554548822227 -284.95885450026253 0 0 0 0 16.938287761528045 -296.40993508254178 0 -296.40993508254178 -2853.9419381733751 0 0 0 0 -17.788935751205202 -118.86245770108741 0 -118.86245770108741 -18.750040652867042 0 0 0 0 94.608415761671495 -247.26640930969734 0 -247.26640930969734 -353.46907722554897 0 0 0 0 574.65021176578011 -38.546284086405649 0 -38.546284086405649 -978.77229950716719 0 0 0 0 612.23962672826019 -345.57910374891071 0 -345.57910374891071 -620.75354085030267 0 0 0 0 922.84416606658488 429.10153424078453 0 429.10153424078453 69.690781893150415 0 0 0 0 -5.2241919556415155 -0.026875923155159853 0 -0.026875923155159853 7.681544316938357 0 0 0 0 35.523769019448082 -138.60793077698327 0 -138.60793077698327 51.953848072997062 0 0 0 0 222.99710057670018 -279.73813308446552 0 -279.73813308446552 -74.401003789102106 0 0 0 0 -96.102485466923099 -465.5798798857868 0 -465.5798798857868 32.753160259238939 0 0 0 0 284.37846260922379 -111.92462579505809 0 -111.92462579505809 -519.98795639947639 0 0 0 0 -155.89238635019865 -125.95175011306128 0 -125.95175011306128 74.392888185189804 0 0 0 0 142.90851838496746 -146.5998591343523 0 -146.5998591343523 -88.333452180126187 0 0 0 0 50.598707018711139 -577.49201892119891 0 -577.49201892119891 -654.00337309410679 0 0 0 0 -316.45610048950766 92.081340318676666 0 92.081340318676666 -477.85883586938871 0 0 0 0 -5.2309041063861628 -109.07040989108239 0 -109.07040989108239 -39.080455245485581 0 0 0 0 -49.575156215170864 -284.82763031907962 0 -284.82763031907962 3.225266655030282 0 0 0 0 128.4021871942241 109.23876450554235 0 109.23876450554235 -1254.4912497562473 0 0 0 0 339.1210180472408 72.803948095446685 0 72.803948095446685 -716.47835642658174 0 0 0 0 -164.13183187463437 -283.66335754672764 0 -283.66335754672764 -675.79104940143588 0 0 0 0 -102.66461413551588 -61.90159612960997 0 -61.90159612960997 -514.71070388675435 0 0 0 0 -107.03723259980325 -415.88474980235333 0 -415.88474980235333 -237.61739685099747 0 0 0 0 -155.02265727899794 -367.79045002780185 0 -367.79045002780185 -111.1396798939677 0 0 0 0 -129.80829958819959 -435.14215127143689 0 -435.14215127143689 -99.158195616677403 0 0 0 0 -111.14566935482435 -410.2898941909225 0 -410.2898941909225 -71.103979592357064 0 0 0 0 21.976272958811023 -571.63574804121163 0 -571.63574804121163 39.780897605989594 0 0 0 0 -159.41546623280738 -363.22323929818231 0 -363.22323929818231 -24.673710136383306 0 0 0 0 1040.104387479485 278.40753455847153 0 278.40753455847153 -2788.282103126985 0 0 0 0 -1.1055750405603533 -5.4376927695019504 0 -5.4376927695019504 11.789543338136752 0 0 0 0 4.7962562324246392 30.454238557591452 0 30.454238557591452 1431.0179900996736 0 0 0 0 231.1931815117714 -1834.5089917288278 0 -1834.5089917288278 336.67554687266238 0 0 0 0 393.26250376840471 -601.41352821029432 0 -601.41352821029432 -1496.7669323281734 0 0 0 0 315.24142080420279 -464.99417752165755 0 -464.99417752165755 -297.51414229039801 0 0 0 0 -1225.4213777717596 -224.8670699788272 0 -224.8670699788272 899.68434792011976 0 0 0 0 480.90037425135961 200.13559331158467 0 200.13559331158467 -219.04328350163996 0 0 0 0 -2.9570283045620798 5.2842834042981792 0 5.2842834042981792 -16.008642754927678 0 0 0 0 742.55503032683191 -8.1972525660348765 0 -8.1972525660348765 -504.18073462200118 0 0 0 0 -909.00329613157373 -623.50697091664915 0 -623.50697091664915 1188.3807171986846 0 0 0 0 32.294721931830281 169.39269661987782 0 169.39269661987782 177.96999133062491 0 0 0 0 3.3259534791577607 -129.73753079242306 0 -129.73753079242306 -254.92179490518174 0 0 0 0 126.57224383761059 -48.837560016698262 0 -48.837560016698262 -272.05074310163036 0 0 0 0 -20.932598984567448 -81.223029396525817 0 -81.223029396525817 -349.30014840328658 0 0 0 0 -76.446642068214715 -279.24055265524657 0 -279.24055265524657 -48.43979808707445 0 0 0 0 -290.42126196011668 -135.63163488150531 0 -135.63163488150531 -119.4497701820801 0 0 0 0 203.3173402157845 -167.33701845261385 0 -167.33701845261385 -601.21435436926549 0 0 0 0 141.59033521241508 -135.55203965753753 0 -135.55203965753753 -276.63459414499812 0 0 0 0 -364.16567849571584 844.3614100258128 0 844.3614100258128 206.54590944400479 0 0 0 0 -277.80704938271992 -346.97208175239939 0 -346.97208175239939 90.322643488529138 0 0 0 0 -0.12445360516454684 -3.972497447926628 0 -3.972497447926628 8.8784048620345288 0 0 0 0 1014.0718309900039 -810.64518619643059 0 -810.64518619643059 -366.60096017507021 0 0 0 0 1721.2598052155518 603.07150653867575 0 603.07150653867575 -632.7885888392268 0 0 0 0 4.6966254428758134 -6.1500286513779088 0 -6.1500286513779088 8.1298269141812511 0 0 0 0 109.00047831860138 -1204.7236934714456 0 -1204.7236934714456 270.26777561969357 0 0 0 0 385.65607386137708 -193.84983561876288 0 -193.84983561876288 74.675505652150605 0 0 0 0 1236.4862603792135 20.68641393782309 0 20.68641393782309 -605.62904042220907 0 0 0 0 677.44420502569119 -337.87586660021771 0 -337.87586660021771 -336.34531928645447 0 0 0 0 -30.434813759144163 -595.08636892160575 0 -595.08636892160575 147.90991130443945 0 0 0 0 113.36492979715695 -338.92975800193381 0 -338.92975800193381 -683.59525931399548 0 0 0 0 16.0852561868669 -264.36430450367334 0 -264.36430450367334 -334.67317804731329 0 0 0 0 -239.96867775151259 1.6174165307329531 0 1.6174165307329531 -656.60759811539901 0 0 0 0 255.70242702268297 90.799899966084922 0 90.799899966084922 -1517.9005617189832 0 0 0 0 -257.95872525397863 215.5189819202169 0 215.5189819202169 319.14919204859325 0 0 0 0 5.8676481066129327 -102.53954064366189 0 -102.53954064366189 -33.382682708535256 0 0 0 0 -75.662849528715014 -176.58128588795807 0 -176.58128588795807 112.98497806037631 0 0 0 0 -6.9060842214203149 -19.119449289186377 0 -19.119449289186377 -40.780457028845575 0 0 0 0 -20.920790183270583 -12.664187774280435 0 -12.664187774280435 37.604783573231543 0 0 0 0 64.4495561817821 -123.28359546264255 0 -123.28359546264255 -99.237304268259322 0 0 0 0 -4.556455278856447 326.60203788907893 0 326.60203788907893 -678.87473094611778 0 0 0 0 345.87084464071086 -329.57892808950419 0 -329.57892808950419 -973.81906148111739 0 0 0 0 -699.7957237669907 332.70245557903399 0 332.70245557903399 -335.63103173363197 0 0 0 0 168.63497723252658 320.69143636280205 0 320.69143636280205 -1243.3499450465606 0 0 0 0 -61.641274756286293 -72.357746656169184 0 -72.357746656169184 113.67152666466427 0 0 0 0 -12.569698636609246 -90.646366222907091 0 -90.646366222907091 18.71236892673187 0 0 0 0 14.934027066751298 -92.989356097941766 0 -92.989356097941766 -45.599348487864106 0 0 0 0 -12.829833510725905 -43.987232834603418 0 -43.987232834603418 -18.80661279307617 0 0 0 0 -26.161890434421366 -47.808327945589554 0 -47.808327945589554 -44.725929935628301 0 0 0 0 -13.671060620861681 -41.944127018996369 0 -41.944127018996369 -52.264257695234846 0 0 0 0 -25.586854464258067 -51.209844289951434 0 -51.209844289951434 -24.97514569669147 0 0 0 0 -3.8825119678725954 -38.635202138795165 0 -38.635202138795165 -47.913477556189036 0 0 0 0 -0.066431134735466912 -48.843328638060484 0 -48.843328638060484 -72.764359860575496 0 0 0 0 41.139825363381533 -34.389898851790349 0 -34.389898851790349 -541.0660518494642 0 0 0 0 31.666638963462901 -42.489491810905747 0 -42.489491810905747 -410.21658163763277 0 0 0 0 2.3558296669694165 -46.056273618851264 0 -46.056273618851264 -103.89673589058668 0 0 0 0 15.882227174078054 -4.1805605056618163 0 -4.1805605056618163 -100.60960611165899 0 0 0 0 2.5895691783277925 -5.03412377473704 0 -5.03412377473704 -42.354272853849892 0 0 0 0 -1.5689201875794652 -45.445725228202349 0 -45.445725228202349 -171.07983968892376 0 0 0 0 0.27940690255491063 -55.443830487802188 0 -55.443830487802188 -338.86080655921251 0 0 0 0 -214.99049462424591 468.2317031982966 0 468.2317031982966 885.41975723780342 0 0 0 0 -286.45142637789831 136.38092351525847 0 136.38092351525847 -649.29557571848272 0 0 0 0 -1432.16218223536 -57.866275466310526 0 -57.866275466310526 94.832858580368338 0 0 0 0 -109.10658226741361 414.80170460521185 0 414.80170460521185 -1339.4617075084498 0 0 0 0 14.816468771137423 11.000039694712086 0 11.000039694712086 -62.631177392067968 0 0 0 0 400.29679793638934 13.261717769217285 0 13.261717769217285 -667.0396983489627 0 0 0 0 -0.21735939401467055 77.973857488084519 0 77.973857488084519 212.85631967149675 0 0 0 0 1.9435329892107447 -24.786594540920305 0 -24.786594540920305 -102.17392724013428 0 0 0 0 141.64571636199253 125.94179964871728 0 125.94179964871728 -172.91922085782426 0 0 0 0 38.088267578121304 -141.42678732315835 0 -141.42678732315835 -409.76366347372823 0 0 0 0 17.061143922566458 -5.8578010931820472 0 -5.8578010931820472 2.4668960906756752 0 0 0 0 79.109631454834016 40.151863991159189 0 40.151863991159189 -250.53674172694446 0 0 0 0 7.9606920950318454 -134.00111906986422 0 -134.00111906986422 -321.91081396058144 0 0 0 0 166.4449302006542 -109.64541103996453 0 -109.64541103996453 -385.32261812331853 0 0 0 0 6.1568980255469796 -127.14717758016195 0 -127.14717758016195 -379.79874595418005 0 0 0 0 235.11495741993713 -116.1403922981408 0 -116.1403922981408 -504.1177619970631 0 0 0 0 678.29077398908521 -167.82451531888728 0 -167.82451531888728 -507.38372003484983 0 0 0 0 269.85345128556582 89.77129861600406 0 89.77129861600406 -440.01813841486 0 0 0 0 6.483901951095163 -3.6277275305214403 0 -3.6277275305214403 0.39772886914785488 0 0 0 0 -37.298843690561625 -200.70754691562615 0 -200.70754691562615 243.27302555913047 0 0 0 0 206.02954683169082 -444.34567873558262 0 -444.34567873558262 447.85145838021708 0 0 0 0 369.0266672908183 -326.50558845969499 0 -326.50558845969499 106.79264516806143 0 0 0 0 367.99736128731809 -375.11402511058861 0 -375.11402511058861 102.14952821316547 0 0 0 0 364.00147787924652 -390.35212627502187 0 -390.35212627502187 119.17738400792587 0 0 0 0 179.13163228505437 -122.48470320233173 0 -122.48470320233173 -202.01745395408216 0 0 0 0 -2.8793054695634055 5.5348918112795218 0 5.5348918112795218 -17.884926513739629 0 0 0 0 509.52489862201401 -38.482349683858047 0 -38.482349683858047 3.4724409891641699 0 0 0 0 58.321351453283569 -61.357944310351741 0 -61.357944310351741 30.773020377353532 0 0 0 0 -167.01435613846115 -137.22330188649357 0 -137.22330188649357 -116.26594756361737 0 0 0 0 -2.4343984149437858 2.8429892940163768 0 2.8429892940163768 0.66160135566713052 0 0 0 0 -134.71925689031195 -82.336950837066979 0 -82.336950837066979 -153.37790512561332 0 0 0 0 -140.02004254519306 -63.312550393116908 0 -63.312550393116908 -79.065493031230289 0 0 0 0 -169.10492209685617 -118.84372955704748 0 -118.84372955704748 -68.05846639424999 0 0 0 0 147.88836368985358 -65.002613522032334 0 -65.002613522032334 -39.990094442677218 0 0 0 0 -401.91388495013234 -216.11417522777629 0 -216.11417522777629 -40.849591977224918 0 0 0 0 15.220111361847302 -67.485120401570015 0 -67.485120401570015 -33.730163259291601 0 0 0 0 -281.74306091232575 -0.12064108912454685 0 -0.12064108912454685 -24.654082462540828 0 0 0 0 2.1534144649340305 -43.219366978359176 0 -43.219366978359176 40.097453829257574 0 0 0 0 104.90414977989712 77.307179865960279 0 77.307179865960279 9.8746691143023781 0 0 0 0 -0.49207195217968547 -347.11074618507701 0 -347.11074618507701 -440.62827074647066 0 0 0 0 169.70189294195734 7.5774045500729699 0 7.5774045500729699 4.0664441230183002 0 0 0 0 260.44212400625111 102.39939405876794 0 102.39939405876794 88.114351991665899 0 0 0 0 327.0268402256188 -21.950011380962678 0 -21.950011380962678 -75.764169891899655 0 0 0 0 184.16598541350686 -84.437340523028979 0 -84.437340523028979 -54.643089717712428 0 0 0 0 166.18733143936697 -61.36912882062461 0 -61.36912882062461 -68.46425882881158 0 0 0 0 151.3542647860595 -35.480430233059451 0 -35.480430233059451 -52.227161170332693 0 0 0 0 141.45134960467112 -40.03964586177608 0 -40.03964586177608 -38.253448858329648 0 0 0 0 219.94990468485776 -17.837116130889626 0 -17.837116130889626 -40.161715573776746 0 0 0 0 5.4949669763300619 -4.9603229890010425 0 -4.9603229890010425 -1.8157498672878205 0 0 0 0 -423.83279340917215 -475.72326027317717 0 -475.72326027317717 -177.26241971866693 0 0 0 0 179.97590674650564 29.950587454019114 0 29.950587454019114 -7.7612043369736057 0 0 0 0 102.14665424401755 15.939984801938408 0 15.939984801938408 3.628418765074457 0 0 0 0 40.309881575463805 -20.345854396335199 0 -20.345854396335199 -17.344189006005763 0 0 0 0 97.50942726978974 -40.89076946482237 0 -40.89076946482237 -61.346740300767124 0 0 0 0 34.676284779456068 -31.451658587317922 0 -31.451658587317922 2.2092727818696076 0 0 0 0 127.87359648782876 -78.597178165819059 0 -78.597178165819059 -73.956300009711413 0 0 0 0 105.17650861981554 -30.654276662136965 0 -30.654276662136965 -40.721462503055335 0 0 0 0 84.215083579765633 -887.19219424459152 0 -887.19219424459152 23.568406193284318 0 0 0 0 -36.604823528747943 -78.173007348775172 0 -78.173007348775172 14.860364062432794 0 0 0 0 72.220106513617793 -99.003191366326064 0 -99.003191366326064 -394.065871988656 0 0 0 0 99.461837397597264 -35.544478674986749 0 -35.544478674986749 -49.179205047432333 0 0 0 0 8.17696191826073 -23.381328786268824 0 -23.381328786268824 -10.716530246022273 0 0 0 0 61.13124206469729 -40.118768330345119 0 -40.118768330345119 -150.20019033760764 0 0 0 0 28.365240162849659 -61.784060852281982 0 -61.784060852281982 -71.240382790623698 0 0 0 0 25.509699507094922 -31.448925380249989 0 -31.448925380249989 9.5043526057669112 0 0 0 0 31.326129109802423 -190.37470356778067 0 -190.37470356778067 -199.75971165465307 0 0 0 0 101.53612345721922 -58.047414034925168 0 -58.047414034925168 -322.09085417794995 0 0 0 0 22.895028103249302 -8.971055977474407 0 -8.971055977474407 -15.020668631188855 0 0 0 0 -81.201085425844212 -95.036420085129066 0 -95.036420085129066 -172.97869114989589 0 0 0 0 8.5138349581460702 -22.436464326321385 0 -22.436464326321385 -9.1719326239245902 0 0 0 0 -88.088559669791721 43.050243035773747 0 43.050243035773747 -339.33435262984131 0 0 0 0 43.160465940338327 -140.00478146069509 0 -140.00478146069509 -192.42795316461707 0 0 0 0 48.457202962182464 58.135390164020464 0 58.135390164020464 -194.20182996350923 0 0 0 0 0.081718694463205566 -9.2653104890626992 0 -9.2653104890626992 -22.544833848570704 0 0 0 0 -555.76449474750552 -89.418052598717622 0 -89.418052598717622 -143.50359759520506 0 0 0 0 -367.79953315164312 -303.43910080741625 0 -303.43910080741625 -195.42250798473833 0 0 0 0 -21.769866713942065 -15.681592404042703 0 -15.681592404042703 7.6890192302353171 0 0 0 0 18.126558006765809 3.4527188811685505 0 3.4527188811685505 -1.0160131548774416 0 0 0 0 -249.54681504808832 -4.3461385385598987 0 -4.3461385385598987 -1323.0420461110771 0 0 0 0 -16.738794202079589 -91.643641503076651 0 -91.643641503076651 -49.046890705212718 0 0 0 0 11.891636860055627 -69.674049631368518 0 -69.674049631368518 -1.1576796023763336 0 0 0 0 23.421221862001403 -268.79047324337444 0 -268.79047324337444 -182.66925707197515 0 0 0 0 205.40232739703788 -39.562681539915502 0 -39.562681539915502 -193.67960650846362 0 0 0 0 7.3574407105160304 4.8641343338861702 0 4.8641343338861702 -102.04992541593759 0 0 0 0 -39.046395304620091 -91.777741431193135 0 -91.777741431193135 -216.52368193842995 0 0 0 0 -299.05442662649875 -160.38041001280362 0 -160.38041001280362 -107.84741437534103 0 0 0 0 587.88723999226204 -94.943078007279837 0 -94.943078007279837 -276.66784044969245 0 0 0 0 -1.366874791608069 6.5817864782463573 0 6.5817864782463573 -59.710967702954633 0 0 0 0 -501.19995697810373 -425.03261962267425 0 -425.03261962267425 -449.16272811786621 0 0 0 0 -276.63685602226178 -268.19735365886299 0 -268.19735365886299 -765.44774906500243 0 0 0 0 -266.64922723867448 -383.47351968632302 0 -383.47351968632302 -536.43434668768896 0 0 0 0 -167.22044214564812 -443.48895588848427 0 -443.48895588848427 -306.31396274603321 0 0 0 0 149.37418754397368 91.368262551768566 0 91.368262551768566 -121.12660805852647 0 0 0 0 6.0170397636954078 -6.2912358757447464 0 -6.2912358757447464 9.8200223300539733 0 0 0 0 -44.901003879203927 14.373883504966216 0 14.373883504966216 -53.342800760914542 0 0 0 0 135.04174657398835 121.03455850585306 0 121.03455850585306 116.94605287649028 0 0 0 0 -300.44222376732796 -99.712870158109581 0 -99.712870158109581 -175.35995732611627 0 0 0 0 -443.72773455324932 -587.65377699911187 0 -587.65377699911187 -439.89323489952949 0 0 0 0 -95.007741637688014 -429.89977282880864 0 -429.89977282880864 -466.36422994770692 0 0 0 0 223.45637076848652 20.760967686670483 0 20.760967686670483 -334.29259725194424 0 0 0 0 130.14701247152698 -156.47304587575491 0 -156.47304587575491 -447.84341488781502 0 0 0 0 506.21891173505173 94.826644904886962 0 94.826644904886962 -565.43849609096651 0 0 0 0 661.03866365000431 299.12124809280795 0 299.12124809280795 -549.26883359119529 0 0 0 0 2.8752935736472125 -10.132667365875079 0 -10.132667365875079 8.5300708032287957 0 0 0 0 -970.31202718615532 -370.13008875245578 0 -370.13008875245578 -2438.4171649869531 0 0 0 0 -30.422827960569691 -133.41708425795235 0 -133.41708425795235 18.83189518752198 0 0 0 0 529.52305281012195 296.35948876510156 0 296.35948876510156 -523.86641934956424 0 0 0 0 982.21401265260647 124.62091857107589 0 124.62091857107589 -631.03219052770874 0 0 0 0 809.65602513964404 94.390259316889569 0 94.390259316889569 -598.29582315488369 0 0 0 0 14.293221248281782 -27.805646642657734 0 -27.805646642657734 -52.942643697104394 0 0 0 0 569.02223845518893 -323.86398944936809 0 -323.86398944936809 -2856.6204804435547 0 0 0 0 -10.02288443755242 -368.60009614060982 0 -368.60009614060982 -315.18169605141156 0 0 0 0 -41.530544046616853 -139.65629772800827 0 -139.65629772800827 -39.453751476282704 0 0 0 0 294.84338716001366 -314.56648194795707 0 -314.56648194795707 -497.0847667491762 0 0 0 0 893.81125774574866 -319.75069302454176 0 -319.75069302454176 -505.07890400564065 0 0 0 0 214.96586681524059 -268.97645001931232 0 -268.97645001931232 -501.3026566536646 0 0 0 0 74.691394094887073 -149.28816955420189 0 -149.28816955420189 -696.68087111631758 0 0 0 0 -436.78344951439067 -465.42770680411195 0 -465.42770680411195 -555.59547101971111 0 0 0 0 555.99874130639364 367.6545986920828 0 367.6545986920828 -375.11744098445342 0 0 0 0 -1093.7225777139683 -28.799041660051444 0 -28.799041660051444 -594.170694171793 0 0 0 0 -2.46066422104456 3.986419343916566 0 3.986419343916566 -18.384330342245789 0 0 0 0 -2445.3280497646665 -1961.2916693544685 0 -1961.2916693544685 772.95646646156092 0 0 0 0 440.10913353937212 -2482.4081561444036 0 -2482.4081561444036 -934.15748029420502 0 0 0 0 -2204.945277515566 236.53296220378252 0 236.53296220378252 -350.03064697125228 0 0 0 0 736.09041639539646 115.93797514267499 0 115.93797514267499 -2402.8980692188743 0 0 0 0 -18.83177916880777 -151.29106263327182 0 -151.29106263327182 18.391485464310218 0 0 0 0 -272.61083126623998 -161.61821106413845 0 -161.61821106413845 136.45245799633267 0 0 0 0 -1533.1546777877375 -1896.4727427686448 0 -1896.4727427686448 -1025.4536648932844 0 0 0 0 192.10164683965559 -304.91663450063788 0 -304.91663450063788 -610.70417213512701 0 0 0 0 939.74637456615164 -1409.5486320692362 0 -1409.5486320692362 -932.27571704512229 0 0 0 0 16.321165588501515 -33.443264146233147 0 -33.443264146233147 58.488327170838829 0 0 0 0 -27.879766376605403 -17.141886063596758 0 -17.141886063596758 -101.05704519126448 0 0 0 0 153.90963874250221 -132.86209289648332 0 -132.86209289648332 9.9331768250492942 0 0 0 0 151.03476047212826 -136.93670186587769 0 -136.93670186587769 -213.56592702222406 0 0 0 0 191.95118856584304 -143.63637664488851 0 -143.63637664488851 -461.18826517295383 0 0 0 0 86.530708281010448 -247.9053874212259 0 -247.9053874212259 -419.12132955719426 0 0 0 0 25.134785342335817 -246.96581719738606 0 -246.96581719738606 -476.67450815587654 0 0 0 0 66.798102212924277 -279.51055814308347 0 -279.51055814308347 -501.21836816618088 0 0 0 0 188.08937968912505 -186.24275098834187 0 -186.24275098834187 -463.55002637558209 0 0 0 0 47.293562859271333 -218.77075951089864 0 -218.77075951089864 -458.4877983944607 0 0 0 0 5.6050418493614416 -208.07017064308457 0 -208.07017064308457 -310.75691874481527 0 0 0 0 -108.15587099413824 -327.50005340821372 0 -327.50005340821372 -429.71569301003183 0 0 0 0 225.46365346476523 -128.40908011061401 0 -128.40908011061401 -517.12478415608348 0 0 0 0 179.75865401282135 -183.12395329958963 0 -183.12395329958963 -427.113175304592 0 0 0 0 208.64532669918844 -166.122061801987 0 -166.122061801987 -597.82048018022033 0 0 0 0 217.42220316144085 -194.27282027198817 0 -194.27282027198817 -510.04673402672961 0 0 0 0 170.97333132103813 -169.39754212419211 0 -169.39754212419211 -258.59900040581124 0 0 0 0 189.89999138656276 -194.0989440374251 0 -194.0989440374251 -425.46349063847993 0 0 0 0 126.78673342371327 -117.73644068232437 0 -117.73644068232437 14.522804185024984 0 0 0 0 427.86886428944854 -281.40273505796358 0 -281.40273505796358 -1515.8610732862935 0 0 0 0 91.391237939864723 -115.5589247140928 0 -115.5589247140928 15.911563755123787 0 0 0 0 -83.489701081198291 -236.14952851880662 0 -236.14952851880662 7.2250400238117436 0 0 0 0 403.38305996289273 -462.26730972481892 0 -462.26730972481892 -437.04635227600147 0 0 0 0 -85.844277418535057 2.8536739696428413 0 2.8536739696428413 503.23738862912433 0 0 0 0 -469.33570670821609 71.553916365475743 0 71.553916365475743 -220.65934536139684 0 0 0 0 612.4889103069363 -121.35395026931656 0 -121.35395026931656 -2546.6376624235418 0 0 0 0 108.10888385726139 -1188.949730449167 0 -1188.949730449167 -1374.8895508738497 0 0 0 0 -500.57313307752702 -805.13263161500436 0 -805.13263161500436 1719.5316633503971 0 0 0 0 -4.4547558103451763 1.8306656750360162 0 1.8306656750360162 0.46637621036590815 0 0 0 0 -246.1314875368771 -567.03282915183445 0 -567.03282915183445 1185.2805330997362 0 0 0 0 614.66041764763213 -711.58858730961947 0 -711.58858730961947 37.719902963165978 0 0 0 0 -346.62864013815124 -461.58013802103233 0 -461.58013802103233 38.158635377083556 0 0 0 0 -58.980120865243407 -1202.8013233470228 0 -1202.8013233470228 416.22834654447797 0 0 0 0 -1981.0214053351083 -1471.6961706395523 0 -1471.6961706395523 -50.282795515243379 0 0 0 0 173.04601461636958 -1341.598607394546 0 -1341.598607394546 358.2750048480957 0 0 0 0 -54.111422561266878 -54.552809892725051 0 -54.552809892725051 -38.501277103609652 0 0 0 0 -18.833928727151417 -12.443305149293707 0 -12.443305149293707 6.7824457436275054 0 0 0 0 -3047.6007030531619 -152.87591068371694 0 -152.87591068371694 98.92353028182697 0 0 0 0 -59.089021504245466 -702.09274796673162 0 -702.09274796673162 -1470.6615554197233 0 0 0 0 256.0580203703139 1556.3579740036221 0 1556.3579740036221 -421.54214702031459 0 0 0 0 -1219.1890364605933 -1237.3865180968642 0 -1237.3865180968642 -639.97422981137061 0 0 0 0 636.66101604967116 247.41588183227577 0 247.41588183227577 122.87426251835132 0 0 0 0 -82.113968038942602 -32.479695608948305 0 -32.479695608948305 -4.7227936205173346 0 0 0 0 -37.177032504507281 -15.486427860156141 0 -15.486427860156141 -7.3958062687796087 0 0 0 0 929.17746032843115 133.29354968921325 0 133.29354968921325 166.23187498355401 0 0 0 0 -3.6044009249599185 -977.17711431576754 0 -977.17711431576754 1139.2660455888999 0 0 0 0 -71.744214465594268 430.40158616923873 0 430.40158616923873 464.00499863779987 0 0 0 0 216.49026771244826 -201.2305664991145 0 -201.2305664991145 -1131.7167437657772 0 0 0 0 104.69753822773055 -36.589171224466554 0 -36.589171224466554 -787.75302042185649 0 0 0 0 159.41535349150945 -211.47459707592498 0 -211.47459707592498 -486.94080165750847 0 0 0 0 -64.130069845413317 -33.686056251438117 0 -33.686056251438117 -1.4410768496707895 0 0 0 0 -367.72012152688694 -483.84598808609007 0 -483.84598808609007 -76.186190022194751 0 0 0 0 89.538599168125074 -218.22637912388382 0 -218.22637912388382 -432.39520996288775 0 0 0 0 79.50058974095009 -475.35099349223856 0 -475.35099349223856 11.270558086904202 0 0 0 0 143.01003198044964 -133.0808153310245 0 -133.0808153310245 -334.59886081203149 0 0 0 0 124.69612627063725 -262.35730782958626 0 -262.35730782958626 -244.64140404730279 0 0 0 0 -18.680970963672735 -378.85518733459685 0 -378.85518733459685 -323.99886089661231 0 0 0 0 -168.34950882166595 -422.32649849620611 0 -422.32649849620611 -105.47508634011319 0 0 0 0 -30.033187293147563 -71.373490422853152 0 -71.373490422853152 -40.680087211543125 0 0 0 0 -74.258057253753265 -56.706853403535824 0 -56.706853403535824 -17.534049118096306 0 0 0 0 79.684677774275769 142.82492819402978 0 142.82492819402978 230.93838859561583 0 0 0 0 287.98264928933531 -831.89994243587716 0 -831.89994243587716 -315.27913050285133 0 0 0 0 -132.53674852059339 -476.13690089870943 0 -476.13690089870943 33.986904304882046 0 0 0 0 369.97000407531596 -77.713214226358104 0 -77.713214226358104 -895.23078733740113 0 0 0 0 -4.8137262270682868 -24.524981476870835 0 -24.524981476870835 -8.8567709510700823 0 0 0 0 -17.550637754063274 -67.212180791234374 0 -67.212180791234374 -79.401772126595475 0 0 0 0 -70.985709507349881 -37.764480956953001 0 -37.764480956953001 14.216064020941417 0 0 0 0 -57.047742148997713 -380.88995222426092 0 -380.88995222426092 659.47478262761433 0 0 0 0 -79.872761556300517 -84.652966690132615 0 -84.652966690132615 42.610500271651063 0 0 0 0 -1.7292155350600638 -90.692273020928909 0 -90.692273020928909 -42.046614142091165 0 0 0 0 155.2183874440052 -383.01236168528703 0 -383.01236168528703 23.498914441644956 0 0 0 0 67.161665229097707 -206.08909966188367 0 -206.08909966188367 65.434849016790395 0 0 0 0 -14.783027783268267 -6.9946690523477884 0 -6.9946690523477884 48.389101039778524 0 0 0 0 65.599639511465739 -125.39568491252157 0 -125.39568491252157 -100.59173799626296 0 0 0 0 -50.701303082426904 -120.62006200318253 0 -120.62006200318253 -48.16149104409439 0 0 0 0 -247.38924733283056 -268.7979565585556 0 -268.7979565585556 203.89311722331331 0 0 0 0 45.26580335496692 -120.59850818720588 0 -120.59850818720588 80.482616593842977 0 0 0 0 -118.51426514292689 -542.96613386047829 0 -542.96613386047829 466.06495921737314 0 0 0 0 62.295299883644475 -354.84930886387201 0 -354.84930886387201 -301.48616257454705 0 0 0 0 -9.4292684625761467 -522.71966924978551 0 -522.71966924978551 318.91532650376757 0 0 0 0 7.2338201436323288 -19.629460401279175 0 -19.629460401279175 365.27671111335803 0 0 0 0 -37.810877337224269 -115.20805287791777 0 -115.20805287791777 20.019284561515175 0 0 0 0 -40.201148687401883 -90.20180564134057 0 -90.20180564134057 137.21675666305237 0 0 0 0 -45.765401451122784 -119.86625707400776 0 -119.86625707400776 -39.77313663154348 0 0 0 0 -39.124652386642992 -145.10591813919018 0 -145.10591813919018 106.9903724461692 0 0 0 0 45.342460417117081 -124.5539766847935 0 -124.5539766847935 87.690609625467914 0 0 0 0 -294.75220471368812 -510.22300624497802 0 -510.22300624497802 1025.8591394739615 0 0 0 0 -28.570988084757118 -156.3896602888799 0 -156.3896602888799 136.35080390633084 0 0 0 0 -582.35142661744612 -287.40457720210543 0 -287.40457720210543 302.79735683303807 0 0 0 0 -644.15407379952376 -946.40927304678007 0 -946.40927304678007 -1042.8746269232888 0 0 0 0 -183.240765083523 -47.715412043537071 0 -47.715412043537071 -191.52275680658931 0 0 0 0 -95.668993649882395 -296.2795947303498 0 -296.2795947303498 -655.96124458350823 0 0 0 0 -236.99155520136219 -641.24985444133665 0 -641.24985444133665 -364.73181639407267 0 0 0 0 -4.7314265684417478 -217.40324082888765 0 -217.40324082888765 -2509.6429825261366 0 0 0 0 -10.363738015756269 -12.453170610765923 0 -12.453170610765923 -1.1241575822220655 0 0 0 0 -170.19588690498495 -259.25910364458832 0 -259.25910364458832 -283.8930299080771 0 0 0 0 -27.992384464641191 -24.319282229683324 0 -24.319282229683324 -1.3722412804676445 0 0 0 0 88.082946885697311 -234.65155617228265 0 -234.65155617228265 -1409.2526596450698 0 0 0 0 23.019089479701506 -380.31973430693506 0 -380.31973430693506 -816.96687168723292 0 0 0 0 -43.106866451615701 -31.685828055923622 0 -31.685828055923622 -1.9572220148327961 0 0 0 0 84.643698881125601 -239.05481016922204 0 -239.05481016922204 532.05187146492244 0 0 0 0 -22.885050577140646 -303.76903960321397 0 -303.76903960321397 782.55636158635025 0 0 0 0 -73.525911868186085 -20.778563293246407 0 -20.778563293246407 725.57096576163894 0 0 0 0 -23.034794889048499 -21.080499856097958 0 -21.080499856097958 529.61597488913685 0 0 0 0 -166.51801703443925 -441.95375709315704 0 -441.95375709315704 1300.9175792203287 0 0 0 0 -193.28013804988586 -184.57518723738031 0 -184.57518723738031 501.77053313102169 0 0 0 0 2.336470023059519 -274.67457502996331 0 -274.67457502996331 22.254240515041602 0 0 0 0 8.9432491746370033 -17.572981925383999 0 -17.572981925383999 5.1853321907338312 0 0 0 0 -26.506809006046012 -15.620005064912689 0 -15.620005064912689 4.578360377462019 0 0 0 0 -176.65951340468018 -112.74888374884904 0 -112.74888374884904 115.27350927336374 0 0 0 0 22.492166991913109 37.588984446090763 0 37.588984446090763 348.13365399527902 0 0 0 0 -458.97771630614807 85.239115563630548 0 85.239115563630548 1755.379241796727 0 0 0 0 -751.08101253166387 -708.36281477713419 0 -708.36281477713419 554.28735836505803 0 0 0 0 154.72350474548875 -336.41084507022606 0 -336.41084507022606 300.50189047321328 0 0 0 0 213.92683246619708 -214.19587983265228 0 -214.19587983265228 -488.30460104119265 0 0 0 0 107.67599737563432 -14.513258764891361 0 -14.513258764891361 -302.61114444347186 0 0 0 0 144.05467883858364 -238.22828347239556 0 -238.22828347239556 -206.40324902129942 0 0 0 0 27.869032556482125 -124.10826260705653 0 -124.10826260705653 272.15295112639251 0 0 0 0 -123.05306634163935 -204.46242112268556 0 -204.46242112268556 -1081.4929931421138 0 0 0 0 -375.52575294346025 64.118716096738353 0 64.118716096738353 283.56703071622178 0 0 0 0 114.88480167594753 -20.73291323950798 0 -20.73291323950798 -104.97878336091526 0 0 0 0 -189.45945556167862 -106.23244978419098 0 -106.23244978419098 -126.51931720231369 0 0 0 0 -72.921371378819458 -299.42616783718404 0 -299.42616783718404 -218.83024605039827 0 0 0 0 -951.92503967360244 -1420.8153646481514 0 -1420.8153646481514 -1521.094028388834 0 0 0 0 -25.028662296179391 227.16429628907099 0 227.16429628907099 1831.4863955180263 0 0 0 0 -1.0071002630280645 -7.1191651474217394 0 -7.1191651474217394 4.6873378052978723 0 0 0 0 -254.8413876405757 -202.27225955499671 0 -202.27225955499671 750.89808330366213 0 0 0 0 484.04677991323115 -547.92142634195807 0 -547.92142634195807 -1117.5293696263543 0 0 0 0 -21.101725285720704 -14.472928780190443 0 -14.472928780190443 4.9524171508630666 0 0 0 0 0.66729889794282826 -17.811690202229983 0 -17.811690202229983 4.9538529152717956 0 0 0 0 -136.00623003318469 -289.77627087635847 0 -289.77627087635847 -163.91661429590022 0 0 0 0 -159.37703804821649 -42.653736874533934 0 -42.653736874533934 63.914430826975149 0 0 0 0 43.157028939225711 -244.8786093251656 0 -244.8786093251656 -416.32126263449027 0 0 0 0 -135.81503271004476 -569.08688565006014 0 -569.08688565006014 -200.25020258960649 0 0 0 0 -38.040632523407112 -635.93578614624857 0 -635.93578614624857 -788.17579183209818 0 0 0 0 164.95701179986645 -523.07521267563061 0 -523.07521267563061 -936.63705159267556 0 0 0 0 -40.865509677358204 -1022.2869736899011 0 -1022.2869736899011 -47.068460884889646 0 0 0 0 -230.93073985990486 -412.37537881836761 0 -412.37537881836761 -735.43097014500745 0 0 0 0 -188.51041026918392 -344.89672989466271 0 -344.89672989466271 -911.60802465012057 0 0 0 0 -84.720691733818967 -416.08247903782831 0 -416.08247903782831 -862.31075336211507 0 0 0 0 -110.6425119835767 -223.44320209276702 0 -223.44320209276702 -379.74398546530574 0 0 0 0 -257.96486878547876 -487.81201262504328 0 -487.81201262504328 -691.73813936788065 0 0 0 0 -317.881075142177 -678.02095322852256 0 -678.02095322852256 -974.56562583301275 0 0 0 0 -281.06028979719304 -656.23487475830962 0 -656.23487475830962 -1048.3333263359673 0 0 0 0 -373.38329023685947 -790.80447740888849 0 -790.80447740888849 -1169.8381702485603 0 0 0 0 -174.76245063231909 -428.77385719924132 0 -428.77385719924132 -1401.2191994972254 0 0 0 0 -531.96075178873434 -1054.4998360772042 0 -1054.4998360772042 -1316.1511610669004 0 0 0 0 -136.0153127618978 -895.38692542054559 0 -895.38692542054559 -2211.018517266064 0 0 0 0 -554.1189693235865 -658.146742642959 0 -658.146742642959 -819.3567883275573 0 0 0 0 -87.346456013917361 -124.96196616965922 0 -124.96196616965922 133.87157526509566 0 0 0 0 -196.70075975418877 -358.35458310820468 0 -358.35458310820468 -428.86409750021721 0 0 0 0 -225.95567208135617 -896.52511499526008 0 -896.52511499526008 -770.1878919778901 0 0 0 0 -91.42806617464089 -123.68262741973979 0 -123.68262741973979 133.92641529785786 0 0 0 0 -398.47212199898058 -584.55575756863618 0 -584.55575756863618 -856.74270821426035 0 0 0 0 -385.37935093564738 -677.84685949771665 0 -677.84685949771665 -553.7765015461373 0 0 0 0 -215.8620961450797 -908.2299957815485 0 -908.2299957815485 -1148.4042596758081 0 0 0 0 -226.59639171640447 -867.75429599839845 0 -867.75429599839845 -848.90312721756345 0 0 0 0 -600.95535783872765 -1178.3362706128064 0 -1178.3362706128064 -730.83212196848035 0 0 0 0 -181.76557549881545 -890.26977792010075 0 -890.26977792010075 -878.01720987825684 0 0 0 0 -207.06479298094928 -810.28368006319215 0 -810.28368006319215 -828.19559315631523 0 0 0 0 -190.83480927620258 -790.54657217023214 0 -790.54657217023214 -1006.8132487105759 0 0 0 0 0.63418519299011678 -622.51320072958333 0 -622.51320072958333 -926.60653702411946 0 0 0 0 -152.93877372601855 -462.56080476486204 0 -462.56080476486204 -1067.1769088076398 0 0 0 0 -511.91743301968381 -905.22214750986313 0 -905.22214750986313 -265.67670797735627 0 0 0 0 -82.909069012232067 -137.37997727469337 0 -137.37997727469337 -258.37568901958002 0 0 0 0 445.49279908527387 233.41875006299233 0 233.41875006299233 236.02708506440831 0 0 0 0 -166.9244420681207 -168.27889847206825 0 -168.27889847206825 -24.331366214062427 0 0 0 0 -127.5434910056938 -505.92993590012156 0 -505.92993590012156 1079.6857030547108 0 0 0 0 21.795025385581539 -417.65510391355201 0 -417.65510391355201 607.60672742409565 0 0 0 0 269.20767980543314 -61.56250454011024 0 -61.56250454011024 -260.43651051444613 0 0 0 0 -198.68387779212208 -109.10659363515879 0 -109.10659363515879 1311.1724261294803 0 0 0 0 2.4065618110583387 -7.2764496702208987 0 -7.2764496702208987 6.4498384221257083 0 0 0 0 83.110474912311474 -451.40870674292091 0 -451.40870674292091 592.78073295060312 0 0 0 0 -10.063566098789579 -8.8349241323616496 0 -8.8349241323616496 -0.3196504080917002 0 0 0 0 -658.3209498374199 -787.67845957641111 0 -787.67845957641111 695.1957032295395 0 0 0 0 -658.02580198072246 -441.04679808947913 0 -441.04679808947913 1675.992016276723 0 0 0 0 -0.33223200128122699 -542.64598228225441 0 -542.64598228225441 104.96525738191121 0 0 0 0 -30.282553221215494 -2761.9279514081718 0 -2761.9279514081718 -614.22865202561115 0 0 0 0 -432.97903237558785 408.61665732379333 0 408.61665732379333 263.35656413069228 0 0 0 0 -2759.3762841270072 2089.8710200531968 0 2089.8710200531968 1638.4050561694603 0 0 0 0 -6.9416379920154725 0.41337184201290711 0 0.41337184201290711 34.210937034148316 0 0 0 0 566.40395531854301 -479.14311415186967 0 -479.14311415186967 -1344.828173523405 0 0 0 0 3.0383669950675198 -2.0561321119728859 0 -2.0561321119728859 3.8211733923474185 0 0 0 0 97.071169910908793 -432.95729261012821 0 -432.95729261012821 1616.1446034701476 0 0 0 0 -0.09446066633972805 -99.667754666766996 0 -99.667754666766996 1.2143228571803775 0 0 0 0 -21.270788796624402 -82.440763197548222 0 -82.440763197548222 -0.38008015905506909 0 0 0 0 -6.4375275729596133 -7.7403310011459894 0 -7.7403310011459894 -0.59337627607450827 0 0 0 0 -145.52166770526492 -65.685725575501237 0 -65.685725575501237 -0.65673494196380489 0 0 0 0 55.155216985076549 -75.128206605342712 0 -75.128206605342712 2.0802261053177062 0 0 0 0 -3.9417213696433464 -26.323396509145823 0 -26.323396509145823 14.38904664531583 0 0 0 0 0.10304795634874608 -34.047096723708819 0 -34.047096723708819 -14.843128381820861 0 0 0 0 -113.01114688972302 -31.188380872979906 0 -31.188380872979906 -8.9966538560825029 0 0 0 0 -44.69571388011957 -27.662025237296945 0 -27.662025237296945 -12.966151612074441 0 0 0 0 1.2251134581165388 -49.710742362716701 0 -49.710742362716701 -61.623553617177095 0 0 0 0 -0.7679804221146469 -5.9406317322348059 0 -5.9406317322348059 -3.7302298413409787 0 0 0 0 10.117654115907499 -55.598237036552746 0 -55.598237036552746 -131.44019944117463 0 0 0 0 -25.007823415034693 -64.300368246470953 0 -64.300368246470953 -3.2816505163782956 0 0 0 0 -64.43529148545349 -50.067164757296268 0 -50.067164757296268 58.297496762679657 0 0 0 0 -39.622750385373365 -43.691001467268507 0 -43.691001467268507 9.3748340685342555 0 0 0 0 -1166.7136425066274 355.99672255874066 0 355.99672255874066 1040.7014624335279 0 0 0 0 -49.080504346362432 -83.984111646874226 0 -83.984111646874226 -18.034589968039654 0 0 0 0 -62.587897871839232 -74.017486103410192 0 -74.017486103410192 17.151757651554362 0 0 0 0 -22.181329721536386 -41.397789555836624 0 -41.397789555836624 10.431705071029768 0 0 0 0 -47.339256138073722 -23.057014518820466 0 -23.057014518820466 80.098436175738613 0 0 0 0 -298.50927096935629 -913.83100396058217 0 -913.83100396058217 -79.46533244559032 0 0 0 0 -834.03349814095418 -427.15110612613717 0 -427.15110612613717 775.94740071520209 0 0 0 0 -37.077287591961522 -59.371719541389126 0 -59.371719541389126 26.959076767596613 0 0 0 0 -55.115626723480091 -111.80668645454716 0 -111.80668645454716 -23.98955975357967 0 0 0 0 -20.464761817695887 -68.163882750418736 0 -68.163882750418736 47.295749464065523 0 0 0 0 810.66508887326927 -616.32447571272314 0 -616.32447571272314 -1392.9561979678765 0 0 0 0 -336.40108251359197 -345.42706566317793 0 -345.42706566317793 68.236944527077867 0 0 0 0 54.644371441943804 -62.318120151874609 0 -62.318120151874609 -325.84828332344478 0 0 0 0 -24.445045348648989 -133.89365051261655 0 -133.89365051261655 36.043040590343388 0 0 0 0 661.02394900270156 -1430.422887476223 0 -1430.422887476223 1197.1639609972699 0 0 0 0 1307.9163176853908 273.17656443125452 0 273.17656443125452 162.78730426430775 0 0 0 0 -83.454133167761029 344.10316069547025 0 344.10316069547025 1782.3270745097179 0 0 0 0 4.8613188262558538 -9.3397753416995215 0 -9.3397753416995215 17.572497478456597 0 0 0 0 -232.38416475392296 -228.72562551043666 0 -228.72562551043666 277.3024194543832 0 0 0 0 26.820492524653673 -153.27384549585986 0 -153.27384549585986 298.25593548493998 0 0 0 0 6.0665785379018189 -37.603651013082782 0 -37.603651013082782 38.442909810080678 0 0 0 0 0.029665627568306263 -7.0268870736467761 0 -7.0268870736467761 -11.509427839508106 0 0 0 0 277.94068221619818 161.09679263560611 0 161.09679263560611 15.966607321250194 0 0 0 0 355.08325349958614 166.68237607321498 0 166.68237607321498 -20.767529308337544 0 0 0 0 274.66888373129268 64.328533993393023 0 64.328533993393023 139.43952676047775 0 0 0 0 616.77776511410775 -426.30327336112168 0 -426.30327336112168 -190.87121049527923 0 0 0 0 387.94268499228929 -194.98854286891219 0 -194.98854286891219 120.74967094290332 0 0 0 0 -101.34428510048019 -27.346556340104144 0 -27.346556340104144 -72.180920518738276 0 0 0 0 284.54829667344529 -509.19002895694439 0 -509.19002895694439 525.96936380962143 0 0 0 0 -97.371427787591529 193.37940735010761 0 193.37940735010761 339.00237571734033 0 0 0 0 1197.608965758569 -867.99347553512416 0 -867.99347553512416 665.22864665987436 0 0 0 0 92.464329565453227 -331.48735333606965 0 -331.48735333606965 1751.7760831092783 0 0 0 0 225.24644156036084 882.07977931223104 0 882.07977931223104 1029.6442096167011 0 0 0 0 1709.3559998757555 99.189213277081762 0 99.189213277081762 -317.62228916367167 0 0 0 0 -263.17481658459292 -53.404202566409367 0 -53.404202566409367 -267.43786625024677 0 0 0 0 -15.403237806772495 -133.55165990577325 0 -133.55165990577325 13.819661716577412 0 0 0 0 385.09384656666953 212.3160387105163 0 212.3160387105163 -1445.5988213191595 0 0 0 0 -62.894564117479604 -17.152123508712975 0 -17.152123508712975 -202.92419940541731 0 0 0 0 53.683497244666796 264.38845951446274 0 264.38845951446274 -904.14852693095054 0 0 0 0 -14.449057615913546 -130.80534016444375 0 -130.80534016444375 10.865919644014522 0 0 0 0 -23.098117780980829 146.10499189176335 0 146.10499189176335 -548.91242303646868 0 0 0 0 -150.32029681655695 249.68329354581874 0 249.68329354581874 -14.903166529897135 0 0 0 0 49.557037466045585 156.65756219574268 0 156.65756219574268 72.825597806615406 0 0 0 0 19.552760997844416 456.42107851636456 0 456.42107851636456 228.96839148252184 0 0 0 0 -258.42275417632482 252.86548213702918 0 252.86548213702918 570.38746855439604 0 0 0 0 45.230530645378167 212.86480618395581 0 212.86480618395581 -8.7112816760400165 0 0 0 0 -256.68299124538316 93.201376772576623 0 93.201376772576623 285.88039769007992 0 0 0 0 -104.88490212578472 161.97292222166288 0 161.97292222166288 285.19135080132037 0 0 0 0 -23.117872054348084 -110.29518741239937 0 -110.29518741239937 -14.759793184197228 0 0 0 0 0.68877882608325081 -44.63522142466627 0 -44.63522142466627 -65.642664780240352 0 0 0 0 -21.055288134375587 -145.6094467015937 0 -145.6094467015937 -1243.3012820418226 0 0 0 0 -150.08754414215218 163.6868405992027 0 163.6868405992027 311.68542445859566 0 0 0 0 -278.80138418826391 -262.80085190895988 0 -262.80085190895988 964.81012476514206 0 0 0 0 -47.868863543328246 -133.17678082564314 0 -133.17678082564314 231.73030254189609 0 0 0 0 -520.13977825749316 137.50723790014035 0 137.50723790014035 372.84168270140071 0 0 0 0 -294.03009389005456 -279.3273757543484 0 -279.3273757543484 -348.90343121914339 0 0 0 0 -1105.753579873257 -357.06824506922931 0 -357.06824506922931 183.20328628553034 0 0 0 0 -186.73893603670876 -316.43434532478932 0 -316.43434532478932 -132.35587859254883 0 0 0 0 -681.86891571097658 132.89704018531484 0 132.89704018531484 -468.75342521649873 0 0 0 0 -739.4387204846862 -669.49736942954041 0 -669.49736942954041 50.647935364577279 0 0 0 0 -383.74650888667384 -695.35465055909299 0 -695.35465055909299 -590.69796671972608 0 0 0 0 -253.96586470730108 -337.47311455158797 0 -337.47311455158797 -22.096806303750782 0 0 0 0 -154.24702156602871 -579.34510735171352 0 -579.34510735171352 -76.509141101749265 0 0 0 0 -667.07429761657841 -305.6317169185495 0 -305.6317169185495 13.51464255087194 0 0 0 0 -634.13282819307642 -685.29601526318584 0 -685.29601526318584 -351.94948810369533 0 0 0 0 -823.14073889011343 -666.73413654414981 0 -666.73413654414981 52.908758256980946 0 0 0 0 -705.78787371219369 -2034.071980777444 0 -2034.071980777444 -688.5341371349059 0 0 0 0 -8.8298121294699854 -6.3385401789681453 0 -6.3385401789681453 1.1576965320781412 0 0 0 0 -289.02732524857856 359.22937662158074 0 359.22937662158074 1841.0085283208455 0 0 0 0 -10.003273111839178 -4.000316405447137 0 -4.000316405447137 7.1834424336940401 0 0 0 0 3.5052658328204416 -720.79131026100367 0 -720.79131026100367 -1966.7954890615765 0 0 0 0 -717.57200055831345 -323.20087558902014 0 -323.20087558902014 -909.25322508192767 0 0 0 0 -291.33930399359087 -469.18425052794191 0 -469.18425052794191 4.5101247797501856 0 0 0 0 -22.465359509766017 -2.7755222747397283 0 -2.7755222747397283 12.795307675911516 0 0 0 0 -601.28669954059296 -626.23256784331898 0 -626.23256784331898 -872.00070111964305 0 0 0 0 -211.99395706824725 -502.3665297755324 0 -502.3665297755324 -145.94404965786816 0 0 0 0 -439.44779658268999 -523.21930996319315 0 -523.21930996319315 -14.619412392246886 0 0 0 0 91.275335671463836 -516.31899263536525 0 -516.31899263536525 -55.4468948142312 0 0 0 0 -168.67032375006238 -375.79295814401121 0 -375.79295814401121 -14.039103469463271 0 0 0 0 -96.998671066343377 -133.27946240413075 0 -133.27946240413075 -280.1720564733987 0 0 0 0 -296.54689176734246 -459.35366682374297 0 -459.35366682374297 -12.320368841394156 0 0 0 0 331.96962552634068 35.001137722429121 0 35.001137722429121 -221.19779772844049 0 0 0 0 162.32862571981968 -407.73858485410165 0 -407.73858485410165 -393.79783202690669 0 0 0 0 -157.85622609686106 -286.73859270618414 0 -286.73859270618414 524.18776287086075 0 0 0 0 354.9213611803716 -95.376228429086041 0 -95.376228429086041 -241.50646698218043 0 0 0 0 19.857520204619505 -307.67787546465479 0 -307.67787546465479 -116.25210476496432 0 0 0 0 -15.829074413010547 -10.378120284616529 0 -10.378120284616529 -13.671503212694319 0 0 0 0 406.99263372920541 -395.69252760316704 0 -395.69252760316704 44.065913973987335 0 0 0 0 601.96742557831749 -210.08503435385865 0 -210.08503435385865 -239.57234312773653 0 0 0 0 197.51490253646625 -240.29261702314398 0 -240.29261702314398 72.804864551500941 0 0 0 0 368.73260361267603 -306.2000283727466 0 -306.2000283727466 -144.45106303752254 0 0 0 0 249.2583355610841 -328.80901649346197 0 -328.80901649346197 223.64254165010789 0 0 0 0 628.36858909879811 50.086871943956794 0 50.086871943956794 124.44954646687165 0 0 0 0 19.921227482671384 -235.54205615397586 0 -235.54205615397586 21.553671455365475 0 0 0 0 415.10479464218952 -445.24635868458063 0 -445.24635868458063 -136.40532420616364 0 0 0 0 438.1519851482517 -200.46419836042151 0 -200.46419836042151 -116.40611418431217 0 0 0 0 169.7795812744007 -608.92444160646482 0 -608.92444160646482 -192.36537485196186 0 0 0 0 630.9226229453634 -455.93986531374503 0 -455.93986531374503 -171.58553358777863 0 0 0 0 1235.6257925492682 -219.91920939631746 0 -219.91920939631746 -310.95284138269926 0 0 0 0 326.13544710763381 -244.37611577302596 0 -244.37611577302596 -528.23035093913131 0 0 0 0 -38.040049795181147 -55.608272413506882 0 -55.608272413506882 12.879470010688209 0 0 0 0 -98.831097544221848 -3.308359617170936 0 -3.308359617170936 37.41010721155908 0 0 0 0 263.17394802515628 -176.12074768680395 0 -176.12074768680395 7.4108225758150184 0 0 0 0 -88.364933063610806 -65.296282761810289 0 -65.296282761810289 5.9343629357572354 0 0 0 0 -96.218143971258542 -67.889968595554819 0 -67.889968595554819 24.011627815889369 0 0 0 0 3.0366408051930822 1.6576044122101052 0 1.6576044122101052 -4.8127718854760531 0 0 0 0 223.00673093635123 -170.70032639796409 0 -170.70032639796409 -405.37239709851565 0 0 0 0 -751.07548320475098 -187.70108039011177 0 -187.70108039011177 312.9691027356821 0 0 0 0 -51.606150586986445 -67.457767198758944 0 -67.457767198758944 -18.962954635293414 0 0 0 0 -423.32082681002885 -174.06448378607388 0 -174.06448378607388 169.44271185981052 0 0 0 0 -94.790476777328877 -35.80978873373715 0 -35.80978873373715 -56.850663652279763 0 0 0 0 -75.247723289037822 -168.34864318298423 0 -168.34864318298423 -360.3049636548767 0 0 0 0 -31.932697296171682 -78.415778141919873 0 -78.415778141919873 -313.98428448430059 0 0 0 0 -66.731341148988577 -50.842004694994102 0 -50.842004694994102 -230.1898344289948 0 0 0 0 -34.92403629084265 -77.112811321646547 0 -77.112811321646547 -49.938261664332771 0 0 0 0 -55.652789906103862 -160.15291034824986 0 -160.15291034824986 -245.92942981362648 0 0 0 0 -72.133352612727322 -86.902029103894165 0 -86.902029103894165 -194.29390792283812 0 0 0 0 -86.456378824164858 -111.49022441700799 0 -111.49022441700799 -176.40776419406757 0 0 0 0 -77.606425947975367 -141.83444664200579 0 -141.83444664200579 -63.546067368908552 0 0 0 0 -116.74585688149091 -112.12698456575163 0 -112.12698456575163 -15.586531963330344 0 0 0 0 -90.193418355469476 -90.673025057438281 0 -90.673025057438281 -52.25773973055766 0 0 0 0 -44.085128077189438 -170.45814092491128 0 -170.45814092491128 -57.910957670675998 0 0 0 0 -91.406624734459911 -134.13375916767473 0 -134.13375916767473 63.188335179896967 0 0 0 0 -36.108702699944843 -106.68368518655188 0 -106.68368518655188 -39.224703951753327 0 0 0 0 -31.318448196980171 -135.25015926901506 0 -135.25015926901506 -200.50560649796535 0 0 0 0 -50.990294474526308 -113.4011992431042 0 -113.4011992431042 -209.66377753590496 0 0 0 0 -0.50377424807811622 -184.5194358495919 0 -184.5194358495919 -216.27214016088328 0 0 0 0 -17.714706644095713 -107.3263264142297 0 -107.3263264142297 -87.721506868765573 0 0 0 0 -8.8899175522383302 -214.44952469908094 0 -214.44952469908094 -36.487621276415666 0 0 0 0 4.516650836650058 -1.1567364974597467 0 -1.1567364974597467 -3.7431807026033823 0 0 0 0 -377.0242214736063 -896.94475385202531 0 -896.94475385202531 -1245.2720314375765 0 0 0 0 0.010013459192123264 -207.57758988008572 0 -207.57758988008572 -154.58472741201695 0 0 0 0 -68.109160272491863 -167.56616992959243 0 -167.56616992959243 207.31339414487593 0 0 0 0 -41.596365129720652 -10.807557628246286 0 -10.807557628246286 68.465469378660146 0 0 0 0 -45.684495155292097 64.802555078957084 0 64.802555078957084 276.50337850993765 0 0 0 0 -21.197102122175693 -0.99146386079479498 0 -0.99146386079479498 3.5677730650261594 0 0 0 0 286.93171366484603 -74.882200921358162 0 -74.882200921358162 -1480.1341293221485 0 0 0 0 3493.2706790568773 -3380.8427937969336 0 -3380.8427937969336 -3548.3448084903248 0 0 0 0 -2.5636492700432427 -1835.5925230629418 0 -1835.5925230629418 2300.8165620684013 0 0 0 0 13.852565890586789 -13.486246351351838 0 -13.486246351351838 11.191555968409524 0 0 0 0 -569.16832316067303 -581.22091332436958 0 -581.22091332436958 2533.4017738095044 0 0 0 0 -238.94468456346658 -787.07157457759968 0 -787.07157457759968 -282.69779967154318 0 0 0 0 -135.50933609066851 -817.98291039993273 0 -817.98291039993273 -865.74286518467488 0 0 0 0 118.84577413828811 -323.67417073481465 0 -323.67417073481465 -578.1319579749761 0 0 0 0 -244.17210025279201 -414.47182870682627 0 -414.47182870682627 -5.2958309578443732 0 0 0 0 55.532802951963845 -42.479109581568707 0 -42.479109581568707 -10.691962951064035 0 0 0 0 -157.66062742634676 -149.20620302254247 0 -149.20620302254247 -133.35553832082951 0 0 0 0 21.081434260614685 -0.61616410296329605 0 -0.61616410296329605 -24.964234958868673 0 0 0 0 41.12284777010791 -364.89889270857384 0 -364.89889270857384 -185.16745619113317 0 0 0 0 1383.1888704137382 -430.1266219272693 0 -430.1266219272693 -480.76707440506834 0 0 0 0 1.9380682826158591 -202.46398894875529 0 -202.46398894875529 -397.22649153101338 0 0 0 0 25.634820888590184 -178.58486574705967 0 -178.58486574705967 -376.15846360480646 0 0 0 0 3.8050895914057037 -116.8780786041134 0 -116.8780786041134 -339.49879027706265 0 0 0 0 -20.351285201228166 -183.18859823466119 0 -183.18859823466119 -302.57726768818975 0 0 0 0 -24.51102720721974 -135.45180821768008 0 -135.45180821768008 -390.33558964901204 0 0 0 0 -42.714556373714004 -95.035636999766211 0 -95.035636999766211 -457.50188284123578 0 0 0 0 -162.48529811705521 -236.27705089072879 0 -236.27705089072879 -429.22257682738564 0 0 0 0 -20.352661272510886 -271.63748899916754 0 -271.63748899916754 -619.20838220280712 0 0 0 0 67.779018311062828 -62.24558909926418 0 -62.24558909926418 -773.43800281923177 0 0 0 0 -27.134071965498151 -217.84412952654748 0 -217.84412952654748 -471.20740985369775 0 0 0 0 26.606353418203071 -52.529255821275001 0 -52.529255821275001 -450.28083612184628 0 0 0 0 -12.223693305568304 -225.29700732571882 0 -225.29700732571882 -471.02433494074648 0 0 0 0 -33.026884479564615 -107.89636489909026 0 -107.89636489909026 -340.56012524967809 0 0 0 0 -52.178647902102966 -204.02475315562151 0 -204.02475315562151 -392.94068195138243 0 0 0 0 -26.232554539688863 -162.0796050071076 0 -162.0796050071076 -476.47085629672074 0 0 0 0 -80.203907929098932 -118.87694281228505 0 -118.87694281228505 -424.03310956728455 0 0 0 0 -18.751876332622487 -166.95326536143148 0 -166.95326536143148 -556.93597542661155 0 0 0 0 58.650947889436111 -6.3473930134464354 0 -6.3473930134464354 -65.639546958930808 0 0 0 0 -33.13753443902533 -247.17455902173833 0 -247.17455902173833 -571.78806289302884 0 0 0 0 -161.99799618392717 308.27851019070658 0 308.27851019070658 -469.72948160903616 0 0 0 0 -1433.6884217277111 -754.65108337438141 0 -754.65108337438141 -388.09047810831362 0 0 0 0 121.52472324962218 -882.62062444989078 0 -882.62062444989078 -1354.7136017605371 0 0 0 0 235.95721313738795 -305.6907160351534 0 -305.6907160351534 -1430.6925463156949 0 0 0 0 213.29991780363525 -192.40148567070582 0 -192.40148567070582 -592.5818908396468 0 0 0 0 47.713681225948449 37.992318129531157 0 37.992318129531157 -84.042881801662688 0 0 0 0 59.832547417314458 -58.039490479127608 0 -58.039490479127608 -153.43302761341886 0 0 0 0 -231.6757154885745 -617.90126137778623 0 -617.90126137778623 -398.64434300770517 0 0 0 0 136.53846325259656 -727.62242651220731 0 -727.62242651220731 -716.93329292979251 0 0 0 0 -399.68007715939893 -648.81223263936045 0 -648.81223263936045 -398.32043866637468 0 0 0 0 -155.44354962350917 -755.84285826939413 0 -755.84285826939413 -830.000203331987 0 0 0 0 -322.57839460761897 -625.70935461291447 0 -625.70935461291447 -793.63129347919312 0 0 0 0 -135.01296110323165 -983.35943821475666 0 -983.35943821475666 -360.9456190566716 0 0 0 0 27.515929293596741 -65.574104042336899 0 -65.574104042336899 -102.32144558691989 0 0 0 0 -779.4953465781291 -247.056915615045 0 -247.056915615045 -233.53318281789143 0 0 0 0 -50.13817210487889 -124.36763223937088 0 -124.36763223937088 105.46031962236904 0 0 0 0 -322.68330873141531 -706.1688492733665 0 -706.1688492733665 -406.74140428016835 0 0 0 0 -264.3495110101212 -570.46186970391591 0 -570.46186970391591 -965.26652723895677 0 0 0 0 333.73388792871265 -479.46206621045349 0 -479.46206621045349 -1006.9762850216066 0 0 0 0 -578.50398605069495 -102.98076048329676 0 -102.98076048329676 -1201.9480622176925 0 0 0 0 -162.33983324965811 -880.0091599775842 0 -880.0091599775842 -1524.8134992876167 0 0 0 0 -465.57379024778493 -538.7867451611819 0 -538.7867451611819 -598.63896554053645 0 0 0 0 3.2032370509602206 11.199526733275832 0 11.199526733275832 -13.178112354897536 0 0 0 0 -1199.2242522945385 -1075.6957274101242 0 -1075.6957274101242 -911.94378022211458 0 0 0 0 -5.5884234386910414 -82.320169515538083 0 -82.320169515538083 -97.023141024421051 0 0 0 0 -43.358930418172861 -5.8622468923556141 0 -5.8622468923556141 -2.0566654978301813 0 0 0 0 152.65414801897714 -250.77051901912637 0 -250.77051901912637 -583.28132788719813 0 0 0 0 -82.214003713548664 -347.04976785494318 0 -347.04976785494318 -593.30091308229748 0 0 0 0 -120.65513051021844 -111.45015255666294 0 -111.45015255666294 -741.79985768173356 0 0 0 0 32.55607160644206 16.888572956040946 0 16.888572956040946 -18.547385463588597 0 0 0 0 -392.13711214788782 -637.79314451223763 0 -637.79314451223763 -988.33321965312643 0 0 0 0 -393.06136293030431 -661.02064419482849 0 -661.02064419482849 -968.3041926613223 0 0 0 0 -390.87165090478084 -637.88899601287631 0 -637.88899601287631 -1052.9138509067925 0 0 0 0 -527.37281585791789 -537.83094758311199 0 -537.83094758311199 -923.46905124693876 0 0 0 0 -417.58625005037175 -640.07074004941023 0 -640.07074004941023 -874.37752610015013 0 0 0 0 -261.35061841114657 -408.98172344586055 0 -408.98172344586055 -909.40214388843742 0 0 0 0 -185.05218133848393 -503.90464885742404 0 -503.90464885742404 -963.13985674348078 0 0 0 0 -254.39396973777912 -513.70339148060884 0 -513.70339148060884 -949.67747741170388 0 0 0 0 -270.97868587951962 -491.6333715502733 0 -491.6333715502733 -977.35563419284881 0 0 0 0 -149.56822314516103 -396.10425450993898 0 -396.10425450993898 -970.62158793282288 0 0 0 0 -5.6527460757687322 4.6221591390120835 0 4.6221591390120835 83.996291344347895 0 0 0 0 -436.22083342753467 -144.48827794685349 0 -144.48827794685349 387.10437042502599 0 0 0 0 -69.382687115604085 -113.3796039169262 0 -113.3796039169262 128.06111927242603 0 0 0 0 -215.58610758432769 -564.58640932882918 0 -564.58640932882918 -1278.7655482567206 0 0 0 0 92.044694069074467 88.772544797731655 0 88.772544797731655 331.22889046642672 0 0 0 0 74.402490273820149 -60.469688994799398 0 -60.469688994799398 47.76920433997384 0 0 0 0 -2.5450900413270574 6.6900110082694937 0 6.6900110082694937 77.185063004498488 0 0 0 0 -12.730569790990558 -65.996560999362259 0 -65.996560999362259 204.57550937112086 0 0 0 0 -7.9868781984987436 -50.577632754441993 0 -50.577632754441993 31.368603254204345 0 0 0 0 -19.149540226156148 -8.3914688131460764 0 -8.3914688131460764 14.837413113554671 0 0 0 0 -26.489086600490964 7.4929384415278832 0 7.4929384415278832 -4.208573459723711 0 0 0 0 -592.58388916731928 210.18304093131474 0 210.18304093131474 436.25086556573842 0 0 0 0 -1218.410917105648 -1925.4805206497235 0 -1925.4805206497235 -2633.855512885697 0 0 0 0 -223.24508365802467 315.2643333778384 0 315.2643333778384 418.94134398523738 0 0 0 0 -86.052654107159469 161.75404964378595 0 161.75404964378595 182.63666621498487 0 0 0 0 -231.60013713786611 278.1794245540475 0 278.1794245540475 159.63280974745794 0 0 0 0 -201.13901880112826 298.62698309278221 0 298.62698309278221 -143.48252777673952 0 0 0 0 -318.27091867885611 334.76199187044563 0 334.76199187044563 430.40778900012629 0 0 0 0 425.66722851320264 -1157.6372497589782 0 -1157.6372497589782 -20.375183425247087 0 0 0 0 -904.58868022117531 -281.59854526516847 0 -281.59854526516847 -37.753289027971277 0 0 0 0 485.72634079435375 364.24770313798626 0 364.24770313798626 227.72121128640629 0 0 0 0 -794.98795002396218 -276.43955136245313 0 -276.43955136245313 -93.650689082243844 0 0 0 0 -1489.5014277113951 -202.83903431910085 0 -202.83903431910085 246.48303440298514 0 0 0 0 -1986.8181025164668 -1477.4478190086675 0 -1477.4478190086675 -1013.1009064306386 0 0 0 0 -392.1363208652474 -1058.5571060884395 0 -1058.5571060884395 -1391.1724416837151 0 0 0 0 -345.72425774944713 -1187.9544708916528 0 -1187.9544708916528 -887.59401044779952 0 0 0 0 -226.64465373838902 -1236.716436333516 0 -1236.716436333516 -1293.3407137656941 0 0 0 0 -1589.6128813625546 -1721.8338355606584 0 -1721.8338355606584 -1835.9050607415802 0 0 0 0 -2406.0300565562793 -1705.5951327598382 0 -1705.5951327598382 -1182.0451741303223 0 0 0 0 -93.319080834276974 -448.98865862264711 0 -448.98865862264711 -2375.9908315195635 0 0 0 0 -146.69695197802503 -791.44541358739525 0 -791.44541358739525 -1511.7059028085851 0 0 0 0 -32.864533338841284 -640.2613590230826 0 -640.2613590230826 -1823.8544325591283 0 0 0 0 -162.96035030984785 -1127.1094106881585 0 -1127.1094106881585 -1875.9107971565572 0 0 0 0 -588.20718273133389 -1704.9263122854597 0 -1704.9263122854597 -3447.8042348101108 0 0 0 0 -571.49258235725574 216.88146901116579 0 216.88146901116579 -3610.0603775323812 0 0 0 0 -7.6355890603552439 -0.76556489542176109 0 -0.76556489542176109 13.639156613003854 0 0 0 0 8.6037147369601144 -26.453700614322912 0 -26.453700614322912 14.92896228866385 0 0 0 0 -11.530085332080489 -39.98133888403072 0 -39.98133888403072 34.016397546954977 0 0 0 0 -453.49623183172662 -716.34071546686846 0 -716.34071546686846 -1136.7093166776176 0 0 0 0 -126.76181209037895 -933.41118758584116 0 -933.41118758584116 -1123.4190999416733 0 0 0 0 36.296763811027631 -896.00594142123828 0 -896.00594142123828 -1695.1535862059409 0 0 0 0 -73.21269444929203 -930.14910069008965 0 -930.14910069008965 -1215.9523018500054 0 0 0 0 -822.10429035447305 -1317.8660021593678 0 -1317.8660021593678 -3401.072976292282 0 0 0 0 -608.01568915645475 -455.57445725254502 0 -455.57445725254502 -845.39474698378217 0 0 0 0 -95.391327639343217 -673.54221199185213 0 -673.54221199185213 -2652.0153244194917 0 0 0 0 -1457.082026990829 -1848.454786752116 0 -1848.454786752116 -1105.006707851071 0 0 0 0 7.3250960283991162 -10.586880394524854 0 -10.586880394524854 3.4768412126524826 0 0 0 0 -875.03611661872128 -163.27920518404517 0 -163.27920518404517 -1028.9065920330722 0 0 0 0 -767.72855093944963 -1223.3346684822018 0 -1223.3346684822018 -116.74690575886052 0 0 0 0 -592.87723006968008 -303.48862598293601 0 -303.48862598293601 113.51700160141263 0 0 0 0 -143.01443480519811 -451.396439159701 0 -451.396439159701 -445.55770673517236 0 0 0 0 -155.55649456428364 -793.70106557158761 0 -793.70106557158761 -1268.8545898274656 0 0 0 0 -741.3124302951619 -767.02206212922192 0 -767.02206212922192 -179.38707100985084 0 0 0 0 171.65925158972095 -1013.0864720761115 0 -1013.0864720761115 -616.40837348124842 0 0 0 0 45.319064466782436 -30.472767701726141 0 -30.472767701726141 11.095335930241601 0 0 0 0 -257.49442574466957 -1077.9878091513783 0 -1077.9878091513783 -599.73947314292946 0 0 0 0 -116.54278888890985 -170.21141016331183 0 -170.21141016331183 29.231175008141253 0 0 0 0 -51.861102947207371 -19.141018764533968 0 -19.141018764533968 6.0213149001188278 0 0 0 0 -15.275644820534581 -18.420182412082312 0 -18.420182412082312 41.964018243591454 0 0 0 0 -58.164867568237241 -136.81706545304041 0 -136.81706545304041 28.859568566514554 0 0 0 0 -49.807507644203724 -20.380618788082302 0 -20.380618788082302 53.027705973298794 0 0 0 0 -24.490742409367158 17.098379214830985 0 17.098379214830985 63.541166964451804 0 0 0 0 -18.859540484233094 -6.9543025523955464 0 -6.9543025523955464 12.090742584262721 0 0 0 0 43.611438053900201 -37.347111839232809 0 -37.347111839232809 79.597858550198225 0 0 0 0 -7.7953901109358412 38.458541362525352 0 38.458541362525352 221.13154041410701 0 0 0 0 -20.03923842224151 3.0286936290738424 0 3.0286936290738424 48.806927103139813 0 0 0 0 -51.349724421161227 -41.545311861813389 0 -41.545311861813389 47.270346510164018 0 0 0 0 -46.28986099656322 -51.573699230196326 0 -51.573699230196326 8.6834778799820924 0 0 0 0 -359.53627662427607 -721.37292271023034 0 -721.37292271023034 -832.88050319754802 0 0 0 0 -62.277320721171122 -11.249010671644186 0 -11.249010671644186 14.584629324607732 0 0 0 0 131.12916389826569 -643.28553971278961 0 -643.28553971278961 -1223.0676674240149 0 0 0 0 -317.44613488787945 -513.77471396030114 0 -513.77471396030114 -905.22406427996611 0 0 0 0 -34.53208172221764 -37.433916166648743 0 -37.433916166648743 23.30494555222851 0 0 0 0 -52.768787884189805 -42.495909542007666 0 -42.495909542007666 57.585919739451128 0 0 0 0 -47.734205835813043 -9.2278821696143183 0 -9.2278821696143183 9.8454485581201716 0 0 0 0 -49.389856859954307 -30.80485643789325 0 -30.80485643789325 67.796516246324018 0 0 0 0 -38.77903826921829 -26.705835910543101 0 -26.705835910543101 26.329875423814428 0 0 0 0 -4.4811510312574683 -5.3548587905181648 0 -5.3548587905181648 67.303536315519523 0 0 0 0 16.55855446588248 -53.093905113719984 0 -53.093905113719984 58.765158377696025 0 0 0 0 -173.50770801812178 -98.813797848666326 0 -98.813797848666326 59.493307100451943 0 0 0 0 -68.878259874894866 36.019378656382457 0 36.019378656382457 46.636083702363521 0 0 0 0 90.437561540456954 3.3615543602954858 0 3.3615543602954858 21.698838071300088 0 0 0 0 239.67216663169529 -324.33729140848482 0 -324.33729140848482 251.75621379792756 0 0 0 0 171.96093695418676 -321.81304717747753 0 -321.81304717747753 255.91910609824481 0 0 0 0 -152.06673963466892 51.987194433620516 0 51.987194433620516 68.83124723202036 0 0 0 0 -4.3889915973671805 1.2154007996205678 0 1.2154007996205678 4.0664878893451419 0 0 0 0 20.45866405160632 -262.17029154862939 0 -262.17029154862939 453.62306201843694 0 0 0 0 169.08696440082713 -326.45234124049466 0 -326.45234124049466 475.32386456226322 0 0 0 0 936.48802657914348 -633.62745871223365 0 -633.62745871223365 -24.16679619407023 0 0 0 0 306.98909122790792 -426.49875560554426 0 -426.49875560554426 -54.316714264806706 0 0 0 0 332.14421400945866 -568.10644430973798 0 -568.10644430973798 329.18244978026814 0 0 0 0 215.47074376916862 -683.35957805918906 0 -683.35957805918906 354.67470620397887 0 0 0 0 0.76729444912052713 -684.64456242154802 0 -684.64456242154802 637.33803876989441 0 0 0 0 19.937698198889848 -274.23846112179945 0 -274.23846112179945 1156.1160904570852 0 0 0 0 5.3494026409460389 1.4046412426312713 0 1.4046412426312713 -2.6361710174112147 0 0 0 0 0.0035239603312220424 -11.357419386426955 0 -11.357419386426955 2.0230928308528746 0 0 0 0 -5.0060740585043959 0.72852855388896387 0 0.72852855388896387 5.0401652786825579 0 0 0 0 60.563612608035328 59.801480444037225 0 59.801480444037225 -117.23912018738338 0 0 0 0 -5.6546602208647982 -0.30342358232752531 0 -0.30342358232752531 7.6231746707729009 0 0 0 0 -42.595579220767831 2.3675265368319742 0 2.3675265368319742 17.461596366279991 0 0 0 0 -0.49402492064325543 -13.056256222748033 0 -13.056256222748033 -4.5160005381913564 0 0 0 0 21.199695661111036 -94.55471467665302 0 -94.55471467665302 -0.30126172808013507 0 0 0 0 -34.366923172458939 -35.416711548237828 0 -35.416711548237828 -12.114595350482411 0 0 0 0 67.222327161076464 -167.44589909397655 0 -167.44589909397655 -2176.7157590467832 0 0 0 0 958.85526152889361 -1303.5844181430875 0 -1303.5844181430875 -1006.0071770924387 0 0 0 0 29.348170631594257 1788.5168306203341 0 1788.5168306203341 -6272.3078776993989 0 0 0 0 -9.2702125164751124 -9.9465718118698021 0 -9.9465718118698021 -14.33788990485813 0 0 0 0 0.054532362784715183 -300.80377689240447 0 -300.80377689240447 63.545070066629705 0 0 0 0 -9.8143274868198205 -475.37231247052205 0 -475.37231247052205 40.873995866065343 0 0 0 0 34.692797564188368 -59.068562780502816 0 -59.068562780502816 381.62969905019236 0 0 0 0 2.3072300747153349 -622.21007507265131 0 -622.21007507265131 583.82655533814932 0 0 0 0 -261.96047804065165 -586.22723479428169 0 -586.22723479428169 -0.36895011192063976 0 0 0 0 -30.861099533445667 -300.54962463456923 0 -300.54962463456923 195.94383804253584 0 0 0 0 -85.673900443332968 -491.81971542315296 0 -491.81971542315296 -354.96292641361015 0 0 0 0 -79.464619754173327 -267.51283470781311 0 -267.51283470781311 -181.54611376331309 0 0 0 0 124.32473523268709 -69.632754907926028 0 -69.632754907926028 -266.83363302609075 0 0 0 0 34.080724169412861 -28.551467263043719 0 -28.551467263043719 22.688041980081834 0 0 0 0 23.049839984059588 -19.247516548439535 0 -19.247516548439535 13.830279785326255 0 0 0 0 -99.180477331377915 -263.58585985109721 0 -263.58585985109721 -209.76516883631302 0 0 0 0 -296.24496782178176 101.58125842083246 0 101.58125842083246 462.62407494892705 0 0 0 0 25.759539758117171 -158.05110319732989 0 -158.05110319732989 -55.42980283026418 0 0 0 0 374.27186678559519 -168.07714275069793 0 -168.07714275069793 -45.750177612858806 0 0 0 0 668.06759480726032 -179.10816287286343 0 -179.10816287286343 -710.72648835966629 0 0 0 0 6.9131503886205792 -8.6759303476091318 0 -8.6759303476091318 7.0289900093340076 0 0 0 0 237.71487599390821 -501.74605045510805 0 -501.74605045510805 -124.91954184651149 0 0 0 0 -257.38502744493599 -477.26984562395637 0 -477.26984562395637 -16.444803843774025 0 0 0 0 -1747.2649454622006 203.33153029858863 0 203.33153029858863 1073.0183123132801 0 0 0 0 -1.1006010004853835 -2.7522905890630796 0 -2.7522905890630796 -8.6482967868427849 0 0 0 0 887.86345208900457 -604.18142093298366 0 -604.18142093298366 -456.37500200869181 0 0 0 0 -77.217147832328919 -157.68535160826423 0 -157.68535160826423 1300.4175139781055 0 0 0 0 261.57328702911036 -547.44406220703422 0 -547.44406220703422 -20.2868433670792 0 0 0 0 388.67284187284531 -1028.9295527285212 0 -1028.9295527285212 849.38620052368879 0 0 0 0 112.86575116642416 -569.87085677177663 0 -569.87085677177663 -20.587478557457871 0 0 0 0 243.23697522956354 22.710119402089731 0 22.710119402089731 -518.47710986198888 0 0 0 0 -350.12718559767382 -122.08707662008942 0 -122.08707662008942 -256.5987375302866 0 0 0 0 -81.83106355345808 -189.51872643958268 0 -189.51872643958268 -239.92751927189965 0 0 0 0 -111.79286020397558 -371.71630090784311 0 -371.71630090784311 -276.54257702828727 0 0 0 0 -190.22710272635595 -506.95392304773895 0 -506.95392304773895 -364.74149481858512 0 0 0 0 168.08045675932954 -560.51112861237925 0 -560.51112861237925 -179.10396522210431 0 0 0 0 -220.32609040397801 -519.00354137876457 0 -519.00354137876457 100.60803937385208 0 0 0 0 -302.98858901490166 -561.65303757754441 0 -561.65303757754441 -4.8330218238625093 0 0 0 0 -182.46804995733328 -575.88217759101099 0 -575.88217759101099 -10.79354216968386 0 0 0 0 -471.44354357833799 -408.9995889866168 0 -408.9995889866168 181.06037048631242 0 0 0 0 -82.072700614363157 -124.89517431641248 0 -124.89517431641248 132.73367691475266 0 0 0 0 -306.36193429960986 -818.89503648742539 0 -818.89503648742539 -1073.704073317258 0 0 0 0 -232.35637196217067 -505.37167703540399 0 -505.37167703540399 -875.88752226335055 0 0 0 0 -402.90075835846073 -754.53543959219314 0 -754.53543959219314 -838.02521142514161 0 0 0 0 -384.29351145136752 133.05558188794657 0 133.05558188794657 468.54457817191633 0 0 0 0 -32.425043101189658 -191.66487600829851 0 -191.66487600829851 209.77751831585647 0 0 0 0 -185.59909373434493 -487.4564799131258 0 -487.4564799131258 -911.53113029489759 0 0 0 0 -166.09492176657659 -462.65031070401164 0 -462.65031070401164 -956.63046711761126 0 0 0 0 -116.34968933189521 -736.86066082081379 0 -736.86066082081379 -1141.3242972546141 0 0 0 0 -74.808885399957546 -121.59750093947048 0 -121.59750093947048 129.96448839637276 0 0 0 0 -161.29263533678022 -466.3683244248241 0 -466.3683244248241 -984.5437537146754 0 0 0 0 90.778064682759577 29.237418264742701 0 29.237418264742701 445.43129928993221 0 0 0 0 -69.691707763479087 -122.7635066032347 0 -122.7635066032347 122.51589887473821 0 0 0 0 -22.989346723589392 -2.8460099209383145 0 -2.8460099209383145 50.482900098056554 0 0 0 0 53.898931130181154 -88.894308795184088 0 -88.894308795184088 315.87222957908671 0 0 0 0 240.34963082009926 878.76149112774522 0 878.76149112774522 -636.66631789985013 0 0 0 0 -1487.0892606137058 -2101.0799495672313 0 -2101.0799495672313 -824.98270620870153 0 0 0 0 -321.85799251720891 247.10290410156881 0 247.10290410156881 1162.6388097498759 0 0 0 0 -407.23340328298946 -940.67456577572693 0 -940.67456577572693 -708.71338833661594 0 0 0 0 -1236.8379822721181 -426.31460253835758 0 -426.31460253835758 312.59155966981905 0 0 0 0 -11.214882446640559 -10.085946821545161 0 -10.085946821545161 -9.8559001684785823 0 0 0 0 -334.3941557747894 53.875102175489474 0 53.875102175489474 304.59110137215703 0 0 0 0 289.11770995496772 -423.55546457170476 0 -423.55546457170476 -475.44779708971873 0 0 0 0 -802.10822175769135 -1299.0675596835799 0 -1299.0675596835799 -35.122633458748169 0 0 0 0 -1051.0515476450382 -876.39677064205716 0 -876.39677064205716 -557.48533409224785 0 0 0 0 -46.651623271172866 -812.80754836710503 0 -812.80754836710503 -1786.8559834600483 0 0 0 0 -228.56144470855361 -726.63732528652918 0 -726.63732528652918 -371.34360737048155 0 0 0 0 -138.28523484822654 8.5535430197601272 0 8.5535430197601272 -770.06824986731954 0 0 0 0 32.681596042233082 -33.700627022444522 0 -33.700627022444522 12.521073019108869 0 0 0 0 -45.523726096178677 -51.940245534443633 0 -51.940245534443633 -8.5421748937861288 0 0 0 0 -243.40816240193089 175.85174229267341 0 175.85174229267341 -17.741759147521861 0 0 0 0 38.049620741257968 -532.21876528653911 0 -532.21876528653911 -198.98921309514844 0 0 0 0 7.317610636404595 -8.7820464895793293 0 -8.7820464895793293 13.145669531140655 0 0 0 0 -23.227897298986363 -59.735144728108907 0 -59.735144728108907 43.962668622776846 0 0 0 0 -20.548669404364773 -10.748414623968529 0 -10.748414623968529 98.717764168215581 0 0 0 0 -102.67741003644187 241.49484675992153 0 241.49484675992153 -414.5439832714348 0 0 0 0 -30.687715309439227 -80.341439398138391 0 -80.341439398138391 72.282038898876635 0 0 0 0 -19.466958538629115 -100.69317354474697 0 -100.69317354474697 59.948286028312396 0 0 0 0 -178.71402361227956 68.66267432609267 0 68.66267432609267 98.632265866941708 0 0 0 0 -67.290723238793476 -49.949220067541148 0 -49.949220067541148 58.200755536013759 0 0 0 0 -62.455721302045276 -115.92901474607334 0 -115.92901474607334 47.097039790518465 0 0 0 0 -30.373204191084369 -91.483847567335033 0 -91.483847567335033 52.173573871852568 0 0 0 0 -29.079624381457506 -97.324756894142979 0 -97.324756894142979 44.54182660315746 0 0 0 0 -893.06291624717414 -1431.0858167979434 0 -1431.0858167979434 -1467.073380897873 0 0 0 0 -37.829636476937594 -54.295947859836637 0 -54.295947859836637 336.98882181776645 0 0 0 0 -16.278479441010859 -205.1964231601284 0 -205.1964231601284 246.40973777077573 0 0 0 0 -1911.9515457842062 -907.25439942633295 0 -907.25439942633295 -457.02143623190653 0 0 0 0 -16.670573429524694 -10.743462843380655 0 -10.743462843380655 -12.54996558350029 0 0 0 0 -30.805945921951206 -15.394811317139101 0 -15.394811317139101 -1046.5644080971824 0 0 0 0 -1813.6043696806155 -1036.0089759577043 0 -1036.0089759577043 -581.22051497511563 0 0 0 0 -140.51854340452701 0.92094358185811931 0 0.92094358185811931 216.83903016303967 0 0 0 0 -80.435844720608657 16.037972503619613 0 16.037972503619613 2.1699348866810451 0 0 0 0 -443.35919803581783 -1768.8345488788902 0 -1768.8345488788902 -2783.7805989417184 0 0 0 0 -7.7013509795705772 -4.9679577503358274 0 -4.9679577503358274 4.5321334314615775 0 0 0 0 -141.75995404028799 143.74007070918378 0 143.74007070918378 218.25731750983937 0 0 0 0 126.75930220380542 165.88952447384872 0 165.88952447384872 217.35751413813523 0 0 0 0 48.706142129063664 -26.597344401087128 0 -26.597344401087128 208.88198721196477 0 0 0 0 -135.65241622074973 -41.619296076377395 0 -41.619296076377395 240.73999247464144 0 0 0 0 -83.097576782514807 -74.697010196870835 0 -74.697010196870835 205.18375371104193 0 0 0 0 -147.43423516417897 -86.340446723547274 0 -86.340446723547274 224.50064047306341 0 0 0 0 -150.46682084680651 -59.054988818346601 0 -59.054988818346601 238.99071191219173 0 0 0 0 -210.91536411971902 -135.23031638134989 0 -135.23031638134989 271.0967092512783 0 0 0 0 -261.18972026406846 -161.21853565178117 0 -161.21853565178117 345.50471283338447 0 0 0 0 -308.60817182043684 -86.094083380126904 0 -86.094083380126904 337.64746222546455 0 0 0 0 -279.10950996435713 -48.010339656958422 0 -48.010339656958422 386.81391153992377 0 0 0 0 -223.75602432980668 -92.262901445511034 0 -92.262901445511034 329.39590263284526 0 0 0 0 -222.09710225132085 -19.929379190859393 0 -19.929379190859393 318.2175145688725 0 0 0 0 -120.99986101235845 -12.780408311145038 0 -12.780408311145038 264.28312243724713 0 0 0 0 -258.39242248664959 66.965315057975658 0 66.965315057975658 420.46271222914623 0 0 0 0 -306.77278825471876 -8.290765362064576 0 -8.290765362064576 332.54207591999693 0 0 0 0 -304.44070576844388 141.10330398494079 0 141.10330398494079 341.71221476218943 0 0 0 0 -166.76617319206707 163.16171152775814 0 163.16171152775814 312.69444167401616 0 0 0 0 -89.729672478038992 126.37897745193504 0 126.37897745193504 218.14041940659445 0 0 0 0 -144.40180978186254 -150.46010870977989 0 -150.46010870977989 152.19395134006481 0 0 0 0 -99.932314421777846 -120.10328960835523 0 -120.10328960835523 47.313870686777364 0 0 0 0 -13.838804512230126 -69.254084297930376 0 -69.254084297930376 113.39937224417716 0 0 0 0 -146.68357153580291 -99.611747031024606 0 -99.611747031024606 100.22130307748509 0 0 0 0 -200.82562507780676 -84.276767304969326 0 -84.276767304969326 166.86200006276931 0 0 0 0 -52.960475339469326 -75.660864678769201 0 -75.660864678769201 43.444246844714563 0 0 0 0 -110.00156737258658 -188.70614124361964 0 -188.70614124361964 100.51563020529829 0 0 0 0 -159.21840410122968 -146.60388639223515 0 -146.60388639223515 315.49511943198377 0 0 0 0 -65.622863526724529 -8.40934381728934 0 -8.40934381728934 49.922503951996518 0 0 0 0 -199.05551311017189 -163.62826927659057 0 -163.62826927659057 332.93053754934954 0 0 0 0 -199.59171380574116 -123.30812843765671 0 -123.30812843765671 332.19866993751612 0 0 0 0 -49.194395873520989 -185.75946932231454 0 -185.75946932231454 315.2939476792526 0 0 0 0 -98.790264648319862 -105.9019177846294 0 -105.9019177846294 164.01177499113692 0 0 0 0 -83.211973526552072 -68.972720481242135 0 -68.972720481242135 114.70654678900212 0 0 0 0 -127.01593888626303 -71.465713360637892 0 -71.465713360637892 245.0218033472047 0 0 0 0 -137.10692718977225 -133.18965185785419 0 -133.18965185785419 192.49249886782854 0 0 0 0 -7.7720982206374174 -269.04427617286274 0 -269.04427617286274 403.67428997385286 0 0 0 0 -263.40474658389576 -4.8252963816685224 0 -4.8252963816685224 353.84232428637915 0 0 0 0 -134.93933621471479 -244.86995455191732 0 -244.86995455191732 260.74600406006357 0 0 0 0 -130.20586129160074 -118.46594675652796 0 -118.46594675652796 219.52063086969429 0 0 0 0 -137.48559775001195 -272.14918937738912 0 -272.14918937738912 18.545725515141385 0 0 0 0 -124.05208425396995 -110.82429808181587 0 -110.82429808181587 137.45375357559533 0 0 0 0 19.871129553695027 -79.193373084274413 0 -79.193373084274413 72.386319786440993 0 0 0 0 -5.5784767234909509 -80.543878349029839 0 -80.543878349029839 -76.238381645329724 0 0 0 0 -7.4388015178847127 -117.93883945394282 0 -117.93883945394282 -168.57076330254802 0 0 0 0 -89.706007367138227 -222.04787932068189 0 -222.04787932068189 -141.92057967737628 0 0 0 0 -3.9308129963106637 -20.730291716928136 0 -20.730291716928136 -12.270450072622321 0 0 0 0 219.7472569886886 -224.55526327924053 0 -224.55526327924053 -205.3434334541771 0 0 0 0 -0.83758309367811989 -2.140192574251941 0 -2.140192574251941 5.0795622277544759 0 0 0 0 -65.478953109311988 -124.94111078416222 0 -124.94111078416222 -1.8287132453153845 0 0 0 0 -53.522566283485503 -48.421659459858745 0 -48.421659459858745 71.114403467514421 0 0 0 0 112.57972384497407 -364.95903869935455 0 -364.95903869935455 -69.148161318767961 0 0 0 0 114.06742874479096 -299.21947024557858 0 -299.21947024557858 -151.59546092369874 0 0 0 0 175.79040900283144 -355.34045994067219 0 -355.34045994067219 -101.3171917369732 0 0 0 0 20.018086888245307 -268.47746507589522 0 -268.47746507589522 14.974542042481062 0 0 0 0 32.991635245969519 -237.47859519256735 0 -237.47859519256735 -71.011082016497312 0 0 0 0 8.8765866835810812 -311.9101363441805 0 -311.9101363441805 -81.630443050247777 0 0 0 0 70.478210076675168 -179.72869844854768 0 -179.72869844854768 -25.089362425953823 0 0 0 0 62.3996605325774 -170.6421492023976 0 -170.6421492023976 95.852343220201874 0 0 0 0 15.064629849035157 -59.977158607637392 0 -59.977158607637392 -85.560259614277655 0 0 0 0 -84.892456445621065 -424.3296056367908 0 -424.3296056367908 650.48047920226963 0 0 0 0 43.928987882216461 -122.40059351159834 0 -122.40059351159834 514.97726670551492 0 0 0 0 142.81927543612255 -122.00726421324907 0 -122.00726421324907 59.146788685044157 0 0 0 0 39.716694406504388 -45.306133899275125 0 -45.306133899275125 -74.848526777724018 0 0 0 0 132.70783517685595 -126.08762709914356 0 -126.08762709914356 92.094493918679291 0 0 0 0 170.14881154443719 -188.20701630819394 0 -188.20701630819394 107.71643213974221 0 0 0 0 144.23004887439311 -188.7792028701756 0 -188.7792028701756 118.92797702293547 0 0 0 0 215.03121239334541 -278.35238700001969 0 -278.35238700001969 173.50299258342056 0 0 0 0 -51.570740641461057 -75.776216717390653 0 -75.776216717390653 61.371753080128869 0 0 0 0 -114.70079209125106 -528.32669225222526 0 -528.32669225222526 -66.617960365616455 0 0 0 0 -36.695631821238692 -15.613972547324906 0 -15.613972547324906 25.25771843543653 0 0 0 0 118.15405132278102 -131.51953859299556 0 -131.51953859299556 82.190619765246993 0 0 0 0 463.88755423141993 -214.43503018643332 0 -214.43503018643332 39.902499339576025 0 0 0 0 226.66739248705198 -126.88261669329358 0 -126.88261669329358 84.741134710719052 0 0 0 0 138.83698908265796 -175.80978184282458 0 -175.80978184282458 120.68941957968127 0 0 0 0 163.77758221272961 -124.86895899501997 0 -124.86895899501997 205.82204486468072 0 0 0 0 216.22569869598374 -136.18496372634399 0 -136.18496372634399 78.124489683981665 0 0 0 0 -407.05716763575765 -278.28928383578204 0 -278.28928383578204 947.91841294358528 0 0 0 0 -106.67847660117695 -129.40474627637195 0 -129.40474627637195 989.55858777881804 0 0 0 0 -402.64460101601935 -309.21934049130107 0 -309.21934049130107 1073.2128357544207 0 0 0 0 -249.74228715129721 -510.34899013774884 0 -510.34899013774884 703.22049937412339 0 0 0 0 -444.05065984137036 -6.147348939348376 0 -6.147348939348376 208.09391813477669 0 0 0 0 -488.22872361212649 -877.460971666158 0 -877.460971666158 176.93051237858526 0 0 0 0 -489.65796726529447 -756.89475912619389 0 -756.89475912619389 1387.7145154940299 0 0 0 0 -9.3797331138374318 -12.014840477175653 0 -12.014840477175653 -10.945363367855052 0 0 0 0 13.507743141235551 -143.44831664450544 0 -143.44831664450544 130.96963957468779 0 0 0 0 17.733814548955706 -126.43719166794175 0 -126.43719166794175 78.68232348476397 0 0 0 0 -956.47986219623999 -1513.5024053569759 0 -1513.5024053569759 387.56744934700652 0 0 0 0 149.12584093388432 -96.577590492453965 0 -96.577590492453965 -2277.7460266589414 0 0 0 0 178.70720884492039 172.09374562683297 0 172.09374562683297 133.58979168697033 0 0 0 0 433.85978444809007 173.87190732015551 0 173.87190732015551 -2563.7500566381859 0 0 0 0 87.099251968716004 -74.108638267385302 0 -74.108638267385302 64.982779343711215 0 0 0 0 -313.99411131222587 -11.75188272577725 0 -11.75188272577725 415.85001086339571 0 0 0 0 7.8358914788068006 -34.778545143171698 0 -34.778545143171698 -38.370865038921615 0 0 0 0 -7.2162796097682076 -133.12512725726418 0 -133.12512725726418 38.827878001618956 0 0 0 0 174.55424093721376 -221.23297851828784 0 -221.23297851828784 2.7056088978165462 0 0 0 0 164.44252163590863 -164.66575778516108 0 -164.66575778516108 42.14039955713703 0 0 0 0 94.320147768263269 -155.22910340328229 0 -155.22910340328229 18.315724508183848 0 0 0 0 108.84811209565669 -183.7388232259168 0 -183.7388232259168 -10.557376386600481 0 0 0 0 87.754015322996622 -91.34028084193875 0 -91.34028084193875 64.347602552088844 0 0 0 0 150.09524764238449 -98.191171279817354 0 -98.191171279817354 49.045088431273768 0 0 0 0 136.81941443610413 -141.84367709651428 0 -141.84367709651428 -2.4352728835908124 0 0 0 0 -432.91690327688411 -198.32681813607405 0 -198.32681813607405 53.377130118525201 0 0 0 0 -7.5951022444733383 -11.376420139295362 0 -11.376420139295362 -26.339413278080382 0 0 0 0 286.48246807790565 -225.15907284987645 0 -225.15907284987645 72.486312887993108 0 0 0 0 307.66356601360894 -106.41563924459524 0 -106.41563924459524 145.11528121231891 0 0 0 0 387.83990656927926 -375.56386867380115 0 -375.56386867380115 13.606343051639669 0 0 0 0 547.36260871281411 -356.40408736401059 0 -356.40408736401059 -47.723160270799781 0 0 0 0 42.184748343526735 -278.50850009080932 0 -278.50850009080932 161.58892517086861 0 0 0 0 -13.620279470440437 -171.15375354016851 0 -171.15375354016851 33.376434486906874 0 0 0 0 72.745438964753703 -105.46644871102853 0 -105.46644871102853 80.008600014574313 0 0 0 0 18.038250015735684 -107.57046996110476 0 -107.57046996110476 100.71489893505613 0 0 0 0 8.7110866742077633 -89.127307303019734 0 -89.127307303019734 80.490120060358095 0 0 0 0 2.9044653697346803 -149.18734843066704 0 -149.18734843066704 -92.466172488528173 0 0 0 0 -59.088561848853715 -144.26193558169052 0 -144.26193558169052 44.687133868833371 0 0 0 0 15.238519919774262 -74.730176965021201 0 -74.730176965021201 28.375135270267492 0 0 0 0 -44.512192585054436 -176.97738549702717 0 -176.97738549702717 -10.53843610342301 0 0 0 0 -135.19130159492488 -229.45225498312902 0 -229.45225498312902 -117.18769604994714 0 0 0 0 -20.334550513827708 -274.85851662365849 0 -274.85851662365849 -196.19632646440027 0 0 0 0 -308.79156992379376 -312.39473288205812 0 -312.39473288205812 11.926917228737693 0 0 0 0 -21.934401989201433 -115.67480362863171 0 -115.67480362863171 16.999358074470365 0 0 0 0 -35.13538392658883 -9.9473471581341144 0 -9.9473471581341144 35.982189098402785 0 0 0 0 -607.68092425841496 -285.62313292893668 0 -285.62313292893668 51.059104249587108 0 0 0 0 37.491555371333618 -75.339612567243051 0 -75.339612567243051 97.295552769669712 0 0 0 0 -636.87316763036688 -181.19782506795673 0 -181.19782506795673 95.183304773905547 0 0 0 0 -361.81561679095489 -285.28163150746286 0 -285.28163150746286 -53.549264956222032 0 0 0 0 -361.27655607647102 -286.99396016048559 0 -286.99396016048559 -121.10850168169418 0 0 0 0 -471.09145073404034 -86.884435562576982 0 -86.884435562576982 65.456912728899624 0 0 0 0 -200.66757401338509 -154.23251067673482 0 -154.23251067673482 -88.92422099621399 0 0 0 0 184.65161370140413 -17.794684025290735 0 -17.794684025290735 81.230448349748372 0 0 0 0 9.8570425901634735 -99.278851957264123 0 -99.278851957264123 69.280716672266863 0 0 0 0 95.058496990972344 -113.92303560147957 0 -113.92303560147957 50.237755928700608 0 0 0 0 12.95153350943292 -169.93912617808564 0 -169.93912617808564 -81.546645974671264 0 0 0 0 92.599636829902011 -20.340636876307144 0 -20.340636876307144 125.17217725618775 0 0 0 0 33.646012146753492 -110.21309049785759 0 -110.21309049785759 81.823501186299382 0 0 0 0 44.12700129183213 -50.510337115863834 0 -50.510337115863834 125.58180563282718 0 0 0 0 -1096.8406715069432 -487.20521836282569 0 -487.20521836282569 -448.59929956131964 0 0 0 0 87.170329114730876 -76.107739441627388 0 -76.107739441627388 63.623661079702707 0 0 0 0 220.62569924798663 -568.88762900401707 0 -568.88762900401707 -1269.0942701743188 0 0 0 0 -399.09645010411623 -159.79216778944829 0 -159.79216778944829 668.95992237869882 0 0 0 0 -4.077111238901594 -8.6670853496496179 0 -8.6670853496496179 -0.71938858607114486 0 0 0 0 -318.26077820946921 -162.55678671217356 0 -162.55678671217356 -108.88327113773266 0 0 0 0 -90.493217276227369 -333.72725167801218 0 -333.72725167801218 -515.07354458576447 0 0 0 0 88.801000816487914 -82.084156750459684 0 -82.084156750459684 68.544459657976333 0 0 0 0 47.762565277218528 -331.23176174928085 0 -331.23176174928085 -529.93953797464565 0 0 0 0 29.464273908980555 -14.574395124350445 0 -14.574395124350445 -10.40503760739152 0 0 0 0 -193.35663785223733 -335.83428762106269 0 -335.83428762106269 -380.59761313265335 0 0 0 0 -646.99139324195858 -334.99539175944665 0 -334.99539175944665 -122.78323179435029 0 0 0 0 -1053.0286937067558 -629.76279581993549 0 -629.76279581993549 -191.92109443208028 0 0 0 0 -816.63579909296095 -582.74174492506427 0 -582.74174492506427 -259.85258702989086 0 0 0 0 -301.95201799141068 -496.98640873441764 0 -496.98640873441764 -690.28351889868645 0 0 0 0 -384.59411046780588 -208.0361186749069 0 -208.0361186749069 -128.52202728128032 0 0 0 0 -9.5927906459215677 -12.275401921773778 0 -12.275401921773778 -0.3854295103432217 0 0 0 0 51.004089608016329 -199.13803310735625 0 -199.13803310735625 -263.89529033669533 0 0 0 0 -306.93400427736196 -281.93025957391001 0 -281.93025957391001 69.372885751702597 0 0 0 0 -71.347558926689089 -152.07208982436532 0 -152.07208982436532 185.59376114554834 0 0 0 0 39.857553651216222 -55.586119770638106 0 -55.586119770638106 -195.71104102684694 0 0 0 0 211.279261112104 -85.513111345093421 0 -85.513111345093421 -100.59788347103313 0 0 0 0 -44.303679526574342 -161.14817988438426 0 -161.14817988438426 -112.87046543347606 0 0 0 0 -37.654080673157296 -151.0700022083347 0 -151.0700022083347 -394.02184521998379 0 0 0 0 70.335084223017475 -187.3323794302114 0 -187.3323794302114 -439.02475450768179 0 0 0 0 -84.012455927429983 -261.69615023582992 0 -261.69615023582992 -250.25925715806079 0 0 0 0 104.56906770371279 -636.96478388435844 0 -636.96478388435844 -266.18037299750358 0 0 0 0 -458.08393890432126 -396.33267264453525 0 -396.33267264453525 380.23233228488243 0 0 0 0 -576.76373993579182 -873.58631073879951 0 -873.58631073879951 -173.40298584248558 0 0 0 0 -153.5842851599009 -244.18868879636648 0 -244.18868879636648 -88.102649209886295 0 0 0 0 -40.394257412699517 43.155037864824408 0 43.155037864824408 371.10253251776885 0 0 0 0 63.528170647354273 -193.80570123037069 0 -193.80570123037069 -402.61522504131426 0 0 0 0 -23.647560649231309 -118.23385587822122 0 -118.23385587822122 -104.14264993398751 0 0 0 0 -12.998548576513713 -234.01253901050222 0 -234.01253901050222 -406.94840096466578 0 0 0 0 -12.049216897677979 -93.109536987843967 0 -93.109536987843967 -458.01270596942595 0 0 0 0 -13.334997375277453 -222.37373826182193 0 -222.37373826182193 -605.7299199513036 0 0 0 0 -11.295622905439814 -142.03449528720012 0 -142.03449528720012 -509.96803759528484 0 0 0 0 -10.149955284930911 -128.10161435311056 0 -128.10161435311056 -562.67485179896903 0 0 0 0 -35.989659249215038 -76.188277576386099 0 -76.188277576386099 -574.56265022167872 0 0 0 0 36.59708345663239 -171.39590644862028 0 -171.39590644862028 -559.57793855225827 0 0 0 0 -110.11052427760114 -186.16836622598657 0 -186.16836622598657 -554.6590087690638 0 0 0 0 -61.336591117698845 -209.2011215701832 0 -209.2011215701832 213.75778003887717 0 0 0 0 1192.6253406340838 -1120.4367656585455 0 -1120.4367656585455 1069.7229627691777 0 0 0 0 720.38120048217752 -507.12127291005709 0 -507.12127291005709 1625.9301370053072 0 0 0 0 -34.658174363808939 -35.035525883500668 0 -35.035525883500668 -262.08566891698865 0 0 0 0 407.7041572723756 -1185.5741365734448 0 -1185.5741365734448 1439.5696697731037 0 0 0 0 162.62653629828128 -1183.4985164433165 0 -1183.4985164433165 2041.3983442081262 0 0 0 0 469.27583912130649 -491.71624764639819 0 -491.71624764639819 866.18668199648528 0 0 0 0 -26.334131239125014 -31.874364780961464 0 -31.874364780961464 -27.346383823980961 0 0 0 0 204.49004589882315 -438.05636234746316 0 -438.05636234746316 1085.4705913318321 0 0 0 0 -27.594785415996739 -324.15616796864333 0 -324.15616796864333 -641.74438584814015 0 0 0 0 -132.38836450969393 -210.07662756993977 0 -210.07662756993977 -439.1638244069066 0 0 0 0 15.089737444915954 -135.46112347883718 0 -135.46112347883718 -637.26890861450738 0 0 0 0 20.226038762804819 -238.99093959789025 0 -238.99093959789025 -711.3672527813851 0 0 0 0 -39.85640985354803 32.010145283319162 0 32.010145283319162 271.35046611220241 0 0 0 0 -31.143743520922357 -47.088947923584669 0 -47.088947923584669 -37.334834664219528 0 0 0 0 -4.5492448137897696 -5.7924946043582395 0 -5.7924946043582395 4.0615411710031726 0 0 0 0 -61.284565982437925 16.990481159649789 0 16.990481159649789 305.39374930073791 0 0 0 0 -29.726328132572235 21.479862200852949 0 21.479862200852949 213.54789994697057 0 0 0 0 17.878290275419204 -43.736093718810253 0 -43.736093718810253 24.192147491327887 0 0 0 0 -7.7461537670459109 -8.3364195568337749 0 -8.3364195568337749 6.0044997584708639 0 0 0 0 -37.713276744578252 13.870134569595393 0 13.870134569595393 147.48055631736497 0 0 0 0 -37.260639899257967 -30.237142104642771 0 -30.237142104642771 72.059267864357025 0 0 0 0 -11.489705790337194 -8.8493407778108804 0 -8.8493407778108804 6.6082236307971485 0 0 0 0 -22.239118610557398 -30.564733378025494 0 -30.564733378025494 69.753756086909561 0 0 0 0 -15.927594578422486 -14.387408017140842 0 -14.387408017140842 27.774969768761366 0 0 0 0 -24.172853927814927 -22.696440130619653 0 -22.696440130619653 14.344489890241302 0 0 0 0 5.7567979008065322 -39.713415574031387 0 -39.713415574031387 -14.552270604010118 0 0 0 0 3.3037638939654546 -21.916154861394446 0 -21.916154861394446 9.6038281357258874 0 0 0 0 43.268284471276274 -20.909075733342434 0 -20.909075733342434 -39.183119154544329 0 0 0 0 3.175962679469194 -16.234034266421077 0 -16.234034266421077 12.440042273803556 0 0 0 0 21.758603758516074 -51.01628249591522 0 -51.01628249591522 1.799855901115734 0 0 0 0 -39.073277123382468 -5.7983857197677935 0 -5.7983857197677935 58.714162108282835 0 0 0 0 -5.1434899502573197 -2.4989836229639848 0 -2.4989836229639848 -0.11955774770924421 0 0 0 0 -12.029836381461564 12.426602145952529 0 12.426602145952529 94.46941431157029 0 0 0 0 -50.267897663517942 -46.999500444941077 0 -46.999500444941077 139.94441785475465 0 0 0 0 -60.509680180907253 -115.36402155560063 0 -115.36402155560063 -332.3417439343757 0 0 0 0 -105.7967933435159 -301.68494081042172 0 -301.68494081042172 -413.40876076360655 0 0 0 0 -262.03978708711384 -104.62098227091519 0 -104.62098227091519 -32.096040087981237 0 0 0 0 -15.644875492090668 -8.5538675119730385 0 -8.5538675119730385 10.278951210551668 0 0 0 0 43.606945488171277 14.334529452544757 0 14.334529452544757 -33.910986055157991 0 0 0 0 -313.59370535718563 -228.88321046454257 0 -228.88321046454257 37.744400407616922 0 0 0 0 -258.46939547780585 -218.87620151401825 0 -218.87620151401825 -132.93038923680251 0 0 0 0 -24.224029223601519 -359.79606897290614 0 -359.79606897290614 -893.25366044391558 0 0 0 0 -352.18880472758383 -430.61173251606306 0 -430.61173251606306 -363.01929178827754 0 0 0 0 -47.690062501038483 -140.28157232357262 0 -140.28157232357262 -335.23547116562486 0 0 0 0 -46.173363607110332 -191.39255814752869 0 -191.39255814752869 -524.22867364511512 0 0 0 0 -70.520772750736796 -196.81336370920599 0 -196.81336370920599 -206.2442774516021 0 0 0 0 -136.06677200358945 -264.01457284126536 0 -264.01457284126536 -364.42108000632652 0 0 0 0 -40.163086021557319 -164.63610247948054 0 -164.63610247948054 -494.93624220018137 0 0 0 0 -100.74682005095383 -287.07088965489129 0 -287.07088965489129 -397.37402391059913 0 0 0 0 24.945500812431419 -82.595748184827244 0 -82.595748184827244 917.56587286826471 0 0 0 0 32.765928725628328 -29.864700995196472 0 -29.864700995196472 -99.75676916408338 0 0 0 0 -262.96231967648191 -753.65196466838438 0 -753.65196466838438 -1232.7660933647494 0 0 0 0 -409.95906644135539 -298.02487015686711 0 -298.02487015686711 -403.01681545191605 0 0 0 0 1.609509248401352 -13.206040864727463 0 -13.206040864727463 15.061772597243333 0 0 0 0 -89.20617162297458 36.044252505873374 0 36.044252505873374 -38.416857399986839 0 0 0 0 -3.7510501121516455 -2.5362117566756126 0 -2.5362117566756126 1.3532222310876278 0 0 0 0 -40.349272195311642 38.26898737522788 0 38.26898737522788 8.9527635192116577 0 0 0 0 -31.384998989066389 -144.73100248311835 0 -144.73100248311835 -184.95724177900047 0 0 0 0 -60.369151024788152 -82.878048038670386 0 -82.878048038670386 -19.692173039271438 0 0 0 0 -63.107123752031157 -105.0176965910523 0 -105.0176965910523 -46.204520156192302 0 0 0 0 -40.213010929572192 -38.511214734469831 0 -38.511214734469831 -10.31278090611886 0 0 0 0 -0.090989007458702975 2.0479170174983299 0 2.0479170174983299 -1.615679497372227 0 0 0 0 -97.825296341394278 -66.352186632817393 0 -66.352186632817393 -71.344873957576056 0 0 0 0 -210.28247875431862 -104.85720174776543 0 -104.85720174776543 1.7868405823428475 0 0 0 0 -17.499480137570572 -52.848901849123649 0 -52.848901849123649 -64.680510568265163 0 0 0 0 -1.4757927450541877 -3.9669327645962849 0 -3.9669327645962849 17.704753973866943 0 0 0 0 -9.2693779941774075 -3.6378574190469664 0 -3.6378574190469664 5.8332903685878463 0 0 0 0 -13.386359190839357 -5.9936805050401745 0 -5.9936805050401745 24.133153988150298 0 0 0 0 -11.978362297752028 -6.8423087259670865 0 -6.8423087259670865 19.960033109597134 0 0 0 0 -231.13937916820214 -12.678028871872812 0 -12.678028871872812 390.92743485682513 0 0 0 0 -1.3535249679874539 -4.9948391464891913 0 -4.9948391464891913 6.3699148923550091 0 0 0 0 -1.6733913889901539 3.337875503916635 0 3.337875503916635 8.5977097581803719 0 0 0 0 106.45314990498446 -386.79817100065884 0 -386.79817100065884 763.65598348926142 0 0 0 0 -62.12827363140309 -8.8850508775382195 0 -8.8850508775382195 94.893873016480939 0 0 0 0 -63.326303942270897 -25.724936074260768 0 -25.724936074260768 13.342232169114141 0 0 0 0 123.12144702271598 -379.01458826080579 0 -379.01458826080579 206.99762994408229 0 0 0 0 -104.01344564104511 41.55311170724417 0 41.55311170724417 67.222766650393169 0 0 0 0 -0.56133562756264865 -2.9277835208989345 0 -2.9277835208989345 1.9614289792724975 0 0 0 0 409.38708343988765 -29.506902188484673 0 -29.506902188484673 -60.733626464909321 0 0 0 0 264.34301820909241 -771.35819614627326 0 -771.35819614627326 282.33512548024737 0 0 0 0 788.2992479679051 -642.19942989429455 0 -642.19942989429455 -1.9239300668741635 0 0 0 0 88.415285213137395 -541.02209330121332 0 -541.02209330121332 -14.18898572296348 0 0 0 0 209.05034810714642 658.26756250303151 0 658.26756250303151 536.72431842507649 0 0 0 0 25.604142801474062 1.6562924471545912 0 1.6562924471545912 2.3406741727571507 0 0 0 0 555.49757997879715 430.8626614513887 0 430.8626614513887 38.512695790494035 0 0 0 0 442.04318619613332 -327.89329733634077 0 -327.89329733634077 232.99388726289817 0 0 0 0 115.68864856555138 -484.31731659474917 0 -484.31731659474917 1482.3848557547317 0 0 0 0 794.47767745056808 -846.33910998395913 0 -846.33910998395913 801.66477067171945 0 0 0 0 1354.9219147105759 -381.05165326533097 0 -381.05165326533097 322.54054660037036 0 0 0 0 1713.3492431369186 -557.04216785547578 0 -557.04216785547578 -762.48953031865676 0 0 0 0 498.2098281449762 867.85196506363718 0 867.85196506363718 179.64154272909218 0 0 0 0 -579.01006331726057 -305.23965017471892 0 -305.23965017471892 -1247.9734775026154 0 0 0 0 -773.3651512387205 -354.02669120279643 0 -354.02669120279643 1782.2582940411994 0 0 0 0 234.08146632550142 618.19528177932625 0 618.19528177932625 558.83091259158391 0 0 0 0 -1514.2564898203864 -476.71336276261536 0 -476.71336276261536 758.73672550160336 0 0 0 0 -2398.7959515025523 -1103.5636797506177 0 -1103.5636797506177 143.83930623277047 0 0 0 0 622.83087494362735 40.859018597087015 0 40.859018597087015 -651.23637414814584 0 0 0 0 -0.88674702483374546 -1.2321767397723828 0 -1.2321767397723828 -13.66159890333789 0 0 0 0 335.34337665577084 -218.73486087259789 0 -218.73486087259789 7.6444458673286135 0 0 0 0 -463.17020772057367 -626.22051199931229 0 -626.22051199931229 -574.89563114356133 0 0 0 0 6.0987287180805216 -8.4189018600846914 0 -8.4189018600846914 -38.745916708143938 0 0 0 0 -858.18311256975994 -289.68683304879141 0 -289.68683304879141 -219.16462568646239 0 0 0 0 -261.05145763937981 130.1349695543031 0 130.1349695543031 -23.636238871569731 0 0 0 0 -53.570358647034482 -488.28684587275984 0 -488.28684587275984 -534.26576054026373 0 0 0 0 -3.8948559795826441 -334.35205234992827 0 -334.35205234992827 -130.27107613185399 0 0 0 0 310.36932439194425 -405.25992793596743 0 -405.25992793596743 -1103.6119622461993 0 0 0 0 -163.64827214656543 -1005.8004293435042 0 -1005.8004293435042 -255.2190170109825 0 0 0 0 -234.90170855001907 -1258.2695287692786 0 -1258.2695287692786 -1073.424512876285 0 0 0 0 609.65712222789443 -520.92982477074111 0 -520.92982477074111 -1492.7602289057049 0 0 0 0 -1418.6999008256425 -294.99226209494736 0 -294.99226209494736 -617.84216449051382 0 0 0 0 0.037503218122367343 -3.59485494921244 0 -3.59485494921244 -16.267990078539512 0 0 0 0 571.20310799564049 19.670293877839867 0 19.670293877839867 -411.9080908198157 0 0 0 0 -2455.4379568955901 -1054.9313161873506 0 -1054.9313161873506 -121.82630454634818 0 0 0 0 731.09850922883561 260.44214357098826 0 260.44214357098826 -108.19693870874971 0 0 0 0 180.31651146775403 5.7137981370406123 0 5.7137981370406123 -149.53269694784831 0 0 0 0 480.81511368581505 705.01063206994604 0 705.01063206994604 -482.95528423782525 0 0 0 0 740.76061815974754 126.62229421490701 0 126.62229421490701 -564.10201800874711 0 0 0 0 188.03292618018531 -211.60922019639838 0 -211.60922019639838 13.384367276215926 0 0 0 0 -22.575725487708041 -251.21930359926409 0 -251.21930359926409 -106.23890876416954 0 0 0 0 132.57347198980187 -105.55808227164562 0 -105.55808227164562 -153.85696458678285 0 0 0 0 -92.762856626220128 -150.04432328746589 0 -150.04432328746589 -224.80565504982951 0 0 0 0 23.413496529221902 -97.983840978033186 0 -97.983840978033186 291.63820134518028 0 0 0 0 -8.5669782203407294 -11.556353371523045 0 -11.556353371523045 -0.41740419350145919 0 0 0 0 26.739538159864367 67.872830130013085 0 67.872830130013085 -29.643164122586313 0 0 0 0 99.015538046826578 -88.968900578430294 0 -88.968900578430294 22.076045444176998 0 0 0 0 -3.0406506835202363 -8.1920149908126234 0 -8.1920149908126234 -0.49526619864707122 0 0 0 0 -217.7863230949294 -572.83824357951653 0 -572.83824357951653 99.422441011280171 0 0 0 0 -28.327120288834521 -233.86470317290514 0 -233.86470317290514 649.03459484233042 0 0 0 0 147.08773469736661 -1457.8428893113323 0 -1457.8428893113323 -609.01761491897196 0 0 0 0 -69.738827286852029 -899.23426849465613 0 -899.23426849465613 615.40987792393571 0 0 0 0 553.0252599570249 -547.60645381734867 0 -547.60645381734867 -1232.9364175300143 0 0 0 0 316.21543671764061 -502.47250770345636 0 -502.47250770345636 -287.01603959462955 0 0 0 0 294.55910813687876 -288.98259874042924 0 -288.98259874042924 -133.56961322737334 0 0 0 0 280.41057350774918 -427.9641041994073 0 -427.9641041994073 112.98443890406179 0 0 0 0 272.2795572490902 -203.42099401896212 0 -203.42099401896212 -132.13481751834479 0 0 0 0 246.23427892381596 -237.84468815946821 0 -237.84468815946821 -60.76946929497899 0 0 0 0 329.98949610184536 -238.08151934507987 0 -238.08151934507987 -62.661470043254667 0 0 0 0 262.13075962483254 -133.51855181122664 0 -133.51855181122664 26.473946023856115 0 0 0 0 309.60996599974351 -135.04538359980506 0 -135.04538359980506 -371.01409809966026 0 0 0 0 175.19963626160802 -178.85168868712935 0 -178.85168868712935 80.041672601871596 0 0 0 0 246.46941841733337 -198.61929161969238 0 -198.61929161969238 82.578684734951821 0 0 0 0 167.99301145263621 -227.31953857482586 0 -227.31953857482586 119.97326008692517 0 0 0 0 294.12389025329003 -328.0812847751622 0 -328.0812847751622 109.10610560270288 0 0 0 0 547.099049819416 -263.41269160645243 0 -263.41269160645243 -77.396727070032284 0 0 0 0 246.46474068356292 -125.88114419419799 0 -125.88114419419799 -116.10853254923859 0 0 0 0 379.36191532133853 -283.23795029524263 0 -283.23795029524263 -112.36222148618253 0 0 0 0 -87.012081264860171 -56.507301677666874 0 -56.507301677666874 -9.6114413144823629 0 0 0 0 -176.09696823718878 -273.98361131189813 0 -273.98361131189813 -107.07196947954799 0 0 0 0 139.85086567343933 -263.65938812942841 0 -263.65938812942841 -135.83996508002656 0 0 0 0 -164.31011197691805 -268.1602994986788 0 -268.1602994986788 34.043692207992535 0 0 0 0 110.68563773573624 65.532678841966117 0 65.532678841966117 248.66362407634733 0 0 0 0 -38.316300455371675 -144.19271492067492 0 -144.19271492067492 -64.170661906086025 0 0 0 0 333.71153191651229 -511.97928901579871 0 -511.97928901579871 251.77751305528568 0 0 0 0 322.07225924756222 17.638611314428999 0 17.638611314428999 -92.689397665719298 0 0 0 0 307.24795572863343 -474.80734358985228 0 -474.80734358985228 538.68019070084119 0 0 0 0 5.8827981164537739 -2.6956965441041376 0 -2.6956965441041376 -16.424196439718344 0 0 0 0 38.830539147545096 -35.711440185426909 0 -35.711440185426909 -32.324010767188156 0 0 0 0 22.876750693899925 -17.314344060645915 0 -17.314344060645915 -36.640784916959333 0 0 0 0 52.689660624777837 -38.959589558852301 0 -38.959589558852301 -13.153031699593814 0 0 0 0 69.587020549329281 -58.617233706258048 0 -58.617233706258048 -10.726386152266059 0 0 0 0 35.880051292646158 -34.172403458897286 0 -34.172403458897286 -70.274330323065612 0 0 0 0 88.316212055094184 -84.404009249819865 0 -84.404009249819865 -45.972588407574221 0 0 0 0 73.195055539534223 -106.57987001624224 0 -106.57987001624224 -32.743018968609249 0 0 0 0 45.509327130275778 -95.480440183547671 0 -95.480440183547671 -29.774046511094639 0 0 0 0 49.052733785418241 -68.021010588726313 0 -68.021010588726313 -49.171285367599921 0 0 0 0 77.398453028859876 -77.628299602541119 0 -77.628299602541119 -104.24165952631301 0 0 0 0 64.238352553882578 -82.875230426038797 0 -82.875230426038797 -50.80643716755003 0 0 0 0 9.6655287693252276 -49.993320746547113 0 -49.993320746547113 -36.785622437581232 0 0 0 0 -7.8687577109272535 -56.662683721665275 0 -56.662683721665275 -12.219365299402359 0 0 0 0 55.005878312561357 -62.693985454892584 0 -62.693985454892584 14.527152767048916 0 0 0 0 922.72237240384857 -673.05337811029403 0 -673.05337811029403 -4679.5693763083691 0 0 0 0 -152.96043097983056 1.7642744238446539 0 1.7642744238446539 751.79374769074411 0 0 0 0 -489.55520099394926 -1678.0807563816772 0 -1678.0807563816772 -558.08696004158901 0 0 0 0 537.13843490153522 272.1629474719789 0 272.1629474719789 -1397.6803022641766 0 0 0 0 311.55424323533225 -155.42444673472573 0 -155.42444673472573 -711.91823228058001 0 0 0 0 -91.595750265129027 279.7434255679301 0 279.7434255679301 -659.6681297590535 0 0 0 0 -228.75441075647541 31.248822841147899 0 31.248822841147899 -243.19047944591244 0 0 0 0 88.034650360132218 -127.20013288362452 0 -127.20013288362452 46.35271537891731 0 0 0 0 33.539318564831774 -358.47462502422741 0 -358.47462502422741 -207.64428125689437 0 0 0 0 25.630956878438319 -31.975259048046141 0 -31.975259048046141 -19.457691281461976 0 0 0 0 127.14564594626427 -215.81656726471192 0 -215.81656726471192 -112.04016076152584 0 0 0 0 405.77224257049966 -31.858916502757893 0 -31.858916502757893 -254.90747432138008 0 0 0 0 -541.18245305062737 -633.57837889853215 0 -633.57837889853215 -96.864576734359957 0 0 0 0 217.14711447139507 -346.32893009324653 0 -346.32893009324653 41.489916678900045 0 0 0 0 36.594615566917192 -92.592214651324227 0 -92.592214651324227 88.441815055290448 0 0 0 0 -33.329434762003075 -299.21549693099223 0 -299.21549693099223 143.28249748359303 0 0 0 0 102.85901461172021 -53.56493816622482 0 -53.56493816622482 -154.09269594710824 0 0 0 0 90.609942128321563 -71.652593093594987 0 -71.652593093594987 -103.35134538566126 0 0 0 0 81.748382575419356 -58.847419671372236 0 -58.847419671372236 -7.5034837060974873 0 0 0 0 43.365562667067309 -62.085136432060779 0 -62.085136432060779 -57.314877907879037 0 0 0 0 22.456664577290212 -1067.0594105946329 0 -1067.0594105946329 -199.68090557932555 0 0 0 0 -580.42433870560762 -401.52549068877443 0 -401.52549068877443 -592.24894842439608 0 0 0 0 -1027.8358330573901 -902.93470625575537 0 -902.93470625575537 300.182175800197 0 0 0 0 403.20520501210194 62.203669697572877 0 62.203669697572877 -454.94414116449479 0 0 0 0 1375.2775342087616 -1106.6816287460042 0 -1106.6816287460042 -237.96524996746507 0 0 0 0 -4.0915503676515073 -44.090529192806571 0 -44.090529192806571 -61.16326705407846 0 0 0 0 -1511.3042891184868 -620.45469450557266 0 -620.45469450557266 273.09598571160677 0 0 0 0 154.09333014808453 -108.58268134736954 0 -108.58268134736954 -62.831599970282696 0 0 0 0 5.8091088341601687 -5.7832598922907081 0 -5.7832598922907081 -52.338329159449643 0 0 0 0 -579.7033709074567 -410.51256388811453 0 -410.51256388811453 -647.99607318085327 0 0 0 0 -93.193055895723433 -23.855757048103555 0 -23.855757048103555 -92.696613935395362 0 0 0 0 6.1966464407798156 -28.473804501915112 0 -28.473804501915112 17.25189871406668 0 0 0 0 92.92734965524869 -76.234427154988225 0 -76.234427154988225 -61.235172937700554 0 0 0 0 20.732211879534876 -25.354729419905311 0 -25.354729419905311 4.2400257654902385 0 0 0 0 -51.633754840697293 -69.645800858170333 0 -69.645800858170333 -29.932902467044187 0 0 0 0 -50.151901256096608 -63.825943957359414 0 -63.825943957359414 -8.0754401296180731 0 0 0 0 -8.9818230333294196 -167.0026690115883 0 -167.0026690115883 -158.14780768120227 0 0 0 0 -196.8594666737572 -100.84183561707323 0 -100.84183561707323 52.626200110931677 0 0 0 0 67.808356812891361 -146.85316525903363 0 -146.85316525903363 33.495247945946176 0 0 0 0 21.589866611999241 -9.7422464297269471 0 -9.7422464297269471 102.01149903041733 0 0 0 0 96.839990759601278 -14.955067642612448 0 -14.955067642612448 -12.09052209717629 0 0 0 0 117.10432490777748 -215.80687197010229 0 -215.80687197010229 53.653165589087166 0 0 0 0 211.96715009289255 -55.306376933947831 0 -55.306376933947831 -18.199145560021861 0 0 0 0 4.862365156041184 -9.1549945499736651 0 -9.1549945499736651 3.0495582869728821 0 0 0 0 6.7134797150079066 -33.670137899954064 0 -33.670137899954064 -15.701700731403378 0 0 0 0 52.855134694219032 -68.012850020226551 0 -68.012850020226551 -15.776696440779176 0 0 0 0 70.720480899499307 -59.102464609785102 0 -59.102464609785102 -73.34524950880882 0 0 0 0 47.331512728786478 -42.281489552289912 0 -42.281489552289912 -7.3930731019105913 0 0 0 0 195.86461298556969 -140.37672794639366 0 -140.37672794639366 -107.19735614114688 0 0 0 0 4.8148998681482453 -45.423202893889325 0 -45.423202893889325 15.633522825682931 0 0 0 0 8.0374062540713638 3.9822180869475119 0 3.9822180869475119 -17.754908566759653 0 0 0 0 60.833169251290883 -74.8920565951436 0 -74.8920565951436 -32.337057039677347 0 0 0 0 8.2256837350244609 -52.110790925102862 0 -52.110790925102862 -33.168323075551783 0 0 0 0 35.821668559955469 -61.91926635342088 0 -61.91926635342088 -25.948332639570651 0 0 0 0 28.695456889128764 -63.109142319580315 0 -63.109142319580315 -19.837906511138044 0 0 0 0 37.874572991692979 -47.577147058665084 0 -47.577147058665084 -46.332563686555361 0 0 0 0 89.996196632004285 -74.196135333328129 0 -74.196135333328129 -46.013855036035238 0 0 0 0 14.717875964531082 -52.05558918849129 0 -52.05558918849129 -76.952901875942686 0 0 0 0 77.496093808889327 -89.992569226559681 0 -89.992569226559681 -28.615986283984967 0 0 0 0 15.109267790118352 -31.090787038403938 0 -31.090787038403938 -36.646572472693265 0 0 0 0 86.914337511370832 -61.944768159472005 0 -61.944768159472005 -1.2376894252811326 0 0 0 0 44.9409523289441 -65.735133447614501 0 -65.735133447614501 -71.215452882681532 0 0 0 0 14.383437551386894 -55.475790349679279 0 -55.475790349679279 -18.72869454794311 0 0 0 0 24.254537919800541 -64.915990413843886 0 -64.915990413843886 -7.9949327314316179 0 0 0 0 -0.43889406769091277 -64.650370575890079 0 -64.650370575890079 24.57803081791257 0 0 0 0 54.837739546330248 -50.288974992139757 0 -50.288974992139757 54.192308398649402 0 0 0 0 37.349398404628118 -86.264130494826532 0 -86.264130494826532 -163.15279325704432 0 0 0 0 12.28159276075543 -67.60457466349439 0 -67.60457466349439 14.782473588173337 0 0 0 0 -15.287260882621922 -74.823956489917691 0 -74.823956489917691 53.839538677066002 0 0 0 0 -2.5791262240354627 -83.457894656982717 0 -83.457894656982717 2.2711448061054398 0 0 0 0 98.895705448952867 -25.23024723285198 0 -25.23024723285198 -186.85704554464655 0 0 0 0 -21.949553158905474 -93.769638028320514 0 -93.769638028320514 37.249759172387712 0 0 0 0 5.4005786765716657 -7.9563665368050902 0 -7.9563665368050902 7.9616295177943783 0 0 0 0 -28.628931636027513 -135.6212357110536 0 -135.6212357110536 -19.073350357059439 0 0 0 0 0.44128606062258768 -93.646126221859959 0 -93.646126221859959 11.537017658685727 0 0 0 0 20.873336927044271 -47.266724806577137 0 -47.266724806577137 -35.910290639912724 0 0 0 0 -612.49109133309685 -530.68585811469893 0 -530.68585811469893 -684.86225475888796 0 0 0 0 -7.7482312110784353 -61.72759968700155 0 -61.72759968700155 43.178973698740847 0 0 0 0 39.21166689601796 -192.3444576657821 0 -192.3444576657821 -116.66894448398125 0 0 0 0 7.4771093987292261 -90.664826110221384 0 -90.664826110221384 -4.9944462878665945 0 0 0 0 19.09267003412721 -51.496977751948997 0 -51.496977751948997 2.3504037541427856 0 0 0 0 8.1260378771476098 -85.475747553202382 0 -85.475747553202382 -15.837367057318261 0 0 0 0 -0.072450530525461687 -0.41019242872678419 0 -0.41019242872678419 12.735004466456646 0 0 0 0 40.163022857399483 -102.73562745535497 0 -102.73562745535497 -83.42580007855841 0 0 0 0 -4.5660866633689068 -1.9753054942119928 0 -1.9753054942119928 -6.0863254528763058 0 0 0 0 -51.178736827353305 -87.334579242971543 0 -87.334579242971543 106.62820280028632 0 0 0 0 -103.43245749136258 -735.14998433149958 0 -735.14998433149958 -785.06010842936121 0 0 0 0 -607.61113582628423 -488.58073567577594 0 -488.58073567577594 -560.40720646256523 0 0 0 0 8.3253141326798143 -24.86468172305101 0 -24.86468172305101 63.493352771182174 0 0 0 0 987.55908855433518 -230.15481845651084 0 -230.15481845651084 -82.716818182860152 0 0 0 0 596.49230013278429 -117.68126868599302 0 -117.68126868599302 1.4506725000246661 0 0 0 0 -719.09409545076846 -246.48971061249358 0 -246.48971061249358 277.23294880546746 0 0 0 0 4.95340771154319 -47.758954914503931 0 -47.758954914503931 99.67797885594598 0 0 0 0 132.9074988693319 -251.76085024557142 0 -251.76085024557142 373.43297960274776 0 0 0 0 -353.74722310649736 -349.31993547988623 0 -349.31993547988623 29.593804269999964 0 0 0 0 362.55735158270545 -115.02316787977907 0 -115.02316787977907 -155.36878356366651 0 0 0 0 -327.72345336567287 155.89262236385548 0 155.89262236385548 424.76221156278007 0 0 0 0 126.80869901417555 -536.43484492517382 0 -536.43484492517382 62.800693988268904 0 0 0 0 8.2735724933082793 -5.443971620841765 0 -5.443971620841765 -14.642587260028051 0 0 0 0 116.68689342410835 -426.12781197302684 0 -426.12781197302684 734.56642933137482 0 0 0 0 152.25352591548744 -465.29632351047621 0 -465.29632351047621 654.02703878549801 0 0 0 0 129.28167499491246 12.515239420223224 0 12.515239420223224 -119.79139953741833 0 0 0 0 178.38154283292897 -293.30175811664958 0 -293.30175811664958 615.0093672882067 0 0 0 0 22.21819750882787 -37.060270481950283 0 -37.060270481950283 -97.618776991374034 0 0 0 0 10.842093150321944 -154.79797641740515 0 -154.79797641740515 -156.01045689547027 0 0 0 0 74.71491141715569 -33.967555360597544 0 -33.967555360597544 -103.5927980039487 0 0 0 0 79.192694210221816 -52.344101301761839 0 -52.344101301761839 -85.696897785412148 0 0 0 0 44.669905590177223 -79.041651284136606 0 -79.041651284136606 -16.605485575906641 0 0 0 0 48.440012754967029 -59.754387506465719 0 -59.754387506465719 -84.751178696824809 0 0 0 0 70.200175747340381 -114.84569607579033 0 -114.84569607579033 -206.38559712614369 0 0 0 0 -33.763378528034423 24.223623279985269 0 24.223623279985269 426.73343975385069 0 0 0 0 -64.915735840024354 -114.53549275827027 0 -114.53549275827027 -19.609150647916977 0 0 0 0 5.0891622395993181 -98.523088783913408 0 -98.523088783913408 -45.339007794224017 0 0 0 0 -49.899183161746961 -47.205960107892814 0 -47.205960107892814 -17.388233796506821 0 0 0 0 11.426651605515872 -83.025285376159445 0 -83.025285376159445 -97.654913645063061 0 0 0 0 -2.4840160343439401 -39.246487896626569 0 -39.246487896626569 -80.534525284706234 0 0 0 0 -8.6737850950069664 -18.924365246891607 0 -18.924365246891607 0.90214981090437618 0 0 0 0 178.52392315681323 -361.61333791485231 0 -361.61333791485231 -140.56978681263718 0 0 0 0 -136.34572180310943 -175.88946826054234 0 -175.88946826054234 506.09847009566329 0 0 0 0 79.689795213561212 -158.21328499290382 0 -158.21328499290382 135.3545462960526 0 0 0 0 222.47863449687793 -926.13711177495134 0 -926.13711177495134 -334.18241365937865 0 0 0 0 178.54576857920347 -467.90519343579217 0 -467.90519343579217 559.70807310713462 0 0 0 0 -46.683571804219355 -161.57944149392279 0 -161.57944149392279 291.83295952579647 0 0 0 0 -200.78529640823081 -61.924276910463959 0 -61.924276910463959 249.56992927688771 0 0 0 0 348.38156718901587 -135.62609401589907 0 -135.62609401589907 18.967594084009761 0 0 0 0 50.911042811668949 -40.651524373823122 0 -40.651524373823122 126.73631558344641 0 0 0 0 -299.98543551667171 -553.39306618654155 0 -553.39306618654155 -271.00531868409234 0 0 0 0 -427.80395965281605 -528.3535894435845 0 -528.3535894435845 1147.854693985777 0 0 0 0 -386.4859716858773 179.19025701727514 0 179.19025701727514 321.85013857523882 0 0 0 0 2708.5177715453383 -512.38245506209569 0 -512.38245506209569 -88.895982423306123 0 0 0 0 5.314981814689399 -12.103553817557927 0 -12.103553817557927 19.661802573249275 0 0 0 0 -218.09228964923864 84.455640885555567 0 84.455640885555567 -25.35636465238349 0 0 0 0 -27.883282804388728 -196.1058273317667 0 -196.1058273317667 229.91578835110749 0 0 0 0 -25.232166310404864 -217.67380778385996 0 -217.67380778385996 234.07372107817002 0 0 0 0 -18.531537242794002 -194.81232046632795 0 -194.81232046632795 17.655071061963099 0 0 0 0 1.0648801016577636 -141.36196634699627 0 -141.36196634699627 -23.721013608450448 0 0 0 0 13.963278307691127 -140.12309421921938 0 -140.12309421921938 57.661807214856388 0 0 0 0 -11.615615239876206 -129.20262171277136 0 -129.20262171277136 -102.08812551951996 0 0 0 0 23.009614951810363 -44.66802416576985 0 -44.66802416576985 -227.04973338264244 0 0 0 0 -94.479388904492225 -247.11765812906648 0 -247.11765812906648 -315.85642121984188 0 0 0 0 149.32238131693157 -200.8941791662217 0 -200.8941791662217 -336.63776779592013 0 0 0 0 -60.368441116759897 -45.459220225166597 0 -45.459220225166597 16.837253277519945 0 0 0 0 79.254341032756201 -130.53511775577135 0 -130.53511775577135 322.05999527590393 0 0 0 0 -19.530801455117114 -10.333660671265335 0 -10.333660671265335 -13.542331586647467 0 0 0 0 -185.99084293396845 44.794322542616555 0 44.794322542616555 2112.6959077291122 0 0 0 0 93.57325240566206 -25.223365527799615 0 -25.223365527799615 -111.41716830217774 0 0 0 0 -12.836976812814909 -20.24726344086492 0 -20.24726344086492 4.1195934217009835 0 0 0 0 -37.622519380137099 -52.639876835403115 0 -52.639876835403115 -55.580640208590538 0 0 0 0 -81.496288069011825 -230.18857551247947 0 -230.18857551247947 -129.58142309593677 0 0 0 0 -71.099588684577611 -187.34618138702353 0 -187.34618138702353 -134.93196301936405 0 0 0 0 -127.87966732298901 -108.85500953556948 0 -108.85500953556948 2.3752294259611517 0 0 0 0 -10.615580219327967 -68.49233689619723 0 -68.49233689619723 -16.009648137514887 0 0 0 0 0.62895811849739403 -265.51238850547088 0 -265.51238850547088 249.85862929189807 0 0 0 0 -6.2604441917328586 -133.5604671181369 0 -133.5604671181369 344.21273419077079 0 0 0 0 -36.217406353133434 -56.131682512200378 0 -56.131682512200378 -4.3066734831452749 0 0 0 0 -17.082584300484996 -104.5976744939635 0 -104.5976744939635 100.03185457326254 0 0 0 0 -55.359056041322717 -63.813447492296035 0 -63.813447492296035 -10.021242640263893 0 0 0 0 34.232080058296553 -142.68501512636686 0 -142.68501512636686 103.44151960037107 0 0 0 0 -51.268685855069634 -67.11551610344759 0 -67.11551610344759 164.17744043792482 0 0 0 0 4.7785246080597972 -186.54766627996287 0 -186.54766627996287 26.992935128691897 0 0 0 0 -63.595886196929314 -362.4658061530281 0 -362.4658061530281 -664.90087550677708 0 0 0 0 -77.129045935430739 -77.746210421672686 0 -77.746210421672686 182.88841882335151 0 0 0 0 -80.509560930036059 -277.3200433868551 0 -277.3200433868551 190.40177860213225 0 0 0 0 11.444370284970184 4.5629250236836469 0 4.5629250236836469 -2.2873797593816505 0 0 0 0 -136.71121555085847 -79.839823028960382 0 -79.839823028960382 665.18152852365165 0 0 0 0 -191.15107077389757 -254.94771902587672 0 -254.94771902587672 -675.65650838200236 0 0 0 0 -49.954798997212492 -235.16241852016537 0 -235.16241852016537 -687.01949595603219 0 0 0 0 8.3506980075568684 -26.353497954009015 0 -26.353497954009015 -28.965127931894557 0 0 0 0 -85.165403263165445 -115.94107442481618 0 -115.94107442481618 19.90770831318514 0 0 0 0 65.694482299766605 -77.635538463036937 0 -77.635538463036937 -1.4656732202856801 0 0 0 0 -64.413903127158846 -284.19546281735529 0 -284.19546281735529 -553.30995700586936 0 0 0 0 -34.616953928679777 -128.20162714087201 0 -128.20162714087201 -66.849782017656253 0 0 0 0 -21.165525977214308 -101.66790200307804 0 -101.66790200307804 -34.671479212115571 0 0 0 0 122.5910930390819 -143.32343670559931 0 -143.32343670559931 9.3856804132228717 0 0 0 0 96.669386039560777 -169.98675087189622 0 -169.98675087189622 23.192996805839357 0 0 0 0 12.494802655388412 -178.28153134736931 0 -178.28153134736931 -529.64444600688876 0 0 0 0 -83.378267752803595 -388.9655325889762 0 -388.9655325889762 -423.69045476889005 0 0 0 0 -78.389479371144262 -170.67199227602396 0 -170.67199227602396 -277.03299880912527 0 0 0 0 1.625927013479874 -118.78955180028517 0 -118.78955180028517 -50.726787168023293 0 0 0 0 103.33282769129515 -83.248369393627982 0 -83.248369393627982 -105.57370116752051 0 0 0 0 -48.301313021598617 -174.51816758515633 0 -174.51816758515633 -191.40180849433818 0 0 0 0 -13.901926213439268 -162.68911380286585 0 -162.68911380286585 -177.69284447004404 0 0 0 0 -31.794954309007153 -201.4330177725933 0 -201.4330177725933 -151.12698208945221 0 0 0 0 6.3372282740382815 -23.292406336094217 0 -23.292406336094217 19.204835905478717 0 0 0 0 -37.273557936952329 -160.70110601442866 0 -160.70110601442866 -39.046392738760915 0 0 0 0 17.65929696706641 -97.385248086698141 0 -97.385248086698141 -19.459292103265284 0 0 0 0 -55.511824359974497 -100.00538358007439 0 -100.00538358007439 69.796864982296256 0 0 0 0 -13.695731326861438 -121.28147850514983 0 -121.28147850514983 -55.225602137492842 0 0 0 0 -41.088904578601841 -97.648499858568826 0 -97.648499858568826 -20.534304328725966 0 0 0 0 57.664549886139199 -75.996734566316604 0 -75.996734566316604 5.9092334887845652 0 0 0 0 35.672489755532297 -277.86503939363502 0 -277.86503939363502 -202.97002501628594 0 0 0 0 2.5943308860587422 -205.13764050890313 0 -205.13764050890313 -147.61612557769695 0 0 0 0 86.297291152914113 -199.50386477942811 0 -199.50386477942811 0.21846682562136266 0 0 0 0 95.628398957516765 -191.37982702704903 0 -191.37982702704903 5.2356056062990319 0 0 0 0 -4.2811868118708674 -63.854853156863712 0 -63.854853156863712 -60.640348902097855 0 0 0 0 -0.048494993962322042 -166.01535581443568 0 -166.01535581443568 -161.0887103476125 0 0 0 0 -61.045093625049049 -190.20381804489443 0 -190.20381804489443 7.3636842069918202 0 0 0 0 -29.999808414519066 -221.97363432324346 0 -221.97363432324346 -153.18900934266276 0 0 0 0 -13.378933504580345 -124.31228966530034 0 -124.31228966530034 -68.155369182422874 0 0 0 0 -71.52825721699628 -195.96494649072702 0 -195.96494649072702 -168.05271272121172 0 0 0 0 -117.71537151912344 -260.57788848770724 0 -260.57788848770724 -199.13834725179913 0 0 0 0 -48.854662665242358 -171.99920470395227 0 -171.99920470395227 -243.93634327189648 0 0 0 0 47.403150981192738 -63.045861832549861 0 -63.045861832549861 22.419917199719805 0 0 0 0 -11.501789556554286 -257.09360117719916 0 -257.09360117719916 -297.49727555712889 0 0 0 0 -33.9224128527663 -83.729727749645122 0 -83.729727749645122 25.234940428681455 0 0 0 0 -21.009767506599019 -133.50984168160358 0 -133.50984168160358 139.96190926271811 0 0 0 0 -16.951045032872571 -166.14610107504723 0 -166.14610107504723 -27.023593714868184 0 0 0 0 -4.0638360707214645 -109.61223942960771 0 -109.61223942960771 58.623379378568686 0 0 0 0 -24.354175384890368 -100.95203406734231 0 -100.95203406734231 152.39647442155547 0 0 0 0 -128.28474030297366 -318.06564799978514 0 -318.06564799978514 -369.17519096635806 0 0 0 0 -69.750025401795114 -39.921854599524131 0 -39.921854599524131 109.32068348107617 0 0 0 0 -4.589822743089826 -310.26970232348094 0 -310.26970232348094 -230.16125148256833 0 0 0 0 -4.762422835236066 -313.08174736112778 0 -313.08174736112778 -191.02784503782823 0 0 0 0 -54.584756439289777 -70.621127538052406 0 -70.621127538052406 76.95254563442154 0 0 0 0 -11.561458332433716 -108.95135963028832 0 -108.95135963028832 72.647693346354089 0 0 0 0 -2.9365145343411143 -91.101331015607286 0 -91.101331015607286 -16.791470783955326 0 0 0 0 -0.67211618527653627 -331.26326014106047 0 -331.26326014106047 31.287513269206372 0 0 0 0 49.048049072516733 -309.51291288137907 0 -309.51291288137907 -399.2084403267354 0 0 0 0 212.01231021945569 -247.0464961703874 0 -247.0464961703874 24.411402766156243 0 0 0 0 331.31903153337043 -284.46374234793984 0 -284.46374234793984 -62.262690742092673 0 0 0 0 151.27252545725059 -208.86158630712089 0 -208.86158630712089 244.49475370525397 0 0 0 0 192.92116006807919 -262.55285139322586 0 -262.55285139322586 39.434699955370888 0 0 0 0 48.819142965640765 -178.48304451604034 0 -178.48304451604034 136.28449070658635 0 0 0 0 -14.689326466817874 -166.48294097869075 0 -166.48294097869075 357.22084903798532 0 0 0 0 214.36850420437986 -600.09164536493699 0 -600.09164536493699 120.12326011321784 0 0 0 0 -16.43780552060673 -21.429015082887048 0 -21.429015082887048 3.9656520110997917 0 0 0 0 183.33209269450163 -345.93493327533361 0 -345.93493327533361 151.2991194013739 0 0 0 0 293.04036796331638 -579.40644349693321 0 -579.40644349693321 42.163685129231453 0 0 0 0 146.80156050203368 -466.09737651099567 0 -466.09737651099567 -162.47267833122169 0 0 0 0 280.58288085471509 -269.96681512663758 0 -269.96681512663758 31.623889426598907 0 0 0 0 -39.141949621553067 -86.863045564095955 0 -86.863045564095955 -156.54942826121987 0 0 0 0 -35.977898031667934 -58.878236709763868 0 -58.878236709763868 -47.763065625843382 0 0 0 0 -157.99705095934041 -144.94334115359379 0 -144.94334115359379 -178.74340925858996 0 0 0 0 -123.52948488362745 -143.01395666554163 0 -143.01395666554163 163.8759348372887 0 0 0 0 -120.11333371739602 -14.708351868692262 0 -14.708351868692262 131.85053769860406 0 0 0 0 -8.6679458691432956 -203.10255199116 0 -203.10255199116 -84.25325500665349 0 0 0 0 -3.2604839114588344 -23.615017856562567 0 -23.615017856562567 -11.296599405650426 0 0 0 0 -1123.8363000354366 -541.96507437445689 0 -541.96507437445689 213.51337455835892 0 0 0 0 -1430.5432085673892 -812.63519518919202 0 -812.63519518919202 -495.79362918161496 0 0 0 0 -994.19128787274531 -884.26830485300889 0 -884.26830485300889 -485.84054574239417 0 0 0 0 -1006.3471160434419 -823.13700322479417 0 -823.13700322479417 -1407.5341044329252 0 0 0 0 -1160.0731608197311 -881.31927463580359 0 -881.31927463580359 -731.38938273681561 0 0 0 0 -1088.2135318267974 -1028.4453225756297 0 -1028.4453225756297 -1072.058476448763 0 0 0 0 -1249.2592332352651 -770.1296156100143 0 -770.1296156100143 -1055.4683482283726 0 0 0 0 -1381.4624612250409 -658.97951730468776 0 -658.97951730468776 282.14056918601273 0 0 0 0 -1047.845337532548 -581.28786363683321 0 -581.28786363683321 150.50262766179367 0 0 0 0 -1114.5363699876943 -438.46115644916426 0 -438.46115644916426 421.98806189298921 0 0 0 0 -1100.154572117237 -445.13228346299366 0 -445.13228346299366 285.17023921734653 0 0 0 0 -1036.1755657480971 -555.34720857898355 0 -555.34720857898355 395.24653067588224 0 0 0 0 -545.0482283523088 -63.519812562422885 0 -63.519812562422885 300.73348067631014 0 0 0 0 -1109.8242276134115 -503.05351594019157 0 -503.05351594019157 353.33304357720772 0 0 0 0 -1007.6278310287307 -404.34601474693045 0 -404.34601474693045 394.83242336556577 0 0 0 0 -0.58071982080218731 -908.90818879647122 0 -908.90818879647122 -147.15987510775449 0 0 0 0 -197.44623704764854 -447.70652140607854 0 -447.70652140607854 -811.11905058816046 0 0 0 0 -332.12742945361242 -816.63140156020381 0 -816.63140156020381 -1626.7794625395836 0 0 0 0 -877.58903844567249 -584.43207458326651 0 -584.43207458326651 50.560612895562372 0 0 0 0 -854.31791324984806 -537.847029175231 0 -537.847029175231 13.787708775118517 0 0 0 0 -649.80677207089866 -847.98127000422392 0 -847.98127000422392 -313.20574068088899 0 0 0 0 -291.88176336112519 -534.40202000202407 0 -534.40202000202407 -161.14989697875353 0 0 0 0 -575.0070626110828 -867.19203115172422 0 -867.19203115172422 63.640481621579966 0 0 0 0 43.248916066229867 -603.75983349091985 0 -603.75983349091985 37.922744639974553 0 0 0 0 -276.32575063622789 -607.86819910494523 0 -607.86819910494523 737.39774051833956 0 0 0 0 -5.2083009086636594 -323.53216603430337 0 -323.53216603430337 285.64276462021371 0 0 0 0 -600.10969192484481 -587.88378057399677 0 -587.88378057399677 192.54876577548566 0 0 0 0 -569.23135725270458 -321.21107868154604 0 -321.21107868154604 258.87506277201464 0 0 0 0 -924.61338550006622 -346.19939716910449 0 -346.19939716910449 522.63847813049506 0 0 0 0 -1038.7561190997367 136.18229062166938 0 136.18229062166938 1163.9248152415094 0 0 0 0 -404.97028161365597 -178.84997435291734 0 -178.84997435291734 561.12177135348611 0 0 0 0 -882.49038082927291 507.6382963078795 0 507.6382963078795 2116.3930903509608 0 0 0 0 85.721180774460663 -783.97589194883039 0 -783.97589194883039 1234.4735111204063 0 0 0 0 4.7018934366060421 -214.68185326608364 0 -214.68185326608364 843.38392504222429 0 0 0 0 -539.27443835944723 -336.80157157315989 0 -336.80157157315989 821.47931028681342 0 0 0 0 -176.72838094822873 -582.56182663591608 0 -582.56182663591608 1241.3966328647221 0 0 0 0 260.29046724627551 -203.19586153334967 0 -203.19586153334967 1468.5665992902141 0 0 0 0 -252.50475926199579 -435.08791469898279 0 -435.08791469898279 2027.1055734717957 0 0 0 0 467.84985657771176 -496.26247945008072 0 -496.26247945008072 958.34140865794325 0 0 0 0 325.12606025957211 -715.40313203269034 0 -715.40313203269034 748.3918762011217 0 0 0 0 -910.27015278405452 -746.0389264808764 0 -746.0389264808764 136.97873013178469 0 0 0 0 -395.02895713067846 -405.05141504738276 0 -405.05141504738276 93.112320294516394 0 0 0 0 -410.8457720515853 -477.24085585519151 0 -477.24085585519151 252.19877049980278 0 0 0 0 -1179.155212891259 -508.336714486235 0 -508.336714486235 512.29949005204253 0 0 0 0 -1190.5783391606383 -445.33761959131516 0 -445.33761959131516 436.93668217604863 0 0 0 0 -931.50091458717407 -227.45979152557902 0 -227.45979152557902 619.95583134904155 0 0 0 0 -1774.0868653088546 -274.35664231156989 0 -274.35664231156989 956.65871326238266 0 0 0 0 -1727.0490052126406 -1031.8579595791307 0 -1031.8579595791307 449.09043483994901 0 0 0 0 -921.67562200737302 -651.12281564260775 0 -651.12281564260775 590.69644952165254 0 0 0 0 -806.01310414735053 -1192.380324940219 0 -1192.380324940219 262.15305634908145 0 0 0 0 -2602.8704490084056 -643.72777777719602 0 -643.72777777719602 1387.1595513477314 0 0 0 0 -2337.325945428267 -2385.6199373675045 0 -2385.6199373675045 -541.01180313192162 0 0 0 0 -474.207771835936 -772.70711600218783 0 -772.70711600218783 135.84941149382757 0 0 0 0 -24.301250250256999 -910.25473936458548 0 -910.25473936458548 -738.86993207958585 0 0 0 0 -120.48836424258661 -234.4805585517156 0 -234.4805585517156 -207.19355947053555 0 0 0 0 1127.4610540489521 282.63601501778976 0 282.63601501778976 -559.86508925081989 0 0 0 0 -92.938358836821862 -331.85734463768677 0 -331.85734463768677 -368.80212952739839 0 0 0 0 884.29278008593064 -932.52624825605653 0 -932.52624825605653 -2237.3555687719927 0 0 0 0 -3522.2639836068047 -1643.8575229810776 0 -1643.8575229810776 -121.68188351797289 0 0 0 0 -70.471124268857722 -123.89109126202942 0 -123.89109126202942 132.08798841570126 0 0 0 0 -766.23470419886144 1366.3576610790733 0 1366.3576610790733 720.13306457881481 0 0 0 0 132.23880950479361 -439.67449902197768 0 -439.67449902197768 -3200.7681361238574 0 0 0 0 -64.379370328379764 -13.275390591831197 0 -13.275390591831197 -0.7354352439061822 0 0 0 0 -963.78188999570557 -1307.8734854106151 0 -1307.8734854106151 -2040.210648901746 0 0 0 0 -27.507698493044728 8.7804773873632342 0 8.7804773873632342 18.505989179624166 0 0 0 0 -613.4433359871532 -1487.9060646835644 0 -1487.9060646835644 -959.74547464802163 0 0 0 0 -640.61152432049857 -474.58749218944286 0 -474.58749218944286 -2504.1185226188827 0 0 0 0 -5.7003347285935888 -865.59205844394455 0 -865.59205844394455 -2914.0642922246261 0 0 0 0 767.75839513965184 -1023.1460965984661 0 -1023.1460965984661 -5861.2543026169478 0 0 0 0 -22.833376164187627 -2.9930619620436261 0 -2.9930619620436261 -1.7825977972519604 0 0 0 0 -186.57092216783985 -1889.3825643930277 0 -1889.3825643930277 -1040.475586041066 0 0 0 0 -207.17366840974137 -710.9413072219686 0 -710.9413072219686 -625.02179772591626 0 0 0 0 -973.53955685383698 -674.34685984152748 0 -674.34685984152748 930.86667233362095 0 0 0 0 -91.576382402635545 -121.79524872302675 0 -121.79524872302675 133.59890083043516 0 0 0 0 -168.54404828918632 -408.86100979699222 0 -408.86100979699222 -405.17786725069709 0 0 0 0 -89.255066051053291 -265.935677097199 0 -265.935677097199 -314.00160220912585 0 0 0 0 -205.54494453820553 -315.72166602786592 0 -315.72166602786592 -193.32304876093986 0 0 0 0 -172.95677951409175 -270.26609964578699 0 -270.26609964578699 -204.01289255511801 0 0 0 0 -55.377067810819426 -217.55959595153399 0 -217.55959595153399 -216.36486641217198 0 0 0 0 -13.484808476481703 -132.00873240079909 0 -132.00873240079909 -128.12300450186012 0 0 0 0 -74.001306979836954 -137.52421415039498 0 -137.52421415039498 -52.107491777585892 0 0 0 0 -59.982795977346541 -289.28774351220272 0 -289.28774351220272 -157.92177814106117 0 0 0 0 -36.826724886101147 -190.21558994205589 0 -190.21558994205589 -47.857437264906139 0 0 0 0 -0.11239025880968256 -252.21576589799076 0 -252.21576589799076 -177.09507575267708 0 0 0 0 64.052878857648466 -136.94054262884674 0 -136.94054262884674 -54.834387785182116 0 0 0 0 45.057439835931291 -117.70835947194792 0 -117.70835947194792 95.659830724855738 0 0 0 0 142.16088756808313 -101.08581000214326 0 -101.08581000214326 -6.503770235045522 0 0 0 0 -429.99625917377307 -361.09968041841421 0 -361.09968041841421 364.25429899390292 0 0 0 0 28.375458434416817 -72.20289814991726 0 -72.20289814991726 100.70793303702106 0 0 0 0 15.636109626510006 -138.70772896839844 0 -138.70772896839844 47.824687179874672 0 0 0 0 -34.342432411929622 -257.78767439499006 0 -257.78767439499006 -133.59151726245182 0 0 0 0 -53.193896279706678 -279.17052903858894 0 -279.17052903858894 -109.89268574203743 0 0 0 0 -99.163261480935034 -242.71784950328583 0 -242.71784950328583 -136.6350446091983 0 0 0 0 -68.864920468073251 -305.36923456191198 0 -305.36923456191198 -186.9731233401908 0 0 0 0 17.748194467670771 -74.122265723474129 0 -74.122265723474129 -78.571701376824677 0 0 0 0 -14.750524219154613 -254.39672846669782 0 -254.39672846669782 -139.17455372924087 0 0 0 0 4.6312749085227551 -279.88714953813042 0 -279.88714953813042 -220.34695315521822 0 0 0 0 -13.951434565392447 -139.3418989883445 0 -139.3418989883445 136.95507727580667 0 0 0 0 -30.776524399989285 -333.08546708182803 0 -333.08546708182803 -330.71372124825575 0 0 0 0 444.82795531591546 531.94147565903222 0 531.94147565903222 543.28415926570597 0 0 0 0 -59.54672942974139 -288.50351643288741 0 -288.50351643288741 -167.7529438397687 0 0 0 0 
</DataArray>
<DataArray type="Float64" Name="cross_section_updated" format="ascii">
1 1 1 1 0.013077112864377453 1 1 1 1 1 1 1 0.0010086485968638786 1 1 1 1 0.019521665341559497 1 1 1 1 1 0.010149578079890226 1 1 1 1 1 0.022193866674569546 1 1 1 0.023728098999356607 1 1 0.010507280825746909 1 1 1 1 0.020194522070449542 1 1 1 1 0.01179339132143474 1 0.010799240492186106 1 1 1 1 1 1 1 1 1 0.010105067219044167 1 1 1 1 1 1 0.0024410643940576127 1 1 1 1 1 1 -2.0749554505150591e-09 1 1 1 1 1 0.010717096871608767 1 1 0.011693946903983551 1 1 1 1 1 1 1 1 1 0.010211753995683116 1 1 1 0.009432658797113358 1 1 1 1 1 1 1 1 1 1 1 1 1 1 1 1 1 1 1 1 1 1 1 0.0083446558770539775 1 1 1 1 1 0.0036697216706614855 1 1 0.011599637820871082 1 1 1 1 1 1 1 1 1 1 1 1 1 1 1 0.0095435192141959495 1 1 1 1 1 1 1 0.010910128029779587 1 1 1 1 1 1 0.0089582318721981233 0.0069046108388091595 1 1 1 1 1 1 1 0.010835700989964725 1 1 1 1 1 0.0043220388142570232 1 1 1 1 1 1 1 1 1 1 1 1 1 0.030698925937477479 1 1 1 0.032969358321717358 1 0.0090720051228293172 1 1 1 1 1 1 0.0097917282222396984 1 1 0.0068091299060629093 1 1 1 1 1 0.0093643406137231613 1 1 1 1 1 1 1 0.0080288736329612517 1 0.0099096986668521514 1 1 1 1 1 1 1 1 1 1 0.0010921931374550664 1 1 0.03864119445036205 1 0.012598996781458156 1 0.023839269594161192 1 1 1 1 0.039630550872998833 0.017697696038972848 1 1 1 1 0.020126482929393924 1 1 0.0043092327472045999 1 0.0091948019260538368 1 1 1 0.015957689799049699 1 1 1 1 1 1 1 1 1 1 0.013404738286905006 1 0.023982435230425075 1 1 1 1 1 1 1 1 1 1 1 1 1 1 1 1 1 1 1 1 1 1 1 1 1 1 1 1 1 1 1 1 1 1 1 1 1 1 1 1 1 1 1 1 1 1 1 1 1 1 1 1 1 1 1 1 1 1 1 1 1 1 1 1 1 1 1 1 1 1 1 1 0.011167188787700358 1 1 1 1 1 0.010042490529343868 1 1 1 1 1 1 1 1 1 0.0069148017789215296 1 0.010755884692814559 1 1 1 -1.6900511268236329e-09 1 0.0056440713029556819 1 1 1 1 1 1 1 1 1 1 1 1 1 1 1 1 1 1 1 1 1 1 1 1 1 1 1 1 1 1 1 1 1 1 1 1 1 1 1 1 1 1 1 1 1 1 1 1 1 1 1 1 0.012068730645107807 1 1 0.015785008856597227 1 0.011204648868385717 1 1 1 1 1 1 1 1 1 1 1 1 1 1 1 1 1 1 1 1 1 1 0.0053674070583800901 1 0.017949721449293462 1 1 1 1 1 1 1 0.0083020560416970784 1 1 1 1 1 1 1 1 1 1 1 1 1 1 1 1 1 0.0097617215855505049 1 1 0.0098871765130126577 1 1 1 1 1 1 1 1 1 1 0.0098743772812284608 1 1 1 1 1 1 1 1 1 1 0.010571531313584834 1 0.011970237522455754 1 0.0091857188089803088 0.0097386920934332058 1 1 1 1 0.007396903235771364 1 1 1 1 1 0.0092333302036480547 1 1 1 1 1 1 1 1 1 0.0033342097883061056 1 1 0.0010294463347795824 1 0.0083452212757918545 1 1 1 1 1 1 1 1 1 1 1 1 0.0088237429746722759 1 1 1 0.0033785957113325327 1 1 1 1 1 0.0095836872913468499 1 1 0.0062564408294166485 1 1 1 1 0.0083794937484356763 1 0.008643246441811657 1 1 1 1 1 1 1 1 1 1 1 1 0.007053452853029385 1 1 1 1 1 0.0095010833343999526 1 1 0.010021806587309709 1 1 0.0099854538605754009 1 1 1 1 1 1 0.0098841267584833734 1 1 1 1 0.0074456483440300536 1 0.0091326220174591105 1 0.0098874058550983482 1 1 1 1 1 1 1 1 1 1 1 1 1 1 0.0091391228759449272 1 1 1 1 1 1 1 1 1 1 1 1 1 1 1 1 1 1 1 1 1 1 1 1 1 1 1 1 1 1 1 1 1 1 1 1 1 1 1 1 1 1 1 1 1 1 1 1 1 1 1 1 1 1 1 1 1 1 1 1 1 1 1 1 1 1 1 1 1 0.011038316029695711 0.0087440531206223193 1 1 1 1 0.0091902157087085032 1 1 0.010484208110643892 1 1 1 1 1 0.010148162384816688 1 1 1 1 1 1 0.0097409417128478532 1 0.0098251160432377034 1 1 1 1 0.0098039616554693662 1 1 1 0.0093411069951860742 1 0.010053946906596329 1 1 1 1 1 1 1 0.010257308545494899 1 1 1 0.0098489967904672581 1 1 1 1 1 1 1 1 1 1 1 1 1 1 1 1 1 1 1 1 1 1 1 0.0093184470856548102 1 1 1 1 1 1 0.005990475537046229 1 1 1 1 0.0083942965003451914 1 0.009781950292383941 1 1 1 1 1 1 1 1 1 1 1 1 1 0.0093169848976803263 1 1 1 1 1 1 1 1 1 1 1 1 1 1 1 1 1 1 1 1 1 1 1 1 1 1 1 1 1 1 1 1 1 0.0095146356520280292 1 1 0.010764621132695325 1 0.012968688979785726 1 1 1 1 0.017225008137411287 1 1 1 1 0.01708266853268367 1 1 1 1 1 0.016819537005339929 1 1 1 1 1 0.0045738922781338315 1 1 0.0067949699025320887 1 1 1 1 1 1 1 0.011852311216718788 1 1 0.0082554660430672888 1 1 1 1 0.0094532737478478235 1 1 1 1 1 1 1 1 1 1 1 1 1 1 1 1 1 1 1 1 1 1 1 1 1 1 1 1 1 1 1 1 1 1 1 1 1 1 1 1 1 1 1 0.0054855093283112874 1 1 1 1 1 1 1 1 1 1 1 1 1 1 0.02204451264129699 1 1 1 1 1 1 1 0.0081710459781710112 1 1 1 1 1 0.02706588567655123 1 1 1 1 0.011353135477625585 1 1 1 1 1 1 0.0092928430151814449 1 1 0.007980725638827478 1 1 0.019888673763837489 1 0.0094910283448104531 1 0.0017692287591757755 1 1 1 1 0.030600730327176563 2.4886911975663395e-09 1 1 0.010002815749496713 1 1 1 -1.3067736719107881e-08 1 1 1 0.0098875068983635354 1 1 1 1 1 1 1 1 1 1 1 1 1 1 1 0.0093143265355970332 1 1 1 1 1 1 1 1 1 0.004644447468497544 1 1 1 1 1 1 2.2645296471335286e-09 0.0059509071631709204 1 1 1 1 1 1 1 1 0.0012190138220655299 1 1 1 1 1 0.0089643381770060857 1 1 1 0.0052015592774989072 1 1 1 0.0066311294320001088 1 1 1 1 1 1 1 1 1 1 1 1 1 1 1 1 1 0.0087440335046415144 1 1 1 1 1 1 1 1 0.0098076095066533114 1 1 1 1 1 1 1 1 1 0.0076837066038245548 1 1 1 1 1 1 1 1 9.934843071476851e-09 1 1 1 1 0.013128429454657487 1 1 1 1 1 1 1 1 1 1 -5.1557314433361978e-09 1 1 1 -4.4718026365186958e-09 -5.1650184823559542e-09 1 0.0051125882475063968 1 1 1 -1.6313756873165275e-09 4.0108953242024015e-09 0.0080113565690814389 1 1 1 1 1 1 1 0.0094756150888523211 1 1 1 -4.624786342083409e-09 0.0068786399039687841 1 1 0.0091576699634468468 0.00021795419819583065 1 1 1 0.0079770858392165939 1 1 1 1 1 0.010404659302851626 1 1 1 1 1 1 1 1 1 1 0.0099486148989296683 1 1 1 1 1 1 1 1 1 1 1 1 1 1 1 1 1 1 1 1 0.0088561881262982176 1 1 1 1 0.0027274913523318151 1 1 1 1 1 1 1 1 1 1 1 1 1 0.0087929773813478634 1 1 1 1 1 1 1 0.0074120115868312568 1 1 1 1 1 1 1 1 1 1 1 1 1 1 1 1 1 1 0.0069718301288513793 1 1 1 1 1 1 0.0085927397450196105 1 1 1 1 1 1 1 0.011311706238254782 1 1 1 1 0.0054203057676695393 1 1 1 1 1 0.011726365643324986 1 1 1 0.010042625564467389 1 1 0.0099275639483909495 1 1 1 1 0.012128614947938592 1 0.010430234955777919 1 1 1 1 1 1 1 1 1 1 1 1 0.0099034055116957245 1 1 1 1 1 1 1 1 1 0.0082191494255599087 1 1 1 1 1 1 0.0095720600097926115 1 1 1 1 1 1 1 1 1 0.0099036508258099967 1 0.012171212127659654 1 1 1 1 1 0.013546468578655151 0.0064819760625428324 1 1 1 1 1 1 1 1 1 1 1 1 1 1 1 1 1 1 1 1 1 1 0.010743864810799877 1 1 1 1 1 1 1 1 1 1 1 1 1 1 1 1 1 1 1 1 1 1 1 1 1 1 1 1 1 1 1 1 1 1 1 1 1 1 1 1 1 1 1 1 1 1 1 1 1 1 1 1 1 1 1 1 1 1 1 1 0.010490165007671512 1 0.011855118402458054 1 1 1 1 1 1 1 1 1 1 1 1 1 0.010608072823379739 1 1 1 1 0.010254015706647818 1 1 1 1 1 1 1 1 1 1 1 1 1 1 1 1 1 1 1 1 0.010899275722765785 1 1 1 1 1 1 1 1 1 1 1 1 1 1 1 1 1 1 1 1 1 1 1 1 1 1 1 1 1 1 1 1 1 1 1 1 1 1 1 1 1 1 1 0.0087462894629917187 1 1 1 1 1 1 1 1 1 0.0064116439058787798 0.011856275038570532 0.012602793158268465 0.0057468341310231725 1 1 1 1 1 1 1 1 1 1 1 1 1 1 1 0.010617292151954456 1 1 1 1 1 1 1 1 1 0.011343138934421572 1 1 1 1 1 1 1 0.011838074254702041 1 1 1 1 1 1 0.010182076167478429 1 1 1 1 0.010818979969790072 1 1 1 1 1 0.008217930314340486 1 1 1 1 1 1 1 0.0081875617163952984 1 1 1 1 1 1 1 1 1 0.010306927520207855 1 1 0.010213259469135686 0.0030701120626937667 1 1 1 1 0.0059110791841800788 1 1 0.0099007291363120836 1 1 1 1 1 0.0099831252775397956 0.0051157576503854697 1 1 1 1 1 1 1 1 1 1 1 1 1 1 1 1 1 1 1 1 1 1 1 1 1 1 1 1 1 1 1 1 1 1 1 1 1 1 1 1 1 1 1 1 1 1 1 1 1 1 1 1 1 1 1 1 1 1 1 1 1 1 1 1 1 1 1 1 1 1 1 1 1 1 1 1 1 1 1 1 0.010453421628029425 1 1 1 1 1 1 1 0.0043793390380163135 0.010054304148827282 1 0.010310935389727353 1 1 1 1 1 1 1 0.0080940719171380508 1 1 1 1 1 1 1 1 1 1 0.010697859010625411 1 1 0.011791246476068849 1 1 1 1 1 1 1 1 1 1 1 0.010433512049023463 1 1 1 1 1 1 1 1 1 1 1 1 1 0.011156954853435304 0.0066105374902733077 1 1 1 1 1 1 1 1 1 1 1 1 1 1 1 1 1 1 1 1 1 1 1 1 1 1 1 1 1 1 1 1 1 1 1 1 1 1 1 1 1 0.0085268367606370441 1 1 1 1 1 0.0093261585248158845 1 1 1 1 1 1 1 1 1 1 1 1 1 1 1 1 0.01006557473303657 0.010003840413164978 1 1 1 1 1 0.0031637922137435666 1 1 1 1 0.0093120660902361093 1 1 1 1 1 1 0.0037027033629545153 1 0.0059027572753315091 1 1 1 1 1 1 1 1 1 0.011426306777845695 1 1 1 1 1 0.0098013860237238307 1 1 -8.216044174863546e-09 1 1 1 1 1 1 1 1 1 4.0638714615681693e-10 1 0.0095008443005100435 1 -2.5719041514549179e-09 1 1 1 -1.9646361690273118e-09 1 1 0.0053336142437857281 1 -1.0237724001882498e-09 0.0042871857824548359 1 1.2872971993926896e-09 1 -1.9764974899805221e-09 1 1 1 1 1 1 1 1 0.0038622048120821248 1 1 0.0079375246908374789 1 1 1 1 1 1 4.287577237693796e-12 7.409483020193175e-09 1 -7.0002983713554623e-09 1 1 1 -1.6297205789744806e-09 1 1 1 1 0.0088806661118153302 1 5.1793189008442209e-10 1 1 1 1 -7.755972530887334e-10 -5.730999633191125e-10 1 1 1 1 1 1 1 1 1 1 1 1 1 1 1 1 1 1 1 0.010146145964769182 0.0097397688644919652 0.017051156167706565 0.002556204547616639 1 1 0.0023153819663025953 1 0.017836262519866246 1 1 1 0.0036682304361620247 1 0.010204013136823896 1 0.0025147210959747248 0.017017601692798159 0.0044908014180814713 1 1 1 1 1 0.01790229458124095 1 1 1 1 1 0.010257282011144729 1 0.0076023149133777673 1 1 0.010531561375514333 1 1.0550261775321701e-09 1 0.0072978068086393608 1 1 1 1 0.0058787712344493606 1 1 0.010197916106564234 1 1 1 0.0021783975959230699 0.0067617998343400786 0.00074746658004511829 0.00056300240006634805 1 0.012024256061839607 1 0.014634942859753638 1 1 1 0.014690858566112571 0.0048101369832056762 -3.8044199943132462e-09 1 0.010415927785109656 1 0.0012750641725060505 1 1 0.010033064263792673 0.013714593005462484 1 1 0.01075175819842049 1 1 0.0041539518790839822 1 0.0092699079303604492 1 1 1 1 1 0.011454226384228041 1 0.014603777241421378 1 0.010741787734935171 0.013858156321923155 1 1 0.0062903516498077055 1 0.015311279492277743 0.014883904226239319 1 1 1 0.010005242659622977 1 0.0071291049541309503 1 1 1 0.0099959033413966388 1 1 1 1 3.6106018209969282e-09 1 0.00093711177587619925 1 1 1 1 1 1 1 1 1 0.01730797029671571 0.012035636844447934 1 0.010807505599255038 1 0.019243031577697946 1 1 0.012862002783959672 1 1 1 1 1 1 1 1 1 1 1 1 1 1 1 1 0.016115884835162454 0.010461641492474048 1 1 1 1 1 1 1 1 1 1 1 1 1 1 1 1 1 1 1 1 1 1 1 1 1 1 1 0.011135442953044855 1 1 0.0098521594994430382 1 1 1 1 1 1 0.011846604557561443 1 1 1 0.011258547045005077 0.015505825096704305 1 0.0088485780633716787 1 1 0.010000480730780015 1 1 0.023908089961294163 1 1 6.0834866137671195e-10 1 0.0093985115027820625 1 1 1 1 1 1 0.0075566072622194926 1 1 1 1 1 1 1 1 1 1.1804172556952042e-09 1 1 1 1 1 1 0.00048803560798910258 0.010965604398545239 1 1 1 1 0.014328754886134836 1 1 1 1 1 1 1 1 0.0094625803617079292 1 0.010130272042471571 1 0.0095793793882489649 1 1 1 1 1 1 1 0.01249937498440057 1 0.0098602004897550884 0.028233809751962768 1 1 1 1 1 1 1 1 0.015953681980499599 1 1 1 1 3.5902362905543272e-09 1 0.0090629032660309236 1 1 0.017012423231293844 1 1 0.0089527550484245419 1 1 1 1 1 1 1 1 1 1 1 1 1 1 1 1 0.0028827570716883008 1 1 1 0.01268913621881358 1 1 1 1 1 1 1 1 1 1 1 0.0112171965859793 1 1 1 1 0.013941511158926901 0.041755154993867775 1 1 1 1 1 0.0073006485071829171 1 1 1 0.0083711517962333504 1 1 1 1 1 0.018953996097451364 1 1 1 1 1 1 1 0.010186991889774609 1 0.0098383363632710222 0.020359493039909114 1 0.0075582094863973631 1 1 1 1 0.0045816623939644308 0.019713362469818911 1 1 1 0.00031853975381026384 1 0.018348897373752348 1 0.017235893978655558 1 1 1 0.017599469807811345 1 1 1 0.0073058189617717997 1 1 0.0058223111904946237 1 0.023654057906998385 0.024858869708853041 0.0020064589173450637 1 1 0.018211638904384111 1 0.010023435183519936 1 0.017177282964315116 1 1 0.0051278909837838074 0.0048227613402863495 1 1 1 0.0038933916432027024 1 1 0.012451934860027776 1 1 1 1 1 1 1 0.0071295819301744091 1 1 1 1 1 1 1 1 1 1 1 1 1 1 1 1 1 1 1 1 1 0.0097810670579518907 1 1 0.045465196364272577 1 1 1 1 0.010692382589806142 1 0.011421368794556287 1 1 1 1 1 1 1 1 1 1 1 1 1 1 1 1 1 1 1 1 1 1 1 1 1 1 1 1 1 0.01932729161670043 1 1 1 1 1 1 0.017893476808931608 1 1 1 1 1 1 1 1 1 1 1 1 1 1 1 0.010398656912744832 1 1 1 0.013541149945598747 1 0.0099320031737684875 1 1 0.0034347059963068666 1 1 1 1 0.0033279294042666621 1 1 0.020558450010975532 1 0.0049691964479740072 0.0021907790124434459 0.015363008832686849 1 1 1 0.0098419384206694938 1 1 1.601628232816843e-09 1 0.015621415828639363 1 1 1 1 1 1 1 1 1 1 1 1 1 0.00063249248438503047 1 1 1 1 1 1 1 1 1 1 1 1 1 1 1 1 1 1 1 1 1 1 1 1 1 1 0.01807231945294939 1 0.020565883331047287 1 1 1 1 1 0.0080819621333627738 1 1 1 1 1 1 1 1 1 1 1 1 1 1 1 0.0026160505586248217 1 0.010049155361023028 1 1 0.0049556240165277918 1 1 1 1 1 1 1 1 1 1 1 1 1 1 1 1 1 1 1 0.012150885917420634 1 1 1 1 1 1 1 1 0.010751365532817435 1 0.010657589654395422 1 1 1 1 0.023945343028299343 0.010640136844280397 1 1 1 1 1 0.022174709927367996 0.0095487515622683927 1 1 1 1 1 0.025177759861847549 0.0096540673961567763 1 1 1 1 1 1 0.011550993285518393 1 1 1 1 1 1 1 1 1 1 1 1 0.0101480213165814 1 1 1 1 1 1 1 1 1 1 1 1 1 1 1 1 1 1 1 1 1 1 0.01854537324737611 1 1 0.023885412206990159 1 0.023160413164074242 1 1 1 1 0.015298924216719077 1 1 1 1 1 1 1 1 1 1 1 1 1 1 1 1 1 1 1 1 1 1 1 1 1 1 1 1 0.01079557572685828 1 1 0.013706610822667248 1 1 1 0.010044565621691232 1 1 1 1 1 0.010139352779280368 1 1 1 1 0.011441028131972446 1 1 1 1 1 1 1 1 1 1 1 1 1 1 1 1 1 1 1 1 1 1 1 1 1 1 0.0099922383823934854 1 1 1 0.0098026371449380714 1 0.012564816956235243 1 0.011411814787496588 0.0097554266752010524 1 1 1 0.0076059810156651891 1 0.015173932384564999 0.010996931394056629 1 1 1 0.010302492441799538 1 1 0.0088174105301477151 1 1 1 1 1 1 0.010031755899810011 1 1 1 1 1 1 1 1 1 0.011013059417442142 1 1 1 1 1 0.013281199570654288 1 1 1 1 1 1 1 1 1 0.010778287663709148 1 1 0.0099628626554323016 1 0.011471149577949362 1 1 1 1 1 1 1 1 1 1 1 0.010692861914240202 1 1 1 1 1 1 0.012074184997466007 1 1 1 1 0.012291338820450005 0.0083786894034720283 1 0.0068160178515075734 1 1 1 0.0099969539401950774 0.0062151098806793939 1 0.014266340980639457 1 1 0.013743600990332533 1 1 1 1 1 1 1 1 1 1 1 1 1 1 1 1 1 1 1 1 1 1 1 1 1 1 1 1 1 1 1 1 1 1 1 1 1 1 1 1 1 1 1 1 1 1 1 1 1 1 1 1 1 1 1 1 1 1 1 1 1 1 1 1 1 1 0.0098604495794625199 1 1 1 1 1 1 1 1 1 1 1 1 1 1 1 1 0.010154330315847886 1 1 1 1 1 1 0.0090245198011964373 1 0.013656629123425551 0.0097433155842122782 1 1 1 1 0.010572028292097219 1 0.01132151129838474 1 1 1 1 0.0050659017327734784 1 1 1 0.0098157968162489312 1 0.017444690885476739 1 1 1 1 1 0.010003188549503397 1 0.0094801406811594532 1 1 1 0.013114273692330126 1 1 1 1 1 1 1 1 0.013648890027231259 1 1 1 1 0.013243384237835762 0.01313456909511488 1 1 1 1 0.0081348763070180352 0.013044828013964622 1 1 1 1 1 1 1 1 0.0089931451665830227 0.010003362660688325 1 0.01255138050856653 1 1 1 1 0.011315280882615832 1 1 1 0.0099023712145960216 1 1 1 1 1 1 1 1 1 1 1 1 0.0088665949906205771 1 1 1 1 1 1 1 1 1 1 1 1 1 0.009704503249976508 1 1 1 1 1 1 1 0.009704449257643688 1 1 1 1 1 1 1 1 1 1 1 1 1 0.0099467253792338284 1 1 1 1 1 1 1 1 1 1 1 1 1 0.010231350736244225 1 0.010269117169198573 1 1 1 1 1 1 1 1 1 1 1 1 1 1 1 1 1 1 1 1 1 1 1 1 1 1 1 1 1 1 1 1 1 1 1 1 1 1 1 1 1 1 1 1 1 1 1 1 1 1 1 1 1 1 1 1 1 1 1 1 1 1 1 1 1 1 1 1 1 1 1 1 1 1 1 1 1 1 1 1 1 1 1 1 1 1 1 1 1 1 1 1 1 1 1 1 1 1 1 1 1 1 1 1 1 1 1 1 1 1 1 1 1 1 1 1 1 1 1 1 1 1 1 0.0038824612320834812 1 1 1 1 1 1 0.0012200025108446422 1 1 1 1 1 0.013710186573427999 1 1 1 1 1 0.011858376097017523 1 1 0.012230992784115324 1 1 1 0.010981576705281999 1 1 1 1 1 0.010982580867433929 1 1 1 1 1 1 1 0.0077085111873859274 1 1 1 1 1 1 1 1 1 1 1 1 1 1 1 1 1 1 1 0.0095325887360424057 1 1 1 1 1 1 1 0.0092277797338739132 1 1 1 1 1 1 0.0095596856407000191 1 0.010950331723770398 1 1 1 0.01004001096586786 1 1 0.0080782637839448331 1 1 1 1 1 1 1 1 1 1 0.0098672264271127408 1 1 1 1 1 1 1 1 1 1 1 1 1 1 1 0.010545624733825747 1 1 0.010374818093329165 1 1 1 1 1 1 1 1 1 1 1 1 1 1 1 1 0.010170806640496577 1 1 1 1 1 1 1 1 1 1 1 1 1 1 1 0.0080597422723359402 1 1 1 1 1 1 1 1 0.010321280832328195 1 1 1 1 1 1 1 1 1 1 1 0.010710792954078077 1 1 1 1 1 0.011127111880943993 1 1 1 1 1 1 1 1 0.010634615574433673 1 1 1 1 0.010663294943529973 1 1 0.011912155387416086 1 1 1 1 1 1 1 0.01186920899388888 1 1 -9.2611610671977651e-09 1 1 0.0096867696973751485 1 1 1 1 1 1 1 1 1 1 1 1 1 0.0040770954843557736 1 1 1 1 1 1 1 1 1 1 1 1 0.0017180449902297543 1 1 0.010389031858471003 1 1 0.0098734096948998595 1 1 1 -2.7783543729564819e-09 1 1 1 1 1 1 1 1 1 1 1 0.011164488760108292 1 1 1 1 1 1 1 1 1 1 1 0.013315298261596512 1 1 1 1 1 1 1 1 1 1 1 1 1 1 1 1 1 1 1 2.2339214367228521e-09 1 1 1 1 1 1 1 1 1 1 1 -1.1470869393237493e-09 1 0.015345149466520991 1 0.010083932671585701 1 1 1 1 0.0011260172191976565 1 1 1 1 1 1 1 1 1 1 1 1 1 1 1 1 1 1 1 1 1 1 1 1 1 1 1 1 0.011440299302233281 1 1 1 1 0.014199968682713462 1 1 1 0.0011725972119741128 1 1 1 -2.8606263139524524e-09 1 1 1 1 0.0035872665772314818 1 0.00985143194276108 1 1 0.010210696663304132 0.00265176904446646 1 1 1 0.01602469462023861 1 0.023818335968281278 1 1 -1.5123212161738397e-09 1 0.02558538354680082 1 1 1 0.011059517833929337 1 1 0.0038414390015321575 1 0.01666198352201731 1 1 1 0.016044793599012938 1 -3.3847397801212153e-10 1 1 0.011045935672934399 9.5205561143063555e-10 1 1 1 0.010095415695484054 0.006710068411440678 1 1 -1.098467468027553e-08 1 1 1 1 1 1 1 1 1 1 1 0.0093895275057144807 0.012650181614782562 1 1 1 1 1 1 0.016162562005416291 1 0.019859320353118354 1 0.019430867501911975 1 1 0.0022894245396332278 1 1 0.010443027828326949 1 0.0042519502186746522 1 1 1 1 1 1 1 1 1 1 1 1 1 1 1 1 1 1 1 0.010928755043831916 1 1 1 1 1 1 1 1 1 1 1 1 1 1 1 1 1 1 1 1 1 1 1 1 1 1 1 1 1 1 1 1 0.012763193284273132 0.0021383813535846494 1 1 1 0.0077611923233723429 1 0.010147317066290379 1 0.010567439262474776 1 0.015063525190701301 1 1 1 1 0.01001784789013184 1 1 1 1 1 1 1 0.012470891793310943 1 1 1 1 1 1 1 1 1 1 1 1 1 1 1 0.0096557248657652209 1 1 1 1 1 0.0069958971875053316 1 1 1 1 1 1 1 0.010054066910160413 1 1 1 1 0.010254339377609875 1 1 1 1 1 0.0029774796305743548 1 1 1 0.010001840047685388 1 0.0041454925503480941 1 1 1 0.0011745003611801016 1 0.012526461170831324 1 0.00697118567489146 1 1 0.0077966457957965654 1 1 1 0.0024282129932136215 1 1 1 1 1 0.0054648946135951795 1 1 1 0.0066708355728939198 1 1 0.0092371570268217976 1 1 0.0098550920712235993 1 1 1 1 1 1 1 1 1 1 1 1 1 1 1 1 0.0085648118428731795 1 1 0.0083771725670845065 1 1 1 1 0.0069424018892866243 1 1 1 1 1 1 1 1 1 1 1 1 1 1 1 1 1 1 0.010421186177157926 0.010170065259890032 1 1 1 1 1 1 1 1 1 1 1 1 1 0.0094300639403044478 1 0.0073283456222656557 1 0.011402187060785843 0.0067165706210004991 0.0075828735262271768 1 1 1 1 1 1 1 1 1 0.012136159978201916 1 1 0.011074872527889801 1 1 1 1 1 1 0.0078372441739578188 1 1 1 0.0099952698898369205 1 1 0.0098948034259791484 1 1 1 1 1 1 0.0099024129332452235 0.010085818967672959 1 1 1 1 0.0081792976758070183 1 1 0.0084330019396751943 0.0067353941666597038 1 1 1 1 1 1 1 0.0050871822382180416 0.013692242500849591 1 1 1 1 1 0.0096650392340019639 1 0.011012781531827512 1 1 0.011265938418939268 1 1 0.0056891940275590885 0.0099431191944880579 1 0.011717713911396616 1 1 1 1 0.010047492638020572 0.0055190923336251238 1 1 1 1 0.007035254802799297 1 1 0.0098466874311347805 1 1 0.013257543437159845 1 1 0.0036994073278946646 1 1 1 1 1 1 1 1 1 1 1 1 1 1 1 1 1 1 1 1 1 -9.4425500751782465e-10 1 -5.6918681295980988e-09 0.0083456922851668364 1 1 0.011461445104825135 1 1 1 1 1 1 1 1 1 0.0093079595545498134 1 1 1 1 1 1 1 0.0097663338146978945 1 1 1 1 1 1 1 1 1 1 1 1 1 1 1 0.0080452707411951315 1 1 1 1 1 0.0098367946248000895 0.0095350811754585096 1 1 0.0078679686146558969 0.011376798191235556 0.010010460636860022 1 1 1 1 1 1 0.016495161839344817 1 0.0099746548857016573 1 1 1 1 1 1 0.00998266541865718 1 0.011616312851313711 1 1 1 0.014362493206105068 1 1 1 1 1 1 1 1 1 1 0.0092411830102859423 1 1 1 1 1 1 1 1 1 1 1 1 1 1 1 1 1 1 1 1 1 1 1 1 0.011402293038194199 1 1 1 1 1 1 1 0.010876153724892194 0.0091273963005926648 1 1 0.0072180639326534929 0.0089181806279452353 1 1 1 1 1 1 1 1 1 1 1 1 1 1 1 1 1 1 1 1 1 1 1 1 1 1 0.010833664887060607 1 1 1 0.013320130984201114 1 1 0.017039390281819736 1 1 1 1 1 1 1 1 1 1 1 1 1 1 1 1 1 1 1 1 1 1 1 1 1 1 1 1 1 1 1 1 1 1 1 1 1 1 1 1 1 1 1 1 1 1 1 1 1 1 1 -9.6249668998793503e-10 1 1 1 1 1 1 1 1 1 1 1 0.0064535950504764558 -2.8773948432259111e-09 1 1 1 0.0018325062946907347 1 1 1 1 1 1 1 1 1 0.0038628589277524203 1 1 1 1 0.0072064795133281664 1 1 1 1 1 1 1 1 0.021278919868763138 -4.5906944010076778e-09 1 1 1 1 0.011299572685180476 1 1 1 1 1 1 0.01045141939415533 1 1 1 1 1 0.010090729010851965 1 1 1 0.010198462594956664 1 1 0.010144474718168067 1 1 0.010007583624805106 1 1 1 1 1 1 0.021167877272997834 1 1 1 1 1 1 1 1 1 1 1 1 1 1 1 1 1 1 1 1 1 1 1 1 1 1 1 1 1 1 1 1 1 1 1 1 1 1 1 1 1 1 1 1 1 1 1 1 1 1 1 0.0034750125468154223 1 1 1 1 1 0.0069697506159562012 1 1 1 1 0.009300300857865762 1 1 1 1 1 1 1 1 1 1 0.0050283427339342102 0.011372099975133138 1 1 1 1 0.0091994128065808548 1 0.0056041416531407533 1 1 1 1 1 1 1 1 1 1 1 1 1 1 1 1 1 1 1 1 1 1 1 0.01261310994105657 1 1 1 1 1 1 1 0.0096717747778451227 1 1 1 0.0089260003891729889 1 0.018411331397597097 1 1 1 1 1 1 1 1 1 1 1 1 1 1 1 1 1 1 1 1 1 1 1 1 1 1 1 0.0098896835189546603 1 1 1 1 1 1 1 1 1 1 1 1 1 1 1 0.0092621242768785028 1 0.0086348879132595036 1 1 1 1 0.0093532967205570902 1 1 1 1 0.0090774508813835572 1 1 1 1 1 1 1 1 1 0.010562229760259764 1 1 1 1 1 1 1 1 0.0020220199640051187 1 1 0.010622202693351165 1 1 0.011550898712381484 1 1 1 1 1 1 1 1 1 0.0088811395145340227 1 1 1 1 1 1 1 1 1 1 0.00081605750659378626 1 1 1 1 -5.6947298612830544e-09 1 1 1 1 1 1 1 1 1 1 1 1 1 1 1 1 1 1 1 1 0.0062333755750849928 1 0.0062937341560633832 1 1 1 1 1 1 1 1 1 1 1 0.002949417357561851 1 1 0.010080052699734325 0.014078801824021367 1 1 1 0.011940198019171545 1 1 0.0068607294818199549 1 1 1 1 1 1 0.010662175010861537 1 1 0.01174396189023949 1 0.010146193703313607 1 1 1 1 1 1 1 0.024813814832251771 1 0.011708242494262507 1 0.0080634157358647068 0.011542267188166352 1 1 1 1 1 0.0024135319594321067 0.010065155067479202 0.029439064298399466 1 1 1 1 0.017491959891917253 0.010035810121932331 1 1 1 1 0.0033042341798977873 1 1 0.0016133898316564588 1 1 0.010763193933500942 1 1 1 1 1 1 1 1 1 1 1 1 1 1 1 1 0.0088114359633869321 0.010291169113439792 1 1 0.023938698857682281 1 1 1 1 0.0060360857406340021 1 1 1 1 0.01779528483513175 1 0.021499232673536907 1 1 1 1 1 1 1 0.018230368255648499 -2.4557888778087289e-09 1 1 1 1 0.0096966390311688105 1 0.015135015509355296 0.0035197922137046971 1 1 1 1 1 1 1 1 1 1 1 1 1 1 1 1 1 1 1 1 1 1 0.010190247411451296 1 6.9646260772437962e-09 1 1 0.010564693694666397 1 1 4.4317536515570133e-09 0.0094177733540099836 1 1 1 1 1 1 1 1 1 0.010027165689148049 1 1 0.019199405262699622 0.0087442683269362206 0.020010039766178669 1 0.022717681838165991 1 1 1 0.005716116504695435 0.02038489091081468 1 1 1 0.0095943063812785057 0.0119580384572445 1 1 1 0.0038769032361859121 0.01260658996789157 1 0.019063607454139646 1 0.022391834706550245 1 1 1 0.010152598315291431 1 0.016119957486985706 1 1 1 0.0035061925818530588 1 1 1 1 1 1 1 1 1 1 1 0.0099973610564748419 0.0033788488289423248 1 1 0.0090728717708439821 1 1 1 0.011440138542598285 1 0.0029254194222968488 1 1 1 0.010179659965333369 1 1 1 1 1 1 1 1 1 1 0.010232493205788782 1 1 1 1 1 1 0.0092630233887533928 1 1 0.0080486642140893891 1 1 1 1 1 1 1 1 1 1 1 0.010069339126733495 1 1 1 1 1 1 1 1 1 1 1 0.0090122970359924615 0.014264309013659129 1 0.010884511684812661 1 1 1 1 0.0097843580913181388 0.018038438721392658 1 1 1 1 1 1 0.010810971293775496 1 1 1 1 1 1 0.0036564822576990383 1 1 1 0.0024658170469397458 1 3.5759054814454849e-09 1 1 1 1 0.0094403681829474239 1 1 0.0097906158669631635 -1.7897114346077103e-10 1 1 0.0061801644433816354 1 1 0.0015698966409887424 1 1 1 0.010504774790470593 1 1 1 1 1 1 1 -3.6959292293303747e-09 0.010011159674361565 1 1 1 1 1 1 1 1 0.01005995660722721 0.0065018901712445357 1 1 0.022868122156920502 1 1 1 1 1 1 0.0087840491071172755 1 1 1 1 1 1 1 1 0.00047777967810455971 1 0.010012402272443054 1 1 1 1 0.017827543720590196 1 1 1 1 1 1 1 1 1 1 1 0.0019028856544877765 1 0.012906537688639488 0.02110789530512739 1 1 0.011464579493481097 1 1 1 1 1 0.0090907563211067802 1 0.018411637397693179 1 1 1 1 0.0096446404916598408 1 1 1 1 1 1 1 1 1 1 0.008586571193756963 1 1 1 1 1 1 1 1 1 1 1 1 0.01178656969066335 1 1 1 1 0.010151563262107741 1 1 0.010235115088346632 1 1 1 1 1 1 1 1 1 1 1 1 1 1 0.01296681453257454 1 1 1 1 1 1 1 1 1 1 1 1 0.010170441411382299 1 1 1 1 1 1 0.0028391464313088435 1 1 1 1 0.012584774706641294 0.0080484659865151242 1 1 0.011990338645623324 1 1 0.0086500641728257041 1 1 1 1 0.0058361476583577918 1 1 1 1 1 0.0098751539470459376 1 1 1 0.0099816879552425252 1 1 1 1 1 0.011276685116884835 1 0.0083652258521902459 1 0.0099987939804115841 0.011633287489702437 0.0058491769353635672 1 1 1 1 1 1 1 1 0.021253450153238415 1 1 0.017091979305948773 1 1 1 1 1 1 1 1 1 0.01067660744627544 1 1 1 1 1 1 1 1 1 1 1 1 1 1 1 1 1 1 1 1 1 1 1 1 1 1 1 1 1 1 0.0101294462082408 1 0.010104218753378656 1 1 1 0.008891824293647068 1 1 0.018081415603672494 1 0.016242477254006175 0.004686708755332572 1 0.013795102108318235 1 0.010029266861527235 1 1 1 1 1 1 1 1 0.015126400546584042 1 0.0086470167672263436 1 1 0.0084180642895342189 1 0.0099701533369036532 1 0.0097438416134207548 1 1 1 1 1 1 1 1 0.009270114573321199 0.007807179216168008 1 1 1 0.0073031851115045593 1 0.0039805141806375163 1 0.010001339975918261 0.0053611082641573451 1 1 1 1 1 1 1 1 1 0.0085322315049858061 1 1 0.0080595013525144518 1 1 1 1 1 1 1 1 0.0092755373074338704 1 1 0.0094071334773972847 1 1 1 1 1 1 1 1 0.010785701074932007 1 0.0107902505068816 1 1 1 1 1 1 1 0.0085671873289832542 1 1 1 1 1 1 1 1 1 1 0.012325901811313454 1 1 0.010110461567705779 0.0097306636350939571 1 0.017167772245072738 0.012356263354540431 0.0095929284362948827 1 1 0.012260676888348622 1 1 0.0099299404391562443 1 1 1 1 0.013452386298016192 1 1 1 1 1 1 1 1 1 1 1 1 1 1 1 1 1 1 1 1 1 1 1 0.014400737721731912 1 1 1 0.017418105815915144 1 1 1 1 0.020671927896194597 1 1 1 1 1 1 1 1 1 1 1 0.0098937516418553355 1 1 1 1 1 1 1 1 1 1 1 1 1 1 1 1 0.010174949860244991 1 1 1 0.009838106712109362 1 1 1 1 1 0.012924435432055579 1 1 1 1 0.010397603310854393 1 1 1 1 1 1 0.010404271787722576 1 1 1 1 1 0.01933240664266328 1 1 0.022030919712728719 1 1 1 0.0086921799685182252 1 1 1 0.013884896237851815 1 1 1 0.017920532589853912 1 1 1 1 1 1 1 0.02131769514781464 1 1 1 1 1 0.0070319105061483929 1 1 1 0.0090217573000708502 1 1 1 1 1 0.010181618337113176 0.016885619713493782 1 1 1 1 1 1 1 1 0.009459857040480725 0.0098279028409585731 1 1 1 0.024213556860742138 1 0.0094698994754562615 1 1 1 1 1 1 1 0.012152341902442201 1 0.0051197985591482486 1 1 1 1 0.02364289349367054 1 0.014030373368240014 1 0.0022716688367433631 1 1 1 1 1 1 0.013122825817926079 1 1 1 0.002619035690106384 1 1 1 1 1 0.012137611157416267 1 1 1 1 1 1 1 1 1 1 1 1 1 1 1 1 1 1 1 1 1 1 0.0095290845876796308 1 0.015726459710909677 1 1 0.0098415552955132511 1 1 1 1 1 1 0.0089329021671446119 1 1 0.015127525413035083 1 1 1 1 1 1 1 1 1 1 1 1 1 1 1 1 1 1 1 1 1 1 1 1 0.010203929839740295 1 1 1 1 0.010611163272434842 1 1 1 1 1 1 1 1 1 1 1 1 1 0.0039734537985374567 1 0.0020279246198447818 1 1 1 1 1 0.0064138474321171063 1 1 1 1 1 1 1 1 1 1 1 1 1 1 1 1 1 1 1 1 0.0080965085193087788 0.0095037622097720962 1 1 1 1 1 1 1 1 1 1 1 1 1 0.0094226722879009444 1 1 1 1 1 1 1 1 1 1 1 1 1 1 1 1 1 1 0.0099454480396292764 1 1 1 1 1 1 1 1 1 1 1 1 1 1 1 1 1 1 1 1 1 0.011587211449553138 1 1 1 1 1 0.013201572931945829 1 1 1 1 1 1 1 1 1 1 0.0062737938287301363 1 0.010912917596344161 1 1 1 1 1 1 1 1 1 1 1 0.0091211765362293057 1 1 0.0083322060175467991 1 1 1 1 1 1 0.010026752676837064 0.0099724406152284749 1 1 1 0.010312817764817602 1 1 1 1 1 1 1 1 1 1 1 1 1 1 1 1 1 1 1 1 1 1 1 1 1 1 1 1 1 1 1 1 1 1 1 1 1 1 1 0.0095672329481843559 1 1 1 1 1 1 1 1 1 1 1 1 1 1 1 1 1 1 1 1 1 1 1 1 1 1 1 0.0098056894930299565 1 1 0.010695186064416247 1 1 1 1 0.010226984425000508 1 1 1 0.010460359270270218 1 1 1 1 1 1 1 1 1 1 1 1 1 1 1 0.0088927609480464829 1 1 0.0072157807266817788 1 1 1 1 1 1 1 1 0.0086230344171450962 1 1 1 1 1 1 1 0.011482990204615767 1 1 1 1 1 1 1 1 1 1 1 1 1 1 1 1 1 1 1 1 1 1 1 1 1 1 0.010234826794146027 1 1 1 1 1 1 1 1 1 1 1 1 1 1 0.0096821914211386358 1 1 1 1 0.010866841105391111 1 1 1 1 1 1 1 1 1 1 1 1 1 1 1 1 1 1 1 1 1 1 1 1 1 1 1 1 0.0097950293926462231 1 1 1 0.010112837971507582 1 1 1 1 1 1 1 0.017610532521721487 1 1 1 1 1.6793442894971755e-09 1 1 0.0099712411919883077 1 1 1 1 1 0.0045051612835244025 1 0.0095963516415281322 0.0082589624790930169 1 1 1 1 1 1 1 1 1 1 1 1 1 1 1 1 1 1 1 1 1 1 1 1 1 1 1 1 1 0.013071996915673116 1 1 1 1 1 1 0.0048992889020712683 1 1 1 0.0071608076288511239 1 1 1 0.0055761916461174611 1 1 1 0.0098488951479096705 1 1 1 1 1 1 0.019533589450721096 1 1 1 1 1 1 0.01316045893675794 1 1 1 1 1 1 1 1 1 1 0.0075557341840415768 1 1 1 1 1 1 1 1 1 1 1 0.0091575232818496624 1 1 1 1 0.0090699443204200411 1 1 1 0.0082558688776469998 1 1 1 1 1 1 1 1 1 1 1 1 1 1 1 1 1 1 1 1 1 1 1 1 1 1 1 1 1 1 1 1 1 1 1 1 1 1 1 1 0.0089040350888272921 0.01064828375363157 1 1 1 1 1 1 1 1 1 0.011798395277545195 1 0.0070028122040270719 0.012750058046716733 1 1 1 0.0079480457452726378 0.0088913293700874727 1 1 1 1 1 1 1 1 1 1 1 0.0071087693851849057 1 1 0.010067619901124324 0.0093955467875662703 1 1 1 1 1 1 1 1 1 1 1 1 1 1 1 1 1 1 1 1 1 1 0.003880491243081036 1 0.0026177856033412147 1 1 1 0.010036332994057868 0.0093508715880419018 1 1 1 1 1 0.0095774541848930705 0.0062541072908766961 0.010727362454764668 0.0077790009684881763 1 1 1 1 1 1 1 0.0066262354003227709 1 1 1 1 1 1 1 0.0053996357938769397 1 1 0.0083041185577100544 1 1 0.0067869743050113177 1 1 1 1 1 1 1 1 1 1 1 1 1 1 1 1 1 1 0.0091144655415930555 1 1 1 1 0.010452754473808385 1 1 1 1 1 1 1 1 1 1 1 1 1 1 1 1 1 1 1 1 0.0096289656529913777 1 1 1 0.0069585376034708921 1 1 1 1 1 1 1 1 1 1 1 1 1 0.0024435170735591996 -1.2812921904026275e-10 1 0.014442314458863148 1 1 1 1 0.014950576311198617 1 1 1 1 0.0099083147572951065 1 1 1 1 1 1 1 0.0076608495661134885 1 1 1 0.003323010196585428 1 1 1 1 1 1 1 1 1 0.017070988500195568 0.0032445087827596628 1 1 1 0.010376779963975593 1 1 1 1 0.029601997628130424 1 1 0.0004061180540278677 0.020676311432895743 1 0.003340990198579679 1 0.011079738405056007 1 0.0097082943722838783 1 1 1 0.010212855039134591 1 1 1 1 1 1 1 1 1 0.0046125222259999488 1 1 1 1 0.011920658289552737 1 0.010619848058947307 1 1 0.011012391819439743 1 1 1 1 1 1 1 1 1 1 1 1 1 1 1 1 0.010440751029665719 1 1 1 1 1 1 1.442652748998019e-09 1 1 0.0073516660386195518 1 1 1 1 1 1 1 1 1 1 1 1 0.011561289761057605 1 1 1 0.0046439583899936555 1 0.011486446705586987 1 0.010011601990546376 1 1 1 1 0.005820742998309987 1 1 1 1 1 1 1 0.014886591781823673 0.01389257950390993 1 1 1 1 1 1 1 1 1 1 1 1 1 1 1 1 1 1 1 1 1 1 1 1 1 0.0086127807242610196 1 1 1 1 1 1 0.011329963143745313 1 1 1 1 1 1 0.0060206753643301109 1 1 1 1 1 1 1 1 1 1 1 1 1 1 0.0083349768734138231 -4.3732910591509633e-09 0.021758282080244037 1 1 1 1 1 1 1 1 0.014223360631761828 1 1 1 1 0.021649125262919393 1 1 1 1 0.012313050593561782 1 1 1 1 1 1 0.0151464407354492 1 1 1 0.013987832368289399 1 1 1 1 1 1 1 1 1 1 1 1 1 1 1 1 1 1 1 1 1 1 1 1 1 1 0.0015820182818601439 1 1 1 1 -3.4414511292796268e-09 1 1 1 1 1 1 1 0.0095855532953224819 1 1 1 1 0.0094285570223366366 1 1 1 1 1 1 1 1 1 1 0.0091989796068000645 1 1 0.012014954471854015 1 1 1 1 1 1 1 1 1 1 1 1 1 1 1 1 1 0.010702816727341836 1 1 1 1 1 1 1 1 1 1 1 1 1 1 1 0.011126127449240507 1 1 0.0090009901179700976 1 1 1 1 1 1 1 1 1 1 1 1 1 1 1 1 1 1 1 1 1 0.010013760040815689 1 1 0.0068951370563879602 1 1 1 1 1 1 1 1 1 0.0054863266442393994 1 1 1 0.010916842490235034 1 1 1 1 1 1 1 1 1 1 1 1 1 1 1 1 1 1 1 0.016365852725540302 1 1 1 1 0.018869259833409719 1 1 1 1 1 1 1 1 1 1 1 1 0.0098354099674716131 1 1 1 1 1 1 1 1 1 1 1 1 1 1 1 1 1 1 1 1 1 1 1 1 1 1 1 1 1 1 1 1 1 1 1 1 1 1 1 0.0048665247772761225 0.010464722384573539 1 1 1 1 1 1 1 1 1 0.010161538060843923 1 1 1 1 1 1 1 1 1 1 1 0.0098555014599402621 1 1 1 1 1 0.010059658507660602 2.3553757902416983e-09 1 1 1 1 0.0038100572411173469 1 1 1 0.015486274581171015 1 1 1 1 1 1 1 1 1 0.016089562256556156 1 1 1 1 1 1 1 1 0.014257828089588665 0.0035681775723920908 0.014459057899307496 1 1 0.0078636661504728131 1 1 1 1 1 1 1 1 1 1 1 1 5.2664038338590125e-09 1 1 1 1 1 1 1 1 1 1 1 1 0.011470855858812967 1 1 1 1 1 1 1 0.0088279237001604831 1 1 1 1 1 1 1 1 1 1 1 1 0.0074959513638844719 1 0.0065576333159810471 1 1 1 1 1 0.0028067637270178455 1 1 1 1 1 1 1 0.0072039729704912042 1 1 1 1 1 1 1 1 1 0.0025717265951869447 1 1 -4.2260357505097268e-09 1 1 1 1 1 1 1 1 1 1 1 1 1 1 1 1 1 0.019680365681892978 1 1 0.015622635023883939 1 1 1 1 1 1 1 1 1 1 1 1 1 1 1 1 1 1 1 1 1 1 1 1 1 1 1 0.0098057680760075677 1 0.010957539166348423 1 1 1 1 1 1 1 1 1 1 0.01035468063813233 1 1 1 1 1 1 1 1 1 1 1 1 1 1 1 1 1 1 1 1 1 1 1 1 1 1 1 1 1 1 1 1 1 1 1 1 1 1 1 1 1 1 1 1 1 0.0065973242635879101 1 1 0.0075096588842956738 1 1 0.010232871683520772 1 1 1 1 1 0.010472920392080497 1 1 1 1 1 1 -8.6237355867435639e-09 1 1 0.0065857818088721765 1 1 0.01581683563254916 0.0099177065145501647 0.019729145884295703 1 0.0079394058422954938 0.0032204772297738452 1 1 1 1 1 0.0085118362808042011 1 1 1 0.0080279137078145407 1 1 1 1 1 0.0077596145128654426 1 0.0038777825494102566 1 1 1 1 1 0.0012482286385325711 1 1 1 1 0.0096915784885428617 1 0.01065904261624899 1 1 1 1 1 0.015971472342041024 1 0.0035226019630666891 1 0.0058935721648712622 1 1 1 0.0090305632283022713 1 1 1 1 0.0059868602184137004 1 1 1 1 1 1 1 1 1 1 1 1 1 1 1 1 1 1 1 1 1 1 1 0.0086164541413481371 1 1 0.0033236929971872733 1 1 1 1 0.0017904375164278716 1 1 1 1 1 1 0.0079825366512902268 1 0.0073020238854312539 1 1 1 1 1 1 1 1 1 0.0069612731784209486 0.0074181640336615715 0.021926991921288858 1 1 -5.6757907054838519e-09 1 1 1 1 1 1 1 1 1 1 0.010491994376045366 0.012342167841646863 0.014280285919058763 1 1 1 1 1 1 1 0.013976462020521024 1 0.0087663658999842242 1 0.0040662097535230021 1 1 1 1 9.2815868879547736e-09 1 1 1 0.01009420422667856 1 1 1 1 0.0087894348298727665 1 1 1.0348482695765604e-09 1 1 1 1 1 1 1 1 0.0077175667680031493 1 1 1 1 0.0096209987455022801 1 1 -8.8056054531326922e-09 1 1 1 1 1 0.0019449235834571241 1 1 1 1 1 1 1 1 1 1 1 1 1 1 1 1 1 1 1 1 1 1 1 0.015341976542555619 1 0.010050713607656969 1 1 1 1 0.013158186002784509 1 1 1 0.014213566158006343 1 0.0062946077980907955 1 1 1 1 1 1 1 1 1 0.0097704268683504875 1 0.0092733392624908331 0.012194762067747021 1 1 1 0.013906717831348087 1 1 1 1 1 1 1 1 1 1 1 1 1 1 1 1 1 0.010343523610519281 1 0.0099203000274676878 1 1 1 1 1 1 1 1 1 1 1 1 1 1 1 1 1 1 1 1 1 1 1 1 1 1 1 1 1 1 1 1 1 1 1 1 1 1 1 1 1 1 1 1 0.0095557436045358712 1 1 1 1 1 1 1 1 1 1 0.0095549835763519692 1 1 1 0.0074508470057921203 1 1 1 1 1 1 1 1 0.011110986550993952 1 1 1 0.0047918910015321003 1 1 0.013915045841947891 1 1 1 1 1 1 1 1 0.012590188202709261 1 1 1 1 0.013531166752293381 1 1 1 1 1 1 1 1 0.0085066970902159533 1 1 1 1 1 1 1 1 1 1 1 1 0.010041691752899196 0.010573448223054602 0.0099983884156211802 1 1 1 0.0093129728130120354 1 1 0.0066231642455790996 0.0063499804156246717 1 0.0099995907502080303 1 0.011519423497561786 1 1 1 1 0.009810706647958807 1 1 1 1 1 1 0.009891035352163265 1 0.0090185924094258532 1 1 1 0.0095825723434600843 1 1 1 1 0.010229279396120776 0.011238262282431407 1 1 1 1 1 0.0089818604653730538 1 1 1 0.011646617384162547 1 0.010128919590130805 0.010087797121557149 1 1 1 1 1 0.0046859110914562255 1 1 0.0099958842435904569 1 1 0.011107076337923856 1 1 1 1 1 1 1 1 1 1 1 1 1 1 1 1 1 1 1 1 1 0.012638544641940794 1 0.011797540995483424 1 1 1 1 1 1 0.013037505112161785 1 1 1 1 1 1 1 0.0088706506478561375 1 1 1 1 1 1 1 1 1 1 1 1 1 1 1 1 1 0.010965931846983169 1 1 0.010180393106500915 1 1 1 1 1 1 1 1 1 1 1 1 1 1 0.014288350254946527 1 1 0.0021421316008296346 1 1 1 1 1 0.0030754480215755414 1 0.012477250438398611 1 1 1 0.011849563739208074 1 1 1 1 1 1 0.0040041634831816525 1 1 1 1 0.010234466805897706 1 1 1 1 1 0.010653909466881658 1 1 1 1 1 1 1 1 1 1 1 1 0.007984109057975421 1 0.010731557998144188 1 1 1 1 1 0.009888417446781976 1 1 1 1 1 1 1 1 1 1 0.0091194770082497663 1 1 1 1 1 1 1 1 1 1 1 1 0.0025193009588273529 1 1 1 1 0.0097080243402810559 1 1 1 1 1 1 1 1 1 0.015183885056285002 1 0.0099971209913070486 1 1 1 1 1 1 1 0.0099927372682217745 1 0.010935944642793441 1 0.017310341459453607 1 1 1 1 1 1 0.0041199543993715865 1 1 1 1 1 1 1 1 1 0.0070159192485498567 1 1 1 0.004546149854199405 1 0.019889700120641417 1 1 1 1 0.016967353009728979 1 1 0.019288430378821896 1 1 1 1 1 0.015557370965023035 1 1 1 1 1 1 1 1 1 1 1 1 1 1 0.0093473732659721254 1 1 1 1 1 1 1 1 1 1 1 0.017092994102922428 1 1 1 1 0.019766096539453059 1 0.0075853588857741072 1 1 1 0.0077843140835219954 1 1 0.0091419034081276426 1 0.010752864066027955 1 1 1 1 1 1 1 0.011609457701216103 1 1 1 1 1 1 1 1 1 1 1 1 1 1 1 1 1 1 1 1 0.017304786492102375 1 1 0.019819225121672904 1 0.0065668663291699042 1 1 0.008378005841329611 1 1 1 0.010074361625001032 0.017120463569333676 1 1 1 1 0.017350323932393406 0.01655438467698582 1 1 1 0.010048617411920008 0.016622776886259391 1 0.0099286369500039221 1 1 0.017409002797765097 1 1 1 1 0.018556572908235137 1 1 1 1 1 1 1 0.01760104109487403 1 1 1 0.007666112209899649 0.011848633199525917 0.015133329247672156 1 1 1 0.022271547583703304 0.012785585559250405 0.012115546867081979 1 1 1 1 0.0096845449980831541 1 1 1 1 1 0.013149360945758 1 1 1 1 1 1 1 1 1 0.011278191791545676 1 1 1 1 0.010431593418668367 0.012712011350997462 1 1 1 1 1 1 1 1 0.013463873720276208 1 1 1 1 1 0.011777021573073827 1 1 0.009023394490525978 0.010105760546958997 1 1 1 1 0.010238429933184861 0.0097385941983928331 1 1 0.010203450019671547 1 1 1 1 1 1 1 1 0.020506003214384765 1 1 1 1 1 1 1 1 0.010843463412357498 1 1 1 0.013222309369365838 1 1 1 1 1 1 0.010065568785255559 1 0.01067391934647987 1 0.011894524911914672 1 1 0.0099554366241838554 1 1 1 1 1 0.013935673115021432 0.014702830916795882 1 1 1 1 0.013068024625675842 1 1 1 1 1 0.0083708659679319758 0.0033473504657941314 1 1 0.01018190868563797 1 0.0097607167479515644 1 1 3.4034980563035777e-09 1 0.021224855944207893 1 1 1 1 1 1 0.021877871224197043 1 0.0086133059659682376 1 1 1 0.016432440537196003 1 1 1 0.022236188488563215 1 1 1 1 1 1 1 1 1 1 1 1 0.00067879552457548488 1 1 1 1 1 1 1 1 1 1 1 0.0084393799698891103 1 1 1 1 1 1 1 1 1 1 1 1 1 1 1 1 0.017537090734738393 1 1 1 1 0.010281772211989454 1 1 0.015941580308569368 1 1 1 1 1 1 1 0.012697068708281252 1 1 0.0122514418169491 1 1 1 0.0099563585649629568 1 1 1 1 1 0.011439324260507588 1 0.010705918875465438 1 0.0092814315886516272 1 1 1 1 0.011367499123767569 0.0099994398172624163 0.014318244157153305 1 0.010900492666779496 1 1 1 1 1 1 1 1 1 1 0.012537944915608045 1 1 0.015037048095307502 0.0095683181784433496 1 1 0.0073047754428506861 0.010054868002129512 1 1 1 1 0.012128287661480969 1 1 1 0.0099912473340827909 0.012825714272305019 1 1 0.0098476759975908434 1 0.0066440695961973162 1 0.0093446632472419452 1 1 1 0.0099518123410911666 1 1 1 1 1 -4.2308413716884985e-10 1 1 1 1 1 1 0.002925293426037312 0.0012105944152468115 1 1 1 1 1 1 1 1 1 1 1 1 1 0.0078614542316609651 1 1 1 1 1 0.0070078652830780491 1 1 1 1 1 1 1 1 0.010262960526317845 1 1 0.0092515276137307284 1 0.012723795233915317 1 1 1 1 1 1 1 1 0.026062674114025648 1 0.0096878237564186377 1 1 1 0.015445950439493119 0.0087554442204728251 1 1 0.0070565140936778882 0.016724753865893047 1 0.014514962513677954 1 0.012896262177786957 0.011419688065767895 1 0.011524673299825115 1 1 0.01468958004495889 1 1 0.0094727410739105997 1 1 1 1 0.0084014743877785028 1 1 0.011799170914547914 1 1 1 1 1 1 1 1 1 0.010065489516781691 1 1 1 1 1 1 1 1 0.023704317490177124 1 1 0.025461818664810273 1 1 1 1 0.0098010220742675638 1 1 1 1 1 1 1 1 0.019601265642131327 0.0089122324076549089 1 1 1 0.0096389058097089905 1 0.021101314918888697 1 0.010894301358187496 1 1 1 1 1 1 1 1 1 0.0093996178251073009 1 1 1 0.02476241011300356 1 1 1 0.018987611868572056 1 1 0.021924733369339262 1 1 1 1 1 0.026961012595865287 0.022011448186002057 1 0.0069061029428835845 1 1 1 1 1 1 1 1 1 1 1 1 0.010163313894092111 1 1 0.015634230291009792 1 0.0036483109853167883 1 1 1 1 0.0054055844247057842 1 0.010547199650181395 1 0.0099646999103166281 1 1 1 1 1 0.012170304930152837 1 1 0.016431733035973631 1 1 1 0.003321263543805561 1 0.0081272267940533729 1 1 0.029539085281071749 1 1 0.0098745488420352925 1 1 1 1 0.019138875758278853 1 0.019726361630419173 1 0.011192245550309933 1 1 0.010213383520746827 0.015596208608514232 0.0077733977023587905 1 1 1 1 1 1 1 1 1 1 1 1 1 1 1 1 1 0.010463880105819019 1 1 1 1 1 1 1 1 1 1 0.0095217573102311208 1 1 1 1 1 1 1 1 1 1 1 1 1 1 1 1 1 1 1 1 1 1 1 1 1 1 1 1 1 1 1 1 1 1 1 1 1 1 1 1 1 1 1 1 0.015303711149573029 1 1 1 1 1 1 1 3.0715226195798806e-10 1 1 1 1 1 1 1 0.0062720048984166998 1 1 0.012470667284421762 1 1 1 1 1 1 1 0.0083976869143370103 1 1 0.025749913172412743 1 0.0037453089578703275 1 1 1 -4.4245787519936464e-09 1 1 1 1 1 1 1 1 1 1 1 1 1 0.010335647666005584 1 1 1 0.012487908929928529 0.011825022562271813 1 0.021761446796758538 1 1 1 1 1 1 1 1 1 1 1 1 1 1 1 1 1 1 1 0.010008551196602128 1 1 0.001825016001213816 1 1 1 1 0.0091615628996947144 1 1 1 1 1 1 1 0.01047611466184685 1 1 1 1 0.010007083619605315 1 1 0.010888809588024713 1 1 0.0099655850222318872 1 1 1 0.010216590123109503 1 1 1 0.011364864014907473 1 1 1 1 1 1 1 1 1 1 1 1 0.0092185604631740761 1 1 0.016206793203742555 1 1 0.010002256426423474 1 1 1 0.013721842245038649 1 1 0.0088813828316967186 1 1 1 1 0.0072135357376803752 1 1 1 1 0.013526111317257264 1 0.0073677648600062318 0.011095521838638923 1 0.016310473461417722 0.0092429586533394961 1 1 1 1 0.0080479508337935636 1 1 1 0.010158256451745427 1 1 0.014188215553559955 1 1 1 1 0.013558075751702458 1 1 1 1 1 0.0085842872061988665 1 1 0.014974464179610521 1 0.016299432209099608 0.010059696807376318 1 1 1 0.017086204875713624 1 0.0065188033595107719 1 1 1 1 1 0.012632582976505978 0.011634671749578093 1 0.013878709650398294 1 1 1 1 1 1 1 1 1 1 1 1 1 1 1 0.010019794545054708 1 1 0.0041851593001051741 0.013207854534363708 1 0.0093285749392075547 1 1 1 1 1 1 1 1 1 0.012356846814036877 1 1 1 1 1 1 1 1 1 1 1 1 0.014637950429387279 1 0.010034166879649448 1 1 1 1 1 0.0096893897255063977 1 0.0089372137989262145 1 0.012566758086818307 1 1 1 0.0075044523769352209 1 1 1 1 0.013150047736582116 1 1 0.011851651515549321 1 0.0072869262827674336 1 1 0.013822201745242069 1 1 0.010004067319748847 1 1 0.0099636677059586273 1 1 1 1 1 1 1 1 1 1 1 0.014684283618853239 1 1 1 0.010471647180610943 1 0.015260957350790864 1 1 1 1 1 0.01016560218594624 1 1 1 0.0058706692510506267 1 1 1 1 1 1 1 1 0.0093522457018143587 1 1 1 1 1 0.009753420407432746 1 1 1 1 1 1 1 1 1 1 1 1 1 1 1 1 1 1 1 1 0.01558883946826819 1 1 1 0.015885018717920085 1 1 1 1 1 0.0099102319828603402 1 1 0.012291049365440386 1 1 1 0.010880509451607796 1 1 1 1 1 1 1 0.0084011700325423086 0.0071709204779215885 1 1 1 1 1 0.0098844224063905292 1 1 0.010949285299993596 1 1 1 1 0.011259718970645108 1 1 1 1 0.011792017830373563 1 1 1 1 1 1 1 1 1 1 1 1 1 1 1 1 1 1 1 1 1 1 1 1 1 1 1 1 0.0098080875137251441 1 1 1 1 0.0091488404584108077 1 1 1 1 1 1 0.010613539314425602 1 1 1 1 0.010786143316210009 1 1 0.010201536701855153 1 1 1 1 1 0.011009108160914695 1 1 1 0.011189442741815761 1 1 1 0.011174793126637094 1 0.010184707305941112 1 1 1 1 1 1 1 0.010724153528811632 1 0.0083294956550209586 1 1 1 0.018930816043258407 1 1 0.010001318528950108 1 0.01926170058906574 1 1 1 1 1 0.0099949733531350324 1 1 1 1 1 1 1 0.011968556743645541 1 1 1 0.010007311380293073 1 0.014121191278386337 1 0.012725781536596759 1 0.0063268284742140565 1 0.010791668004216604 1 1 1 1 1 1 1 1 1 1 1 0.0075425890901630252 1 1 1 1 0.0066754594152058297 1 1 1 1 0.0096500832374488421 1 1 1 1 1 1 1 1 1 1 1 1 1 1 1 0.010092279771560868 1 0.010444721231996006 1 1 1 0.010099891712638184 1 1 1 1 1 0.0099061230707018846 1 1 1 0.011142800422732128 1 1 1 1 0.01157603965210548 0.0084135158736943008 1 1 1 0.0097238219804350844 1 1 1 1 1 1 1 1 0.0081170665546748885 1 1 1 1 1 1 0.0071274988431972441 1 1 1 1 1 1 1 1 0.010021555609950605 0.0063167650076518533 1 1 1 1 1 1 0.0096175900964653831 1 1 3.6159335976837514e-09 1 0.0098490560811048053 1 1 1 1 1 0.014102254171560276 1 0.015972462693759779 1 1 1 1 1 1 1 1 1 0.0088134584607069966 1 1 1 1 1 1 1 1 0.0095344979265649301 1 1 1 1 1 1 1 1 1 1 1 1 1 1 0.0097030398681572996 1 0.0023385745439033871 1 1 1 0.014627701264929072 1 1 1 0.00080146265945413991 1 1 1 1 1 1 1 1 1 1 0.011142017322780216 1 1 1 0.010346230151584222 1 1 1 1 1 1 1 1 1 1 1 1 1 0.011820477128342874 1 1 1 1 1 1 1 1 1 1 1 1 1 0.013751235732819916 1 1 1 1 1 0.011150529385310214 1 1 1 1 0.011658531596153744 1 1 1 1 1 1 1 1 1 0.014641908663298092 1 1 1 1 1 1 1 1 0.0094752137503247603 1 1 1 1 1 1 1 1 1 1 1 1 1 1 1 1 1 1 1 1 0.0097513917698896779 1 1 0.011504878759714635 1 1 1 1 1 1 1 1 1 1 1 1 1 1 1 1 1 1 1 1 1 1 1 1 1 1 1 1 1 0.01073048024343342 1 1 0.0099095508459908083 1 1 1 0.012047805910740755 1 1 0.0098959308699980222 1 1 1 0.014208842939913223 1 0.0041259128299841671 1 1 0.0099992574173350598 1 0.010001990901355177 1 0.01620336800939208 1 1 1 1 0.019719280883521005 1 1 1 1 1 1 1 0.012095100422559499 1 1 0.0094197672466935951 1 1 0.035428164012823851 0.0079713491534015787 0.023864373217025163 0.012173090386251011 1 1 1 1 1 1 1 1 1 1 1 1 1 1 1 1 1 1 1 1 1 1 1 1 1 1 1 1 0.0096725139773474796 0.009391325935816465 1 1 1 1 0.016545907508563724 1 0.0067790156705456496 1 1 1 1.4894495099088134e-09 1 1 1 1 1 1 1 1 0.0097733588029718758 1 1 1 1 0.0084595689988327602 1 1 1 1 0.0092128213311013819 1 1 0.011299165817244584 1 0.008595680246019588 1 1 1 0.010108096157687811 1 1 1 1 1 1 1 1 1 1 1 1 1 1 1 1 0.0085654845615389663 1 1 1 1 1 1 1 0.01149593246319805 1 1 1 1 1 1 1 1 1 0.011082512710445587 1 1 1 1 1 1 1 1 1 0.012646461848508241 1 1 1 0.005988282845700181 1 1 1 1 1 1 1 1 1 1 1 1 1 1 1 1 1 1 1 0.010062375015610081 1 1 1 0.0059300186808395536 1 1 1 1 1 1 1 1 1 1 1 1 1 1 1 1 1 1 1 1 1 1 1 1 1 1 1 1 0.0060065296190116302 1 0.0058817762726189465 1 1 1 0.011359510657996189 1 1 0.0102556320840613 1 1 1 1 1 1 1 1 1 1 0.0095005707972447076 1 1 1 1 1 0.013936700090435156 1 1 1 1 1 1 1 1 1 0.012741044306599315 1 1 1 1 1 1 1 1 1 1 1 1 1 1 1 1 1 1 1 1 1 1 1 1 1 1 1 1 1 1 1 1 1 1 1 1 1 1 1 1 1 1 1 1 1 1 1 1 1 1 1 1 1 1 1 1 1 1 1 1 1 1 1 1 1 1 1 1 1 1 1 1 1 0.011024492308495996 1 0.0097008532560750836 1 1 1 1 1 1 0.0096847650278366823 1 1 1 1 1 1 1 1 1 1 0.0060459606120134499 1 1 1 1 1 1 0.015410205892642644 1 1 0.011526270644260934 1 1 1 1 1 1 1 0.009983911771761611 1 1 1 1 1 1 0.008857193394934057 1 1 1 0.011889843364895215 1 1 1 1 1 1 0.020371868421303889 1 1 1 0.015972977497615705 1 1 1 1 1 1 1 1 1 1 1 1 1 1 1 1 1 1 1 1 1 1 1 1 1 1 1 1 1 1 0.024349174833777951 1 1 0.0093571304143140119 0.0098108433109158066 1 1 1 1 1 1 1 1 1 1 1 1 0.0047827499191580025 1 1 1 1 1 1 1 1 1 1 1 0.019885504599493564 1 1 1 1 1 0.010251158928309759 1 1 1 1 1 0.019127675636226381 1 1 1 1 1 1 1 1 1 0.008300638256039071 1 1 1 1 1 1 1 1 1 0.0076982716684364308 1 1 1 1 0.009930166260924439 1 1 1 1 1 1 1 1 1 0.0062246032941504874 1 1 0.012196796534629663 1 1 0.009888179018076957 1 1 1 1 1 1 0.011524440688905908 1 1 0.0054561059676941567 1 0.0075072551050033697 1 1 0.0075028190485264892 1 1 1 1 1 1 1 1 1 1 1 1 1 1 1 1 1 1 1 1 1 1 1 1 1 1 1 1 1 1 1 1 1 1 1 1 1 1 1 1 1 1 1 1 1 1 1 1 1 1 1 0.0080689790096165268 1 1 1 1 1 1 1 1 1 1 1 1 1 1 0.0015047518487359291 0.014264951876642805 1 1 1 1 1 1 0.0054557972051991355 0.0054513016427130568 1 1 1 1 1 1 1 1 1 1 1 1 1 1 1 1 0.0026341385237371399 0.0044504265836497678 1 0.012088371488175022 1 1 0.0088528634131341526 1 1 1 0.0068698887646708711 1 1 1 1 1 1 1 1 1 1 1 1 1 1 1 1 1 1 1 1 1 1 1 1 1 0.010054755920643189 1 1 1 7.2373451329155181e-10 1 0.008850778670536668 1 5.7181688759011529e-09 1 1 1 0.0079996652943367871 1 1 1 1 1 1 0.00098068239781139155 1 0.010006744636140333 1 1 0.0070390734052425373 1 1 1 1 1 1 0.012166333229923382 1 1 1 1 1 1 1 1 1 1 1 1 1 1 1 1 1 1 1 1 1 1 0.013084153248499902 1 1 1 0.013020136959927195 1 1 1 1 1 0.0044854128030086815 1 1 0.015740238072624847 1 1 1 0.013202428390611184 1 1 1 1 1 1 1 1 1 1 1 1 1 1 1 1 0.012876500602768813 1 1 0.016535523103721694 1 0.0037050926135839546 1 1 1 0.0080198234847105448 1 1 0.017618850619678023 1 1 1 1 1 1 0.010162017781095219 1 1 1 1 0.010157195422702874 1 1 0.011614712551716644 1 1 1 0.012805536697253081 1 1 0.012639846985632773 1 1 0.010075941860326294 1 1 1 1 1 0.010875333609452878 1 1 1 1 1 1 0.0044287843738590321 1 1 1 1 0.010283457464407196 1 1 1 1 1 1 1 1 0.0059109725327445156 1 1 1 1 1 1 1 1 1 1 1 1 0.011322913015338221 1 1 1 1 1 1 0.0082863969890693487 1 1 1 1 1 1 1 1 1 1 1 1 0.01086564820630391 1 1 0.011279368556628699 1 1 1 1 1 1 1 1 1 1 0.0072149644235172603 1 0.0097766220944793536 1 1 1 1 1 1 1 1 0.0083705609286097923 0.0071113271411856124 1 1 1 0.0055281529786039146 1 1 1 -6.4323551207667862e-09 -6.5565615436913305e-10 0.0099811643521190152 0.0079517633768390744 1 1 1 1 1 0.0040957114523185907 1 1 -2.3010917685195587e-09 1 1 0.011823450739728417 1 1 1 1 1 1 1 0.010725199826417099 1 1 1 1 1 1 1 1 1 1 0.0096736127110207404 1 1 1 1 1 0.006810762082380642 1 1 1 1 1 1 1 1 1 1 1 1 0.010439576146384272 1 1 1 1 1 0.014162043452378939 1 0.019403931885704787 1 0.0082509840317464486 1 1 0.011908714718968601 1 1 0.014895307092679742 1 1 0.012447353315604461 1 0.0099707025089142212 1 1 1 0.0094981975472524308 1 1 0.0099686079010818177 0.0098893935856499277 1 1 0.012810117797601765 1 1 2.3710791385855856e-09 1 1 1 0.0039914404074549645 1 1 1 1 1 0.011448384096058688 1 1 1 1 1 1 1 1 1 0.010489636495210768 1 0.0087107297785181843 1 1 1 0.011905202838657127 1 1 0.0076609971481123723 1 1 1 1 1 1 1 0.0080707324848563605 1 1 1 1 0.010096802796576765 1 1 1 1 0.010586521970369283 1 0.027054996735383176 1 1 1 1 1 1 1 1 1 1 1 1 1 1 1 0.024159748782113841 1 0.020607495172132839 1 1 1 1 1 1 1 0.0096257354886602389 1 1 1 1 1 1 4.7115778310097278e-09 0.008265923513951997 1 1 1 1 1 0.0016347814753598713 0.0057897217071922425 1 1 1 1 1 1 0.0034264119492654413 1 1 1 1 1 1 1 -1.8688748465445215e-09 5.2219521172458538e-09 1 1 1 1 0.0087261215351846205 7.2633953226985959e-09 0.0037590446993400004 1 0.00022009186855417168 0.0068302320807010434 1 1 0.0098881571252720114 1 0.0010906440479390364 1 1 1 1 1 1 0.0026965277051892653 1 0.0016172779904970042 1 1 1 1 1 1 1 1 1 1 0.008903432677264865 1 0.0070837225597310954 1 1 0.0055372069514461747 1 1 1 1 1 1 1 0.012014088048208776 0.0076163901068170628 1 1 1 1 1 1 1 1 1 1 1 1 1 1 1 1 0.010444020992065477 1 1 0.008135550593746578 0.011303887153294778 1 1 1 1 1 1 1 1 1 1 1 1 1 1 1 1 1 1 1 0.014848508991494778 1 1 0.014416500406187874 1 1 1 1 1 1 1 1 1 1 1 1 1 1 1 1 1 1 0.010774992692543534 1 0.0091397541039869787 1 1 1 1 1 1 0.013374992591007195 1 0.010539539992777291 1 1 1 0.010002272953779881 1 1 1 1 1 0.0059029953953610645 1 0.0099990762106749315 1 0.0083432306019215127 1 1 1 1 1 0.010042790087127905 0.012881559525148911 1 1 0.0070902004126575657 1 0.017519439407911674 1 1 1 0.0093194492376813404 1 1 1 0.012058448613997755 1 1 0.015992907758671598 0.0085260623517520694 1 1 1 1 1 1 1 1 1 1 1 1 1 0.010205958664354621 1 1 1 0.010264067112472394 1 1 1 1 1 1 1 1 0.0091237241083702639 0.010872367486317695 1 1 1 0.0016965369652392447 1 1 1 1 1 1 1 1 1 1 1 1 1 0.0092237367656058528 1 0.0098383741941585959 1 1 1 0.0089868485410354859 1 1 1 1 1 1 1 1 1 1 1 1 0.008594863517755456 1 1 1 1 1 1 1 1 1 1 1 1 1 0.0068692547861098976 1 1 1 1 0.0095250404909651542 1 1 0.0031248630203953281 1 1 1 1 1 -2.1078505729049679e-09 1 1 1 1 1 1 1 1 1 1 1 1 1 1 0.010152533558333343 1 1 1 1 1 0.0092231132228647802 1 1 1 0.012520930887080547 1 1 1 1 1 0.017515636534814569 1 0.009847538892203328 1 1 1 1 1 1 1 1 1 1 1 1 1 1 1 1 1 1 1 0.012964761981111683 1 1 1 1 1 1 0.0076845272243454832 1.2102705747307763e-09 1 1 1 1 1 1 1.7149370881708315e-09 1 0.017342601364142118 1 1 1 1 1 1 0.0087236505008890589 1 -6.4050366052614827e-10 0.0073430896552079475 1 1 1 0.0099539487912838204 1 1 1 1 1 1 1 1 1 1 0.0096740355928293109 1 0.015327043731613574 1 1 1 1 1 1 0.0096959555212095053 0.0071949526869268532 1 1 1 1 1 1 1 1 1 1 1 1 1 1 1 1 1 1 1 1 1 1 1 1 0.010176001383063786 0.013338224029907683 1 1 1 1 1 1 1 1 1 0.009730590278304127 1 1 1 1 1 1 1 0.016315511742878701 1 1 0.0045791151398154942 1 1 1 1 0.0088974394680100752 1 1 0.011586597603316373 1 1 1 0.0060200099131959631 1 1 0.010464037056299648 1 0.0058349790089877382 1 1 1 1 1 1 1 1 1 1 0.009926701198851369 1 1 1 1 1 1 1 1 0.010283283668313464 1 0.0098681596998468069 1 0.009805801997842728 1 0.010881389871400735 1 0.0040656934699823261 1 1 1 0.0080963449839202353 1 1 1 1 1 1 1 1 1 1 0.013656219030217791 1 1 1 1 1 0.011384924080007523 1 1 1 0.0090486849204296695 1 1 1 1 1 1 1 1 1 1 1 1 1 1 1 0.015255350756060944 1 1 1 1 1 1 1 1 0.015547772568000356 1 1 0.015922912681211931 0.0077390884076341329 1 1 1 1 1 1 0.0086401009243547156 1 1 1 1 1 1 1 0.015554535880918555 0.0018004226043452365 1 1 0.010102527677343716 0.013766685228724262 1 1 1 1 1 0.0098471350677057506 1 1 1 1 1 1 1 0.0078584859588898253 1 1 1 0.0023131822022172746 1 0.009980110534712712 1 1 1 1 1 1 1 1 1 1 1 1 1 1 1 1 1 1 1 1 1 0.021878477371603186 1 1 0.0069279347206218506 1 1 0.010033292407026342 1 1 1 1 0.012794019297658388 1 1 1 1 1 1 1 1 0.022521869444795048 -3.9188046210836269e-10 1 1 0.011264582583114512 1 0.010424958316084962 1 1 1 1 1 1 1 1 1 1 0.0030552855218057562 1 1 1 0.0064473128125641446 1 1 1 1 0.0094797520993787233 1 0.010035455421845382 1 1 1 1 1 1 1 1 1 1 1 1 1 0.0079342147463396604 1 1 1 1 1 1 0.025020775801734743 1 0.004414545207655057 1 1 1 1 1 0.026691022562357558 1 1 1 0.0068425406144176932 1 1 1 1 1 1 1 1 1 1 1 1 1 1 1 1 1 0.0099754157126660109 1 0.022876241010421846 1 1 1 1 1 1 1 1 1 1 1 1 1 0.025168394873351003 1 1 0.0095542012309990966 1 1 0.026021319052007556 1 0.0098601092430376444 1 1 1 1 1 1 0.008986993368609331 1 1 1 1 1 1 1 1 1 1 1 1 1 1 1 1 1 1 1 1 1 1 1 1 1 1 1 1 1 1 1 0.0044637500251062112 1 1 1 1 1 1 0.0024639072872812504 0.0099935263466060659 1 1 1 0.0098852131237157879 1 1 0.0095886504616034818 1 1 0.008937697778528611 1 0.011441715349721111 1 1 1 1 0.010086073931518339 1 1 1 1 1 0.0092380615121881119 1 1 1 1 1 1 1 1 1 1 1 1 1 1 1 0.011827644704400486 1 0.0097814115008036072 1 1 1 1 1 0.0098532995342156746 1 1 1 0.01173959140053479 0.0093471994706583184 1 1 1 0.010254514440339563 0.010882364424289489 1 1 1 1 1 0.010151097861364292 1 1 1 1 1 0.012568376546182331 1 1 1 1 1 1 1 1 1 1 1 1 1 0.0086224263023358949 1 1 0.0059944336816349312 1 1 1 1 1 1 1 1 1 0.0085733882018241541 1 1 1 1 1 1 1 1 1 1 1 0.0090926965188816555 1 1 0.0096599043812714194 1 1 1 1 1 1 1 1 1 1 1 1 1 1 1 1 1 1 1 1 1 1 1 1 1 1 1 1 1 0.010565181642958148 1 0.0078494380118138661 0.016817604010456743 1 0.0053442425280126327 1 1 1 1 1 1 0.005269188063991596 0.0075251358215018844 0.017823154635436343 1 1 1 1 1 1 1 1 1 0.0097896180827161949 1 1 1 1 0.022834315036080327 1 0.0032352331082015039 1 0.020206041164072767 0.0035619567712669078 1 1 1 1 1 1 1 1 0.0052102229293097945 1 1 0.01218571085340962 1 0.013742014675303321 1 1 1 1 1 1 1 1 1 0.010305831113351815 0.0077100734559045394 1 1 0.015939711357877865 1 0.01422592515828831 0.010010912217355618 1 0.0066881505764898172 1 1 0.015330227376332826 1 0.0023096885678208084 1 0.0054402682847771193 1 0.016626444234556517 0.004041804775534074 1 0.012463983267453177 1 1 0.013922268303626235 1 1 1 1 0.0099031870936462756 1 1 0.0084386409285025724 1 0.01188495248656414 1 1 0.012273870436468062 1 0.010061663095035107 1 0.0096690001842131487 1 1 1 0.017091970337883386 1 1 1 0.021437183002375786 1 1 1 1 1 0.01063311229018437 1 1 1 1 1 1 1 1 1 1 1 1 1 1 0.0037728447082723553 1 0.0019503013296088504 0.010092023984835425 1 1 0.031127259947633382 1 1 1 1 1 1 1 1 1 1 0.012375490338275999 1 1 1 1 1 0.022949263739983586 1 1 1 1 0.0018602859634340944 1 0.0073715642895321488 1 1 0.0099411385591503445 9.6635090259672429e-09 1 1 1 1 1 1 0.004894037893693623 1 0.00079422932257631248 0.025632154854088603 1 1 1 0.0096922467142413656 1 0.010678658541074262 1 1 1 0.012104428925251383 1 1 1 1 0.0021584254315530974 1 1 1 1 1 2.5950174023514627e-09 9.522068919812221e-09 1 0.017257010992324583 1 0.010017106866670612 1 1.5300396047357445e-08 0.0019368682025162221 0.0010574349353367068 0.013763930237497611 0.020107402012896895 1 1 1 1 3.9027041980055355e-09 1 1 1 1 1 1 1 0.018560209467979667 1 0.0013171299608139547 1 1 0.017527774483292492 1 1 0.0072126052133091381 1 1 1 0.018730837612414224 2.1923677283319787e-09 1 1 1 1 1 1 0.030170001397928345 1 1 0.010006599997414052 1 1 1 1 1 -4.9575798032747143e-09 1 1 1 1 0.0069552581000357182 1 1 1 1 1 1 1 1 1 1 1 1 1 1 1 1 1 1 1 1 1 1 1 1 1 1 1 1 1 1 1 1 1 1 1 1 1 1 1 1 1 1 1 1 1 1 1 1 1 1 1 1 1 1 1 1 1 1 1 0.016117923708831125 1 1 0.003501096820165972 1 0.0095385790252138416 1 1 1 1 0.0077033158498409152 1 1 1 0.014253425904013017 1 1 1 1 1 1 1 1 1 1 1 1 1 1 0.023001246538874923 1 1 1 1 1 5.8366373539842087e-10 1 1 0.022027379381149466 1 1 1 
</DataArray>
</CellData>
</Piece>
</UnstructuredGrid>
</VTKFile>
