<?xml version="1.0"?>
<VTKFile type="UnstructuredGrid" version="0.1" byte_order="LittleEndian">
<UnstructuredGrid>
<Piece NumberOfPoints="31898" NumberOfCells="11152">
<Points>
<DataArray type="Float64" NumberOfComponents="3" format="ascii">
-0.5 -0.5 0 -0.47620991077874902 -0.44978878706170539 0 -0.49999999999999473 -0.42132396840504388 0 -0.5 -0.5 0 -0.47160970827802529 -0.4793630013852106 0 -0.47620991077874902 -0.44978878706170539 0 -0.5 -0.5 0 -0.47160970827802529 -0.4793630013852106 0 -0.44860394795025399 -0.5 0 -0.47160970827802529 -0.4793630013852106 0 -0.44860394795025399 -0.5 0 -0.4490820238307246 -0.45820516232899983 0 -0.44860394795025399 -0.5 0 -0.4490820238307246 -0.45820516232899983 0 -0.42881687682924802 -0.47781464288736519 0 -0.4490820238307246 -0.45820516232899983 0 -0.45555437223955858 -0.42914059360647611 0 -0.4490820238307246 -0.45820516232899983 0 -0.45555437223955858 -0.42914059360647611 0 -0.43867285131603428 -0.4271457417558665 0 -0.4490820238307246 -0.45820516232899983 0 -0.43867285131603428 -0.4271457417558665 0 -0.4263356171060747 -0.44269880333887462 0 -0.47160970827802529 -0.4793630013852106 0 -0.4490820238307246 -0.45820516232899983 0 -0.47620991077874902 -0.44978878706170539 0 -0.4490820238307246 -0.45820516232899983 0 -0.47620991077874902 -0.44978878706170539 0 -0.45555437223955858 -0.42914059360647611 0 -0.47620991077874902 -0.44978878706170539 0 -0.48101336032419229 -0.41069999664450008 0 -0.45555437223955858 -0.42914059360647611 0 -0.47620991077874902 -0.44978878706170539 0 -0.49999999999999473 -0.42132396840504388 0 -0.48101336032419229 -0.41069999664450008 0 -0.49999999999999473 -0.42132396840504388 0 -0.48101336032419229 -0.41069999664450008 0 -0.5 -0.393886241813306 0 -0.49999999999999473 -0.42132396840504388 0 -0.48101336032419229 -0.41069999664450008 0 -0.5 -0.393886241813306 0 -0.47854472220918332 -0.38978458738689759 0 -0.48422759779560409 -0.37130120630367158 0 -0.5 -0.393886241813306 0 -0.5 -0.36644851522156802 0 -0.48422759779560409 -0.37130120630367158 0 -0.48101336032419229 -0.41069999664450008 0 -0.5 -0.393886241813306 0 -0.47854472220918332 -0.38978458738689759 0 -0.48101336032419229 -0.41069999664450008 0 -0.47854472220918332 -0.38978458738689759 0 -0.46202672064839212 -0.40007602488395211 0 -0.48101336032419229 -0.41069999664450008 0 -0.46202672064839212 -0.40007602488395211 0 -0.47854472220918332 -0.38978458738689759 0 -0.46725442735267431 -0.37660061361585562 0 -0.46202672064839212 -0.40007602488395211 0 -0.47854472220918332 -0.38978458738689759 0 -0.46725442735267431 -0.37660061361585562 0 -0.48422759779560409 -0.37130120630367158 0 -0.46725442735267431 -0.37660061361585562 0 -0.46202672064839212 -0.40007602488395211 0 -0.46725442735267431 -0.37660061361585562 0 -0.45645674801697989 -0.38644133236760531 0 -0.46202672064839212 -0.40007602488395211 0 -0.46725442735267431 -0.37660061361585562 0 -0.45645674801697989 -0.38644133236760531 0 -0.4540003998136638 -0.37455519391687309 0 -0.45645674801697989 -0.38644133236760531 0 -0.46202672064839212 -0.40007602488395211 0 -0.44257020456291563 -0.38918913383950271 0 -0.46202672064839212 -0.40007602488395211 0 -0.44257020456291563 -0.38918913383950271 0 -0.44727608925983742 -0.41095911152778891 0 -0.46202672064839212 -0.40007602488395211 0 -0.44257020456291563 -0.38918913383950271 0 -0.44257020456291563 -0.38918913383950271 0 -0.44727608925983742 -0.41095911152778891 0 -0.43479358559901082 -0.4041454901736512 0 -0.44257020456291563 -0.38918913383950271 0 -0.4540003998136638 -0.37455519391687309 0 -0.44172858264042247 -0.37082207246888088 0 -0.45645674801697989 -0.38644133236760531 0 -0.44257020456291563 -0.38918913383950271 0 -0.4540003998136638 -0.37455519391687309 0 -0.46202672064839212 -0.40007602488395211 0 -0.45555437223955858 -0.42914059360647611 0 -0.44727608925983742 -0.41095911152778891 0 -0.46202672064839212 -0.40007602488395211 0 -0.45555437223955858 -0.42914059360647611 0 -0.48101336032419229 -0.41069999664450008 0 -0.46202672064839212 -0.40007602488395211 0 -0.45555437223955858 -0.42914059360647611 0 -0.44727608925983742 -0.41095911152778891 0 -0.43867285131603428 -0.4271457417558665 0 -0.43676601469929588 -0.41441201227470881 0 -0.44727608925983742 -0.41095911152778891 0 -0.43676601469929588 -0.41441201227470881 0 -0.43479358559901082 -0.4041454901736512 0 -0.45555437223955858 -0.42914059360647611 0 -0.44727608925983742 -0.41095911152778891 0 -0.43867285131603428 -0.4271457417558665 0 -0.43867285131603428 -0.4271457417558665 0 -0.42681803064840879 -0.42717069814352421 0 -0.4263356171060747 -0.44269880333887462 0 -0.42681803064840879 -0.42717069814352421 0 -0.41531815884496182 -0.42985383783075998 0 -0.4263356171060747 -0.44269880333887462 0 -0.42681803064840879 -0.42717069814352421 0 -0.42624289495594048 -0.42089725947505818 0 -0.42083332353326591 -0.42146747131641099 0 -0.42681803064840879 -0.42717069814352421 0 -0.43096994786351572 -0.41951492446283251 0 -0.42624289495594048 -0.42089725947505818 0 -0.43867285131603428 -0.4271457417558665 0 -0.42681803064840879 -0.42717069814352421 0 -0.43096994786351572 -0.41951492446283251 0 -0.43867285131603428 -0.4271457417558665 0 -0.43676601469929588 -0.41441201227470881 0 -0.43096994786351572 -0.41951492446283251 0 -0.43676601469929588 -0.41441201227470881 0 -0.43096994786351572 -0.41951492446283251 0 -0.42907264086257813 -0.41311715872526122 0 -0.43676601469929588 -0.41441201227470881 0 -0.42907264086257813 -0.41311715872526122 0 -0.43479358559901082 -0.4041454901736512 0 -0.42907264086257813 -0.41311715872526122 0 -0.43479358559901082 -0.4041454901736512 0 -0.42460885511582858 -0.40417321677700252 0 -0.42907264086257813 -0.41311715872526122 0 -0.41997834854398469 -0.41180534796019508 0 -0.42907264086257813 -0.41311715872526122 0 -0.42635027777857132 -0.41543594397746519 0 -0.41997834854398469 -0.41180534796019508 0 -0.42907264086257813 -0.41311715872526122 0 -0.41997834854398469 -0.41180534796019508 0 -0.42460885511582858 -0.40417321677700252 0 -0.42635027777857132 -0.41543594397746519 0 -0.41997834854398469 -0.41180534796019508 0 -0.42635027777857132 -0.41543594397746519 0 -0.42083332353326591 -0.42146747131641099 0 -0.41997834854398469 -0.41180534796019508 0 -0.43096994786351572 -0.41951492446283251 0 -0.42624289495594048 -0.42089725947505818 0 -0.42635027777857132 -0.41543594397746519 0 -0.43096994786351572 -0.41951492446283251 0 -0.42907264086257813 -0.41311715872526122 0 -0.42635027777857132 -0.41543594397746519 0 -0.42624289495594048 -0.42089725947505818 0 -0.42635027777857132 -0.41543594397746519 0 -0.42083332353326591 -0.42146747131641099 0 -0.42083332353326591 -0.42146747131641099 0 -0.41997834854398469 -0.41180534796019508 0 -0.40992282953163789 -0.42011435591993562 0 -0.41997834854398469 -0.41180534796019508 0 -0.39756877647335259 -0.40857286797681719 0 -0.41997834854398469 -0.41180534796019508 0 -0.40992282953163789 -0.42011435591993562 0 -0.39756877647335259 -0.40857286797681719 0 -0.40992282953163789 -0.42011435591993562 0 -0.41531815884496182 -0.42985383783075998 0 -0.39591554026262499 -0.42887225451549271 0 -0.41531815884496182 -0.42985383783075998 0 -0.39591554026262499 -0.42887225451549271 0 -0.41160927495564159 -0.44339431233754628 0 -0.42083332353326591 -0.42146747131641099 0 -0.40992282953163789 -0.42011435591993562 0 -0.41531815884496182 -0.42985383783075998 0 -0.42681803064840879 -0.42717069814352421 0 -0.42083332353326591 -0.42146747131641099 0 -0.41531815884496182 -0.42985383783075998 0 -0.44257020456291563 -0.38918913383950271 0 -0.42311368847744002 -0.37830224279505142 0 -0.42594061475171041 -0.39368797999533162 0 -0.44257020456291563 -0.38918913383950271 0 -0.42311368847744002 -0.37830224279505142 0 -0.44172858264042247 -0.37082207246888088 0 -0.44257020456291563 -0.38918913383950271 0 -0.42311368847744002 -0.37830224279505142 0 -0.42311368847744002 -0.37830224279505142 0 -0.42594061475171041 -0.39368797999533162 0 -0.416587075656149 -0.38785930376960043 0 -0.44257020456291563 -0.38918913383950271 0 -0.42594061475171041 -0.39368797999533162 0 -0.43479358559901082 -0.4041454901736512 0 -0.42594061475171041 -0.39368797999533162 0 -0.43479358559901082 -0.4041454901736512 0 -0.42460885511582858 -0.40417321677700252 0 -0.41997834854398469 -0.41180534796019508 0 -0.41325908582185972 -0.39811010703057192 0 -0.39770572831670092 -0.39911486077581648 0 -0.41997834854398469 -0.41180534796019508 0 -0.39770572831670092 -0.39911486077581648 0 -0.42594061475171041 -0.39368797999533162 0 -0.42460885511582858 -0.40417321677700252 0 -0.41325908582185972 -0.39811010703057192 0 -0.41997834854398469 -0.41180534796019508 0 -0.42460885511582858 -0.40417321677700252 0 -0.41325908582185972 -0.39811010703057192 0 -0.42594061475171041 -0.39368797999533162 0 -0.41325908582185972 -0.39811010703057192 0 -0.416587075656149 -0.38785930376960043 0 -0.41325908582185972 -0.39811010703057192 0 -0.416587075656149 -0.38785930376960043 0 -0.40403491357358612 -0.38133688525744702 0 -0.42311368847744002 -0.37830224279505142 0 -0.40403491357358612 -0.38133688525744702 0 -0.40365717239196519 -0.36741535175059892 0 -0.42311368847744002 -0.37830224279505142 0 -0.416587075656149 -0.38785930376960043 0 -0.40403491357358612 -0.38133688525744702 0 -0.40403491357358612 -0.38133688525744702 0 -0.39190790742475001 -0.38540387676521748 0 -0.39770572831670092 -0.39911486077581648 0 -0.40403491357358612 -0.38133688525744702 0 -0.39190790742475001 -0.38540387676521748 0 -0.3904578797192948 -0.37473938743617019 0 -0.41325908582185972 -0.39811010703057192 0 -0.40403491357358612 -0.38133688525744702 0 -0.39770572831670092 -0.39911486077581648 0 -0.39770572831670092 -0.39911486077581648 0 -0.37543310808941849 -0.38642437359143528 0 -0.39770572831670092 -0.39911486077581648 0 -0.37515920440272033 -0.40534038799344108 0 -0.37543310808941849 -0.38642437359143528 0 -0.39770572831670092 -0.39911486077581648 0 -0.37515920440272033 -0.40534038799344108 0 -0.39756877647335259 -0.40857286797681719 0 -0.37515920440272033 -0.40534038799344108 0 -0.37543310808941849 -0.38642437359143528 0 -0.37543310808941849 -0.38642437359143528 0 -0.3904578797192948 -0.37473938743617019 0 -0.37568304780698558 -0.36916333065311507 0 -0.39190790742475001 -0.38540387676521748 0 -0.37543310808941849 -0.38642437359143528 0 -0.3904578797192948 -0.37473938743617019 0 -0.37543310808941849 -0.38642437359143528 0 -0.37568304780698558 -0.36916333065311507 0 -0.39190790742475001 -0.38540387676521748 0 -0.39770572831670092 -0.39911486077581648 0 -0.37543310808941849 -0.38642437359143528 0 -0.41997834854398469 -0.41180534796019508 0 -0.39770572831670092 -0.39911486077581648 0 -0.39756877647335259 -0.40857286797681719 0 -0.40992282953163789 -0.42011435591993562 0 -0.39591554026262499 -0.42887225451549271 0 -0.39756877647335259 -0.40857286797681719 0 -0.37515920440272033 -0.40534038799344108 0 -0.39591554026262499 -0.42887225451549271 0 -0.39756877647335259 -0.40857286797681719 0 -0.37515920440272033 -0.40534038799344108 0 -0.39756877647335259 -0.40857286797681719 0 -0.37515920440272033 -0.40534038799344108 0 -0.39591554026262499 -0.42887225451549271 0 -0.37472313619600889 -0.43545561783144832 0 -0.39591554026262499 -0.42887225451549271 0 -0.39301703415267508 -0.44654444244683272 0 -0.37472313619600889 -0.43545561783144832 0 -0.39301703415267508 -0.44654444244683272 0 -0.37428706798929601 -0.46557084766945539 0 -0.37472313619600889 -0.43545561783144832 0 -0.39591554026262499 -0.42887225451549271 0 -0.39301703415267508 -0.44654444244683272 0 -0.41160927495564159 -0.44339431233754628 0 -0.39301703415267508 -0.44654444244683272 0 -0.40396056051613372 -0.45751466911048011 0 -0.41160927495564159 -0.44339431233754628 0 -0.40396056051613372 -0.45751466911048011 0 -0.39245383412573559 -0.47875733455523922 0 -0.41207507163844148 -0.46917161410542801 0 -0.40396056051613372 -0.45751466911048011 0 -0.38912381425271458 -0.46154275838996711 0 -0.39245383412573559 -0.47875733455523922 0 -0.40396056051613372 -0.45751466911048011 0 -0.39245383412573559 -0.47875733455523922 0 -0.40396056051613372 -0.45751466911048011 0 -0.40649676728151513 -0.45682610390212369 0 -0.40396056051613372 -0.45751466911048011 0 -0.38912381425271458 -0.46154275838996711 0 -0.39301703415267508 -0.44654444244683272 0 -0.40396056051613372 -0.45751466911048011 0 -0.38912381425271458 -0.46154275838996711 0 -0.39301703415267508 -0.44654444244683272 0 -0.38912381425271458 -0.46154275838996711 0 -0.37428706798929601 -0.46557084766945539 0 -0.38912381425271458 -0.46154275838996711 0 -0.37428706798929601 -0.46557084766945539 0 -0.38912381425271458 -0.46154275838996711 0 -0.38378714202547332 -0.47159002408209011 0 -0.37428706798929601 -0.46557084766945539 0 -0.38378714202547332 -0.47159002408209011 0 -0.39245383412573559 -0.47875733455523922 0 -0.37411677223754131 -0.47733161267270968 0 -0.39245383412573559 -0.47875733455523922 0 -0.37240076261097882 -0.48974555046165519 0 -0.37411677223754131 -0.47733161267270968 0 -0.38378714202547332 -0.47159002408209011 0 -0.37411677223754131 -0.47733161267270968 0 -0.37428706798929601 -0.46557084766945539 0 -0.38912381425271458 -0.46154275838996711 0 -0.38378714202547332 -0.47159002408209011 0 -0.39245383412573559 -0.47875733455523922 0 -0.38094710773533791 -0.49999999999999839 0 -0.39245383412573559 -0.47875733455523922 0 -0.38094710773533791 -0.49999999999999839 0 -0.39245383412573559 -0.47875733455523922 0 -0.37240076261097882 -0.48974555046165519 0 -0.38094710773533791 -0.49999999999999839 0 -0.39245383412573559 -0.47875733455523922 0 -0.40997732063196057 -0.5 0 -0.39245383412573559 -0.47875733455523922 0 -0.41207507163844148 -0.46917161410542801 0 -0.40997732063196057 -0.5 0 -0.41207507163844148 -0.46917161410542801 0 -0.40997732063196057 -0.5 0 -0.42881687682924802 -0.47781464288736519 0 -0.44860394795025399 -0.5 0 -0.40997732063196057 -0.5 0 -0.42881687682924802 -0.47781464288736519 0 -0.41207507163844148 -0.46917161410542801 0 -0.42881687682924802 -0.47781464288736519 0 -0.42627766738448791 -0.46032764904509182 0 -0.4490820238307246 -0.45820516232899983 0 -0.42881687682924802 -0.47781464288736519 0 -0.42627766738448791 -0.46032764904509182 0 -0.4490820238307246 -0.45820516232899983 0 -0.42627766738448791 -0.46032764904509182 0 -0.4263356171060747 -0.44269880333887462 0 -0.42627766738448791 -0.46032764904509182 0 -0.4263356171060747 -0.44269880333887462 0 -0.41655419253802572 -0.45404861160063659 0 -0.4263356171060747 -0.44269880333887462 0 -0.41160927495564159 -0.44339431233754628 0 -0.41655419253802572 -0.45404861160063659 0 -0.41531815884496182 -0.42985383783075998 0 -0.4263356171060747 -0.44269880333887462 0 -0.41160927495564159 -0.44339431233754628 0 -0.40396056051613372 -0.45751466911048011 0 -0.41160927495564159 -0.44339431233754628 0 -0.40649676728151513 -0.45682610390212369 0 -0.41160927495564159 -0.44339431233754628 0 -0.40649676728151513 -0.45682610390212369 0 -0.41655419253802572 -0.45404861160063659 0 -0.40396056051613372 -0.45751466911048011 0 -0.41160927495564159 -0.44339431233754628 0 -0.41207507163844148 -0.46917161410542801 0 -0.40649676728151513 -0.45682610390212369 0 -0.41655419253802572 -0.45404861160063659 0 -0.40396056051613372 -0.45751466911048011 0 -0.41207507163844148 -0.46917161410542801 0 -0.40649676728151513 -0.45682610390212369 0 -0.41207507163844148 -0.46917161410542801 0 -0.42627766738448791 -0.46032764904509182 0 -0.41655419253802572 -0.45404861160063659 0 -0.45662330498375908 -0.25656877445722759 0 -0.43445882011373449 -0.25478651907497341 0 -0.45662330498375908 -0.25656877445722759 0 -0.43445882011373449 -0.25478651907497341 0 -0.45034617445999431 -0.24335722649563979 0 -0.44999384684511368 -0.2755750489792308 0 -0.45662330498375908 -0.25656877445722759 0 -0.43445882011373449 -0.25478651907497341 0 -0.44999384684511368 -0.2755750489792308 0 -0.43077531442077321 -0.27459050524281542 0 -0.43445882011373449 -0.25478651907497341 0 -0.44999384684511368 -0.2755750489792308 0 -0.441361257405879 -0.29303276451920029 0 -0.43077531442077321 -0.27459050524281542 0 -0.44999384684511368 -0.2755750489792308 0 -0.4670541169931961 -0.26846056693166809 0 -0.46910519348062618 -0.28320526693770848 0 -0.44999384684511368 -0.2755750489792308 0 -0.4670541169931961 -0.26846056693166809 0 -0.45662330498375908 -0.25656877445722759 0 -0.45662330498375908 -0.25656877445722759 0 -0.47878778985378329 -0.25835102983948688 0 -0.4670541169931961 -0.26846056693166809 0 -0.45662330498375908 -0.25656877445722759 0 -0.47878778985378329 -0.25835102983948688 0 -0.45662330498375908 -0.25656877445722759 0 -0.47878778985378329 -0.25835102983948688 0 -0.47142395938804471 -0.23802335247430181 0 -0.47878778985378329 -0.25835102983948688 0 -0.5 -0.25669760885461612 0 -0.48361763707807442 -0.27426406281091331 0 -0.47878778985378329 -0.25835102983948688 0 -0.5 -0.25669760885461612 0 -0.4875835208682564 -0.24248539692068891 0 -0.5 -0.25669760885461612 0 -0.48361763707807442 -0.27426406281091331 0 -0.5 -0.28413533544635422 0 -0.4670541169931961 -0.26846056693166809 0 -0.47878778985378329 -0.25835102983948688 0 -0.48361763707807442 -0.27426406281091331 0 -0.4670541169931961 -0.26846056693166809 0 -0.48361763707807442 -0.27426406281091331 0 -0.46910519348062618 -0.28320526693770848 0 -0.46910519348062618 -0.28320526693770848 0 -0.48580896399913942 -0.29193665231809679 0 -0.47164434439118558 -0.29859902487093259 0 -0.48361763707807442 -0.27426406281091331 0 -0.46910519348062618 -0.28320526693770848 0 -0.48580896399913942 -0.29193665231809679 0 -0.5 -0.28413533544635422 0 -0.48580896399913942 -0.29193665231809679 0 -0.5 -0.3115730620380921 0 -0.48361763707807442 -0.27426406281091331 0 -0.5 -0.28413533544635422 0 -0.48580896399913942 -0.29193665231809679 0 -0.48580896399913942 -0.29193665231809679 0 -0.5 -0.3115730620380921 0 -0.48293754746551898 -0.30617437981156609 0 -0.48293754746551898 -0.30617437981156609 0 -0.47164434439118558 -0.29859902487093259 0 -0.47203566342767839 -0.31514771464943409 0 -0.48580896399913942 -0.29193665231809679 0 -0.48293754746551898 -0.30617437981156609 0 -0.47164434439118558 -0.29859902487093259 0 -0.47164434439118558 -0.29859902487093259 0 -0.46096111539772322 -0.3069557537098867 0 -0.47203566342767839 -0.31514771464943409 0 -0.46096111539772322 -0.3069557537098867 0 -0.44739706002137658 -0.30395698434733032 0 -0.45229582611609759 -0.31444164243390338 0 -0.46096111539772322 -0.3069557537098867 0 -0.45682111422556548 -0.29317658806621089 0 -0.44739706002137658 -0.30395698434733032 0 -0.47164434439118558 -0.29859902487093259 0 -0.46096111539772322 -0.3069557537098867 0 -0.45682111422556548 -0.29317658806621089 0 -0.44999384684511368 -0.2755750489792308 0 -0.46910519348062618 -0.28320526693770848 0 -0.45682111422556548 -0.29317658806621089 0 -0.46910519348062618 -0.28320526693770848 0 -0.47164434439118558 -0.29859902487093259 0 -0.45682111422556548 -0.29317658806621089 0 -0.44999384684511368 -0.2755750489792308 0 -0.45682111422556548 -0.29317658806621089 0 -0.441361257405879 -0.29303276451920029 0 -0.45682111422556548 -0.29317658806621089 0 -0.441361257405879 -0.29303276451920029 0 -0.44739706002137658 -0.30395698434733032 0 -0.441361257405879 -0.29303276451920029 0 -0.44739706002137658 -0.30395698434733032 0 -0.43527018611072049 -0.30465000121327751 0 -0.44739706002137658 -0.30395698434733032 0 -0.44024276041750632 -0.31887045497680111 0 -0.43527018611072049 -0.30465000121327751 0 -0.44739706002137658 -0.30395698434733032 0 -0.45229582611609759 -0.31444164243390338 0 -0.44024276041750632 -0.31887045497680111 0 -0.44024276041750632 -0.31887045497680111 0 -0.45653421084860168 -0.32646185290925811 0 -0.44024276041750632 -0.31887045497680111 0 -0.43930980958642257 -0.33554338078202212 0 -0.45653421084860168 -0.32646185290925811 0 -0.45229582611609759 -0.31444164243390338 0 -0.44024276041750632 -0.31887045497680111 0 -0.45653421084860168 -0.32646185290925811 0 -0.43930980958642257 -0.33554338078202212 0 -0.44966367396753332 -0.33841986907325933 0 -0.46855294336124231 -0.32873531729210143 0 -0.43930980958642257 -0.33554338078202212 0 -0.4507851133594416 -0.34910720111649318 0 -0.43930980958642257 -0.33554338078202212 0 -0.44966367396753332 -0.33841986907325933 0 -0.4507851133594416 -0.34910720111649318 0 -0.44966367396753332 -0.33841986907325933 0 -0.46855294336124231 -0.32873531729210143 0 -0.46386644800117471 -0.33586508895417932 0 -0.43930980958642257 -0.33554338078202212 0 -0.46855294336124231 -0.32873531729210143 0 -0.43930980958642257 -0.33554338078202212 0 -0.46855294336124231 -0.32873531729210143 0 -0.45653421084860168 -0.32646185290925811 0 -0.44966367396753332 -0.33841986907325933 0 -0.4586808436472537 -0.3401528003513713 0 -0.45711636988675219 -0.34547487934353349 0 -0.44966367396753332 -0.33841986907325933 0 -0.4586808436472537 -0.3401528003513713 0 -0.46386644800117471 -0.33586508895417932 0 -0.4586808436472537 -0.3401528003513713 0 -0.46472493826860672 -0.34236766697450172 0 -0.45711636988675219 -0.34547487934353349 0 -0.4586808436472537 -0.3401528003513713 0 -0.46472493826860672 -0.34236766697450172 0 -0.46386644800117471 -0.33586508895417932 0 -0.46855294336124231 -0.32873531729210143 0 -0.46207595183026873 -0.31834845619891672 0 -0.47203566342767839 -0.31514771464943409 0 -0.46855294336124231 -0.32873531729210143 0 -0.45653421084860168 -0.32646185290925811 0 -0.46207595183026873 -0.31834845619891672 0 -0.46096111539772322 -0.3069557537098867 0 -0.45229582611609759 -0.31444164243390338 0 -0.46207595183026873 -0.31834845619891672 0 -0.45229582611609759 -0.31444164243390338 0 -0.45653421084860168 -0.32646185290925811 0 -0.46207595183026873 -0.31834845619891672 0 -0.46096111539772322 -0.3069557537098867 0 -0.46207595183026873 -0.31834845619891672 0 -0.47203566342767839 -0.31514771464943409 0 -0.48293754746551898 -0.30617437981156609 0 -0.47203566342767839 -0.31514771464943409 0 -0.47770984076123751 -0.32964979107966252 0 -0.48293754746551898 -0.30617437981156609 0 -0.47770984076123751 -0.32964979107966252 0 -0.48293754746551898 -0.30617437981156609 0 -0.48763303240419292 -0.31981883507337211 0 -0.47770984076123751 -0.32964979107966252 0 -0.46855294336124231 -0.32873531729210143 0 -0.47203566342767839 -0.31514771464943409 0 -0.47770984076123751 -0.32964979107966252 0 -0.5 -0.3115730620380921 0 -0.5 -0.33901078862982997 0 -0.49048543526404831 -0.32960291085151988 0 -0.5 -0.3115730620380921 0 -0.48763303240419292 -0.31981883507337211 0 -0.49048543526404831 -0.32960291085151988 0 -0.5 -0.3115730620380921 0 -0.48293754746551898 -0.30617437981156609 0 -0.48763303240419292 -0.31981883507337211 0 -0.48763303240419292 -0.31981883507337211 0 -0.49048543526404831 -0.32960291085151988 0 -0.47770984076123751 -0.32964979107966252 0 -0.49048543526404831 -0.32960291085151988 0 -0.47770984076123751 -0.32964979107966252 0 -0.48708430315481122 -0.3479620774366432 0 -0.5 -0.33901078862982997 0 -0.49048543526404831 -0.32960291085151988 0 -0.48708430315481122 -0.3479620774366432 0 -0.47770984076123751 -0.32964979107966252 0 -0.47248213405695583 -0.35312520234775913 0 -0.47770984076123751 -0.32964979107966252 0 -0.47248213405695583 -0.35312520234775913 0 -0.48708430315481122 -0.3479620774366432 0 -0.46472493826860672 -0.34236766697450172 0 -0.47770984076123751 -0.32964979107966252 0 -0.47248213405695583 -0.35312520234775913 0 -0.46855294336124231 -0.32873531729210143 0 -0.46386644800117471 -0.33586508895417932 0 -0.47770984076123751 -0.32964979107966252 0 -0.46472493826860672 -0.34236766697450172 0 -0.46386644800117471 -0.33586508895417932 0 -0.47770984076123751 -0.32964979107966252 0 -0.47248213405695583 -0.35312520234775913 0 -0.48708430315481122 -0.3479620774366432 0 -0.48422759779560409 -0.37130120630367158 0 -0.5 -0.33901078862982997 0 -0.48708430315481122 -0.3479620774366432 0 -0.5 -0.36644851522156802 0 -0.48708430315481122 -0.3479620774366432 0 -0.5 -0.36644851522156802 0 -0.48422759779560409 -0.37130120630367158 0 -0.46725442735267431 -0.37660061361585562 0 -0.47248213405695583 -0.35312520234775913 0 -0.48422759779560409 -0.37130120630367158 0 -0.46725442735267431 -0.37660061361585562 0 -0.47248213405695583 -0.35312520234775913 0 -0.46725442735267431 -0.37660061361585562 0 -0.4540003998136638 -0.37455519391687309 0 -0.46226041713245919 -0.36267102145096558 0 -0.46725442735267431 -0.37660061361585562 0 -0.47248213405695583 -0.35312520234775913 0 -0.46226041713245919 -0.36267102145096558 0 -0.4540003998136638 -0.37455519391687309 0 -0.46226041713245919 -0.36267102145096558 0 -0.45167034254705118 -0.36337553476545958 0 -0.47248213405695583 -0.35312520234775913 0 -0.46226041713245919 -0.36267102145096558 0 -0.46130034509645268 -0.35111989715704561 0 -0.46472493826860672 -0.34236766697450172 0 -0.47248213405695583 -0.35312520234775913 0 -0.46130034509645268 -0.35111989715704561 0 -0.46472493826860672 -0.34236766697450172 0 -0.46130034509645268 -0.35111989715704561 0 -0.45711636988675219 -0.34547487934353349 0 -0.46130034509645268 -0.35111989715704561 0 -0.45711636988675219 -0.34547487934353349 0 -0.4507851133594416 -0.34910720111649318 0 -0.46226041713245919 -0.36267102145096558 0 -0.4507851133594416 -0.34910720111649318 0 -0.45167034254705118 -0.36337553476545958 0 -0.46226041713245919 -0.36267102145096558 0 -0.46130034509645268 -0.35111989715704561 0 -0.4507851133594416 -0.34910720111649318 0 -0.46226041713245919 -0.36267102145096558 0 -0.4507851133594416 -0.34910720111649318 0 -0.4507851133594416 -0.34910720111649318 0 -0.44504098357239391 -0.35771747353496869 0 -0.45167034254705118 -0.36337553476545958 0 -0.44966367396753332 -0.33841986907325933 0 -0.45711636988675219 -0.34547487934353349 0 -0.4507851133594416 -0.34910720111649318 0 -0.4507851133594416 -0.34910720111649318 0 -0.44408457896710762 -0.34741130507322732 0 -0.44504098357239391 -0.35771747353496869 0 -0.43930980958642257 -0.33554338078202212 0 -0.4507851133594416 -0.34910720111649318 0 -0.44408457896710762 -0.34741130507322732 0 -0.44408457896710762 -0.34741130507322732 0 -0.43834809566141358 -0.35386966642967582 0 -0.4310745521241639 -0.35060051531725012 0 -0.44408457896710762 -0.34741130507322732 0 -0.43834809566141358 -0.35386966642967582 0 -0.44504098357239391 -0.35771747353496869 0 -0.43834809566141358 -0.35386966642967582 0 -0.44504098357239391 -0.35771747353496869 0 -0.43256408976529492 -0.36260533289695268 0 -0.44504098357239391 -0.35771747353496869 0 -0.44172858264042247 -0.37082207246888088 0 -0.43256408976529492 -0.36260533289695268 0 -0.4540003998136638 -0.37455519391687309 0 -0.44172858264042247 -0.37082207246888088 0 -0.45167034254705118 -0.36337553476545958 0 -0.44504098357239391 -0.35771747353496869 0 -0.44172858264042247 -0.37082207246888088 0 -0.45167034254705118 -0.36337553476545958 0 -0.42311368847744002 -0.37830224279505142 0 -0.44172858264042247 -0.37082207246888088 0 -0.43256408976529492 -0.36260533289695268 0 -0.42311368847744002 -0.37830224279505142 0 -0.43256408976529492 -0.36260533289695268 0 -0.41867380740831611 -0.36398836527224071 0 -0.43256408976529492 -0.36260533289695268 0 -0.42210656065146929 -0.35476551363046099 0 -0.41867380740831611 -0.36398836527224071 0 -0.44408457896710762 -0.34741130507322732 0 -0.4310745521241639 -0.35060051531725012 0 -0.42443636388738298 -0.3390060521705498 0 -0.43834809566141358 -0.35386966642967582 0 -0.43256408976529492 -0.36260533289695268 0 -0.4310745521241639 -0.35060051531725012 0 -0.4310745521241639 -0.35060051531725012 0 -0.42266042161335821 -0.34652378860874011 0 -0.42210656065146929 -0.35476551363046099 0 -0.4310745521241639 -0.35060051531725012 0 -0.42266042161335821 -0.34652378860874011 0 -0.42443636388738298 -0.3390060521705498 0 -0.43256408976529492 -0.36260533289695268 0 -0.4310745521241639 -0.35060051531725012 0 -0.42210656065146929 -0.35476551363046099 0 -0.42210656065146929 -0.35476551363046099 0 -0.41243440171204931 -0.35621682403100541 0 -0.41867380740831611 -0.36398836527224071 0 -0.41243440171204931 -0.35621682403100541 0 -0.40365717239196519 -0.36741535175059892 0 -0.40302160193259851 -0.3439916005776541 0 -0.42210656065146929 -0.35476551363046099 0 -0.41714587076776338 -0.34786779488983011 0 -0.41243440171204931 -0.35621682403100541 0 -0.42266042161335821 -0.34652378860874011 0 -0.42210656065146929 -0.35476551363046099 0 -0.41714587076776338 -0.34786779488983011 0 -0.42266042161335821 -0.34652378860874011 0 -0.41714587076776338 -0.34786779488983011 0 -0.41853876063601031 -0.34037906703560689 0 -0.41714587076776338 -0.34786779488983011 0 -0.41853876063601031 -0.34037906703560689 0 -0.41714587076776338 -0.34786779488983011 0 -0.41243440171204931 -0.35621682403100541 0 -0.40302160193259851 -0.3439916005776541 0 -0.41714587076776338 -0.34786779488983011 0 -0.40302160193259851 -0.3439916005776541 0 -0.41853876063601031 -0.34037906703560689 0 -0.42311368847744002 -0.37830224279505142 0 -0.41867380740831611 -0.36398836527224071 0 -0.40365717239196519 -0.36741535175059892 0 -0.42311368847744002 -0.37830224279505142 0 -0.40365717239196519 -0.36741535175059892 0 -0.41243440171204931 -0.35621682403100541 0 -0.41867380740831611 -0.36398836527224071 0 -0.40365717239196519 -0.36741535175059892 0 -0.40403491357358612 -0.38133688525744702 0 -0.40365717239196519 -0.36741535175059892 0 -0.40403491357358612 -0.38133688525744702 0 -0.40365717239196519 -0.36741535175059892 0 -0.3904578797192948 -0.37473938743617019 0 -0.40365717239196519 -0.36741535175059892 0 -0.38979507995825918 -0.35965881973269581 0 -0.40365717239196519 -0.36741535175059892 0 -0.3904578797192948 -0.37473938743617019 0 -0.38979507995825918 -0.35965881973269581 0 -0.3904578797192948 -0.37473938743617019 0 -0.38979507995825918 -0.35965881973269581 0 -0.37568304780698558 -0.36916333065311507 0 -0.37568304780698558 -0.36916333065311507 0 -0.37593298752455201 -0.35190228771479481 0 -0.38979507995825918 -0.35965881973269581 0 -0.37568304780698558 -0.36916333065311507 0 -0.37593298752455201 -0.35190228771479481 0 -0.38979507995825918 -0.35965881973269581 0 -0.37595629511297179 -0.35029264644438168 0 -0.40302160193259851 -0.3439916005776541 0 -0.37595629511297179 -0.35029264644438168 0 -0.40302160193259851 -0.3439916005776541 0 -0.38842354837557669 -0.33756560667471242 0 -0.37595629511297179 -0.35029264644438168 0 -0.40302160193259851 -0.3439916005776541 0 -0.37595629511297179 -0.35029264644438168 0 -0.37607676276689278 -0.3419730509543204 0 -0.37390838074359528 -0.35076941925389299 0 -0.37595629511297179 -0.35029264644438168 0 -0.37607676276689278 -0.3419730509543204 0 -0.37595629511297179 -0.35029264644438168 0 -0.37593298752455201 -0.35190228771479481 0 -0.37390838074359528 -0.35076941925389299 0 -0.37595629511297179 -0.35029264644438168 0 -0.37593298752455201 -0.35190228771479481 0 -0.38979507995825918 -0.35965881973269581 0 -0.37595629511297179 -0.35029264644438168 0 -0.37593298752455201 -0.35190228771479481 0 -0.38979507995825918 -0.35965881973269581 0 -0.37593298752455201 -0.35190228771479481 0 -0.40365717239196519 -0.36741535175059892 0 -0.40302160193259851 -0.3439916005776541 0 -0.40365717239196519 -0.36741535175059892 0 -0.38979507995825918 -0.35965881973269581 0 -0.40302160193259851 -0.3439916005776541 0 -0.40302160193259851 -0.3439916005776541 0 -0.40263324863316441 -0.32967896077653092 0 -0.40263324863316441 -0.32967896077653092 0 -0.38842354837557669 -0.33756560667471242 0 -0.38442983343225828 -0.32189177462067481 0 -0.40302160193259851 -0.3439916005776541 0 -0.40263324863316441 -0.32967896077653092 0 -0.38842354837557669 -0.33756560667471242 0 -0.37607676276689278 -0.3419730509543204 0 -0.37641717267996733 -0.3184640617331177 0 -0.38842354837557669 -0.33756560667471242 0 -0.37607676276689278 -0.3419730509543204 0 -0.38442983343225828 -0.32189177462067481 0 -0.37607676276689278 -0.3419730509543204 0 -0.38442983343225828 -0.32189177462067481 0 -0.37595629511297179 -0.35029264644438168 0 -0.38842354837557669 -0.33756560667471242 0 -0.37607676276689278 -0.3419730509543204 0 -0.37607676276689278 -0.3419730509543204 0 -0.37641717267996733 -0.3184640617331177 0 -0.38442983343225828 -0.32189177462067481 0 -0.37641717267996733 -0.3184640617331177 0 -0.38442983343225828 -0.32189177462067481 0 -0.3841914044669909 -0.30132118344037401 0 -0.37641717267996733 -0.3184640617331177 0 -0.38442983343225828 -0.32189177462067481 0 -0.40263324863316441 -0.32967896077653092 0 -0.38442983343225828 -0.32189177462067481 0 -0.40185461233875269 -0.30098256284660307 0 -0.40263324863316441 -0.32967896077653092 0 -0.38442983343225828 -0.32189177462067481 0 -0.40263324863316441 -0.32967896077653092 0 -0.40185461233875269 -0.30098256284660307 0 -0.40263324863316441 -0.32967896077653092 0 -0.41242695344044827 -0.31820451366256841 0 -0.40185461233875269 -0.30098256284660307 0 -0.41242695344044827 -0.31820451366256841 0 -0.41920998916455232 -0.33677027649670849 0 -0.42301959421646518 -0.31628833020920039 0 -0.41920998916455232 -0.33677027649670849 0 -0.42301959421646518 -0.31628833020920039 0 -0.41242695344044827 -0.31820451366256841 0 -0.42301959421646518 -0.31628833020920039 0 -0.41541732284930832 -0.30730243798379953 0 -0.40302160193259851 -0.3439916005776541 0 -0.41920998916455232 -0.33677027649670849 0 -0.41853876063601031 -0.34037906703560689 0 -0.40302160193259851 -0.3439916005776541 0 -0.40263324863316441 -0.32967896077653092 0 -0.41920998916455232 -0.33677027649670849 0 -0.40263324863316441 -0.32967896077653092 0 -0.41920998916455232 -0.33677027649670849 0 -0.40263324863316441 -0.32967896077653092 0 -0.41242695344044827 -0.31820451366256841 0 -0.41920998916455232 -0.33677027649670849 0 -0.40302160193259851 -0.3439916005776541 0 -0.41853876063601031 -0.34037906703560689 0 -0.41853876063601031 -0.34037906703560689 0 -0.42443636388738298 -0.3390060521705498 0 -0.41920998916455232 -0.33677027649670849 0 -0.42443636388738298 -0.3390060521705498 0 -0.41920998916455232 -0.33677027649670849 0 -0.41853876063601031 -0.34037906703560689 0 -0.42443636388738298 -0.3390060521705498 0 -0.41920998916455232 -0.33677027649670849 0 -0.41853876063601031 -0.34037906703560689 0 -0.43930980958642257 -0.33554338078202212 0 -0.44408457896710762 -0.34741130507322732 0 -0.42443636388738298 -0.3390060521705498 0 -0.43930980958642257 -0.33554338078202212 0 -0.42443636388738298 -0.3390060521705498 0 -0.42301959421646518 -0.31628833020920039 0 -0.41920998916455232 -0.33677027649670849 0 -0.42443636388738298 -0.3390060521705498 0 -0.42301959421646518 -0.31628833020920039 0 -0.44408457896710762 -0.34741130507322732 0 -0.42443636388738298 -0.3390060521705498 0 -0.42266042161335821 -0.34652378860874011 0 -0.41853876063601031 -0.34037906703560689 0 -0.42443636388738298 -0.3390060521705498 0 -0.43930980958642257 -0.33554338078202212 0 -0.42443636388738298 -0.3390060521705498 0 -0.43930980958642257 -0.33554338078202212 0 -0.42301959421646518 -0.31628833020920039 0 -0.44024276041750632 -0.31887045497680111 0 -0.42395130998641067 -0.31127905704434472 0 -0.44024276041750632 -0.31887045497680111 0 -0.43930980958642257 -0.33554338078202212 0 -0.42301959421646518 -0.31628833020920039 0 -0.44024276041750632 -0.31887045497680111 0 -0.42301959421646518 -0.31628833020920039 0 -0.42395130998641067 -0.31127905704434472 0 -0.42301959421646518 -0.31628833020920039 0 -0.42395130998641067 -0.31127905704434472 0 -0.42395130998641067 -0.31127905704434472 0 -0.42709180872781188 -0.29439449141065738 0 -0.44024276041750632 -0.31887045497680111 0 -0.42395130998641067 -0.31127905704434472 0 -0.43527018611072049 -0.30465000121327751 0 -0.42395130998641067 -0.31127905704434472 0 -0.42709180872781188 -0.29439449141065738 0 -0.41541732284930832 -0.30730243798379953 0 -0.42395130998641067 -0.31127905704434472 0 -0.43527018611072049 -0.30465000121327751 0 -0.42709180872781188 -0.29439449141065738 0 -0.441361257405879 -0.29303276451920029 0 -0.43527018611072049 -0.30465000121327751 0 -0.42709180872781188 -0.29439449141065738 0 -0.42709180872781188 -0.29439449141065738 0 -0.43077531442077321 -0.27459050524281542 0 -0.42709180872781188 -0.29439449141065738 0 -0.41684225135067149 -0.28376244362903152 0 -0.43077531442077321 -0.27459050524281542 0 -0.441361257405879 -0.29303276451920029 0 -0.42709180872781188 -0.29439449141065738 0 -0.441361257405879 -0.29303276451920029 0 -0.42709180872781188 -0.29439449141065738 0 -0.43077531442077321 -0.27459050524281542 0 -0.42709180872781188 -0.29439449141065738 0 -0.41684225135067149 -0.28376244362903152 0 -0.40618483967714292 -0.29638963380315841 0 -0.42709180872781188 -0.29439449141065738 0 -0.40618483967714292 -0.29638963380315841 0 -0.41684225135067149 -0.28376244362903152 0 -0.40690107601488551 -0.28490397733270861 0 -0.40618483967714292 -0.29638963380315841 0 -0.41541732284930832 -0.30730243798379953 0 -0.40185461233875269 -0.30098256284660307 0 -0.40618483967714292 -0.29638963380315841 0 -0.42709180872781188 -0.29439449141065738 0 -0.41541732284930832 -0.30730243798379953 0 -0.40618483967714292 -0.29638963380315841 0 -0.41541732284930832 -0.30730243798379953 0 -0.40618483967714292 -0.29638963380315841 0 -0.41242695344044827 -0.31820451366256841 0 -0.41541732284930832 -0.30730243798379953 0 -0.40185461233875269 -0.30098256284660307 0 -0.41541732284930832 -0.30730243798379953 0 -0.40185461233875269 -0.30098256284660307 0 -0.42301959421646518 -0.31628833020920039 0 -0.41541732284930832 -0.30730243798379953 0 -0.42395130998641067 -0.31127905704434472 0 -0.41541732284930832 -0.30730243798379953 0 -0.42301959421646518 -0.31628833020920039 0 -0.42395130998641067 -0.31127905704434472 0 -0.41541732284930832 -0.30730243798379953 0 -0.38442983343225828 -0.32189177462067481 0 -0.40185461233875269 -0.30098256284660307 0 -0.39448508010510541 -0.297525044214214 0 -0.40185461233875269 -0.30098256284660307 0 -0.40174149504185092 -0.29681366012781812 0 -0.40618483967714292 -0.29638963380315841 0 -0.40185461233875269 -0.30098256284660307 0 -0.40174149504185092 -0.29681366012781812 0 -0.40185461233875269 -0.30098256284660307 0 -0.39448508010510541 -0.297525044214214 0 -0.40174149504185092 -0.29681366012781812 0 -0.40185461233875269 -0.30098256284660307 0 -0.39448508010510541 -0.297525044214214 0 -0.39448508010510541 -0.297525044214214 0 -0.40174149504185092 -0.29681366012781812 0 -0.37641717267996733 -0.3184640617331177 0 -0.37669606201677502 -0.29920373422444158 0 -0.38442983343225828 -0.32189177462067481 0 -0.39448508010510541 -0.297525044214214 0 -0.38442983343225828 -0.32189177462067481 0 -0.39448508010510541 -0.297525044214214 0 -0.3841914044669909 -0.30132118344037401 0 -0.37641717267996733 -0.3184640617331177 0 -0.3841914044669909 -0.30132118344037401 0 -0.37669606201677502 -0.29920373422444158 0 -0.39448508010510541 -0.297525044214214 0 -0.3841914044669909 -0.30132118344037401 0 -0.37928718982873688 -0.29895646409505849 0 -0.39448508010510541 -0.297525044214214 0 -0.37928718982873688 -0.29895646409505849 0 -0.3841914044669909 -0.30132118344037401 0 -0.37928718982873688 -0.29895646409505849 0 -0.3841914044669909 -0.30132118344037401 0 -0.37928718982873688 -0.29895646409505849 0 -0.37669606201677502 -0.29920373422444158 0 -0.37928718982873688 -0.29895646409505849 0 -0.37669606201677502 -0.29920373422444158 0 -0.37671758341694961 -0.29771744858697219 0 -0.37928718982873688 -0.29895646409505849 0 -0.37671758341694961 -0.29771744858697219 0 -0.37928718982873688 -0.29895646409505849 0 -0.37669606201677502 -0.29920373422444158 0 -0.37669606201677502 -0.29920373422444158 0 -0.37671758341694961 -0.29771744858697219 0 -0.37671758341694961 -0.29771744858697219 0 -0.38607699004493318 -0.28757386461908069 0 -0.38483052758877101 -0.28123782127595193 0 -0.37671758341694961 -0.29771744858697219 0 -0.3770412393053626 -0.27536550612006683 0 -0.37671758341694961 -0.29771744858697219 0 -0.38483052758877101 -0.28123782127595193 0 -0.3770412393053626 -0.27536550612006683 0 -0.37928718982873688 -0.29895646409505849 0 -0.37671758341694961 -0.29771744858697219 0 -0.38467000758835601 -0.29297497791584359 0 -0.37671758341694961 -0.29771744858697219 0 -0.38467000758835601 -0.29297497791584359 0 -0.38607699004493318 -0.28757386461908069 0 -0.39448508010510541 -0.297525044214214 0 -0.37928718982873688 -0.29895646409505849 0 -0.38467000758835601 -0.29297497791584359 0 -0.39448508010510541 -0.297525044214214 0 -0.38467000758835601 -0.29297497791584359 0 -0.39448508010510541 -0.297525044214214 0 -0.38467000758835601 -0.29297497791584359 0 -0.39217701296355612 -0.28987936211692023 0 -0.38467000758835601 -0.29297497791584359 0 -0.38607699004493318 -0.28757386461908069 0 -0.39217701296355612 -0.28987936211692023 0 -0.38607699004493318 -0.28757386461908069 0 -0.39049541959166939 -0.28414526237041138 0 -0.39217701296355612 -0.28987936211692023 0 -0.39049541959166939 -0.28414526237041138 0 -0.39420405367365152 -0.27853706101481662 0 -0.38483052758877101 -0.28123782127595193 0 -0.38607699004493318 -0.28757386461908069 0 -0.39049541959166939 -0.28414526237041138 0 -0.38483052758877101 -0.28123782127595193 0 -0.39597078832761667 -0.28551153658085893 0 -0.40174149504185092 -0.29681366012781812 0 -0.40123596036735593 -0.27818233727432817 0 -0.39049541959166939 -0.28414526237041138 0 -0.39597078832761667 -0.28551153658085893 0 -0.39420405367365152 -0.27853706101481662 0 -0.40174149504185092 -0.29681366012781812 0 -0.40123596036735593 -0.27818233727432817 0 -0.40174149504185092 -0.29681366012781812 0 -0.40322207619149192 -0.29288764445213411 0 -0.40123596036735593 -0.27818233727432817 0 -0.39049541959166939 -0.28414526237041138 0 -0.39597078832761667 -0.28551153658085893 0 -0.39217701296355612 -0.28987936211692023 0 -0.39597078832761667 -0.28551153658085893 0 -0.39217701296355612 -0.28987936211692023 0 -0.40174149504185092 -0.29681366012781812 0 -0.39448508010510541 -0.297525044214214 0 -0.39217701296355612 -0.28987936211692023 0 -0.40174149504185092 -0.29681366012781812 0 -0.40690107601488551 -0.28490397733270861 0 -0.40322207619149192 -0.29288764445213411 0 -0.40618483967714292 -0.29638963380315841 0 -0.40174149504185092 -0.29681366012781812 0 -0.40322207619149192 -0.29288764445213411 0 -0.40618483967714292 -0.29638963380315841 0 -0.40174149504185092 -0.29681366012781812 0 -0.40618483967714292 -0.29638963380315841 0 -0.40322207619149192 -0.29288764445213411 0 -0.40618483967714292 -0.29638963380315841 0 -0.40690107601488551 -0.28490397733270861 0 -0.40322207619149192 -0.29288764445213411 0 -0.40123596036735593 -0.27818233727432817 0 -0.39420405367365152 -0.27853706101481662 0 -0.37710287173325818 -0.2711091198417086 0 -0.40073042569286338 -0.25955101442083811 0 -0.40123596036735593 -0.27818233727432817 0 -0.39420405367365152 -0.27853706101481662 0 -0.40073042569286338 -0.25955101442083811 0 -0.40123596036735593 -0.27818233727432817 0 -0.40073042569286338 -0.25955101442083811 0 -0.40123596036735593 -0.27818233727432817 0 -0.40073042569286338 -0.25955101442083811 0 -0.41341650638623911 -0.27076301679274262 0 -0.39597078832761667 -0.28551153658085893 0 -0.40123596036735593 -0.27818233727432817 0 -0.39420405367365152 -0.27853706101481662 0 -0.39420405367365152 -0.27853706101481662 0 -0.37710287173325818 -0.2711091198417086 0 -0.3770412393053626 -0.27536550612006683 0 -0.39420405367365152 -0.27853706101481662 0 -0.3770412393053626 -0.27536550612006683 0 -0.39420405367365152 -0.27853706101481662 0 -0.38483052758877101 -0.28123782127595193 0 -0.3770412393053626 -0.27536550612006683 0 -0.37710287173325818 -0.2711091198417086 0 -0.3770412393053626 -0.27536550612006683 0 -0.37710287173325818 -0.2711091198417086 0 -0.38543722149146659 -0.25821727905458303 0 -0.40073042569286338 -0.25955101442083811 0 -0.37710287173325818 -0.2711091198417086 0 -0.37747963509906429 -0.24508953120583671 0 -0.37710287173325818 -0.2711091198417086 0 -0.40073042569286338 -0.25955101442083811 0 -0.37710287173325818 -0.2711091198417086 0 -0.38543722149146659 -0.25821727905458303 0 -0.37747963509906429 -0.24508953120583671 0 -0.38543722149146659 -0.25821727905458303 0 -0.3938256931015453 -0.25037754026629511 0 -0.37747963509906429 -0.24508953120583671 0 -0.38543722149146659 -0.25821727905458303 0 -0.3938256931015453 -0.25037754026629511 0 -0.40073042569286338 -0.25955101442083811 0 -0.40073042569286338 -0.25955101442083811 0 -0.40282532782868952 -0.25224285689579767 0 -0.40022281387448849 -0.24084313907701979 0 -0.40073042569286338 -0.25955101442083811 0 -0.40022281387448849 -0.24084313907701979 0 -0.3938256931015453 -0.25037754026629511 0 -0.40073042569286338 -0.25955101442083811 0 -0.40022281387448849 -0.24084313907701979 0 -0.40073042569286338 -0.25955101442083811 0 -0.40282532782868952 -0.25224285689579767 0 -0.41385673751816382 -0.25312989710486528 0 -0.40073042569286338 -0.25955101442083811 0 -0.41385673751816382 -0.25312989710486528 0 -0.40073042569286338 -0.25955101442083811 0 -0.41385673751816382 -0.25312989710486528 0 -0.41341650638623911 -0.27076301679274262 0 -0.41385673751816382 -0.25312989710486528 0 -0.41341650638623911 -0.27076301679274262 0 -0.42312684460972783 -0.26331748455384929 0 -0.41385673751816382 -0.25312989710486528 0 -0.41679144862722167 -0.25169429778568547 0 -0.43445882011373449 -0.25478651907497341 0 -0.40282532782868952 -0.25224285689579767 0 -0.41385673751816382 -0.25312989710486528 0 -0.4086566941719203 -0.24778871483445111 0 -0.40282532782868952 -0.25224285689579767 0 -0.41385673751816382 -0.25312989710486528 0 -0.41385673751816382 -0.25312989710486528 0 -0.41679144862722167 -0.25169429778568547 0 -0.41627810448972868 -0.24641300060905449 0 -0.41385673751816382 -0.25312989710486528 0 -0.41679144862722167 -0.25169429778568547 0 -0.41684225135067149 -0.28376244362903152 0 -0.41341650638623911 -0.27076301679274262 0 -0.43077531442077321 -0.27459050524281542 0 -0.40690107601488551 -0.28490397733270861 0 -0.40123596036735593 -0.27818233727432817 0 -0.41341650638623911 -0.27076301679274262 0 -0.41684225135067149 -0.28376244362903152 0 -0.40690107601488551 -0.28490397733270861 0 -0.41341650638623911 -0.27076301679274262 0 -0.41341650638623911 -0.27076301679274262 0 -0.43077531442077321 -0.27459050524281542 0 -0.42312684460972783 -0.26331748455384929 0 -0.43077531442077321 -0.27459050524281542 0 -0.42312684460972783 -0.26331748455384929 0 -0.43445882011373449 -0.25478651907497341 0 -0.41385673751816382 -0.25312989710486528 0 -0.43445882011373449 -0.25478651907497341 0 -0.43077531442077321 -0.27459050524281542 0 -0.43445882011373449 -0.25478651907497341 0 -0.41385673751816382 -0.25312989710486528 0 -0.42312684460972783 -0.26331748455384929 0 -0.43445882011373449 -0.25478651907497341 0 -0.41679144862722167 -0.25169429778568547 0 -0.43445882011373449 -0.25478651907497341 0 -0.42335340856967768 -0.24893549408922019 0 -0.32580796388430833 -0.26195871891040218 0 -0.34139866608006603 -0.2687790352098644 0 -0.31202674084989918 -0.26335133138269068 0 -0.32580796388430833 -0.26195871891040218 0 -0.33345250408021371 -0.25331871279766999 0 -0.32023222063025569 -0.2489608815952247 0 -0.32580796388430833 -0.26195871891040218 0 -0.31664960680882542 -0.25714232151458272 0 -0.32023222063025569 -0.2489608815952247 0 -0.31664960680882542 -0.25714232151458272 0 -0.30853150187083839 -0.25429835417001312 0 -0.32023222063025569 -0.2489608815952247 0 -0.32580796388430833 -0.26195871891040218 0 -0.31664960680882542 -0.25714232151458272 0 -0.31202674084989918 -0.26335133138269068 0 -0.33223611708196649 -0.27626932861073827 0 -0.31972670239926188 -0.28454160199560091 0 -0.31187737399160442 -0.27618124236115132 0 -0.34139866608006603 -0.2687790352098644 0 -0.31202674084989918 -0.26335133138269068 0 -0.33223611708196649 -0.27626932861073827 0 -0.31202674084989918 -0.26335133138269068 0 -0.3062135479255173 -0.26372173898871692 0 -0.33223611708196649 -0.27626932861073827 0 -0.31187737399160442 -0.27618124236115132 0 -0.3062135479255173 -0.26372173898871692 0 -0.33260241140844943 -0.2743168067351805 0 -0.33223611708196649 -0.27626932861073827 0 -0.31202674084989918 -0.26335133138269068 0 -0.33223611708196649 -0.27626932861073827 0 -0.3062135479255173 -0.26372173898871692 0 -0.33260241140844943 -0.2743168067351805 0 -0.34139866608006603 -0.2687790352098644 0 -0.31202674084989918 -0.26335133138269068 0 -0.33223611708196649 -0.27626932861073827 0 -0.34139866608006603 -0.2687790352098644 0 -0.34951875912658742 -0.28460269103381453 0 -0.33223611708196649 -0.27626932861073827 0 -0.34951875912658742 -0.28460269103381453 0 -0.33260241140844943 -0.2743168067351805 0 -0.33223611708196649 -0.27626932861073827 0 -0.34139866608006603 -0.2687790352098644 0 -0.33260241140844943 -0.2743168067351805 0 -0.33223611708196649 -0.27626932861073827 0 -0.34139866608006603 -0.2687790352098644 0 -0.3363084638556994 -0.26041051377605268 0 -0.34457472137820933 -0.25758558818627408 0 -0.32580796388430833 -0.26195871891040218 0 -0.34139866608006603 -0.2687790352098644 0 -0.3363084638556994 -0.26041051377605268 0 -0.32580796388430833 -0.26195871891040218 0 -0.3363084638556994 -0.26041051377605268 0 -0.33345250408021371 -0.25331871279766999 0 -0.3363084638556994 -0.26041051377605268 0 -0.33345250408021371 -0.25331871279766999 0 -0.34457472137820933 -0.25758558818627408 0 -0.33345250408021371 -0.25331871279766999 0 -0.34457472137820933 -0.25758558818627408 0 -0.34395992200845399 -0.24382677409400949 0 -0.34139866608006603 -0.2687790352098644 0 -0.34457472137820933 -0.25758558818627408 0 -0.35733732661955131 -0.26288598862094092 0 -0.34457472137820933 -0.25758558818627408 0 -0.35872453044413888 -0.25078889886649508 0 -0.34395992200845399 -0.24382677409400949 0 -0.34457472137820933 -0.25758558818627408 0 -0.35733732661955131 -0.26288598862094092 0 -0.35872453044413888 -0.25078889886649508 0 -0.37710287173325818 -0.2711091198417086 0 -0.36828299104124951 -0.26081605551440462 0 -0.37747963509906429 -0.24508953120583671 0 -0.35872453044413888 -0.25078889886649508 0 -0.36828299104124951 -0.26081605551440462 0 -0.37747963509906429 -0.24508953120583671 0 -0.35733732661955131 -0.26288598862094092 0 -0.35872453044413888 -0.25078889886649508 0 -0.36828299104124951 -0.26081605551440462 0 -0.37077059131023282 -0.27420673903703829 0 -0.34951875912658742 -0.28460269103381453 0 -0.37710287173325818 -0.2711091198417086 0 -0.3770412393053626 -0.27536550612006683 0 -0.37077059131023282 -0.27420673903703829 0 -0.3770412393053626 -0.27536550612006683 0 -0.37077059131023282 -0.27420673903703829 0 -0.37710287173325818 -0.2711091198417086 0 -0.36828299104124951 -0.26081605551440462 0 -0.37077059131023282 -0.27420673903703829 0 -0.37710287173325818 -0.2711091198417086 0 -0.37077059131023282 -0.27420673903703829 0 -0.35733732661955131 -0.26288598862094092 0 -0.36828299104124951 -0.26081605551440462 0 -0.37077059131023282 -0.27420673903703829 0 -0.34139866608006603 -0.2687790352098644 0 -0.35733732661955131 -0.26288598862094092 0 -0.37077059131023282 -0.27420673903703829 0 -0.34139866608006603 -0.2687790352098644 0 -0.37077059131023282 -0.27420673903703829 0 -0.34951875912658742 -0.28460269103381453 0 -0.34139866608006603 -0.2687790352098644 0 -0.37077059131023282 -0.27420673903703829 0 -0.34951875912658742 -0.28460269103381453 0 -0.3581763596052473 -0.30097106086504849 0 -0.34010739644885768 -0.2892065328944351 0 -0.34951875912658742 -0.28460269103381453 0 -0.34010739644885768 -0.2892065328944351 0 -0.37671758341694961 -0.29771744858697219 0 -0.37077059131023282 -0.27420673903703829 0 -0.34951875912658742 -0.28460269103381453 0 -0.37671758341694961 -0.29771744858697219 0 -0.34951875912658742 -0.28460269103381453 0 -0.37671758341694961 -0.29771744858697219 0 -0.3770412393053626 -0.27536550612006683 0 -0.37077059131023282 -0.27420673903703829 0 -0.37671758341694961 -0.29771744858697219 0 -0.34951875912658742 -0.28460269103381453 0 -0.3581763596052473 -0.30097106086504849 0 -0.37669606201677502 -0.29920373422444158 0 -0.37671758341694961 -0.29771744858697219 0 -0.3581763596052473 -0.30097106086504849 0 -0.37641717267996733 -0.3184640617331177 0 -0.37669606201677502 -0.29920373422444158 0 -0.36799370156123501 -0.30592930732763762 0 -0.37641717267996733 -0.3184640617331177 0 -0.36799370156123501 -0.30592930732763762 0 -0.35803691493684492 -0.31060122461938489 0 -0.37669606201677502 -0.29920373422444158 0 -0.36799370156123501 -0.30592930732763762 0 -0.3581763596052473 -0.30097106086504849 0 -0.37669606201677502 -0.29920373422444158 0 -0.3581763596052473 -0.30097106086504849 0 -0.36799370156123501 -0.30592930732763762 0 -0.35803691493684492 -0.31060122461938489 0 -0.3581763596052473 -0.30097106086504849 0 -0.35803691493684492 -0.31060122461938489 0 -0.33965665719371979 -0.30273838750565862 0 -0.35803691493684492 -0.31060122461938489 0 -0.33965665719371979 -0.30273838750565862 0 -0.34514704515453298 -0.31300544250539297 0 -0.3581763596052473 -0.30097106086504849 0 -0.33965665719371979 -0.30273838750565862 0 -0.34010739644885768 -0.2892065328944351 0 -0.35803691493684492 -0.31060122461938489 0 -0.3581763596052473 -0.30097106086504849 0 -0.33965665719371979 -0.30273838750565862 0 -0.3581763596052473 -0.30097106086504849 0 -0.33965665719371979 -0.30273838750565862 0 -0.33676996251121621 -0.31158184422573892 0 -0.33965665719371979 -0.30273838750565862 0 -0.34514704515453298 -0.31300544250539297 0 -0.33676996251121621 -0.31158184422573892 0 -0.33965665719371979 -0.30273838750565862 0 -0.32704471803945162 -0.30394193902942662 0 -0.33676996251121621 -0.31158184422573892 0 -0.32594772137393307 -0.30978944971135602 0 -0.32704471803945162 -0.30394193902942662 0 -0.33965665719371979 -0.30273838750565862 0 -0.32704471803945162 -0.30394193902942662 0 -0.32819068517220462 -0.29783339261299951 0 -0.33965665719371979 -0.30273838750565862 0 -0.32704471803945162 -0.30394193902942662 0 -0.32819068517220462 -0.29783339261299951 0 -0.33965665719371979 -0.30273838750565862 0 -0.33223611708196649 -0.27626932861073827 0 -0.32819068517220462 -0.29783339261299951 0 -0.33223611708196649 -0.27626932861073827 0 -0.32819068517220462 -0.29783339261299951 0 -0.34010739644885768 -0.2892065328944351 0 -0.33223611708196649 -0.27626932861073827 0 -0.34951875912658742 -0.28460269103381453 0 -0.34010739644885768 -0.2892065328944351 0 -0.32819068517220462 -0.29783339261299951 0 -0.33965665719371979 -0.30273838750565862 0 -0.34010739644885768 -0.2892065328944351 0 -0.32819068517220462 -0.29783339261299951 0 -0.31972670239926188 -0.28454160199560091 0 -0.31332574866090718 -0.291474364566292 0 -0.32819068517220462 -0.29783339261299951 0 -0.31332574866090718 -0.291474364566292 0 -0.33223611708196649 -0.27626932861073827 0 -0.32819068517220462 -0.29783339261299951 0 -0.31972670239926188 -0.28454160199560091 0 -0.31972670239926188 -0.28454160199560091 0 -0.31332574866090718 -0.291474364566292 0 -0.30937392239009109 -0.28339120160471948 0 -0.31972670239926188 -0.28454160199560091 0 -0.30937392239009109 -0.28339120160471948 0 -0.31187737399160442 -0.27618124236115132 0 -0.31992409361072222 -0.30462145692723192 0 -0.32594772137393307 -0.30978944971135602 0 -0.31307430431717392 -0.31869978567557272 0 -0.31992409361072222 -0.30462145692723192 0 -0.32594772137393307 -0.30978944971135602 0 -0.32594772137393307 -0.30978944971135602 0 -0.32704471803945162 -0.30394193902942662 0 -0.31992409361072222 -0.30462145692723192 0 -0.32594772137393307 -0.30978944971135602 0 -0.32704471803945162 -0.30394193902942662 0 -0.32819068517220462 -0.29783339261299951 0 -0.31332574866090718 -0.291474364566292 0 -0.31992409361072222 -0.30462145692723192 0 -0.32819068517220462 -0.29783339261299951 0 -0.32704471803945162 -0.30394193902942662 0 -0.32819068517220462 -0.29783339261299951 0 -0.31992409361072222 -0.30462145692723192 0 -0.32704471803945162 -0.30394193902942662 0 -0.31992409361072222 -0.30462145692723192 0 -0.32704471803945162 -0.30394193902942662 0 -0.32594772137393307 -0.30978944971135602 0 -0.31307430431717392 -0.31869978567557272 0 -0.32184288384298337 -0.33167017375041419 0 -0.32594772137393307 -0.30978944971135602 0 -0.32184288384298337 -0.33167017375041419 0 -0.32184288384298337 -0.33167017375041419 0 -0.31773804631203251 -0.35355089778947202 0 -0.32184288384298337 -0.33167017375041419 0 -0.34475024534571441 -0.34586667392980902 0 -0.31773804631203251 -0.35355089778947202 0 -0.32184288384298337 -0.33167017375041419 0 -0.34612464597635118 -0.32710031367078812 0 -0.34475024534571441 -0.34586667392980902 0 -0.33676996251121621 -0.31158184422573892 0 -0.32594772137393307 -0.30978944971135602 0 -0.34612464597635118 -0.32710031367078812 0 -0.32594772137393307 -0.30978944971135602 0 -0.34612464597635118 -0.32710031367078812 0 -0.32594772137393307 -0.30978944971135602 0 -0.32184288384298337 -0.33167017375041419 0 -0.34612464597635118 -0.32710031367078812 0 -0.33676996251121621 -0.31158184422573892 0 -0.34514704515453298 -0.31300544250539297 0 -0.34612464597635118 -0.32710031367078812 0 -0.35803691493684492 -0.31060122461938489 0 -0.34514704515453298 -0.31300544250539297 0 -0.34612464597635118 -0.32710031367078812 0 -0.35803691493684492 -0.31060122461938489 0 -0.34612464597635118 -0.32710031367078812 0 -0.35600230731325749 -0.33324145173106873 0 -0.37641717267996733 -0.3184640617331177 0 -0.35803691493684492 -0.31060122461938489 0 -0.37641717267996733 -0.3184640617331177 0 -0.35803691493684492 -0.31060122461938489 0 -0.36719759625642318 -0.33008752154143739 0 -0.35803691493684492 -0.31060122461938489 0 -0.36719759625642318 -0.33008752154143739 0 -0.35600230731325749 -0.33324145173106873 0 -0.37607676276689278 -0.3419730509543204 0 -0.37641717267996733 -0.3184640617331177 0 -0.36719759625642318 -0.33008752154143739 0 -0.37607676276689278 -0.3419730509543204 0 -0.3688763256213185 -0.34309961767568647 0 -0.36719759625642318 -0.33008752154143739 0 -0.36719759625642318 -0.33008752154143739 0 -0.36118874601324108 -0.3436521492952741 0 -0.35600230731325749 -0.33324145173106873 0 -0.3688763256213185 -0.34309961767568647 0 -0.36719759625642318 -0.33008752154143739 0 -0.36118874601324108 -0.3436521492952741 0 -0.34612464597635118 -0.32710031367078812 0 -0.35600230731325749 -0.33324145173106873 0 -0.34475024534571441 -0.34586667392980902 0 -0.36118874601324108 -0.3436521492952741 0 -0.35600230731325749 -0.33324145173106873 0 -0.34475024534571441 -0.34586667392980902 0 -0.36118874601324108 -0.3436521492952741 0 -0.34475024534571441 -0.34586667392980902 0 -0.35925477447714671 -0.35134479444962452 0 -0.34475024534571441 -0.34586667392980902 0 -0.35480891830463612 -0.3592101017575729 0 -0.33937201587241012 -0.36587749477948078 0 -0.34475024534571441 -0.34586667392980902 0 -0.35480891830463612 -0.3592101017575729 0 -0.35925477447714671 -0.35134479444962452 0 -0.36118874601324108 -0.3436521492952741 0 -0.37225797237559449 -0.35115364910559932 0 -0.36118874601324108 -0.3436521492952741 0 -0.35925477447714671 -0.35134479444962452 0 -0.36985982957495511 -0.35171195823109852 0 -0.37568304780698558 -0.36916333065311507 0 -0.37593298752455201 -0.35190228771479481 0 -0.37225797237559449 -0.35115364910559932 0 -0.35480891830463612 -0.3592101017575729 0 -0.35925477447714671 -0.35134479444962452 0 -0.36985982957495511 -0.35171195823109852 0 -0.37607676276689278 -0.3419730509543204 0 -0.3688763256213185 -0.34309961767568647 0 -0.37225797237559449 -0.35115364910559932 0 -0.37607676276689278 -0.3419730509543204 0 -0.37225797237559449 -0.35115364910559932 0 -0.37607676276689278 -0.3419730509543204 0 -0.37390838074359528 -0.35076941925389299 0 -0.37225797237559449 -0.35115364910559932 0 -0.37593298752455201 -0.35190228771479481 0 -0.37390838074359528 -0.35076941925389299 0 -0.37225797237559449 -0.35115364910559932 0 -0.3688763256213185 -0.34309961767568647 0 -0.36118874601324108 -0.3436521492952741 0 -0.37225797237559449 -0.35115364910559932 0 -0.37593298752455201 -0.35190228771479481 0 -0.37390838074359528 -0.35076941925389299 0 -0.36118874601324108 -0.3436521492952741 0 -0.36985982957495511 -0.35171195823109852 0 -0.37225797237559449 -0.35115364910559932 0 -0.37595629511297179 -0.35029264644438168 0 -0.37390838074359528 -0.35076941925389299 0 -0.37390838074359528 -0.35076941925389299 0 -0.37225797237559449 -0.35115364910559932 0 -0.36985982957495511 -0.35171195823109852 0 -0.37225797237559449 -0.35115364910559932 0 -0.37568304780698558 -0.36916333065311507 0 -0.37225797237559449 -0.35115364910559932 0 -0.36100598543278789 -0.37820409176948921 0 -0.35480891830463612 -0.3592101017575729 0 -0.36985982957495511 -0.35171195823109852 0 -0.36100598543278789 -0.37820409176948921 0 -0.36985982957495511 -0.35171195823109852 0 -0.37225797237559449 -0.35115364910559932 0 -0.36100598543278789 -0.37820409176948921 0 -0.37225797237559449 -0.35115364910559932 0 -0.36100598543278789 -0.37820409176948921 0 -0.33937201587241012 -0.36587749477948078 0 -0.36100598543278789 -0.37820409176948921 0 -0.35480891830463612 -0.3592101017575729 0 -0.33937201587241012 -0.36587749477948078 0 -0.36100598543278789 -0.37820409176948921 0 -0.33937201587241012 -0.36587749477948078 0 -0.31773804631203251 -0.35355089778947202 0 -0.33937201587241012 -0.36587749477948078 0 -0.31773804631203251 -0.35355089778947202 0 -0.32803705280137402 -0.37447550275240871 0 -0.34475024534571441 -0.34586667392980902 0 -0.33937201587241012 -0.36587749477948078 0 -0.31773804631203251 -0.35355089778947202 0 -0.31773804631203251 -0.35355089778947202 0 -0.31381007312398762 -0.37448885129246268 0 -0.31773804631203251 -0.35355089778947202 0 -0.31381007312398762 -0.37448885129246268 0 -0.32803705280137402 -0.37447550275240871 0 -0.31381007312398762 -0.37448885129246268 0 -0.29871455833571747 -0.36148408621311728 0 -0.29196992941862432 -0.3825632544476108 0 -0.31773804631203251 -0.35355089778947202 0 -0.31381007312398762 -0.37448885129246268 0 -0.29871455833571747 -0.36148408621311728 0 -0.31773804631203251 -0.35355089778947202 0 -0.29871455833571747 -0.36148408621311728 0 -0.29282778547957722 -0.33935753649529382 0 -0.31773804631203251 -0.35355089778947202 0 -0.29282778547957722 -0.33935753649529382 0 -0.29871455833571747 -0.36148408621311728 0 -0.27675503022224163 -0.36681377825091099 0 -0.29282778547957722 -0.33935753649529382 0 -0.29871455833571747 -0.36148408621311728 0 -0.27675503022224163 -0.36681377825091099 0 -0.29196992941862432 -0.3825632544476108 0 -0.27675503022224163 -0.36681377825091099 0 -0.25757508569408222 -0.36424633604315798 0 -0.26546808025963542 -0.34847395767735678 0 -0.27675503022224163 -0.36681377825091099 0 -0.25757508569408222 -0.36424633604315798 0 -0.25812358553267323 -0.37605355791306738 0 -0.25757508569408222 -0.36424633604315798 0 -0.24839247009954951 -0.37292447016044328 0 -0.24532753696728959 -0.36501789644951049 0 -0.25757508569408222 -0.36424633604315798 0 -0.25812358553267323 -0.37605355791306738 0 -0.24839247009954951 -0.37292447016044328 0 -0.25757508569408222 -0.36424633604315798 0 -0.26546808025963542 -0.34847395767735678 0 -0.24650166737573331 -0.3569693529562265 0 -0.26546808025963542 -0.34847395767735678 0 -0.24650166737573331 -0.3569693529562265 0 -0.24881121389389799 -0.33838995723746451 0 -0.27675503022224163 -0.36681377825091099 0 -0.26546808025963542 -0.34847395767735678 0 -0.29282778547957722 -0.33935753649529382 0 -0.26791752464712137 -0.32516417520111718 0 -0.27544300416693679 -0.31995488319631832 0 -0.29282778547957722 -0.33935753649529382 0 -0.26546808025963542 -0.34847395767735678 0 -0.26791752464712137 -0.32516417520111718 0 -0.29282778547957722 -0.33935753649529382 0 -0.26791752464712137 -0.32516417520111718 0 -0.29282778547957722 -0.33935753649529382 0 -0.26791752464712137 -0.32516417520111718 0 -0.24881121389389799 -0.33838995723746451 0 -0.26546808025963542 -0.34847395767735678 0 -0.26791752464712137 -0.32516417520111718 0 -0.24881121389389799 -0.33838995723746451 0 -0.26791752464712137 -0.32516417520111718 0 -0.24881121389389799 -0.33838995723746451 0 -0.2441082332202735 -0.32380704628422963 0 -0.26791752464712137 -0.32516417520111718 0 -0.2444966906846206 -0.31181945912301329 0 -0.26791752464712137 -0.32516417520111718 0 -0.26963915832665503 -0.30942012505775762 0 -0.2444966906846206 -0.31181945912301329 0 -0.26791752464712137 -0.32516417520111718 0 -0.2441082332202735 -0.32380704628422963 0 -0.2444966906846206 -0.31181945912301329 0 -0.26791752464712137 -0.32516417520111718 0 -0.27544300416693679 -0.31995488319631832 0 -0.26963915832665503 -0.30942012505775762 0 -0.26791752464712137 -0.32516417520111718 0 -0.27544300416693679 -0.31995488319631832 0 -0.27544300416693679 -0.31995488319631832 0 -0.29403167998309421 -0.32125824908992018 0 -0.29478162596868879 -0.30702079099249591 0 -0.27544300416693679 -0.31995488319631832 0 -0.29403167998309421 -0.32125824908992018 0 -0.29282778547957722 -0.33935753649529382 0 -0.31307430431717392 -0.31869978567557272 0 -0.32184288384298337 -0.33167017375041419 0 -0.29282778547957722 -0.33935753649529382 0 -0.32184288384298337 -0.33167017375041419 0 -0.31773804631203251 -0.35355089778947202 0 -0.29282778547957722 -0.33935753649529382 0 -0.31307430431717392 -0.31869978567557272 0 -0.29403167998309421 -0.32125824908992018 0 -0.29282778547957722 -0.33935753649529382 0 -0.31307430431717392 -0.31869978567557272 0 -0.29403167998309421 -0.32125824908992018 0 -0.29478162596868879 -0.30702079099249591 0 -0.31992409361072222 -0.30462145692723192 0 -0.29478162596868879 -0.30702079099249591 0 -0.31992409361072222 -0.30462145692723192 0 -0.31307430431717392 -0.31869978567557272 0 -0.29478162596868879 -0.30702079099249591 0 -0.31992409361072222 -0.30462145692723192 0 -0.30687808727867438 -0.29770175581860719 0 -0.29478162596868879 -0.30702079099249591 0 -0.30687808727867438 -0.29770175581860719 0 -0.29813438661480679 -0.29530641477552327 0 -0.29478162596868879 -0.30702079099249591 0 -0.31992409361072222 -0.30462145692723192 0 -0.2984608121496099 -0.28511533651958437 0 -0.31992409361072222 -0.30462145692723192 0 -0.30687808727867438 -0.29770175581860719 0 -0.2984608121496099 -0.28511533651958437 0 -0.31332574866090718 -0.291474364566292 0 -0.31992409361072222 -0.30462145692723192 0 -0.2984608121496099 -0.28511533651958437 0 -0.31332574866090718 -0.291474364566292 0 -0.30937392239009109 -0.28339120160471948 0 -0.2984608121496099 -0.28511533651958437 0 -0.31332574866090718 -0.291474364566292 0 -0.2984608121496099 -0.28511533651958437 0 -0.30937392239009109 -0.28339120160471948 0 -0.2984608121496099 -0.28511533651958437 0 -0.30347897474907187 -0.279643462580969 0 -0.30687808727867438 -0.29770175581860719 0 -0.29951482580247829 -0.29240083595456018 0 -0.29813438661480679 -0.29530641477552327 0 -0.30687808727867438 -0.29770175581860719 0 -0.2984608121496099 -0.28511533651958437 0 -0.29951482580247829 -0.29240083595456018 0 -0.29951482580247829 -0.29240083595456018 0 -0.29813438661480679 -0.29530641477552327 0 -0.29499124589990039 -0.29073588210889412 0 -0.2984608121496099 -0.28511533651958437 0 -0.29951482580247829 -0.29240083595456018 0 -0.29499124589990039 -0.29073588210889412 0 -0.29499124589990039 -0.29073588210889412 0 -0.29148170063899659 -0.29460773718781319 0 -0.28586576089235322 -0.28577101837165192 0 -0.29813438661480679 -0.29530641477552327 0 -0.29499124589990039 -0.29073588210889412 0 -0.29148170063899659 -0.29460773718781319 0 -0.2984608121496099 -0.28511533651958437 0 -0.29499124589990039 -0.29073588210889412 0 -0.28586576089235322 -0.28577101837165192 0 -0.29148170063899659 -0.29460773718781319 0 -0.28586576089235322 -0.28577101837165192 0 -0.2798353156189245 -0.29508903771003908 0 -0.29148170063899659 -0.29460773718781319 0 -0.29478162596868879 -0.30702079099249591 0 -0.2798353156189245 -0.29508903771003908 0 -0.29478162596868879 -0.30702079099249591 0 -0.26963915832665503 -0.30942012505775762 0 -0.2798353156189245 -0.29508903771003908 0 -0.29478162596868879 -0.30702079099249591 0 -0.26963915832665503 -0.30942012505775762 0 -0.29813438661480679 -0.29530641477552327 0 -0.29148170063899659 -0.29460773718781319 0 -0.29478162596868879 -0.30702079099249591 0 -0.27544300416693679 -0.31995488319631832 0 -0.29478162596868879 -0.30702079099249591 0 -0.26963915832665503 -0.30942012505775762 0 -0.26963915832665503 -0.30942012505775762 0 -0.26057201890547982 -0.29344093798311832 0 -0.2798353156189245 -0.29508903771003908 0 -0.26963915832665503 -0.30942012505775762 0 -0.2444966906846206 -0.31181945912301329 0 -0.26963915832665503 -0.30942012505775762 0 -0.26057201890547982 -0.29344093798311832 0 -0.2444966906846206 -0.31181945912301329 0 -0.26057201890547982 -0.29344093798311832 0 -0.27108878797196961 -0.28331686931735522 0 -0.25298377122075039 -0.27518622721876451 0 -0.26057201890547982 -0.29344093798311832 0 -0.25298377122075039 -0.27518622721876451 0 -0.2435111179254994 -0.29490773243705071 0 -0.26057201890547982 -0.29344093798311832 0 -0.27108878797196961 -0.28331686931735522 0 -0.2798353156189245 -0.29508903771003908 0 -0.28586576089235322 -0.28577101837165192 0 -0.27108878797196961 -0.28331686931735522 0 -0.2798353156189245 -0.29508903771003908 0 -0.27108878797196961 -0.28331686931735522 0 -0.27618707322233982 -0.26709712530320262 0 -0.25298377122075039 -0.27518622721876451 0 -0.28586576089235322 -0.28577101837165192 0 -0.27108878797196961 -0.28331686931735522 0 -0.27618707322233982 -0.26709712530320262 0 -0.27618707322233982 -0.26709712530320262 0 -0.25431856302814809 -0.24833495949118861 0 -0.27618707322233982 -0.26709712530320262 0 -0.25298377122075039 -0.27518622721876451 0 -0.25431856302814809 -0.24833495949118861 0 -0.27618707322233982 -0.26709712530320262 0 -0.27309361240676189 -0.24179026653703889 0 -0.25431856302814809 -0.24833495949118861 0 -0.27618707322233982 -0.26709712530320262 0 -0.2907170577323625 -0.25177677077710309 0 -0.27309361240676189 -0.24179026653703889 0 -0.27618707322233982 -0.26709712530320262 0 -0.2907170577323625 -0.25177677077710309 0 -0.29477899871119112 -0.26293378760569941 0 -0.2984608121496099 -0.28511533651958437 0 -0.28586576089235322 -0.28577101837165192 0 -0.27618707322233982 -0.26709712530320262 0 -0.2984608121496099 -0.28511533651958437 0 -0.27618707322233982 -0.26709712530320262 0 -0.27618707322233982 -0.26709712530320262 0 -0.29477899871119112 -0.26293378760569941 0 -0.29948479845841441 -0.27338487519771032 0 -0.2984608121496099 -0.28511533651958437 0 -0.27618707322233982 -0.26709712530320262 0 -0.29948479845841441 -0.27338487519771032 0 -0.29477899871119112 -0.26293378760569941 0 -0.29948479845841441 -0.27338487519771032 0 -0.30156079933714469 -0.26765617134954151 0 -0.30156079933714469 -0.26765617134954151 0 -0.30403476516136241 -0.27459464834518948 0 -0.30588444940973558 -0.27063474712059482 0 -0.29948479845841441 -0.27338487519771032 0 -0.30156079933714469 -0.26765617134954151 0 -0.30403476516136241 -0.27459464834518948 0 -0.30156079933714469 -0.26765617134954151 0 -0.30588444940973558 -0.27063474712059482 0 -0.3062135479255173 -0.26372173898871692 0 -0.2984608121496099 -0.28511533651958437 0 -0.29948479845841441 -0.27338487519771032 0 -0.30347897474907187 -0.279643462580969 0 -0.29948479845841441 -0.27338487519771032 0 -0.30403476516136241 -0.27459464834518948 0 -0.30347897474907187 -0.279643462580969 0 -0.30937392239009109 -0.28339120160471948 0 -0.30347897474907187 -0.279643462580969 0 -0.31187737399160442 -0.27618124236115132 0 -0.30403476516136241 -0.27459464834518948 0 -0.30347897474907187 -0.279643462580969 0 -0.31187737399160442 -0.27618124236115132 0 -0.30403476516136241 -0.27459464834518948 0 -0.31187737399160442 -0.27618124236115132 0 -0.30588444940973558 -0.27063474712059482 0 -0.31187737399160442 -0.27618124236115132 0 -0.30588444940973558 -0.27063474712059482 0 -0.3062135479255173 -0.26372173898871692 0 -0.31664960680882542 -0.25714232151458272 0 -0.31202674084989918 -0.26335133138269068 0 -0.30853150187083839 -0.25429835417001312 0 -0.2907170577323625 -0.25177677077710309 0 -0.29477899871119112 -0.26293378760569941 0 -0.30853150187083839 -0.25429835417001312 0 -0.31202674084989918 -0.26335133138269068 0 -0.3062135479255173 -0.26372173898871692 0 -0.30853150187083839 -0.25429835417001312 0 -0.29477899871119112 -0.26293378760569941 0 -0.30156079933714469 -0.26765617134954151 0 -0.3062135479255173 -0.26372173898871692 0 -0.29477899871119112 -0.26293378760569941 0 -0.3062135479255173 -0.26372173898871692 0 -0.30853150187083839 -0.25429835417001312 0 -0.33709504481289931 -0.46474263175187808 0 -0.33075086723682939 -0.45093918684289991 0 -0.35302422329502631 -0.44785824460859458 0 -0.33709504481289931 -0.46474263175187808 0 -0.33075086723682939 -0.45093918684289991 0 -0.32054712240525829 -0.47546959342145068 0 -0.33075086723682939 -0.45093918684289991 0 -0.34095461206840061 -0.42640878026434909 0 -0.33075086723682939 -0.45093918684289991 0 -0.35302422329502631 -0.44785824460859458 0 -0.34095461206840061 -0.42640878026434909 0 -0.33075086723682939 -0.45093918684289991 0 -0.32054706720266329 -0.44859283512714471 0 -0.3206124180200437 -0.43193612962395289 0 -0.33075086723682939 -0.45093918684289991 0 -0.32054706720266329 -0.44859283512714471 0 -0.31571728338184601 -0.45752087103574601 0 -0.32054706720266329 -0.44859283512714471 0 -0.31571728338184601 -0.45752087103574601 0 -0.30706080135445341 -0.45057148265483188 0 -0.33075086723682939 -0.45093918684289991 0 -0.32054712240525829 -0.47546959342145068 0 -0.33075086723682939 -0.45093918684289991 0 -0.31571728338184601 -0.45752087103574601 0 -0.32054712240525829 -0.47546959342145068 0 -0.32054712240525829 -0.47546959342145068 0 -0.32750579650535672 -0.48798687004089669 0 -0.32933965142182292 -0.47777380670114528 0 -0.32054712240525829 -0.47546959342145068 0 -0.31034337757368669 -0.50000000000000133 0 -0.32750579650535672 -0.48798687004089669 0 -0.33387795429423722 -0.5 0 -0.31034337757368669 -0.50000000000000133 0 -0.32054712240525829 -0.47546959342145068 0 -0.32750579650535672 -0.48798687004089669 0 -0.31034337757368669 -0.50000000000000133 0 -0.32750579650535672 -0.48798687004089669 0 -0.34342087683177741 -0.48669095008188618 0 -0.33387795429423722 -0.5 0 -0.33709504481289931 -0.46474263175187808 0 -0.32933965142182292 -0.47777380670114528 0 -0.35181335970555933 -0.47167232718529989 0 -0.34342087683177741 -0.48669095008188618 0 -0.32933965142182292 -0.47777380670114528 0 -0.35181335970555933 -0.47167232718529989 0 -0.32750579650535672 -0.48798687004089669 0 -0.34342087683177741 -0.48669095008188618 0 -0.32933965142182292 -0.47777380670114528 0 -0.33709504481289931 -0.46474263175187808 0 -0.32054712240525829 -0.47546959342145068 0 -0.32933965142182292 -0.47777380670114528 0 -0.32933965142182292 -0.47777380670114528 0 -0.35181335970555933 -0.47167232718529989 0 -0.34342087683177741 -0.48669095008188618 0 -0.35181335970555933 -0.47167232718529989 0 -0.35979455825166368 -0.48519290092039941 0 -0.34342087683177741 -0.48669095008188618 0 -0.35741253101478748 -0.5 0 -0.35979455825166368 -0.48519290092039941 0 -0.34342087683177741 -0.48669095008188618 0 -0.33387795429423722 -0.5 0 -0.35741253101478748 -0.5 0 -0.38094710773533791 -0.49999999999999839 0 -0.35741253101478748 -0.5 0 -0.37240076261097882 -0.48974555046165519 0 -0.35741253101478748 -0.5 0 -0.35979455825166368 -0.48519290092039941 0 -0.37240076261097882 -0.48974555046165519 0 -0.35181335970555933 -0.47167232718529989 0 -0.35979455825166368 -0.48519290092039941 0 -0.37411677223754131 -0.47733161267270968 0 -0.35181335970555933 -0.47167232718529989 0 -0.37411677223754131 -0.47733161267270968 0 -0.37428706798929601 -0.46557084766945539 0 -0.35979455825166368 -0.48519290092039941 0 -0.37240076261097882 -0.48974555046165519 0 -0.37411677223754131 -0.47733161267270968 0 -0.37411677223754131 -0.47733161267270968 0 -0.37428706798929601 -0.46557084766945539 0 -0.35181335970555933 -0.47167232718529989 0 -0.37428706798929601 -0.46557084766945539 0 -0.35302422329502631 -0.44785824460859458 0 -0.35181335970555933 -0.47167232718529989 0 -0.37428706798929601 -0.46557084766945539 0 -0.33709504481289931 -0.46474263175187808 0 -0.35181335970555933 -0.47167232718529989 0 -0.35302422329502631 -0.44785824460859458 0 -0.37428706798929601 -0.46557084766945539 0 -0.35302422329502631 -0.44785824460859458 0 -0.37472313619600889 -0.43545561783144832 0 -0.37428706798929601 -0.46557084766945539 0 -0.37472313619600889 -0.43545561783144832 0 -0.35302422329502631 -0.44785824460859458 0 -0.37472313619600889 -0.43545561783144832 0 -0.36076670325611282 -0.42019275678090617 0 -0.37515920440272033 -0.40534038799344108 0 -0.37472313619600889 -0.43545561783144832 0 -0.36076670325611282 -0.42019275678090617 0 -0.37515920440272033 -0.40534038799344108 0 -0.36076670325611282 -0.42019275678090617 0 -0.35115835689997099 -0.40187837368579798 0 -0.37515920440272033 -0.40534038799344108 0 -0.37472313619600889 -0.43545561783144832 0 -0.36076670325611282 -0.42019275678090617 0 -0.35115835689997099 -0.40187837368579798 0 -0.34095461206840061 -0.42640878026434909 0 -0.34815033243380111 -0.40144447968524521 0 -0.35115835689997099 -0.40187837368579798 0 -0.34095461206840061 -0.42640878026434909 0 -0.35115835689997099 -0.40187837368579798 0 -0.34095461206840061 -0.42640878026434909 0 -0.35302422329502631 -0.44785824460859458 0 -0.36076670325611282 -0.42019275678090617 0 -0.34095461206840061 -0.42640878026434909 0 -0.37543310808941849 -0.38642437359143528 0 -0.36100598543278789 -0.37820409176948921 0 -0.35115835689997099 -0.40187837368579798 0 -0.37543310808941849 -0.38642437359143528 0 -0.37568304780698558 -0.36916333065311507 0 -0.36100598543278789 -0.37820409176948921 0 -0.37543310808941849 -0.38642437359143528 0 -0.36100598543278789 -0.37820409176948921 0 -0.37515920440272033 -0.40534038799344108 0 -0.37543310808941849 -0.38642437359143528 0 -0.35115835689997099 -0.40187837368579798 0 -0.37515920440272033 -0.40534038799344108 0 -0.35115835689997099 -0.40187837368579798 0 -0.35115835689997099 -0.40187837368579798 0 -0.34646966066369161 -0.38533898881774881 0 -0.34316085436749 -0.39382471367395527 0 -0.34815033243380111 -0.40144447968524521 0 -0.35115835689997099 -0.40187837368579798 0 -0.34316085436749 -0.39382471367395527 0 -0.34815033243380111 -0.40144447968524521 0 -0.35115835689997099 -0.40187837368579798 0 -0.33937201587241012 -0.36587749477948078 0 -0.36100598543278789 -0.37820409176948921 0 -0.34646966066369161 -0.38533898881774881 0 -0.36100598543278789 -0.37820409176948921 0 -0.35115835689997099 -0.40187837368579798 0 -0.36100598543278789 -0.37820409176948921 0 -0.35115835689997099 -0.40187837368579798 0 -0.34646966066369161 -0.38533898881774881 0 -0.33937201587241012 -0.36587749477948078 0 -0.32803705280137402 -0.37447550275240871 0 -0.34646966066369161 -0.38533898881774881 0 -0.32803705280137402 -0.37447550275240871 0 -0.34646966066369161 -0.38533898881774881 0 -0.32931529664348408 -0.38869437358142001 0 -0.34646966066369161 -0.38533898881774881 0 -0.32931529664348408 -0.38869437358142001 0 -0.34316085436749 -0.39382471367395527 0 -0.34815033243380111 -0.40144447968524521 0 -0.33486919938690762 -0.39884665705885908 0 -0.32944617452305069 -0.41182817437998842 0 -0.32931529664348408 -0.38869437358142001 0 -0.34316085436749 -0.39382471367395527 0 -0.33486919938690762 -0.39884665705885908 0 -0.32931529664348408 -0.38869437358142001 0 -0.33486919938690762 -0.39884665705885908 0 -0.32365381597648563 -0.39942827076698811 0 -0.34815033243380111 -0.40144447968524521 0 -0.34316085436749 -0.39382471367395527 0 -0.33486919938690762 -0.39884665705885908 0 -0.33486919938690762 -0.39884665705885908 0 -0.32365381597648563 -0.39942827076698811 0 -0.32944617452305069 -0.41182817437998842 0 -0.32931529664348408 -0.38869437358142001 0 -0.32365381597648563 -0.39942827076698811 0 -0.30988209993594379 -0.39542680479545339 0 -0.32365381597648563 -0.39942827076698811 0 -0.30595412674790001 -0.41636475829844438 0 -0.30988209993594379 -0.39542680479545339 0 -0.31381007312398762 -0.37448885129246268 0 -0.32931529664348408 -0.38869437358142001 0 -0.30988209993594379 -0.39542680479545339 0 -0.31381007312398762 -0.37448885129246268 0 -0.32803705280137402 -0.37447550275240871 0 -0.32931529664348408 -0.38869437358142001 0 -0.34095461206840061 -0.42640878026434909 0 -0.32944617452305069 -0.41182817437998842 0 -0.3206124180200437 -0.43193612962395289 0 -0.33075086723682939 -0.45093918684289991 0 -0.34095461206840061 -0.42640878026434909 0 -0.3206124180200437 -0.43193612962395289 0 -0.34815033243380111 -0.40144447968524521 0 -0.34095461206840061 -0.42640878026434909 0 -0.32944617452305069 -0.41182817437998842 0 -0.32944617452305069 -0.41182817437998842 0 -0.3206124180200437 -0.43193612962395289 0 -0.30595412674790001 -0.41636475829844438 0 -0.32365381597648563 -0.39942827076698811 0 -0.32944617452305069 -0.41182817437998842 0 -0.30595412674790001 -0.41636475829844438 0 -0.3206124180200437 -0.43193612962395289 0 -0.30595412674790001 -0.41636475829844438 0 -0.29602166034141808 -0.43748304283089118 0 -0.30595412674790001 -0.41636475829844438 0 -0.28680587137917263 -0.41476105187328532 0 -0.29502227998321778 -0.40112933436643161 0 -0.30595412674790001 -0.41636475829844438 0 -0.28680587137917263 -0.41476105187328532 0 -0.29602166034141808 -0.43748304283089118 0 -0.28680587137917263 -0.41476105187328532 0 -0.29602166034141808 -0.43748304283089118 0 -0.27149625348017281 -0.42637325053463759 0 -0.29602166034141808 -0.43748304283089118 0 -0.27149625348017281 -0.42637325053463759 0 -0.29602166034141808 -0.43748304283089118 0 -0.27149625348017281 -0.42637325053463759 0 -0.27906578537949278 -0.44687665772048962 0 -0.31381007312398762 -0.37448885129246268 0 -0.30988209993594379 -0.39542680479545339 0 -0.31381007312398762 -0.37448885129246268 0 -0.30988209993594379 -0.39542680479545339 0 -0.29196992941862432 -0.3825632544476108 0 -0.30595412674790001 -0.41636475829844438 0 -0.30988209993594379 -0.39542680479545339 0 -0.30595412674790001 -0.41636475829844438 0 -0.30988209993594379 -0.39542680479545339 0 -0.29502227998321778 -0.40112933436643161 0 -0.30988209993594379 -0.39542680479545339 0 -0.29502227998321778 -0.40112933436643161 0 -0.29196992941862432 -0.3825632544476108 0 -0.28680587137917263 -0.41476105187328532 0 -0.29502227998321778 -0.40112933436643161 0 -0.2806661672136338 -0.39648987600255969 0 -0.29502227998321778 -0.40112933436643161 0 -0.29196992941862432 -0.3825632544476108 0 -0.2806661672136338 -0.39648987600255969 0 -0.27675503022224163 -0.36681377825091099 0 -0.29196992941862432 -0.3825632544476108 0 -0.26924588117792803 -0.38334910629271668 0 -0.29196992941862432 -0.3825632544476108 0 -0.26924588117792803 -0.38334910629271668 0 -0.2806661672136338 -0.39648987600255969 0 -0.27675503022224163 -0.36681377825091099 0 -0.26924588117792803 -0.38334910629271668 0 -0.25812358553267323 -0.37605355791306738 0 -0.28680587137917263 -0.41476105187328532 0 -0.2806661672136338 -0.39648987600255969 0 -0.26326431180229581 -0.40282557300305732 0 -0.26924588117792803 -0.38334910629271668 0 -0.2806661672136338 -0.39648987600255969 0 -0.26326431180229581 -0.40282557300305732 0 -0.26326431180229581 -0.40282557300305732 0 -0.2504897110532438 -0.38524934403489181 0 -0.24394706363899241 -0.39877073912243299 0 -0.26326431180229581 -0.40282557300305732 0 -0.24697084661892749 -0.41526345823838401 0 -0.24394706363899241 -0.39877073912243299 0 -0.26924588117792803 -0.38334910629271668 0 -0.26326431180229581 -0.40282557300305732 0 -0.2504897110532438 -0.38524934403489181 0 -0.26924588117792803 -0.38334910629271668 0 -0.2504897110532438 -0.38524934403489181 0 -0.25812358553267323 -0.37605355791306738 0 -0.2504897110532438 -0.38524934403489181 0 -0.25812358553267323 -0.37605355791306738 0 -0.24839247009954951 -0.37292447016044328 0 -0.28680587137917263 -0.41476105187328532 0 -0.26326431180229581 -0.40282557300305732 0 -0.27149625348017281 -0.42637325053463759 0 -0.27149625348017281 -0.42637325053463759 0 -0.24697084661892749 -0.41526345823838401 0 -0.26326431180229581 -0.40282557300305732 0 -0.27149625348017281 -0.42637325053463759 0 -0.24697084661892749 -0.41526345823838401 0 -0.27149625348017281 -0.42637325053463759 0 -0.25687425522332558 -0.44642006451091643 0 -0.24697084661892749 -0.41526345823838401 0 -0.25687425522332558 -0.44642006451091643 0 -0.27607931301277078 -0.46657199895299017 0 -0.25409384940020791 -0.47271975939701871 0 -0.25687425522332558 -0.44642006451091643 0 -0.27607931301277078 -0.46657199895299017 0 -0.27906578537949278 -0.44687665772048962 0 -0.27149625348017281 -0.42637325053463759 0 -0.25687425522332558 -0.44642006451091643 0 -0.27906578537949278 -0.44687665772048962 0 -0.29602166034141808 -0.43748304283089118 0 -0.27906578537949278 -0.44687665772048962 0 -0.29968055871002541 -0.46203125713240301 0 -0.27607931301277078 -0.46657199895299017 0 -0.27906578537949278 -0.44687665772048962 0 -0.29968055871002541 -0.46203125713240301 0 -0.31571728338184601 -0.45752087103574601 0 -0.29968055871002541 -0.46203125713240301 0 -0.30706080135445341 -0.45057148265483188 0 -0.31571728338184601 -0.45752087103574601 0 -0.32054712240525829 -0.47546959342145068 0 -0.29968055871002541 -0.46203125713240301 0 -0.32054706720266329 -0.44859283512714471 0 -0.29602166034141808 -0.43748304283089118 0 -0.32054706720266329 -0.44859283512714471 0 -0.3206124180200437 -0.43193612962395289 0 -0.29602166034141808 -0.43748304283089118 0 -0.32054706720266329 -0.44859283512714471 0 -0.29602166034141808 -0.43748304283089118 0 -0.30706080135445341 -0.45057148265483188 0 -0.29602166034141808 -0.43748304283089118 0 -0.29968055871002541 -0.46203125713240301 0 -0.30706080135445341 -0.45057148265483188 0 -0.32054712240525829 -0.47546959342145068 0 -0.31034337757368669 -0.50000000000000133 0 -0.2941570887960146 -0.48201569375099518 0 -0.32054712240525829 -0.47546959342145068 0 -0.29968055871002541 -0.46203125713240301 0 -0.2941570887960146 -0.48201569375099518 0 -0.27607931301277078 -0.46657199895299017 0 -0.29968055871002541 -0.46203125713240301 0 -0.2941570887960146 -0.48201569375099518 0 -0.2941570887960146 -0.48201569375099518 0 -0.28248249767631262 -0.5 0 -0.27039562620846602 -0.48462576079096858 0 -0.31034337757368669 -0.50000000000000133 0 -0.2941570887960146 -0.48201569375099518 0 -0.28248249767631262 -0.5 0 -0.28248249767631262 -0.5 0 -0.27039562620846602 -0.48462576079096858 0 -0.25462161777893849 -0.5 0 -0.27607931301277078 -0.46657199895299017 0 -0.2941570887960146 -0.48201569375099518 0 -0.27039562620846602 -0.48462576079096858 0 -0.27607931301277078 -0.46657199895299017 0 -0.27039562620846602 -0.48462576079096858 0 -0.25409384940020791 -0.47271975939701871 0 -0.27039562620846602 -0.48462576079096858 0 -0.25409384940020791 -0.47271975939701871 0 -0.25462161777893849 -0.5 0 -0.25462161777893849 -0.5 0 -0.23155232774708009 -0.47932355884050398 0 -0.22676073788156451 -0.5 0 -0.25409384940020791 -0.47271975939701871 0 -0.25462161777893849 -0.5 0 -0.23155232774708009 -0.47932355884050398 0 -0.25409384940020791 -0.47271975939701871 0 -0.23155232774708009 -0.47932355884050398 0 -0.2350399564306665 -0.45937717328673289 0 -0.23155232774708009 -0.47932355884050398 0 -0.2350399564306665 -0.45937717328673289 0 -0.2080224731694312 -0.47403962225972662 0 -0.23155232774708009 -0.47932355884050398 0 -0.22676073788156451 -0.5 0 -0.2080224731694312 -0.47403962225972662 0 -0.25687425522332558 -0.44642006451091643 0 -0.2350399564306665 -0.45937717328673289 0 -0.23180750449586429 -0.4343742486430574 0 -0.25687425522332558 -0.44642006451091643 0 -0.25409384940020791 -0.47271975939701871 0 -0.2350399564306665 -0.45937717328673289 0 -0.2350399564306665 -0.45937717328673289 0 -0.21590660946663959 -0.44883644739355771 0 -0.2080224731694312 -0.47403962225972662 0 -0.2350399564306665 -0.45937717328673289 0 -0.21590660946663959 -0.44883644739355771 0 -0.23180750449586429 -0.4343742486430574 0 -0.21590660946663959 -0.44883644739355771 0 -0.1943898331460783 -0.4473597119794826 0 -0.20910912931781811 -0.42543372189632289 0 -0.21590660946663959 -0.44883644739355771 0 -0.1943898331460783 -0.4473597119794826 0 -0.2080224731694312 -0.47403962225972662 0 -0.1943898331460783 -0.4473597119794826 0 -0.2080224731694312 -0.47403962225972662 0 -0.17967053697433849 -0.46928570206264231 0 -0.22676073788156451 -0.5 0 -0.2080224731694312 -0.47403962225972662 0 -0.19889985798419041 -0.5 0 -0.2080224731694312 -0.47403962225972662 0 -0.1821948971586228 -0.48648437486529872 0 -0.17967053697433849 -0.46928570206264231 0 -0.2080224731694312 -0.47403962225972662 0 -0.19889985798419041 -0.5 0 -0.1821948971586228 -0.48648437486529872 0 -0.19889985798419041 -0.5 0 -0.1821948971586228 -0.48648437486529872 0 -0.17103897808681609 -0.49999999999999778 0 -0.1821948971586228 -0.48648437486529872 0 -0.17103897808681609 -0.49999999999999778 0 -0.16495124080259491 -0.49121169214579941 0 -0.17103897808681609 -0.49999999999999778 0 -0.16495124080259491 -0.49121169214579941 0 -0.17103897808681609 -0.49999999999999778 0 -0.16495124080259491 -0.49121169214579941 0 -0.15905149781887321 -0.49999999999999961 0 -0.16495124080259491 -0.49121169214579941 0 -0.15905149781887321 -0.49999999999999961 0 -0.1545750311736096 -0.49062041690426861 0 -0.16495124080259491 -0.49121169214579941 0 -0.15905149781887321 -0.49999999999999961 0 -0.16495124080259491 -0.49121169214579941 0 -0.16530166315622061 -0.47155300009798301 0 -0.17967053697433849 -0.46928570206264231 0 -0.16495124080259491 -0.49121169214579941 0 -0.16530166315622061 -0.47155300009798301 0 -0.15083103946930049 -0.47082765280793248 0 -0.16495124080259491 -0.49121169214579941 0 -0.1545750311736096 -0.49062041690426861 0 -0.15083103946930049 -0.47082765280793248 0 -0.16495124080259491 -0.49121169214579941 0 -0.15083103946930049 -0.47082765280793248 0 -0.16495124080259491 -0.49121169214579941 0 -0.17967053697433849 -0.46928570206264231 0 -0.1821948971586228 -0.48648437486529872 0 -0.16495124080259491 -0.49121169214579941 0 -0.17967053697433849 -0.46928570206264231 0 -0.1943898331460783 -0.4473597119794826 0 -0.17967053697433849 -0.46928570206264231 0 -0.1943898331460783 -0.4473597119794826 0 -0.17967053697433849 -0.46928570206264231 0 -0.1657538353786501 -0.45488695337555668 0 -0.1943898331460783 -0.4473597119794826 0 -0.1657538353786501 -0.45488695337555668 0 -0.1755027511393909 -0.43471579892562301 0 -0.1657538353786501 -0.45488695337555668 0 -0.15761868306950341 -0.43586407366366631 0 -0.1755027511393909 -0.43471579892562301 0 -0.16530166315622061 -0.47155300009798301 0 -0.1657538353786501 -0.45488695337555668 0 -0.15083103946930049 -0.47082765280793248 0 -0.16530166315622061 -0.47155300009798301 0 -0.17967053697433849 -0.46928570206264231 0 -0.1657538353786501 -0.45488695337555668 0 -0.13671083813600751 -0.45044361347006462 0 -0.15083103946930049 -0.47082765280793248 0 -0.13671083813600751 -0.45044361347006462 0 -0.13441782301728619 -0.47175980973682791 0 -0.15083103946930049 -0.47082765280793248 0 -0.1657538353786501 -0.45488695337555668 0 -0.13671083813600751 -0.45044361347006462 0 -0.15083103946930049 -0.47082765280793248 0 -0.13671083813600751 -0.45044361347006462 0 -0.13816776916695811 -0.432543871779144 0 -0.15761868306950341 -0.43586407366366631 0 -0.1657538353786501 -0.45488695337555668 0 -0.13671083813600751 -0.45044361347006462 0 -0.15761868306950341 -0.43586407366366631 0 -0.13671083813600751 -0.45044361347006462 0 -0.13816776916695811 -0.432543871779144 0 -0.1225906368027144 -0.43005957413219659 0 -0.13671083813600751 -0.45044361347006462 0 -0.1225906368027144 -0.43005957413219659 0 -0.13671083813600751 -0.45044361347006462 0 -0.13441782301728619 -0.47175980973682791 0 -0.1201929706126502 -0.46127799294672761 0 -0.13441782301728619 -0.47175980973682791 0 -0.12605423818426559 -0.48707922202292669 0 -0.14429533434837091 -0.48908967660720287 0 -0.13441782301728619 -0.47175980973682791 0 -0.12605423818426559 -0.48707922202292669 0 -0.1201929706126502 -0.46127799294672761 0 -0.1295391708778694 -0.5 0 -0.12605423818426559 -0.48707922202292669 0 -0.14429533434837091 -0.48908967660720287 0 -0.15905149781887321 -0.49999999999999961 0 -0.1295391708778694 -0.5 0 -0.14429533434837091 -0.48908967660720287 0 -0.15905149781887321 -0.49999999999999961 0 -0.14429533434837091 -0.48908967660720287 0 -0.1545750311736096 -0.49062041690426861 0 -0.14429533434837091 -0.48908967660720287 0 -0.1545750311736096 -0.49062041690426861 0 -0.15083103946930049 -0.47082765280793248 0 -0.13441782301728619 -0.47175980973682791 0 -0.14429533434837091 -0.48908967660720287 0 -0.15083103946930049 -0.47082765280793248 0 -0.15345949684661231 -0.4053237642064671 0 -0.15136585988972451 -0.39002590355483568 0 -0.13982663417143551 -0.39933000433158738 0 -0.15136585988972451 -0.39002590355483568 0 -0.1368738238800834 -0.3880397179408614 0 -0.13982663417143551 -0.39933000433158738 0 -0.15345949684661231 -0.4053237642064671 0 -0.13982663417143551 -0.39933000433158738 0 -0.1398029654186671 -0.41064466143528439 0 -0.15136585988972451 -0.39002590355483568 0 -0.1368738238800834 -0.3880397179408614 0 -0.13959568407155781 -0.37291875636350952 0 -0.15136585988972451 -0.39002590355483568 0 -0.15951650330528561 -0.37856285477961621 0 -0.13959568407155781 -0.37291875636350952 0 -0.1368738238800834 -0.3880397179408614 0 -0.12625141541498519 -0.38197991289387551 0 -0.13959568407155781 -0.37291875636350952 0 -0.1368738238800834 -0.3880397179408614 0 -0.12625141541498519 -0.38197991289387551 0 -0.1273295258527142 -0.39594401256049883 0 -0.1368738238800834 -0.3880397179408614 0 -0.1273295258527142 -0.39594401256049883 0 -0.13982663417143551 -0.39933000433158738 0 -0.13982663417143551 -0.39933000433158738 0 -0.1295768038857959 -0.40463739140698729 0 -0.1398029654186671 -0.41064466143528439 0 -0.1273295258527142 -0.39594401256049883 0 -0.13982663417143551 -0.39933000433158738 0 -0.1295768038857959 -0.40463739140698729 0 -0.1273295258527142 -0.39594401256049883 0 -0.1295768038857959 -0.40463739140698729 0 -0.1219584454402414 -0.40406961642135292 0 -0.1295768038857959 -0.40463739140698729 0 -0.1296119374269841 -0.41417592727859581 0 -0.1225700411049412 -0.40994677461386392 0 -0.1296119374269841 -0.41417592727859581 0 -0.12315425937001 -0.41747458531602638 0 -0.1225700411049412 -0.40994677461386392 0 -0.1296119374269841 -0.41417592727859581 0 -0.13713184062407599 -0.42036644340313623 0 -0.12908399078123631 -0.42243277819987513 0 -0.1296119374269841 -0.41417592727859581 0 -0.12908399078123631 -0.42243277819987513 0 -0.12315425937001 -0.41747458531602638 0 -0.1296119374269841 -0.41417592727859581 0 -0.13713184062407599 -0.42036644340313623 0 -0.1398029654186671 -0.41064466143528439 0 -0.1295768038857959 -0.40463739140698729 0 -0.1296119374269841 -0.41417592727859581 0 -0.1398029654186671 -0.41064466143528439 0 -0.12908399078123631 -0.42243277819987513 0 -0.13816776916695811 -0.432543871779144 0 -0.1225906368027144 -0.43005957413219659 0 -0.13713184062407599 -0.42036644340313623 0 -0.12908399078123631 -0.42243277819987513 0 -0.13816776916695811 -0.432543871779144 0 -0.13816776916695811 -0.432543871779144 0 -0.14921107955709881 -0.42003443798493328 0 -0.15761868306950341 -0.43586407366366631 0 -0.13713184062407599 -0.42036644340313623 0 -0.13816776916695811 -0.432543871779144 0 -0.14921107955709881 -0.42003443798493328 0 -0.15345949684661231 -0.4053237642064671 0 -0.1398029654186671 -0.41064466143528439 0 -0.14921107955709881 -0.42003443798493328 0 -0.13713184062407599 -0.42036644340313623 0 -0.1398029654186671 -0.41064466143528439 0 -0.14921107955709881 -0.42003443798493328 0 -0.15345949684661231 -0.4053237642064671 0 -0.14921107955709881 -0.42003443798493328 0 -0.17009787391258249 -0.41611158199907422 0 -0.14921107955709881 -0.42003443798493328 0 -0.17009787391258249 -0.41611158199907422 0 -0.15761868306950341 -0.43586407366366631 0 -0.17009787391258249 -0.41611158199907422 0 -0.15761868306950341 -0.43586407366366631 0 -0.1755027511393909 -0.43471579892562301 0 -0.1943898331460783 -0.4473597119794826 0 -0.1755027511393909 -0.43471579892562301 0 -0.18951413900105801 -0.42212105940109063 0 -0.17009787391258249 -0.41611158199907422 0 -0.1755027511393909 -0.43471579892562301 0 -0.18951413900105801 -0.42212105940109063 0 -0.17009787391258249 -0.41611158199907422 0 -0.18562609472684241 -0.40161550393767448 0 -0.18951413900105801 -0.42212105940109063 0 -0.18562609472684241 -0.40161550393767448 0 -0.16863204450281991 -0.39380366607865908 0 -0.18254917963999329 -0.38971973427100182 0 -0.17009787391258249 -0.41611158199907422 0 -0.18562609472684241 -0.40161550393767448 0 -0.16863204450281991 -0.39380366607865908 0 -0.18562609472684241 -0.40161550393767448 0 -0.18254917963999329 -0.38971973427100182 0 -0.19364364155811911 -0.391297223908462 0 -0.15345949684661231 -0.4053237642064671 0 -0.17009787391258249 -0.41611158199907422 0 -0.16863204450281991 -0.39380366607865908 0 -0.15345949684661231 -0.4053237642064671 0 -0.15136585988972451 -0.39002590355483568 0 -0.16863204450281991 -0.39380366607865908 0 -0.15951650330528561 -0.37856285477961621 0 -0.17625218554490921 -0.38180729220612769 0 -0.1663610822414904 -0.3702523776444529 0 -0.16863204450281991 -0.39380366607865908 0 -0.15951650330528561 -0.37856285477961621 0 -0.17625218554490921 -0.38180729220612769 0 -0.15136585988972451 -0.39002590355483568 0 -0.16863204450281991 -0.39380366607865908 0 -0.15951650330528561 -0.37856285477961621 0 -0.17625218554490921 -0.38180729220612769 0 -0.1663610822414904 -0.3702523776444529 0 -0.18579747934449059 -0.37379744869579251 0 -0.16863204450281991 -0.39380366607865908 0 -0.17625218554490921 -0.38180729220612769 0 -0.18254917963999329 -0.38971973427100182 0 -0.17625218554490921 -0.38180729220612769 0 -0.18254917963999329 -0.38971973427100182 0 -0.18859193186727599 -0.38007498522408562 0 -0.17625218554490921 -0.38180729220612769 0 -0.18859193186727599 -0.38007498522408562 0 -0.18579747934449059 -0.37379744869579251 0 -0.18859193186727599 -0.38007498522408562 0 -0.2014200033848125 -0.37119512976538899 0 -0.18859193186727599 -0.38007498522408562 0 -0.2014200033848125 -0.37119512976538899 0 -0.18579747934449059 -0.37379744869579251 0 -0.18859193186727599 -0.38007498522408562 0 -0.1989719328316337 -0.38216032023399737 0 -0.2014200033848125 -0.37119512976538899 0 -0.1989719328316337 -0.38216032023399737 0 -0.20694960464083431 -0.38128159833907621 0 -0.2014200033848125 -0.37119512976538899 0 -0.1989719328316337 -0.38216032023399737 0 -0.19364364155811911 -0.391297223908462 0 -0.20620014074293039 -0.39180645285032889 0 -0.18859193186727599 -0.38007498522408562 0 -0.1989719328316337 -0.38216032023399737 0 -0.19364364155811911 -0.391297223908462 0 -0.18254917963999329 -0.38971973427100182 0 -0.18859193186727599 -0.38007498522408562 0 -0.19364364155811911 -0.391297223908462 0 -0.18562609472684241 -0.40161550393767448 0 -0.19364364155811911 -0.391297223908462 0 -0.20208872018367391 -0.4070926974887904 0 -0.19364364155811911 -0.391297223908462 0 -0.20620014074293039 -0.39180645285032889 0 -0.20208872018367391 -0.4070926974887904 0 -0.20620014074293039 -0.39180645285032889 0 -0.21479853281951461 -0.38638530273916921 0 -0.22382842548955789 -0.4035077318131633 0 -0.20620014074293039 -0.39180645285032889 0 -0.20208872018367391 -0.4070926974887904 0 -0.22382842548955789 -0.4035077318131633 0 -0.21479853281951461 -0.38638530273916921 0 -0.20694960464083431 -0.38128159833907621 0 -0.21335741342528061 -0.3748607861064962 0 -0.21479853281951461 -0.38638530273916921 0 -0.22412886374227589 -0.38235217247817599 0 -0.21335741342528061 -0.3748607861064962 0 -0.20694960464083431 -0.38128159833907621 0 -0.2014200033848125 -0.37119512976538899 0 -0.21335741342528061 -0.3748607861064962 0 -0.20620014074293039 -0.39180645285032889 0 -0.21479853281951461 -0.38638530273916921 0 -0.20694960464083431 -0.38128159833907621 0 -0.1989719328316337 -0.38216032023399737 0 -0.20620014074293039 -0.39180645285032889 0 -0.20694960464083431 -0.38128159833907621 0 -0.1943898331460783 -0.4473597119794826 0 -0.20910912931781811 -0.42543372189632289 0 -0.1943898331460783 -0.4473597119794826 0 -0.18951413900105801 -0.42212105940109063 0 -0.20910912931781811 -0.42543372189632289 0 -0.18951413900105801 -0.42212105940109063 0 -0.20208872018367391 -0.4070926974887904 0 -0.20910912931781811 -0.42543372189632289 0 -0.18562609472684241 -0.40161550393767448 0 -0.18951413900105801 -0.42212105940109063 0 -0.20208872018367391 -0.4070926974887904 0 -0.20208872018367391 -0.4070926974887904 0 -0.20910912931781811 -0.42543372189632289 0 -0.22382842548955789 -0.4035077318131633 0 -0.20910912931781811 -0.42543372189632289 0 -0.22382842548955789 -0.4035077318131633 0 -0.21590660946663959 -0.44883644739355771 0 -0.20910912931781811 -0.42543372189632289 0 -0.23180750449586429 -0.4343742486430574 0 -0.20910912931781811 -0.42543372189632289 0 -0.23180750449586429 -0.4343742486430574 0 -0.22382842548955789 -0.4035077318131633 0 -0.23180750449586429 -0.4343742486430574 0 -0.24697084661892749 -0.41526345823838401 0 -0.22382842548955789 -0.4035077318131633 0 -0.25687425522332558 -0.44642006451091643 0 -0.23180750449586429 -0.4343742486430574 0 -0.24697084661892749 -0.41526345823838401 0 -0.22412886374227589 -0.38235217247817599 0 -0.2351820232309369 -0.38700758852266848 0 -0.22952037500089251 -0.37311519752493849 0 -0.22412886374227589 -0.38235217247817599 0 -0.22186900287429051 -0.37074082218821958 0 -0.21335741342528061 -0.3748607861064962 0 -0.22412886374227589 -0.38235217247817599 0 -0.22952037500089251 -0.37311519752493849 0 -0.22186900287429051 -0.37074082218821958 0 -0.22382842548955789 -0.4035077318131633 0 -0.24394706363899241 -0.39877073912243299 0 -0.2351820232309369 -0.38700758852266848 0 -0.21479853281951461 -0.38638530273916921 0 -0.22412886374227589 -0.38235217247817599 0 -0.22382842548955789 -0.4035077318131633 0 -0.22412886374227589 -0.38235217247817599 0 -0.22382842548955789 -0.4035077318131633 0 -0.2351820232309369 -0.38700758852266848 0 -0.24697084661892749 -0.41526345823838401 0 -0.22382842548955789 -0.4035077318131633 0 -0.24394706363899241 -0.39877073912243299 0 -0.2504897110532438 -0.38524934403489181 0 -0.24394706363899241 -0.39877073912243299 0 -0.2351820232309369 -0.38700758852266848 0 -0.2504897110532438 -0.38524934403489181 0 -0.2351820232309369 -0.38700758852266848 0 -0.24036284435674521 -0.37772398595485779 0 -0.2351820232309369 -0.38700758852266848 0 -0.24036284435674521 -0.37772398595485779 0 -0.22952037500089251 -0.37311519752493849 0 -0.2504897110532438 -0.38524934403489181 0 -0.24036284435674521 -0.37772398595485779 0 -0.24839247009954951 -0.37292447016044328 0 -0.24839247009954951 -0.37292447016044328 0 -0.24532753696728959 -0.36501789644951049 0 -0.23861636880082099 -0.36955921174380651 0 -0.24036284435674521 -0.37772398595485779 0 -0.24839247009954951 -0.37292447016044328 0 -0.23861636880082099 -0.36955921174380651 0 -0.25757508569408222 -0.36424633604315798 0 -0.24532753696728959 -0.36501789644951049 0 -0.24650166737573331 -0.3569693529562265 0 -0.24532753696728959 -0.36501789644951049 0 -0.24234943749700691 -0.36154613291017651 0 -0.24650166737573331 -0.3569693529562265 0 -0.24532753696728959 -0.36501789644951049 0 -0.24234943749700691 -0.36154613291017651 0 -0.23928568589256061 -0.36455139619594779 0 -0.24234943749700691 -0.36154613291017651 0 -0.23928568589256061 -0.36455139619594779 0 -0.23696933381926599 -0.3585493042599866 0 -0.24532753696728959 -0.36501789644951049 0 -0.23928568589256061 -0.36455139619594779 0 -0.23861636880082099 -0.36955921174380651 0 -0.23928568589256061 -0.36455139619594779 0 -0.23861636880082099 -0.36955921174380651 0 -0.23345080570298909 -0.36409891217005902 0 -0.23928568589256061 -0.36455139619594779 0 -0.23345080570298909 -0.36409891217005902 0 -0.23696933381926599 -0.3585493042599866 0 -0.24036284435674521 -0.37772398595485779 0 -0.23861636880082099 -0.36955921174380651 0 -0.22952037500089251 -0.37311519752493849 0 -0.23345080570298909 -0.36409891217005902 0 -0.22186900287429051 -0.37074082218821958 0 -0.21424807490234879 -0.36231527430669241 0 -0.22952037500089251 -0.37311519752493849 0 -0.23345080570298909 -0.36409891217005902 0 -0.22186900287429051 -0.37074082218821958 0 -0.23696933381926599 -0.3585493042599866 0 -0.21424807490234879 -0.36231527430669241 0 -0.23861636880082099 -0.36955921174380651 0 -0.22952037500089251 -0.37311519752493849 0 -0.23345080570298909 -0.36409891217005902 0 -0.23345080570298909 -0.36409891217005902 0 -0.23696933381926599 -0.3585493042599866 0 -0.21424807490234879 -0.36231527430669241 0 -0.22913587473404851 -0.35200963246311751 0 -0.2097464541822805 -0.33582260124732738 0 -0.22913587473404851 -0.35200963246311751 0 -0.23696933381926599 -0.3585493042599866 0 -0.21424807490234879 -0.36231527430669241 0 -0.22913587473404851 -0.35200963246311751 0 -0.21998707993494029 -0.33959044394559312 0 -0.22913587473404851 -0.35200963246311751 0 -0.21424807490234879 -0.36231527430669241 0 -0.22913587473404851 -0.35200963246311751 0 -0.23696933381926599 -0.3585493042599866 0 -0.22913587473404851 -0.35200963246311751 0 -0.24881121389389799 -0.33838995723746451 0 -0.22913587473404851 -0.35200963246311751 0 -0.23696933381926599 -0.3585493042599866 0 -0.24650166737573331 -0.3569693529562265 0 -0.22913587473404851 -0.35200963246311751 0 -0.24650166737573331 -0.3569693529562265 0 -0.24881121389389799 -0.33838995723746451 0 -0.23696933381926599 -0.3585493042599866 0 -0.24650166737573331 -0.3569693529562265 0 -0.24234943749700691 -0.36154613291017651 0 -0.23696933381926599 -0.3585493042599866 0 -0.24650166737573331 -0.3569693529562265 0 -0.22913587473404851 -0.35200963246311751 0 -0.24881121389389799 -0.33838995723746451 0 -0.2325545649384867 -0.33453283978227571 0 -0.24881121389389799 -0.33838995723746451 0 -0.2441082332202735 -0.32380704628422963 0 -0.2325545649384867 -0.33453283978227571 0 -0.23613058105125781 -0.31890710479075163 0 -0.2279063026952847 -0.3135077128279592 0 -0.2444966906846206 -0.31181945912301329 0 -0.2441082332202735 -0.32380704628422963 0 -0.23498207165859719 -0.32537142019391418 0 -0.23613058105125781 -0.31890710479075163 0 -0.2441082332202735 -0.32380704628422963 0 -0.23498207165859719 -0.32537142019391418 0 -0.2325545649384867 -0.33453283978227571 0 -0.2441082332202735 -0.32380704628422963 0 -0.23613058105125781 -0.31890710479075163 0 -0.2444966906846206 -0.31181945912301329 0 -0.2279063026952847 -0.3135077128279592 0 -0.2193464910840433 -0.31976030368968739 0 -0.21134622408423179 -0.310554889255794 0 -0.23613058105125781 -0.31890710479075163 0 -0.2279063026952847 -0.3135077128279592 0 -0.22829430606921119 -0.32293804105388452 0 -0.23498207165859719 -0.32537142019391418 0 -0.22829430606921119 -0.32293804105388452 0 -0.2325545649384867 -0.33453283978227571 0 -0.23498207165859719 -0.32537142019391418 0 -0.23613058105125781 -0.31890710479075163 0 -0.22829430606921119 -0.32293804105388452 0 -0.22829430606921119 -0.32293804105388452 0 -0.2193464910840433 -0.31976030368968739 0 -0.22209033975117781 -0.32887735541776358 0 -0.2279063026952847 -0.3135077128279592 0 -0.22829430606921119 -0.32293804105388452 0 -0.2193464910840433 -0.31976030368968739 0 -0.22913587473404851 -0.35200963246311751 0 -0.2325545649384867 -0.33453283978227571 0 -0.21998707993494029 -0.33959044394559312 0 -0.22913587473404851 -0.35200963246311751 0 -0.21998707993494029 -0.33959044394559312 0 -0.2097464541822805 -0.33582260124732738 0 -0.22829430606921119 -0.32293804105388452 0 -0.2325545649384867 -0.33453283978227571 0 -0.22209033975117781 -0.32887735541776358 0 -0.2325545649384867 -0.33453283978227571 0 -0.22209033975117781 -0.32887735541776358 0 -0.21998707993494029 -0.33959044394559312 0 -0.21998707993494029 -0.33959044394559312 0 -0.21026925672920721 -0.32756514861737779 0 -0.22209033975117781 -0.32887735541776358 0 -0.21998707993494029 -0.33959044394559312 0 -0.21026925672920721 -0.32756514861737779 0 -0.21998707993494029 -0.33959044394559312 0 -0.2097464541822805 -0.33582260124732738 0 -0.21026925672920721 -0.32756514861737779 0 -0.2097464541822805 -0.33582260124732738 0 -0.21026925672920721 -0.32756514861737779 0 -0.21026925672920721 -0.32756514861737779 0 -0.21134622408423179 -0.310554889255794 0 -0.19267178705524021 -0.30578920503631912 0 -0.21026925672920721 -0.32756514861737779 0 -0.21134622408423179 -0.310554889255794 0 -0.2097464541822805 -0.33582260124732738 0 -0.21026925672920721 -0.32756514861737779 0 -0.19254159852174429 -0.31996122112867409 0 -0.2193464910840433 -0.31976030368968739 0 -0.21026925672920721 -0.32756514861737779 0 -0.21134622408423179 -0.310554889255794 0 -0.2193464910840433 -0.31976030368968739 0 -0.22209033975117781 -0.32887735541776358 0 -0.21026925672920721 -0.32756514861737779 0 -0.2097464541822805 -0.33582260124732738 0 -0.1943588054861482 -0.32297640251143073 0 -0.19254159852174429 -0.31996122112867409 0 -0.21026925672920721 -0.32756514861737779 0 -0.19267178705524021 -0.30578920503631912 0 -0.21026925672920721 -0.32756514861737779 0 -0.19254159852174429 -0.31996122112867409 0 -0.19267178705524021 -0.30578920503631912 0 -0.2097464541822805 -0.33582260124732738 0 -0.19254159852174429 -0.31996122112867409 0 -0.1943588054861482 -0.32297640251143073 0 -0.18737083868624629 -0.33075534874643497 0 -0.18479650728396149 -0.32227615663527998 0 -0.1943588054861482 -0.32297640251143073 0 -0.19254159852174429 -0.31996122112867409 0 -0.1789711567900161 -0.3101302037755338 0 -0.2097464541822805 -0.33582260124732738 0 -0.19466829689393059 -0.33824472710720138 0 -0.19565175395430129 -0.3512554891803924 0 -0.2097464541822805 -0.33582260124732738 0 -0.1943588054861482 -0.32297640251143073 0 -0.19466829689393059 -0.33824472710720138 0 -0.2097464541822805 -0.33582260124732738 0 -0.1943588054861482 -0.32297640251143073 0 -0.1943588054861482 -0.32297640251143073 0 -0.19466829689393059 -0.33824472710720138 0 -0.18737083868624629 -0.33075534874643497 0 -0.19466829689393059 -0.33824472710720138 0 -0.18164424501215659 -0.34621916084723381 0 -0.18737083868624629 -0.33075534874643497 0 -0.19466829689393059 -0.33824472710720138 0 -0.19565175395430129 -0.3512554891803924 0 -0.18164424501215659 -0.34621916084723381 0 -0.20800359978069241 -0.36335027445133922 0 -0.18480326185087809 -0.36719565018674682 0 -0.19565175395430129 -0.3512554891803924 0 -0.20800359978069241 -0.36335027445133922 0 -0.18480326185087809 -0.36719565018674682 0 -0.2014200033848125 -0.37119512976538899 0 -0.18480326185087809 -0.36719565018674682 0 -0.18579747934449059 -0.37379744869579251 0 -0.2014200033848125 -0.37119512976538899 0 -0.20800359978069241 -0.36335027445133922 0 -0.18480326185087809 -0.36719565018674682 0 -0.2014200033848125 -0.37119512976538899 0 -0.20800359978069241 -0.36335027445133922 0 -0.20803809997708481 -0.36661394692190907 0 -0.20800359978069241 -0.36335027445133922 0 -0.20803809997708481 -0.36661394692190907 0 -0.21424807490234879 -0.36231527430669241 0 -0.20800359978069241 -0.36335027445133922 0 -0.20803809997708481 -0.36661394692190907 0 -0.2014200033848125 -0.37119512976538899 0 -0.20803809997708481 -0.36661394692190907 0 -0.21335741342528061 -0.3748607861064962 0 -0.2014200033848125 -0.37119512976538899 0 -0.20803809997708481 -0.36661394692190907 0 -0.20803809997708481 -0.36661394692190907 0 -0.21335741342528061 -0.3748607861064962 0 -0.21424807490234879 -0.36231527430669241 0 -0.22186900287429051 -0.37074082218821958 0 -0.21335741342528061 -0.3748607861064962 0 -0.21424807490234879 -0.36231527430669241 0 -0.20800359978069241 -0.36335027445133922 0 -0.21424807490234879 -0.36231527430669241 0 -0.20803809997708481 -0.36661394692190907 0 -0.21424807490234879 -0.36231527430669241 0 -0.2097464541822805 -0.33582260124732738 0 -0.19565175395430129 -0.3512554891803924 0 -0.20800359978069241 -0.36335027445133922 0 -0.2097464541822805 -0.33582260124732738 0 -0.20800359978069241 -0.36335027445133922 0 -0.2097464541822805 -0.33582260124732738 0 -0.20800359978069241 -0.36335027445133922 0 -0.21424807490234879 -0.36231527430669241 0 -0.22913587473404851 -0.35200963246311751 0 -0.2097464541822805 -0.33582260124732738 0 -0.21424807490234879 -0.36231527430669241 0 -0.2335542019388327 -0.26090262277066528 0 -0.21472073189145299 -0.25725591714607071 0 -0.22837296648480071 -0.23789375384220129 0 -0.2335542019388327 -0.26090262277066528 0 -0.21357196166535461 -0.27540027352014051 0 -0.21472073189145299 -0.25725591714607071 0 -0.25298377122075039 -0.27518622721876451 0 -0.2335542019388327 -0.26090262277066528 0 -0.25431856302814809 -0.24833495949118861 0 -0.25298377122075039 -0.27518622721876451 0 -0.2335542019388327 -0.26090262277066528 0 -0.23093648268818689 -0.28342115129973 0 -0.2335542019388327 -0.26090262277066528 0 -0.23093648268818689 -0.28342115129973 0 -0.21357196166535461 -0.27540027352014051 0 -0.23093648268818689 -0.28342115129973 0 -0.21242319143925911 -0.29354462989421048 0 -0.21357196166535461 -0.27540027352014051 0 -0.23093648268818689 -0.28342115129973 0 -0.2435111179254994 -0.29490773243705071 0 -0.2284599410619414 -0.30268204450860919 0 -0.23093648268818689 -0.28342115129973 0 -0.2284599410619414 -0.30268204450860919 0 -0.21242319143925911 -0.29354462989421048 0 -0.25298377122075039 -0.27518622721876451 0 -0.23093648268818689 -0.28342115129973 0 -0.2435111179254994 -0.29490773243705071 0 -0.2444966906846206 -0.31181945912301329 0 -0.2284599410619414 -0.30268204450860919 0 -0.2435111179254994 -0.29490773243705071 0 -0.2444966906846206 -0.31181945912301329 0 -0.2284599410619414 -0.30268204450860919 0 -0.26057201890547982 -0.29344093798311832 0 -0.2435111179254994 -0.29490773243705071 0 -0.2444966906846206 -0.31181945912301329 0 -0.2279063026952847 -0.3135077128279592 0 -0.2444966906846206 -0.31181945912301329 0 -0.2284599410619414 -0.30268204450860919 0 -0.2284599410619414 -0.30268204450860919 0 -0.21242319143925911 -0.29354462989421048 0 -0.2279063026952847 -0.3135077128279592 0 -0.2284599410619414 -0.30268204450860919 0 -0.21134622408423179 -0.310554889255794 0 -0.2284599410619414 -0.30268204450860919 0 -0.21134622408423179 -0.310554889255794 0 -0.21242319143925911 -0.29354462989421048 0 -0.21134622408423179 -0.310554889255794 0 -0.19267178705524021 -0.30578920503631912 0 -0.21242319143925911 -0.29354462989421048 0 -0.21134622408423179 -0.310554889255794 0 -0.21242319143925911 -0.29354462989421048 0 -0.19267178705524021 -0.30578920503631912 0 -0.19410774352861071 -0.2831088592208712 0 -0.21242319143925911 -0.29354462989421048 0 -0.19410774352861071 -0.2831088592208712 0 -0.21242319143925911 -0.29354462989421048 0 -0.21357196166535461 -0.27540027352014051 0 -0.19410774352861071 -0.2831088592208712 0 -0.21242319143925911 -0.29354462989421048 0 -0.21242319143925911 -0.29354462989421048 0 -0.21357196166535461 -0.27540027352014051 0 -0.21357196166535461 -0.27540027352014051 0 -0.21472073189145299 -0.25725591714607071 0 -0.19410774352861071 -0.2831088592208712 0 -0.21357196166535461 -0.27540027352014051 0 -0.1965391795889786 -0.26204425282134669 0 -0.19410774352861071 -0.2831088592208712 0 -0.1965391795889786 -0.26204425282134669 0 -0.17579229561796161 -0.27267308854753308 0 -0.1965391795889786 -0.26204425282134669 0 -0.20565562739327201 -0.24334207984173631 0 -0.18863044441395099 -0.24733650333174401 0 -0.1965391795889786 -0.26204425282134669 0 -0.18340152769721799 -0.25642831405215172 0 -0.18863044441395099 -0.24733650333174401 0 -0.1965391795889786 -0.26204425282134669 0 -0.21472073189145299 -0.25725591714607071 0 -0.20565562739327201 -0.24334207984173631 0 -0.21357196166535461 -0.27540027352014051 0 -0.1965391795889786 -0.26204425282134669 0 -0.21472073189145299 -0.25725591714607071 0 -0.15747684770731041 -0.26223731787419863 0 -0.16344648285301799 -0.25937253054906129 0 -0.17579229561796161 -0.27267308854753308 0 -0.1593809120407062 -0.25278805690175971 0 -0.16344648285301799 -0.25937253054906129 0 -0.1534429259631987 -0.25724555178864622 0 -0.1593809120407062 -0.25278805690175971 0 -0.16344648285301799 -0.25937253054906129 0 -0.16709258238786229 -0.25188408856254202 0 -0.1593809120407062 -0.25278805690175971 0 -0.16709258238786229 -0.25188408856254202 0 -0.1601832428566283 -0.24550858739866141 0 -0.15747684770731041 -0.26223731787419863 0 -0.16344648285301799 -0.25937253054906129 0 -0.1534429259631987 -0.25724555178864622 0 -0.16344648285301799 -0.25937253054906129 0 -0.1534429259631987 -0.25724555178864622 0 -0.16344648285301799 -0.25937253054906129 0 -0.17379217291466831 -0.25992581321180469 0 -0.17579229561796161 -0.27267308854753308 0 -0.16344648285301799 -0.25937253054906129 0 -0.16709258238786229 -0.25188408856254202 0 -0.17379217291466831 -0.25992581321180469 0 -0.16709258238786229 -0.25188408856254202 0 -0.17679077873490559 -0.25046109420941731 0 -0.17379217291466831 -0.25992581321180469 0 -0.1965391795889786 -0.26204425282134669 0 -0.18340152769721799 -0.25642831405215172 0 -0.17579229561796161 -0.27267308854753308 0 -0.17679077873490559 -0.25046109420941731 0 -0.18340152769721799 -0.25642831405215172 0 -0.17379217291466831 -0.25992581321180469 0 -0.18340152769721799 -0.25642831405215172 0 -0.17379217291466831 -0.25992581321180469 0 -0.17579229561796161 -0.27267308854753308 0 -0.17679077873490559 -0.25046109420941731 0 -0.18340152769721799 -0.25642831405215172 0 -0.18863044441395099 -0.24733650333174401 0 -0.19410774352861071 -0.2831088592208712 0 -0.17579229561796161 -0.27267308854753308 0 -0.17507431738127369 -0.28401326145526029 0 -0.19410774352861071 -0.2831088592208712 0 -0.17579229561796161 -0.27267308854753308 0 -0.15747684770731041 -0.26223731787419863 0 -0.17507431738127369 -0.28401326145526029 0 -0.15747684770731041 -0.26223731787419863 0 -0.17579229561796161 -0.27267308854753308 0 -0.15747684770731041 -0.26223731787419863 0 -0.17579229561796161 -0.27267308854753308 0 -0.17507431738127369 -0.28401326145526029 0 -0.15747684770731041 -0.26223731787419863 0 -0.1596399504195592 -0.27820623095404468 0 -0.17507431738127369 -0.28401326145526029 0 -0.1596399504195592 -0.27820623095404468 0 -0.1624028041075358 -0.29248408411088062 0 -0.1494793968803598 -0.28070198605355251 0 -0.1624028041075358 -0.29248408411088062 0 -0.15973767967650701 -0.30493196891575292 0 -0.15108397830665751 -0.29236825921418419 0 -0.1624028041075358 -0.29248408411088062 0 -0.17507431738127369 -0.28401326145526029 0 -0.17391538329452061 -0.29489800819007239 0 -0.1596399504195592 -0.27820623095404468 0 -0.1624028041075358 -0.29248408411088062 0 -0.17507431738127369 -0.28401326145526029 0 -0.19267178705524021 -0.30578920503631912 0 -0.19410774352861071 -0.2831088592208712 0 -0.17507431738127369 -0.28401326145526029 0 -0.19267178705524021 -0.30578920503631912 0 -0.17507431738127369 -0.28401326145526029 0 -0.17391538329452061 -0.29489800819007239 0 -0.19267178705524021 -0.30578920503631912 0 -0.17507431738127369 -0.28401326145526029 0 -0.17391538329452061 -0.29489800819007239 0 -0.17532621133471249 -0.30426618216820789 0 -0.19254159852174429 -0.31996122112867409 0 -0.19267178705524021 -0.30578920503631912 0 -0.17532621133471249 -0.30426618216820789 0 -0.19267178705524021 -0.30578920503631912 0 -0.17391538329452061 -0.29489800819007239 0 -0.17532621133471249 -0.30426618216820789 0 -0.19254159852174429 -0.31996122112867409 0 -0.17532621133471249 -0.30426618216820789 0 -0.1789711567900161 -0.3101302037755338 0 -0.19254159852174429 -0.31996122112867409 0 -0.17532621133471249 -0.30426618216820789 0 -0.17532621133471249 -0.30426618216820789 0 -0.15973767967650701 -0.30493196891575292 0 -0.16582550601247259 -0.31644195918285489 0 -0.1624028041075358 -0.29248408411088062 0 -0.17532621133471249 -0.30426618216820789 0 -0.15973767967650701 -0.30493196891575292 0 -0.1624028041075358 -0.29248408411088062 0 -0.17532621133471249 -0.30426618216820789 0 -0.1624028041075358 -0.29248408411088062 0 -0.17391538329452061 -0.29489800819007239 0 -0.17532621133471249 -0.30426618216820789 0 -0.144593184228827 -0.30237793828586917 0 -0.15261731536399281 -0.31699983390472031 0 -0.1327552185807534 -0.31482398186879779 0 -0.15973767967650701 -0.30493196891575292 0 -0.144593184228827 -0.30237793828586917 0 -0.15261731536399281 -0.31699983390472031 0 -0.15973767967650701 -0.30493196891575292 0 -0.144593184228827 -0.30237793828586917 0 -0.15108397830665751 -0.29236825921418419 0 -0.144593184228827 -0.30237793828586917 0 -0.1304175251842298 -0.30012492429455973 0 -0.1327552185807534 -0.31482398186879779 0 -0.1304175251842298 -0.30012492429455973 0 -0.1327552185807534 -0.31482398186879779 0 -0.11567190875339491 -0.3081878681979589 0 -0.1304175251842298 -0.30012492429455973 0 -0.13697378053928061 -0.28594316463020741 0 -0.11725087491461519 -0.29108504565108578 0 -0.144593184228827 -0.30237793828586917 0 -0.1304175251842298 -0.30012492429455973 0 -0.13697378053928061 -0.28594316463020741 0 -0.13697378053928061 -0.28594316463020741 0 -0.15108397830665751 -0.29236825921418419 0 -0.1494793968803598 -0.28070198605355251 0 -0.144593184228827 -0.30237793828586917 0 -0.13697378053928061 -0.28594316463020741 0 -0.15108397830665751 -0.29236825921418419 0 -0.1624028041075358 -0.29248408411088062 0 -0.15108397830665751 -0.29236825921418419 0 -0.1494793968803598 -0.28070198605355251 0 -0.1624028041075358 -0.29248408411088062 0 -0.1494793968803598 -0.28070198605355251 0 -0.15747684770731041 -0.26223731787419863 0 -0.1596399504195592 -0.27820623095404468 0 -0.1503927610565664 -0.27179087804580171 0 -0.1596399504195592 -0.27820623095404468 0 -0.1494793968803598 -0.28070198605355251 0 -0.1503927610565664 -0.27179087804580171 0 -0.15747684770731041 -0.26223731787419863 0 -0.1503927610565664 -0.27179087804580171 0 -0.1469785187108 -0.2635474229235048 0 -0.1503927610565664 -0.27179087804580171 0 -0.13966748117377659 -0.26847157538705668 0 -0.1469785187108 -0.2635474229235048 0 -0.1503927610565664 -0.27179087804580171 0 -0.14153524490660671 -0.2763029116229278 0 -0.13966748117377659 -0.26847157538705668 0 -0.1494793968803598 -0.28070198605355251 0 -0.1503927610565664 -0.27179087804580171 0 -0.14153524490660671 -0.2763029116229278 0 -0.13697378053928061 -0.28594316463020741 0 -0.1494793968803598 -0.28070198605355251 0 -0.14153524490660671 -0.2763029116229278 0 -0.13697378053928061 -0.28594316463020741 0 -0.14153524490660671 -0.2763029116229278 0 -0.13219795163187159 -0.27110871778552531 0 -0.13697378053928061 -0.28594316463020741 0 -0.1173011125765811 -0.2721428964285707 0 -0.13697378053928061 -0.28594316463020741 0 -0.13219795163187159 -0.27110871778552531 0 -0.1173011125765811 -0.2721428964285707 0 -0.13219795163187159 -0.27110871778552531 0 -0.1333337708168415 -0.26377523499205202 0 -0.12600056203783161 -0.26301541000095829 0 -0.13219795163187159 -0.27110871778552531 0 -0.12600056203783161 -0.26301541000095829 0 -0.1173011125765811 -0.2721428964285707 0 -0.13219795163187159 -0.27110871778552531 0 -0.13966748117377659 -0.26847157538705668 0 -0.1333337708168415 -0.26377523499205202 0 -0.14153524490660671 -0.2763029116229278 0 -0.13219795163187159 -0.27110871778552531 0 -0.13966748117377659 -0.26847157538705668 0 -0.13966748117377659 -0.26847157538705668 0 -0.13807993829988649 -0.25979154560904222 0 -0.1333337708168415 -0.26377523499205202 0 -0.13807993829988649 -0.25979154560904222 0 -0.1333337708168415 -0.26377523499205202 0 -0.13072292094084129 -0.25648892617767749 0 -0.12600056203783161 -0.26301541000095829 0 -0.13072292094084129 -0.25648892617767749 0 -0.1187556211832122 -0.25814451816493872 0 -0.1333337708168415 -0.26377523499205202 0 -0.12600056203783161 -0.26301541000095829 0 -0.13072292094084129 -0.25648892617767749 0 -0.13072292094084129 -0.25648892617767749 0 -0.13218950310710981 -0.25272660122947088 0 -0.1187556211832122 -0.25814451816493872 0 -0.13072292094084129 -0.25648892617767749 0 -0.13218950310710981 -0.25272660122947088 0 -0.13218950310710981 -0.25272660122947088 0 -0.1459019403517107 -0.25564217047089421 0 -0.13375162957080131 -0.24871916986845621 0 -0.13218950310710981 -0.25272660122947088 0 -0.1459019403517107 -0.25564217047089421 0 -0.13218950310710981 -0.25272660122947088 0 -0.13375162957080131 -0.24871916986845621 0 -0.1459019403517107 -0.25564217047089421 0 -0.13375162957080131 -0.24871916986845621 0 -0.13807993829988649 -0.25979154560904222 0 -0.13218950310710981 -0.25272660122947088 0 -0.1459019403517107 -0.25564217047089421 0 -0.13807993829988649 -0.25979154560904222 0 -0.13072292094084129 -0.25648892617767749 0 -0.13218950310710981 -0.25272660122947088 0 -0.1459019403517107 -0.25564217047089421 0 -0.1534429259631987 -0.25724555178864622 0 -0.1378886282313006 -0.2381062402767252 0 -0.13966748117377659 -0.26847157538705668 0 -0.13807993829988649 -0.25979154560904222 0 -0.1469785187108 -0.2635474229235048 0 -0.13807993829988649 -0.25979154560904222 0 -0.1459019403517107 -0.25564217047089421 0 -0.1469785187108 -0.2635474229235048 0 -0.15747684770731041 -0.26223731787419863 0 -0.1459019403517107 -0.25564217047089421 0 -0.1534429259631987 -0.25724555178864622 0 -0.15747684770731041 -0.26223731787419863 0 -0.1459019403517107 -0.25564217047089421 0 -0.1469785187108 -0.2635474229235048 0 -0.15747684770731041 -0.26223731787419863 0 -0.1459019403517107 -0.25564217047089421 0 -0.15747684770731041 -0.26223731787419863 0 -0.1534429259631987 -0.25724555178864622 0 -0.1593809120407062 -0.25278805690175971 0 -0.1534429259631987 -0.25724555178864622 0 -0.15289321433053751 -0.246830478479277 0 -0.1459019403517107 -0.25564217047089421 0 -0.1534429259631987 -0.25724555178864622 0 -0.17143624801538501 -0.35840063883308271 0 -0.1580141783998408 -0.34710035810185619 0 -0.15489216358121211 -0.36256913283011211 0 -0.17143624801538501 -0.35840063883308271 0 -0.1580141783998408 -0.34710035810185619 0 -0.18164424501215659 -0.34621916084723381 0 -0.17143624801538501 -0.35840063883308271 0 -0.1663610822414904 -0.3702523776444529 0 -0.15489216358121211 -0.36256913283011211 0 -0.15951650330528561 -0.37856285477961621 0 -0.1663610822414904 -0.3702523776444529 0 -0.15489216358121211 -0.36256913283011211 0 -0.17143624801538501 -0.35840063883308271 0 -0.1663610822414904 -0.3702523776444529 0 -0.18480326185087809 -0.36719565018674682 0 -0.1663610822414904 -0.3702523776444529 0 -0.18480326185087809 -0.36719565018674682 0 -0.1663610822414904 -0.3702523776444529 0 -0.18480326185087809 -0.36719565018674682 0 -0.18579747934449059 -0.37379744869579251 0 -0.18480326185087809 -0.36719565018674682 0 -0.18579747934449059 -0.37379744869579251 0 -0.18480326185087809 -0.36719565018674682 0 -0.18164424501215659 -0.34621916084723381 0 -0.19565175395430129 -0.3512554891803924 0 -0.18480326185087809 -0.36719565018674682 0 -0.18164424501215659 -0.34621916084723381 0 -0.17143624801538501 -0.35840063883308271 0 -0.18480326185087809 -0.36719565018674682 0 -0.18164424501215659 -0.34621916084723381 0 -0.18164424501215659 -0.34621916084723381 0 -0.17848522817343529 -0.32524267150772068 0 -0.1629610955137164 -0.33076913941787212 0 -0.18164424501215659 -0.34621916084723381 0 -0.17848522817343529 -0.32524267150772068 0 -0.18164424501215659 -0.34621916084723381 0 -0.18737083868624629 -0.33075534874643497 0 -0.17848522817343529 -0.32524267150772068 0 -0.17532621133471249 -0.30426618216820789 0 -0.17848522817343529 -0.32524267150772068 0 -0.17532621133471249 -0.30426618216820789 0 -0.1789711567900161 -0.3101302037755338 0 -0.17848522817343529 -0.32524267150772068 0 -0.17532621133471249 -0.30426618216820789 0 -0.17848522817343529 -0.32524267150772068 0 -0.16582550601247259 -0.31644195918285489 0 -0.1943588054861482 -0.32297640251143073 0 -0.1789711567900161 -0.3101302037755338 0 -0.18479650728396149 -0.32227615663527998 0 -0.1789711567900161 -0.3101302037755338 0 -0.18479650728396149 -0.32227615663527998 0 -0.17848522817343529 -0.32524267150772068 0 -0.1943588054861482 -0.32297640251143073 0 -0.1789711567900161 -0.3101302037755338 0 -0.18737083868624629 -0.33075534874643497 0 -0.18479650728396149 -0.32227615663527998 0 -0.17848522817343529 -0.32524267150772068 0 -0.17848522817343529 -0.32524267150772068 0 -0.16582550601247259 -0.31644195918285489 0 -0.1629610955137164 -0.33076913941787212 0 -0.16582550601247259 -0.31644195918285489 0 -0.1629610955137164 -0.33076913941787212 0 -0.15261731536399281 -0.31699983390472031 0 -0.15973767967650701 -0.30493196891575292 0 -0.16582550601247259 -0.31644195918285489 0 -0.15261731536399281 -0.31699983390472031 0 -0.1580141783998408 -0.34710035810185619 0 -0.18164424501215659 -0.34621916084723381 0 -0.1629610955137164 -0.33076913941787212 0 -0.1580141783998408 -0.34710035810185619 0 -0.1629610955137164 -0.33076913941787212 0 -0.14559484309128301 -0.3331209990743299 0 -0.14559484309128301 -0.3331209990743299 0 -0.15261731536399281 -0.31699983390472031 0 -0.1327552185807534 -0.31482398186879779 0 -0.1629610955137164 -0.33076913941787212 0 -0.14559484309128301 -0.3331209990743299 0 -0.15261731536399281 -0.31699983390472031 0 -0.14559484309128301 -0.3331209990743299 0 -0.1327552185807534 -0.31482398186879779 0 -0.12678352480283511 -0.3369129194106073 0 -0.14559484309128301 -0.3331209990743299 0 -0.12678352480283511 -0.3369129194106073 0 -0.14043772588655989 -0.35211976174212622 0 -0.12678352480283511 -0.3369129194106073 0 -0.14043772588655989 -0.35211976174212622 0 -0.1203130985899742 -0.35955571918490481 0 -0.1580141783998408 -0.34710035810185619 0 -0.14043772588655989 -0.35211976174212622 0 -0.15489216358121211 -0.36256913283011211 0 -0.1580141783998408 -0.34710035810185619 0 -0.14559484309128301 -0.3331209990743299 0 -0.14043772588655989 -0.35211976174212622 0 -0.14043772588655989 -0.35211976174212622 0 -0.15489216358121211 -0.36256913283011211 0 -0.13959568407155781 -0.37291875636350952 0 -0.15951650330528561 -0.37856285477961621 0 -0.15489216358121211 -0.36256913283011211 0 -0.13959568407155781 -0.37291875636350952 0 -0.12625141541498519 -0.38197991289387551 0 -0.13959568407155781 -0.37291875636350952 0 -0.1203130985899742 -0.35955571918490481 0 -0.14043772588655989 -0.35211976174212622 0 -0.13959568407155781 -0.37291875636350952 0 -0.1203130985899742 -0.35955571918490481 0 -0.1203130985899742 -0.35955571918490481 0 -0.11384267237711319 -0.38219851895920232 0 -0.1203130985899742 -0.35955571918490481 0 -0.10849363524981311 -0.36442991456039969 0 -0.11384267237711319 -0.38219851895920232 0 -0.12625141541498519 -0.38197991289387551 0 -0.1203130985899742 -0.35955571918490481 0 -0.11384267237711319 -0.38219851895920232 0 -0.10849363524981311 -0.36442991456039969 0 -0.096157591159299352 -0.35547454281719221 0 -0.10176491866177829 -0.38015793077534599 0 -0.096157591159299352 -0.35547454281719221 0 -0.10176491866177829 -0.38015793077534599 0 -0.096157591159299352 -0.35547454281719221 0 -0.10176491866177829 -0.38015793077534599 0 -0.085276019388031976 -0.37619188405436782 0 -0.096157591159299352 -0.35547454281719221 0 -0.10964553082547281 -0.34513317088572909 0 -0.090550263656820479 -0.33079115485903843 0 -0.10849363524981311 -0.36442991456039969 0 -0.096157591159299352 -0.35547454281719221 0 -0.10964553082547281 -0.34513317088572909 0 -0.1203130985899742 -0.35955571918490481 0 -0.10849363524981311 -0.36442991456039969 0 -0.10964553082547281 -0.34513317088572909 0 -0.12678352480283511 -0.3369129194106073 0 -0.1203130985899742 -0.35955571918490481 0 -0.10964553082547281 -0.34513317088572909 0 -0.12678352480283511 -0.3369129194106073 0 -0.1203130985899742 -0.35955571918490481 0 -0.12678352480283511 -0.3369129194106073 0 -0.10964553082547281 -0.34513317088572909 0 -0.1112875311940303 -0.32576775904759792 0 -0.1327552185807534 -0.31482398186879779 0 -0.12678352480283511 -0.3369129194106073 0 -0.1112875311940303 -0.32576775904759792 0 -0.1327552185807534 -0.31482398186879779 0 -0.1112875311940303 -0.32576775904759792 0 -0.11567190875339491 -0.3081878681979589 0 -0.1112875311940303 -0.32576775904759792 0 -0.1011365257202933 -0.31403431577096802 0 -0.11567190875339491 -0.3081878681979589 0 -0.1112875311940303 -0.32576775904759792 0 -0.1011365257202933 -0.31403431577096802 0 -0.090550263656820479 -0.33079115485903843 0 -0.10964553082547281 -0.34513317088572909 0 -0.1112875311940303 -0.32576775904759792 0 -0.090550263656820479 -0.33079115485903843 0 -0.096157591159299352 -0.35547454281719221 0 -0.090550263656820479 -0.33079115485903843 0 -0.096157591159299352 -0.35547454281719221 0 -0.090550263656820479 -0.33079115485903843 0 -0.073144777225565616 -0.33606175945158517 0 -0.090550263656820479 -0.33079115485903843 0 -0.084942936154341619 -0.30610776690088481 0 -0.090550263656820479 -0.33079115485903843 0 -0.073144777225565616 -0.33606175945158517 0 -0.084942936154341619 -0.30610776690088481 0 -0.1011365257202933 -0.31403431577096802 0 -0.090550263656820479 -0.33079115485903843 0 -0.084942936154341619 -0.30610776690088481 0 -0.073144777225565616 -0.33606175945158517 0 -0.084942936154341619 -0.30610776690088481 0 -0.060613113796085999 -0.32288269869712272 0 -0.073144777225565616 -0.33606175945158517 0 -0.076755031766953086 -0.35884624094615858 0 -0.063306301319701316 -0.35299520754669739 0 -0.076755031766953086 -0.35884624094615858 0 -0.063306301319701316 -0.35299520754669739 0 -0.065890469742167113 -0.37350781086095058 0 -0.076755031766953086 -0.35884624094615858 0 -0.065890469742167113 -0.37350781086095058 0 -0.085276019388031976 -0.37619188405436782 0 -0.096157591159299352 -0.35547454281719221 0 -0.076755031766953086 -0.35884624094615858 0 -0.085276019388031976 -0.37619188405436782 0 -0.096157591159299352 -0.35547454281719221 0 -0.073144777225565616 -0.33606175945158517 0 -0.076755031766953086 -0.35884624094615858 0 -0.097628444613881649 -0.25834262822693399 0 -0.1173011125765811 -0.2721428964285707 0 -0.097628444613881649 -0.25834262822693399 0 -0.1187556211832122 -0.25814451816493872 0 -0.1098930818979398 -0.24798588601512411 0 -0.13218950310710981 -0.25272660122947088 0 -0.1187556211832122 -0.25814451816493872 0 -0.1098930818979398 -0.24798588601512411 0 -0.097628444613881649 -0.25834262822693399 0 -0.1187556211832122 -0.25814451816493872 0 -0.1173011125765811 -0.2721428964285707 0 -0.13218950310710981 -0.25272660122947088 0 -0.1098930818979398 -0.24798588601512411 0 -0.12600056203783161 -0.26301541000095829 0 -0.1187556211832122 -0.25814451816493872 0 -0.1173011125765811 -0.2721428964285707 0 -0.097628444613881649 -0.25834262822693399 0 -0.1173011125765811 -0.2721428964285707 0 -0.090762408808148426 -0.27102181932101072 0 -0.1173011125765811 -0.2721428964285707 0 -0.096655829275762523 -0.28444542957314378 0 -0.090762408808148426 -0.27102181932101072 0 -0.096655829275762523 -0.28444542957314378 0 -0.10322998884287909 -0.29931702984935987 0 -0.084942936154341619 -0.30610776690088481 0 -0.096655829275762523 -0.28444542957314378 0 -0.11725087491461519 -0.29108504565108578 0 -0.10322998884287909 -0.29931702984935987 0 -0.13697378053928061 -0.28594316463020741 0 -0.1173011125765811 -0.2721428964285707 0 -0.11725087491461519 -0.29108504565108578 0 -0.1173011125765811 -0.2721428964285707 0 -0.096655829275762523 -0.28444542957314378 0 -0.11725087491461519 -0.29108504565108578 0 -0.11725087491461519 -0.29108504565108578 0 -0.11567190875339491 -0.3081878681979589 0 -0.10322998884287909 -0.29931702984935987 0 -0.1304175251842298 -0.30012492429455973 0 -0.11725087491461519 -0.29108504565108578 0 -0.11567190875339491 -0.3081878681979589 0 -0.1011365257202933 -0.31403431577096802 0 -0.10322998884287909 -0.29931702984935987 0 -0.084942936154341619 -0.30610776690088481 0 -0.1011365257202933 -0.31403431577096802 0 -0.11567190875339491 -0.3081878681979589 0 -0.10322998884287909 -0.29931702984935987 0 -0.084942936154341619 -0.30610776690088481 0 -0.066237696895848033 -0.30175990202967712 0 -0.078368201618682937 -0.28822753231137022 0 -0.084942936154341619 -0.30610776690088481 0 -0.066237696895848033 -0.30175990202967712 0 -0.060613113796085999 -0.32288269869712272 0 -0.066237696895848033 -0.30175990202967712 0 -0.078368201618682937 -0.28822753231137022 0 -0.057136779716869042 -0.28712205926022771 0 -0.078368201618682937 -0.28822753231137022 0 -0.072744725061100565 -0.27289296274949931 0 -0.057136779716869042 -0.28712205926022771 0 -0.096655829275762523 -0.28444542957314378 0 -0.084942936154341619 -0.30610776690088481 0 -0.078368201618682937 -0.28822753231137022 0 -0.096655829275762523 -0.28444542957314378 0 -0.078368201618682937 -0.28822753231137022 0 -0.090762408808148426 -0.27102181932101072 0 -0.078368201618682937 -0.28822753231137022 0 -0.090762408808148426 -0.27102181932101072 0 -0.072744725061100565 -0.27289296274949931 0 -0.090762408808148426 -0.27102181932101072 0 -0.072744725061100565 -0.27289296274949931 0 -0.081281336266817772 -0.26097832242812891 0 -0.072744725061100565 -0.27289296274949931 0 -0.067161912638977472 -0.25903173736147111 0 -0.055745381016590281 -0.2682223094504298 0 -0.072744725061100565 -0.27289296274949931 0 -0.067161912638977472 -0.25903173736147111 0 -0.081281336266817772 -0.26097832242812891 0 -0.067161912638977472 -0.25903173736147111 0 -0.081281336266817772 -0.26097832242812891 0 -0.077955776651182085 -0.24454236002529731 0 -0.067161912638977472 -0.25903173736147111 0 -0.056939497423126581 -0.24878681181634871 0 -0.077955776651182085 -0.24454236002529731 0 -0.097628444613881649 -0.25834262822693399 0 -0.081281336266817772 -0.26097832242812891 0 -0.077955776651182085 -0.24454236002529731 0 -0.097628444613881649 -0.25834262822693399 0 -0.090762408808148426 -0.27102181932101072 0 -0.081281336266817772 -0.26097832242812891 0 -0.097628444613881649 -0.25834262822693399 0 -0.077955776651182085 -0.24454236002529731 0 -0.025857267464119819 -0.25506418495113531 0 -0.050191684441297867 -0.2485850187836515 0 -0.034199021844566052 -0.25740496373097072 0 -0.056939497423126581 -0.24878681181634871 0 -0.034199021844566052 -0.25740496373097072 0 -0.041398382443623198 -0.25192549838374201 0 -0.056939497423126581 -0.24878681181634871 0 -0.041398382443623198 -0.25192549838374201 0 -0.025857267464119819 -0.25506418495113531 0 -0.050191684441297867 -0.2485850187836515 0 -0.034199021844566052 -0.25740496373097072 0 -0.048255079716108998 -0.25800015923011232 0 -0.056939497423126581 -0.24878681181634871 0 -0.034199021844566052 -0.25740496373097072 0 -0.041398382443623198 -0.25192549838374201 0 -0.025857267464119819 -0.25506418495113531 0 -0.041398382443623198 -0.25192549838374201 0 -0.025857267464119819 -0.25506418495113531 0 -0.034199021844566052 -0.25740496373097072 0 -0.037307574571523318 -0.26201401924185519 0 -0.024854767991187229 -0.26705994663832661 0 -0.037307574571523318 -0.26201401924185519 0 -0.048255079716108998 -0.25800015923011232 0 -0.046606779304586107 -0.26584835010199509 0 -0.034199021844566052 -0.25740496373097072 0 -0.037307574571523318 -0.26201401924185519 0 -0.048255079716108998 -0.25800015923011232 0 -0.05702546769870083 -0.25851025446459042 0 -0.048255079716108998 -0.25800015923011232 0 -0.056939497423126581 -0.24878681181634871 0 -0.041398382443623198 -0.25192549838374201 0 -0.056939497423126581 -0.24878681181634871 0 -0.067161912638977472 -0.25903173736147111 0 -0.05702546769870083 -0.25851025446459042 0 -0.056939497423126581 -0.24878681181634871 0 -0.067161912638977472 -0.25903173736147111 0 -0.05702546769870083 -0.25851025446459042 0 -0.055745381016590281 -0.2682223094504298 0 -0.05702546769870083 -0.25851025446459042 0 -0.048255079716108998 -0.25800015923011232 0 -0.055745381016590281 -0.2682223094504298 0 -0.048255079716108998 -0.25800015923011232 0 -0.055745381016590281 -0.2682223094504298 0 -0.046606779304586107 -0.26584835010199509 0 -0.055745381016590281 -0.2682223094504298 0 -0.045119081914121867 -0.27515691248558288 0 -0.046606779304586107 -0.26584835010199509 0 -0.055745381016590281 -0.2682223094504298 0 -0.045119081914121867 -0.27515691248558288 0 -0.057136779716869042 -0.28712205926022771 0 -0.072744725061100565 -0.27289296274949931 0 -0.055745381016590281 -0.2682223094504298 0 -0.057136779716869042 -0.28712205926022771 0 -0.037307574571523318 -0.26201401924185519 0 -0.034478529498429812 -0.28951379058442123 0 -0.037307574571523318 -0.26201401924185519 0 -0.034478529498429812 -0.28951379058442123 0 -0.024854767991187229 -0.26705994663832661 0 -0.037307574571523318 -0.26201401924185519 0 -0.045119081914121867 -0.27515691248558288 0 -0.034478529498429812 -0.28951379058442123 0 -0.037307574571523318 -0.26201401924185519 0 -0.045119081914121867 -0.27515691248558288 0 -0.046606779304586107 -0.26584835010199509 0 -0.045119081914121867 -0.27515691248558288 0 -0.034478529498429812 -0.28951379058442123 0 -0.057136779716869042 -0.28712205926022771 0 -0.034478529498429812 -0.28951379058442123 0 -0.057136779716869042 -0.28712205926022771 0 -0.05012745319326059 -0.30445945297878008 0 -0.066237696895848033 -0.30175990202967712 0 -0.05012745319326059 -0.30445945297878008 0 -0.060613113796085999 -0.32288269869712272 0 -0.066237696895848033 -0.30175990202967712 0 -0.057136779716869042 -0.28712205926022771 0 -0.05012745319326059 -0.30445945297878008 0 -0.034478529498429812 -0.28951379058442123 0 -0.05012745319326059 -0.30445945297878008 0 -0.031649484425336299 -0.31701356192698721 0 -0.034478529498429812 -0.28951379058442123 0 -0.031649484425336299 -0.31701356192698721 0 -0.034478529498429812 -0.28951379058442123 0 -0.020284114256294641 -0.29759304008048471 0 -0.031649484425336299 -0.31701356192698721 0 -0.020284114256294641 -0.29759304008048471 0 -0.01007927323019326 -0.3103345258507364 0 -0.031649484425336299 -0.31701356192698721 0 -0.020284114256294641 -0.29759304008048471 0 -0.01007927323019326 -0.3103345258507364 0 -0.0080748459131490501 -0.2914060437848453 0 -0.01007927323019326 -0.3103345258507364 0 -0.0080748459131490501 -0.2914060437848453 0 0.0017563221397047381 -0.2997067901486577 0 -0.020284114256294641 -0.29759304008048471 0 -0.0080748459131490501 -0.2914060437848453 0 -0.017138438214364771 -0.27969727825543328 0 -0.0080748459131490501 -0.2914060437848453 0 -0.002848760243290064 -0.27761611820401882 0 0.0066437179820165657 -0.2861171845936395 0 -0.0080748459131490501 -0.2914060437848453 0 -0.017138438214364771 -0.27969727825543328 0 -0.002848760243290064 -0.27761611820401882 0 -0.034478529498429812 -0.28951379058442123 0 -0.020284114256294641 -0.29759304008048471 0 -0.017138438214364771 -0.27969727825543328 0 -0.034478529498429812 -0.28951379058442123 0 -0.024854767991187229 -0.26705994663832661 0 -0.017138438214364771 -0.27969727825543328 0 -0.024854767991187229 -0.26705994663832661 0 -0.01588915841142927 -0.27169793716392882 0 -0.01145854626600548 -0.26602311564559261 0 -0.024854767991187229 -0.26705994663832661 0 -0.01588915841142927 -0.27169793716392882 0 -0.017138438214364771 -0.27969727825543328 0 -0.017138438214364771 -0.27969727825543328 0 -0.011833725783772399 -0.27375861231724341 0 -0.002848760243290064 -0.27761611820401882 0 -0.01145854626600548 -0.26602311564559261 0 0.01128192931255503 -0.27464126756021451 0 -0.002848760243290064 -0.27761611820401882 0 -0.01145854626600548 -0.26602311564559261 0 0.01128192931255503 -0.27464126756021451 0 -0.01588915841142927 -0.27169793716392882 0 -0.017138438214364771 -0.27969727825543328 0 -0.011833725783772399 -0.27375861231724341 0 -0.011833725783772399 -0.27375861231724341 0 -0.002848760243290064 -0.27761611820401882 0 -0.01145854626600548 -0.26602311564559261 0 -0.01588915841142927 -0.27169793716392882 0 -0.011833725783772399 -0.27375861231724341 0 -0.01145854626600548 -0.26602311564559261 0 -0.01269776775011346 -0.25850600500130039 0 -0.0051360078472848583 -0.25701396995817721 0 0.0057158633005241696 -0.26337829885565528 0 -0.01145854626600548 -0.26602311564559261 0 -0.01269776775011346 -0.25850600500130039 0 0.0057158633005241696 -0.26337829885565528 0 -0.01269776775011346 -0.25850600500130039 0 0.0057158633005241696 -0.26337829885565528 0 -0.0009620894167222515 -0.25496392916579452 0 -0.0051360078472848583 -0.25701396995817721 0 0.0057158633005241696 -0.26337829885565528 0 -0.0071971320314794382 -0.2528457057960789 0 -0.01082738352359053 -0.24876902592697839 0 -0.0029313858115674811 -0.24854412401401971 0 -0.0009620894167222515 -0.25496392916579452 0 -0.0071971320314794382 -0.2528457057960789 0 -0.0029313858115674811 -0.24854412401401971 0 -0.0009620894167222515 -0.25496392916579452 0 -0.0051360078472848583 -0.25701396995817721 0 -0.0071971320314794382 -0.2528457057960789 0 -0.0051360078472848583 -0.25701396995817721 0 -0.0071971320314794382 -0.2528457057960789 0 -0.0094143843739788544 -0.25459574361389747 0 -0.0071971320314794382 -0.2528457057960789 0 -0.0094143843739788544 -0.25459574361389747 0 -0.01082738352359053 -0.24876902592697839 0 -0.01269776775011346 -0.25850600500130039 0 -0.0094143843739788544 -0.25459574361389747 0 -0.01082738352359053 -0.24876902592697839 0 -0.01269776775011346 -0.25850600500130039 0 -0.0051360078472848583 -0.25701396995817721 0 -0.0094143843739788544 -0.25459574361389747 0 -0.01269776775011346 -0.25850600500130039 0 -0.025857267464119819 -0.25506418495113531 0 -0.034199021844566052 -0.25740496373097072 0 -0.01145854626600548 -0.26602311564559261 0 -0.025857267464119819 -0.25506418495113531 0 -0.01269776775011346 -0.25850600500130039 0 -0.025857267464119819 -0.25506418495113531 0 -0.02368513365757598 -0.23851275990414511 0 -0.034199021844566052 -0.25740496373097072 0 -0.024854767991187229 -0.26705994663832661 0 -0.01145854626600548 -0.26602311564559261 0 -0.034199021844566052 -0.25740496373097072 0 -0.01145854626600548 -0.26602311564559261 0 -0.01145854626600548 -0.26602311564559261 0 -0.01269776775011346 -0.25850600500130039 0 -0.025857267464119819 -0.25506418495113531 0 -0.046940286889098168 -0.35955036210978841 0 -0.050269733973634309 -0.3392354021108881 0 -0.02882043935224279 -0.34451333326955308 0 -0.046940286889098168 -0.35955036210978841 0 -0.02882043935224279 -0.34451333326955308 0 -0.026419717968229769 -0.36867473508972981 0 -0.046940286889098168 -0.35955036210978841 0 -0.026419717968229769 -0.36867473508972981 0 -0.046935058978613817 -0.3783756837809118 0 -0.065890469742167113 -0.37350781086095058 0 -0.046940286889098168 -0.35955036210978841 0 -0.046935058978613817 -0.3783756837809118 0 -0.063306301319701316 -0.35299520754669739 0 -0.065890469742167113 -0.37350781086095058 0 -0.046940286889098168 -0.35955036210978841 0 -0.063306301319701316 -0.35299520754669739 0 -0.046940286889098168 -0.35955036210978841 0 -0.050269733973634309 -0.3392354021108881 0 -0.073144777225565616 -0.33606175945158517 0 -0.063306301319701316 -0.35299520754669739 0 -0.050269733973634309 -0.3392354021108881 0 -0.073144777225565616 -0.33606175945158517 0 -0.050269733973634309 -0.3392354021108881 0 -0.060613113796085999 -0.32288269869712272 0 -0.050269733973634309 -0.3392354021108881 0 -0.060613113796085999 -0.32288269869712272 0 -0.031649484425336299 -0.31701356192698721 0 -0.05012745319326059 -0.30445945297878008 0 -0.060613113796085999 -0.32288269869712272 0 -0.031649484425336299 -0.31701356192698721 0 -0.050269733973634309 -0.3392354021108881 0 -0.031649484425336299 -0.31701356192698721 0 -0.02882043935224279 -0.34451333326955308 0 -0.031649484425336299 -0.31701356192698721 0 -0.02882043935224279 -0.34451333326955308 0 -0.031649484425336299 -0.31701356192698721 0 -0.0038616663111063101 -0.33241552487502413 0 -0.02882043935224279 -0.34451333326955308 0 -0.01007927323019326 -0.3103345258507364 0 -0.031649484425336299 -0.31701356192698721 0 -0.0038616663111063101 -0.33241552487502413 0 -0.01007927323019326 -0.3103345258507364 0 -0.0038616663111063101 -0.33241552487502413 0 0.0094652366165251054 -0.31053241408104548 0 -0.0038616663111063101 -0.33241552487502413 0 -0.0043130761299947744 -0.35643483176966217 0 -0.02882043935224279 -0.34451333326955308 0 -0.0043130761299947744 -0.35643483176966217 0 -0.02882043935224279 -0.34451333326955308 0 -0.026419717968229769 -0.36867473508972981 0 -0.0043130761299947744 -0.35643483176966217 0 -0.026419717968229769 -0.36867473508972981 0 -0.0064694903547723136 -0.38059021958606692 0 -0.0064694903547723136 -0.38059021958606692 0 -0.0080625817845775948 -0.40608726553411861 0 -0.026496984295852101 -0.39226102623928111 0 -0.0064694903547723136 -0.38059021958606692 0 -0.0080625817845775948 -0.40608726553411861 0 0.009690974369139977 -0.39295199195252922 0 -0.0080625817845775948 -0.40608726553411861 0 -0.026496984295852101 -0.39226102623928111 0 -0.029852467816379728 -0.41236872525256307 0 -0.026419717968229769 -0.36867473508972981 0 -0.0064694903547723136 -0.38059021958606692 0 -0.026496984295852101 -0.39226102623928111 0 -0.026496984295852101 -0.39226102623928111 0 -0.048213792324517578 -0.39768762776665978 0 -0.046935058978613817 -0.3783756837809118 0 -0.026419717968229769 -0.36867473508972981 0 -0.026496984295852101 -0.39226102623928111 0 -0.046935058978613817 -0.3783756837809118 0 -0.026496984295852101 -0.39226102623928111 0 -0.048213792324517578 -0.39768762776665978 0 -0.029852467816379728 -0.41236872525256307 0 -0.048213792324517578 -0.39768762776665978 0 -0.065379196062645584 -0.39052657147488062 0 -0.06528413140028641 -0.40548789039177052 0 -0.048213792324517578 -0.39768762776665978 0 -0.046935058978613817 -0.3783756837809118 0 -0.065379196062645584 -0.39052657147488062 0 -0.065890469742167113 -0.37350781086095058 0 -0.046935058978613817 -0.3783756837809118 0 -0.065379196062645584 -0.39052657147488062 0 -0.052630130657334448 -0.42871109396582502 0 -0.036803499053157718 -0.43392585985635063 0 -0.055908543568221357 -0.44353945242809251 0 -0.052630130657334448 -0.42871109396582502 0 -0.048282499091199083 -0.41684649723306111 0 -0.065713266975248902 -0.42040157794015642 0 -0.052630130657334448 -0.42871109396582502 0 -0.055908543568221357 -0.44353945242809251 0 -0.077753046024815156 -0.43509142098737241 0 -0.048282499091199083 -0.41684649723306111 0 -0.06528413140028641 -0.40548789039177052 0 -0.065713266975248902 -0.42040157794015642 0 -0.048213792324517578 -0.39768762776665978 0 -0.048282499091199083 -0.41684649723306111 0 -0.06528413140028641 -0.40548789039177052 0 -0.048213792324517578 -0.39768762776665978 0 -0.048282499091199083 -0.41684649723306111 0 -0.029852467816379728 -0.41236872525256307 0 -0.048282499091199083 -0.41684649723306111 0 -0.036803499053157718 -0.43392585985635063 0 -0.029852467816379728 -0.41236872525256307 0 -0.052630130657334448 -0.42871109396582502 0 -0.048282499091199083 -0.41684649723306111 0 -0.036803499053157718 -0.43392585985635063 0 -0.036803499053157718 -0.43392585985635063 0 -0.01686747062211669 -0.42668809062348251 0 -0.022482277956740859 -0.44034230556013138 0 -0.036803499053157718 -0.43392585985635063 0 -0.01686747062211669 -0.42668809062348251 0 -0.029852467816379728 -0.41236872525256307 0 -0.0080625817845775948 -0.40608726553411861 0 -0.01686747062211669 -0.42668809062348251 0 -0.029852467816379728 -0.41236872525256307 0 -0.0080625817845775948 -0.40608726553411861 0 -0.01686747062211669 -0.42668809062348251 0 0.01224976062295041 -0.42183763890738629 0 -0.01686747062211669 -0.42668809062348251 0 -0.008216644178786571 -0.4466179140804285 0 0.01224976062295041 -0.42183763890738629 0 -0.008216644178786571 -0.4466179140804285 0 -0.0021957942935651631 -0.46571035637089769 0 -0.016151777162071251 -0.46269316979172348 0 -0.0021957942935651631 -0.46571035637089769 0 -0.016151777162071251 -0.46269316979172348 0 -0.01292321871024151 -0.47600360382280887 0 -0.008216644178786571 -0.4466179140804285 0 -0.016151777162071251 -0.46269316979172348 0 -0.028753682251359231 -0.45370767630375852 0 -0.016151777162071251 -0.46269316979172348 0 -0.030722049445265721 -0.46513815794063051 0 -0.025757536927686689 -0.47561542944709773 0 -0.016151777162071251 -0.46269316979172348 0 -0.030722049445265721 -0.46513815794063051 0 -0.028753682251359231 -0.45370767630375852 0 -0.036803499053157718 -0.43392585985635063 0 -0.028753682251359231 -0.45370767630375852 0 -0.022482277956740859 -0.44034230556013138 0 -0.01686747062211669 -0.42668809062348251 0 -0.008216644178786571 -0.4466179140804285 0 -0.022482277956740859 -0.44034230556013138 0 -0.008216644178786571 -0.4466179140804285 0 -0.028753682251359231 -0.45370767630375852 0 -0.022482277956740859 -0.44034230556013138 0 -0.011489863113854141 -0.5 0 -0.010144146689038991 -0.48941639725935437 0 0.012735562036971701 -0.48508522326900949 0 -0.010144146689038991 -0.48941639725935437 0 -0.00065605929082254884 -0.47874224407546379 0 -0.01292321871024151 -0.47600360382280887 0 -0.010144146689038991 -0.48941639725935437 0 -0.01292321871024151 -0.47600360382280887 0 -0.022633997898264431 -0.48384402599231691 0 -0.0021957942935651631 -0.46571035637089769 0 -0.00065605929082254884 -0.47874224407546379 0 -0.01292321871024151 -0.47600360382280887 0 -0.016151777162071251 -0.46269316979172348 0 -0.01292321871024151 -0.47600360382280887 0 -0.025757536927686689 -0.47561542944709773 0 -0.025757536927686689 -0.47561542944709773 0 -0.022633997898264431 -0.48384402599231691 0 -0.032724513000240443 -0.48384135401243772 0 -0.01292321871024151 -0.47600360382280887 0 -0.025757536927686689 -0.47561542944709773 0 -0.022633997898264431 -0.48384402599231691 0 -0.011489863113854141 -0.5 0 -0.010144146689038991 -0.48941639725935437 0 -0.033023855415049652 -0.49374757124969931 0 -0.010144146689038991 -0.48941639725935437 0 -0.022633997898264431 -0.48384402599231691 0 -0.033023855415049652 -0.49374757124969931 0 -0.011489863113854141 -0.5 0 -0.041002190054857779 -0.5 0 -0.033023855415049652 -0.49374757124969931 0 -0.010144146689038991 -0.48941639725935437 0 -0.033023855415049652 -0.49374757124969931 0 -0.022633997898264431 -0.48384402599231691 0 -0.033023855415049652 -0.49374757124969931 0 -0.032724513000240443 -0.48384135401243772 0 -0.041002190054857779 -0.5 0 -0.040644419244316249 -0.48874723383863622 0 -0.055758353525359711 -0.48944453406372251 0 -0.041002190054857779 -0.5 0 -0.033023855415049652 -0.49374757124969931 0 -0.040644419244316249 -0.48874723383863622 0 -0.033023855415049652 -0.49374757124969931 0 -0.040644419244316249 -0.48874723383863622 0 -0.032724513000240443 -0.48384135401243772 0 -0.040644419244316249 -0.48874723383863622 0 -0.040713184226073652 -0.47670270986732172 0 -0.055758353525359711 -0.48944453406372251 0 -0.040644419244316249 -0.48874723383863622 0 -0.040713184226073652 -0.47670270986732172 0 -0.032724513000240443 -0.48384135401243772 0 -0.025757536927686689 -0.47561542944709773 0 -0.040713184226073652 -0.47670270986732172 0 -0.032724513000240443 -0.48384135401243772 0 -0.030722049445265721 -0.46513815794063051 0 -0.025757536927686689 -0.47561542944709773 0 -0.040713184226073652 -0.47670270986732172 0 -0.040713184226073652 -0.47670270986732172 0 -0.05604151524233808 -0.47085547185542692 0 -0.042137987481662489 -0.46199998676314519 0 -0.040713184226073652 -0.47670270986732172 0 -0.05604151524233808 -0.47085547185542692 0 -0.055758353525359711 -0.48944453406372251 0 -0.05604151524233808 -0.47085547185542692 0 -0.055758353525359711 -0.48944453406372251 0 -0.068357021366280857 -0.47830767763467641 0 -0.041002190054857779 -0.5 0 -0.055758353525359711 -0.48944453406372251 0 -0.070514516995861642 -0.5 0 -0.036803499053157718 -0.43392585985635063 0 -0.028753682251359231 -0.45370767630375852 0 -0.042591220718736618 -0.44931976272637059 0 -0.036803499053157718 -0.43392585985635063 0 -0.042591220718736618 -0.44931976272637059 0 -0.055908543568221357 -0.44353945242809251 0 -0.028753682251359231 -0.45370767630375852 0 -0.042591220718736618 -0.44931976272637059 0 -0.042137987481662489 -0.46199998676314519 0 -0.030722049445265721 -0.46513815794063051 0 -0.028753682251359231 -0.45370767630375852 0 -0.042137987481662489 -0.46199998676314519 0 -0.030722049445265721 -0.46513815794063051 0 -0.040713184226073652 -0.47670270986732172 0 -0.042137987481662489 -0.46199998676314519 0 -0.042591220718736618 -0.44931976272637059 0 -0.042137987481662489 -0.46199998676314519 0 -0.054601469153056192 -0.45704509188174619 0 -0.05604151524233808 -0.47085547185542692 0 -0.054601469153056192 -0.45704509188174619 0 -0.071896784036839162 -0.45711427830285839 0 -0.05604151524233808 -0.47085547185542692 0 -0.042137987481662489 -0.46199998676314519 0 -0.054601469153056192 -0.45704509188174619 0 -0.054601469153056192 -0.45704509188174619 0 -0.055908543568221357 -0.44353945242809251 0 -0.071896784036839162 -0.45711427830285839 0 -0.042591220718736618 -0.44931976272637059 0 -0.054601469153056192 -0.45704509188174619 0 -0.055908543568221357 -0.44353945242809251 0 -0.055908543568221357 -0.44353945242809251 0 -0.071896784036839162 -0.45711427830285839 0 -0.077753046024815156 -0.43509142098737241 0 -0.071896784036839162 -0.45711427830285839 0 -0.087573937031005744 -0.47412410395137422 0 -0.093954286744555499 -0.45179652052777369 0 -0.087573937031005744 -0.47412410395137422 0 -0.093954286744555499 -0.45179652052777369 0 -0.071896784036839162 -0.45711427830285839 0 -0.093954286744555499 -0.45179652052777369 0 -0.077753046024815156 -0.43509142098737241 0 -0.093954286744555499 -0.45179652052777369 0 -0.10033463645810529 -0.42946893710417328 0 -0.077753046024815156 -0.43509142098737241 0 -0.055758353525359711 -0.48944453406372251 0 -0.070514516995861642 -0.5 0 -0.068357021366280857 -0.47830767763467641 0 -0.05604151524233808 -0.47085547185542692 0 -0.071896784036839162 -0.45711427830285839 0 -0.068357021366280857 -0.47830767763467641 0 -0.071896784036839162 -0.45711427830285839 0 -0.068357021366280857 -0.47830767763467641 0 -0.087573937031005744 -0.47412410395137422 0 -0.070514516995861642 -0.5 0 -0.068357021366280857 -0.47830767763467641 0 -0.087573937031005744 -0.47412410395137422 0 -0.070514516995861642 -0.5 0 -0.087573937031005744 -0.47412410395137422 0 -0.10002684393686551 -0.5 0 -0.087573937031005744 -0.47412410395137422 0 -0.10002684393686551 -0.5 0 -0.10780494223314389 -0.47765854937150709 0 -0.087573937031005744 -0.47412410395137422 0 -0.10780494223314389 -0.47765854937150709 0 -0.1029954147344513 -0.46359439800738522 0 -0.12605423818426559 -0.48707922202292669 0 -0.10780494223314389 -0.47765854937150709 0 -0.1201929706126502 -0.46127799294672761 0 -0.12605423818426559 -0.48707922202292669 0 -0.1201929706126502 -0.46127799294672761 0 -0.12605423818426559 -0.48707922202292669 0 -0.10002684393686551 -0.5 0 -0.10780494223314389 -0.47765854937150709 0 -0.1295391708778694 -0.5 0 -0.12605423818426559 -0.48707922202292669 0 -0.10002684393686551 -0.5 0 -0.093954286744555499 -0.45179652052777369 0 -0.10033463645810529 -0.42946893710417328 0 -0.10636180231815941 -0.44832292249131772 0 -0.11433170304103479 -0.43547676387052858 0 -0.10033463645810529 -0.42946893710417328 0 -0.10636180231815941 -0.44832292249131772 0 -0.093954286744555499 -0.45179652052777369 0 -0.10033463645810529 -0.42946893710417328 0 -0.087573937031005744 -0.47412410395137422 0 -0.093954286744555499 -0.45179652052777369 0 -0.1029954147344513 -0.46359439800738522 0 -0.10636180231815941 -0.44832292249131772 0 -0.093954286744555499 -0.45179652052777369 0 -0.1029954147344513 -0.46359439800738522 0 -0.10780494223314389 -0.47765854937150709 0 -0.1029954147344513 -0.46359439800738522 0 -0.1201929706126502 -0.46127799294672761 0 -0.10636180231815941 -0.44832292249131772 0 -0.1029954147344513 -0.46359439800738522 0 -0.1201929706126502 -0.46127799294672761 0 -0.13671083813600751 -0.45044361347006462 0 -0.1201929706126502 -0.46127799294672761 0 -0.11433170304103479 -0.43547676387052858 0 -0.10636180231815941 -0.44832292249131772 0 -0.1201929706126502 -0.46127799294672761 0 -0.11433170304103479 -0.43547676387052858 0 -0.13671083813600751 -0.45044361347006462 0 -0.1225906368027144 -0.43005957413219659 0 -0.11433170304103479 -0.43547676387052858 0 -0.1201929706126502 -0.46127799294672761 0 -0.11433170304103479 -0.43547676387052858 0 -0.1225906368027144 -0.43005957413219659 0 -0.11433170304103479 -0.43547676387052858 0 -0.10847043546942051 -0.40967553479432928 0 -0.11433170304103479 -0.43547676387052858 0 -0.10847043546942051 -0.40967553479432928 0 -0.12908399078123631 -0.42243277819987513 0 -0.1225906368027144 -0.43005957413219659 0 -0.12315425937001 -0.41747458531602638 0 -0.11433170304103479 -0.43547676387052858 0 -0.10033463645810529 -0.42946893710417328 0 -0.10847043546942051 -0.40967553479432928 0 -0.10033463645810529 -0.42946893710417328 0 -0.094107383989168333 -0.41562629379671062 0 -0.1067149861716557 -0.40714135368057303 0 -0.10033463645810529 -0.42946893710417328 0 -0.1067149861716557 -0.40714135368057303 0 -0.10847043546942051 -0.40967553479432928 0 -0.10033463645810529 -0.42946893710417328 0 -0.1067149861716557 -0.40714135368057303 0 -0.094107383989168333 -0.41562629379671062 0 -0.1067149861716557 -0.40714135368057303 0 -0.093615658715422545 -0.40476526464288082 0 -0.10847043546942051 -0.40967553479432928 0 -0.1105756132387118 -0.40676785322215941 0 -0.1073722461642546 -0.40484131873350049 0 -0.10847043546942051 -0.40967553479432928 0 -0.1073722461642546 -0.40484131873350049 0 -0.1067149861716557 -0.40714135368057303 0 -0.10847043546942051 -0.40967553479432928 0 -0.1073722461642546 -0.40484131873350049 0 -0.1067149861716557 -0.40714135368057303 0 -0.10847043546942051 -0.40967553479432928 0 -0.1225906368027144 -0.43005957413219659 0 -0.1163272184937543 -0.41351727508190028 0 -0.12315425937001 -0.41747458531602638 0 -0.10847043546942051 -0.40967553479432928 0 -0.1125412123036873 -0.40894162881917728 0 -0.1163272184937543 -0.41351727508190028 0 -0.1125412123036873 -0.40894162881917728 0 -0.1105756132387118 -0.40676785322215941 0 -0.1147915820128618 -0.40580585217832088 0 -0.1225906368027144 -0.43005957413219659 0 -0.10847043546942051 -0.40967553479432928 0 -0.1163272184937543 -0.41351727508190028 0 -0.10847043546942051 -0.40967553479432928 0 -0.1125412123036873 -0.40894162881917728 0 -0.1105756132387118 -0.40676785322215941 0 -0.1225906368027144 -0.43005957413219659 0 -0.10847043546942051 -0.40967553479432928 0 -0.1125412123036873 -0.40894162881917728 0 -0.1163272184937543 -0.41351727508190028 0 -0.1147915820128618 -0.40580585217832088 0 -0.1225700411049412 -0.40994677461386392 0 -0.1219584454402414 -0.40406961642135292 0 -0.1147915820128618 -0.40580585217832088 0 -0.1163272184937543 -0.41351727508190028 0 -0.1225700411049412 -0.40994677461386392 0 -0.1147915820128618 -0.40580585217832088 0 -0.1163272184937543 -0.41351727508190028 0 -0.12315425937001 -0.41747458531602638 0 -0.1225700411049412 -0.40994677461386392 0 -0.1273295258527142 -0.39594401256049883 0 -0.1219584454402414 -0.40406961642135292 0 -0.1190781430676657 -0.39944145851713192 0 -0.11305295545189779 -0.39895005080087959 0 -0.11384267237711319 -0.38219851895920232 0 -0.1073722461642546 -0.40484131873350049 0 -0.1295768038857959 -0.40463739140698729 0 -0.1225700411049412 -0.40994677461386392 0 -0.1219584454402414 -0.40406961642135292 0 -0.1182582065806136 -0.392437760624607 0 -0.11305295545189779 -0.39895005080087959 0 -0.11384267237711319 -0.38219851895920232 0 -0.11384267237711319 -0.38219851895920232 0 -0.1073722461642546 -0.40484131873350049 0 -0.1219584454402414 -0.40406961642135292 0 -0.1190781430676657 -0.39944145851713192 0 -0.1147915820128618 -0.40580585217832088 0 -0.1273295258527142 -0.39594401256049883 0 -0.1190781430676657 -0.39944145851713192 0 -0.1182582065806136 -0.392437760624607 0 -0.1190781430676657 -0.39944145851713192 0 -0.1182582065806136 -0.392437760624607 0 -0.11305295545189779 -0.39895005080087959 0 -0.1105756132387118 -0.40676785322215941 0 -0.1114480992169309 -0.40409126873371493 0 -0.1073722461642546 -0.40484131873350049 0 -0.1105756132387118 -0.40676785322215941 0 -0.1114480992169309 -0.40409126873371493 0 -0.1147915820128618 -0.40580585217832088 0 -0.11305295545189779 -0.39895005080087959 0 -0.1114480992169309 -0.40409126873371493 0 -0.1147915820128618 -0.40580585217832088 0 -0.11305295545189779 -0.39895005080087959 0 -0.1114480992169309 -0.40409126873371493 0 -0.1073722461642546 -0.40484131873350049 0 -0.1190781430676657 -0.39944145851713192 0 -0.11305295545189779 -0.39895005080087959 0 -0.1147915820128618 -0.40580585217832088 0 -0.12625141541498519 -0.38197991289387551 0 -0.1182582065806136 -0.392437760624607 0 -0.11384267237711319 -0.38219851895920232 0 -0.12625141541498519 -0.38197991289387551 0 -0.1273295258527142 -0.39594401256049883 0 -0.1182582065806136 -0.392437760624607 0 -0.11384267237711319 -0.38219851895920232 0 -0.10176491866177829 -0.38015793077534599 0 -0.1073722461642546 -0.40484131873350049 0 -0.10176491866177829 -0.38015793077534599 0 -0.095995502779844255 -0.39166661886747001 0 -0.085276019388031976 -0.37619188405436782 0 -0.10849363524981311 -0.36442991456039969 0 -0.11384267237711319 -0.38219851895920232 0 -0.10176491866177829 -0.38015793077534599 0 -0.10176491866177829 -0.38015793077534599 0 -0.1073722461642546 -0.40484131873350049 0 -0.095995502779844255 -0.39166661886747001 0 -0.10176491866177829 -0.38015793077534599 0 -0.1073722461642546 -0.40484131873350049 0 -0.1067149861716557 -0.40714135368057303 0 -0.1073722461642546 -0.40484131873350049 0 -0.095995502779844255 -0.39166661886747001 0 -0.1067149861716557 -0.40714135368057303 0 -0.1073722461642546 -0.40484131873350049 0 -0.1067149861716557 -0.40714135368057303 0 -0.095995502779844255 -0.39166661886747001 0 -0.1067149861716557 -0.40714135368057303 0 -0.095995502779844255 -0.39166661886747001 0 -0.093615658715422545 -0.40476526464288082 0 -0.093615658715422545 -0.40476526464288082 0 -0.081664681120336771 -0.39582842074610342 0 -0.082451352827770552 -0.41163664718976212 0 -0.095995502779844255 -0.39166661886747001 0 -0.093615658715422545 -0.40476526464288082 0 -0.081664681120336771 -0.39582842074610342 0 -0.095995502779844255 -0.39166661886747001 0 -0.081664681120336771 -0.39582842074610342 0 -0.085276019388031976 -0.37619188405436782 0 -0.081664681120336771 -0.39582842074610342 0 -0.085276019388031976 -0.37619188405436782 0 -0.074552591578295357 -0.38401367178407558 0 -0.095995502779844255 -0.39166661886747001 0 -0.085276019388031976 -0.37619188405436782 0 -0.081664681120336771 -0.39582842074610342 0 -0.065379196062645584 -0.39052657147488062 0 -0.074552591578295357 -0.38401367178407558 0 -0.065890469742167113 -0.37350781086095058 0 -0.085276019388031976 -0.37619188405436782 0 -0.074552591578295357 -0.38401367178407558 0 -0.065890469742167113 -0.37350781086095058 0 -0.065379196062645584 -0.39052657147488062 0 -0.074552591578295357 -0.38401367178407558 0 -0.081664681120336771 -0.39582842074610342 0 -0.06528413140028641 -0.40548789039177052 0 -0.082451352827770552 -0.41163664718976212 0 -0.081664681120336771 -0.39582842074610342 0 -0.065379196062645584 -0.39052657147488062 0 -0.06528413140028641 -0.40548789039177052 0 -0.065713266975248902 -0.42040157794015642 0 -0.085028608260126398 -0.42320905853578622 0 -0.082451352827770552 -0.41163664718976212 0 -0.06528413140028641 -0.40548789039177052 0 -0.065713266975248902 -0.42040157794015642 0 -0.082451352827770552 -0.41163664718976212 0 -0.065713266975248902 -0.42040157794015642 0 -0.077753046024815156 -0.43509142098737241 0 -0.085028608260126398 -0.42320905853578622 0 -0.052630130657334448 -0.42871109396582502 0 -0.065713266975248902 -0.42040157794015642 0 -0.077753046024815156 -0.43509142098737241 0 -0.10033463645810529 -0.42946893710417328 0 -0.077753046024815156 -0.43509142098737241 0 -0.085028608260126398 -0.42320905853578622 0 -0.10033463645810529 -0.42946893710417328 0 -0.094107383989168333 -0.41562629379671062 0 -0.085028608260126398 -0.42320905853578622 0 -0.094107383989168333 -0.41562629379671062 0 -0.085028608260126398 -0.42320905853578622 0 -0.082451352827770552 -0.41163664718976212 0 -0.094107383989168333 -0.41562629379671062 0 -0.093615658715422545 -0.40476526464288082 0 -0.082451352827770552 -0.41163664718976212 0 -0.080832567710134945 -0.085265223789800185 0 -0.09573268077664969 -0.090624673380050064 0 -0.094924188455715333 -0.074372309221374736 0 -0.080832567710134945 -0.085265223789800185 0 -0.0944050220014645 -0.1050702242089397 0 -0.09573268077664969 -0.090624673380050064 0 -0.094924188455715333 -0.074372309221374736 0 -0.077079431972146645 -0.050953682142663811 0 -0.080832567710134945 -0.085265223789800185 0 -0.077460787511610923 -0.070469280456870842 0 -0.094924188455715333 -0.074372309221374736 0 -0.077460787511610923 -0.070469280456870842 0 -0.094924188455715333 -0.074372309221374736 0 -0.078535685693175539 -0.061573663464548622 0 -0.080832567710134945 -0.085265223789800185 0 -0.072736864716213656 -0.076885636419884412 0 -0.077460787511610923 -0.070469280456870842 0 -0.072736864716213656 -0.076885636419884412 0 -0.077460787511610923 -0.070469280456870842 0 -0.067174029152377468 -0.071022972744677337 0 -0.077460787511610923 -0.070469280456870842 0 -0.067174029152377468 -0.071022972744677337 0 -0.070308423821052124 -0.061023041189074957 0 -0.077460787511610923 -0.070469280456870842 0 -0.078535685693175539 -0.061573663464548622 0 -0.070308423821052124 -0.061023041189074957 0 -0.067174029152377468 -0.071022972744677337 0 -0.070308423821052124 -0.061023041189074957 0 -0.060830035872249492 -0.064558057335980773 0 -0.072736864716213656 -0.076885636419884412 0 -0.067174029152377468 -0.071022972744677337 0 -0.063732237529271596 -0.080733089011810297 0 -0.067174029152377468 -0.071022972744677337 0 -0.063732237529271596 -0.080733089011810297 0 -0.058000192015007383 -0.073011667883306972 0 -0.080832567710134945 -0.085265223789800185 0 -0.063732237529271596 -0.080733089011810297 0 -0.066023591375222151 -0.09957098179305135 0 -0.080832567710134945 -0.085265223789800185 0 -0.072736864716213656 -0.076885636419884412 0 -0.063732237529271596 -0.080733089011810297 0 -0.066023591375222151 -0.09957098179305135 0 -0.069466171350113709 -0.1135628440840601 0 -0.0944050220014645 -0.1050702242089397 0 -0.066023591375222151 -0.09957098179305135 0 -0.069466171350113709 -0.1135628440840601 0 -0.054384952187449757 -0.110609208962567 0 -0.077516787342341589 -0.1242022911324857 0 -0.069466171350113709 -0.1135628440840601 0 -0.059238207921678762 -0.13024384051707169 0 -0.077516787342341589 -0.1242022911324857 0 -0.093262550211769629 -0.1231040070079162 0 -0.0944050220014645 -0.1050702242089397 0 -0.077516787342341589 -0.1242022911324857 0 -0.069466171350113709 -0.1135628440840601 0 -0.0944050220014645 -0.1050702242089397 0 -0.066023591375222151 -0.09957098179305135 0 -0.0944050220014645 -0.1050702242089397 0 -0.080832567710134945 -0.085265223789800185 0 -0.066023591375222151 -0.09957098179305135 0 -0.0944050220014645 -0.1050702242089397 0 -0.0944050220014645 -0.1050702242089397 0 -0.1071147179002416 -0.1244919901550422 0 -0.11276894493928399 -0.097790936300085646 0 -0.0944050220014645 -0.1050702242089397 0 -0.11276894493928399 -0.097790936300085646 0 -0.09573268077664969 -0.090624673380050064 0 -0.093262550211769629 -0.1231040070079162 0 -0.0944050220014645 -0.1050702242089397 0 -0.1071147179002416 -0.1244919901550422 0 -0.1071147179002416 -0.1244919901550422 0 -0.11276894493928399 -0.097790936300085646 0 -0.1306137014228527 -0.1212095633787966 0 -0.11276894493928399 -0.097790936300085646 0 -0.1306137014228527 -0.1212095633787966 0 -0.112702195828283 -0.076339248342475546 0 -0.13438499311011279 -0.096174695905308166 0 -0.11276894493928399 -0.097790936300085646 0 -0.112702195828283 -0.076339248342475546 0 -0.13438499311011279 -0.096174695905308166 0 -0.11276894493928399 -0.097790936300085646 0 -0.094924188455715333 -0.074372309221374736 0 -0.112702195828283 -0.076339248342475546 0 -0.11276894493928399 -0.097790936300085646 0 -0.094924188455715333 -0.074372309221374736 0 -0.11276894493928399 -0.097790936300085646 0 -0.09573268077664969 -0.090624673380050064 0 -0.094924188455715333 -0.074372309221374736 0 -0.094924188455715333 -0.074372309221374736 0 -0.1026030192468113 -0.064894788769428779 0 -0.112702195828283 -0.076339248342475546 0 -0.094924188455715333 -0.074372309221374736 0 -0.1026030192468113 -0.064894788769428779 0 -0.090333769324138391 -0.059362086744932152 0 -0.1026030192468113 -0.064894788769428779 0 -0.112702195828283 -0.076339248342475546 0 -0.1158705629695205 -0.060236298698018297 0 -0.112702195828283 -0.076339248342475546 0 -0.1158705629695205 -0.060236298698018297 0 -0.13497135686491851 -0.078315161523928284 0 -0.1158705629695205 -0.060236298698018297 0 -0.1150956899200111 -0.045830426672337207 0 -0.1070798181065768 -0.041876824406217303 0 -0.1158705629695205 -0.060236298698018297 0 -0.1150956899200111 -0.045830426672337207 0 -0.12809376798702951 -0.047905065599393698 0 -0.1163329610324388 -0.034474533447810513 0 -0.12530131535501859 -0.034952786400489197 0 -0.12809376798702951 -0.047905065599393698 0 -0.11023593420079281 -0.033339602888773932 0 -0.1150956899200111 -0.045830426672337207 0 -0.12809376798702951 -0.047905065599393698 0 -0.11023593420079281 -0.033339602888773932 0 -0.1163329610324388 -0.034474533447810513 0 -0.12809376798702951 -0.047905065599393698 0 -0.11023593420079281 -0.033339602888773932 0 -0.12809376798702951 -0.047905065599393698 0 -0.1163329610324388 -0.034474533447810513 0 -0.1221370268088495 -0.025998648103035 0 -0.12530131535501859 -0.034952786400489197 0 -0.11023593420079281 -0.033339602888773932 0 -0.1150956899200111 -0.045830426672337207 0 -0.1070798181065768 -0.041876824406217303 0 -0.11023593420079281 -0.033339602888773932 0 -0.1163329610324388 -0.034474533447810513 0 -0.097427134368436918 -0.027820357899848831 0 -0.11023593420079281 -0.033339602888773932 0 -0.1070798181065768 -0.041876824406217303 0 -0.097427134368436918 -0.027820357899848831 0 -0.1070798181065768 -0.041876824406217303 0 -0.096769769074122519 -0.04215743587210824 0 -0.097427134368436918 -0.027820357899848831 0 -0.1158705629695205 -0.060236298698018297 0 -0.1070798181065768 -0.041876824406217303 0 -0.096769769074122519 -0.04215743587210824 0 -0.1026030192468113 -0.064894788769428779 0 -0.1158705629695205 -0.060236298698018297 0 -0.099264754381345577 -0.055060356505970513 0 -0.1158705629695205 -0.060236298698018297 0 -0.096769769074122519 -0.04215743587210824 0 -0.099264754381345577 -0.055060356505970513 0 -0.096769769074122519 -0.04215743587210824 0 -0.099264754381345577 -0.055060356505970513 0 -0.090746651292135133 -0.048651172445365112 0 -0.1158705629695205 -0.060236298698018297 0 -0.096769769074122519 -0.04215743587210824 0 -0.1026030192468113 -0.064894788769428779 0 -0.099264754381345577 -0.055060356505970513 0 -0.090333769324138391 -0.059362086744932152 0 -0.1029392013539359 -0.0085751277431150782 0 -0.12735709500343681 0.004015926865657337 0 -0.1236693299605585 -0.0137973575501921 0 -0.1110604598185659 -0.0207882196779367 0 -0.1029392013539359 -0.0085751277431150782 0 -0.1236693299605585 -0.0137973575501921 0 -0.1029392013539359 -0.0085751277431150782 0 -0.12735709500343681 0.004015926865657337 0 -0.1236693299605585 -0.0137973575501921 0 -0.1110604598185659 -0.0207882196779367 0 -0.1221370268088495 -0.025998648103035 0 -0.1163329610324388 -0.034474533447810513 0 -0.1221370268088495 -0.025998648103035 0 -0.11173939550707281 -0.027270439782157759 0 -0.1110604598185659 -0.0207882196779367 0 -0.1221370268088495 -0.025998648103035 0 -0.11173939550707281 -0.027270439782157759 0 -0.1163329610324388 -0.034474533447810513 0 -0.097427134368436918 -0.027820357899848831 0 -0.1110604598185659 -0.0207882196779367 0 -0.097427134368436918 -0.027820357899848831 0 -0.1029392013539359 -0.0085751277431150782 0 -0.1163329610324388 -0.034474533447810513 0 -0.11173939550707281 -0.027270439782157759 0 -0.097427134368436918 -0.027820357899848831 0 -0.1110604598185659 -0.0207882196779367 0 -0.11173939550707281 -0.027270439782157759 0 -0.097427134368436918 -0.027820357899848831 0 -0.1029392013539359 -0.0085751277431150782 0 -0.086097875964997059 -0.0058870606910941042 0 -0.078521307704434995 -0.021166182351887271 0 -0.1029392013539359 -0.0085751277431150782 0 -0.078521307704434995 -0.021166182351887271 0 -0.1029392013539359 -0.0085751277431150782 0 -0.086097875964997059 -0.0058870606910941042 0 -0.091682611010439896 0.0063963380850077774 0 -0.086097875964997059 -0.0058870606910941042 0 -0.073830544796709738 -0.0078542708917730738 0 -0.078933949510919491 0.00072378658541613432 0 -0.086097875964997059 -0.0058870606910941042 0 -0.078521307704434995 -0.021166182351887271 0 -0.073830544796709738 -0.0078542708917730738 0 -0.097427134368436918 -0.027820357899848831 0 -0.078521307704434995 -0.021166182351887271 0 -0.097427134368436918 -0.027820357899848831 0 -0.078521307704434995 -0.021166182351887271 0 -0.077668975178724509 -0.024078573046198169 0 -0.097427134368436918 -0.027820357899848831 0 -0.1029392013539359 -0.0085751277431150782 0 -0.078521307704434995 -0.021166182351887271 0 -0.078521307704434995 -0.021166182351887271 0 -0.055132092173872667 -0.033226800447327051 0 -0.05822397002114936 -0.01402224463886402 0 -0.078521307704434995 -0.021166182351887271 0 -0.055132092173872667 -0.033226800447327051 0 -0.077668975178724509 -0.024078573046198169 0 -0.075465350998538308 -0.032772608828030472 0 -0.055132092173872667 -0.033226800447327051 0 -0.078521307704434995 -0.021166182351887271 0 -0.077668975178724509 -0.024078573046198169 0 -0.055132092173872667 -0.033226800447327051 0 -0.078521307704434995 -0.021166182351887271 0 -0.05822397002114936 -0.01402224463886402 0 -0.078521307704434995 -0.021166182351887271 0 -0.073830544796709738 -0.0078542708917730738 0 -0.05822397002114936 -0.01402224463886402 0 -0.073830544796709738 -0.0078542708917730738 0 -0.05822397002114936 -0.01402224463886402 0 -0.068462160169621672 0.0025537029525893409 0 -0.073830544796709738 -0.0078542708917730738 0 -0.078933949510919491 0.00072378658541613432 0 -0.068462160169621672 0.0025537029525893409 0 -0.094924188455715333 -0.074372309221374736 0 -0.090333769324138391 -0.059362086744932152 0 -0.077079431972146645 -0.050953682142663811 0 -0.094924188455715333 -0.074372309221374736 0 -0.078535685693175539 -0.061573663464548622 0 -0.077079431972146645 -0.050953682142663811 0 -0.084868245962835154 -0.053326759561897898 0 -0.090333769324138391 -0.059362086744932152 0 -0.077079431972146645 -0.050953682142663811 0 -0.084868245962835154 -0.053326759561897898 0 -0.080876314157704687 -0.04955372347343575 0 -0.082849096915408454 -0.045583035938281863 0 -0.080876314157704687 -0.04955372347343575 0 -0.078708481780428496 -0.048351416250899462 0 -0.082849096915408454 -0.045583035938281863 0 -0.080876314157704687 -0.04955372347343575 0 -0.078708481780428496 -0.048351416250899462 0 -0.077079431972146645 -0.050953682142663811 0 -0.084868245962835154 -0.053326759561897898 0 -0.080876314157704687 -0.04955372347343575 0 -0.077079431972146645 -0.050953682142663811 0 -0.084868245962835154 -0.053326759561897898 0 -0.090746651292135133 -0.048651172445365112 0 -0.082849096915408454 -0.045583035938281863 0 -0.084868245962835154 -0.053326759561897898 0 -0.090333769324138391 -0.059362086744932152 0 -0.090746651292135133 -0.048651172445365112 0 -0.099264754381345577 -0.055060356505970513 0 -0.090333769324138391 -0.059362086744932152 0 -0.090746651292135133 -0.048651172445365112 0 -0.096769769074122519 -0.04215743587210824 0 -0.088481073739883592 -0.043344290748051233 0 -0.083558777677868248 -0.036985518736449702 0 -0.096769769074122519 -0.04215743587210824 0 -0.097427134368436918 -0.027820357899848831 0 -0.077668975178724509 -0.024078573046198169 0 -0.096769769074122519 -0.04215743587210824 0 -0.077668975178724509 -0.024078573046198169 0 -0.083558777677868248 -0.036985518736449702 0 -0.096769769074122519 -0.04215743587210824 0 -0.077668975178724509 -0.024078573046198169 0 -0.090746651292135133 -0.048651172445365112 0 -0.088481073739883592 -0.043344290748051233 0 -0.082849096915408454 -0.045583035938281863 0 -0.096769769074122519 -0.04215743587210824 0 -0.090746651292135133 -0.048651172445365112 0 -0.088481073739883592 -0.043344290748051233 0 -0.077668975178724509 -0.024078573046198169 0 -0.083558777677868248 -0.036985518736449702 0 -0.075465350998538308 -0.032772608828030472 0 -0.083558777677868248 -0.036985518736449702 0 -0.082849096915408454 -0.045583035938281863 0 -0.075062618692292638 -0.040325846155841297 0 -0.088481073739883592 -0.043344290748051233 0 -0.083558777677868248 -0.036985518736449702 0 -0.082849096915408454 -0.045583035938281863 0 -0.082849096915408454 -0.045583035938281863 0 -0.078067002861142085 -0.04575568247049161 0 -0.075062618692292638 -0.040325846155841297 0 -0.078708481780428496 -0.048351416250899462 0 -0.082849096915408454 -0.045583035938281863 0 -0.078067002861142085 -0.04575568247049161 0 -0.075647814056438792 -0.048762431536943832 0 -0.055132092173872667 -0.033226800447327051 0 -0.078067002861142085 -0.04575568247049161 0 -0.075062618692292638 -0.040325846155841297 0 -0.075647814056438792 -0.048762431536943832 0 -0.075062618692292638 -0.040325846155841297 0 -0.075465350998538308 -0.032772608828030472 0 -0.055132092173872667 -0.033226800447327051 0 -0.075647814056438792 -0.048762431536943832 0 -0.061428605263776047 -0.046553119166432878 0 -0.055132092173872667 -0.033226800447327051 0 -0.075062618692292638 -0.040325846155841297 0 -0.075647814056438792 -0.048762431536943832 0 -0.055132092173872667 -0.033226800447327051 0 -0.083558777677868248 -0.036985518736449702 0 -0.075062618692292638 -0.040325846155841297 0 -0.075465350998538308 -0.032772608828030472 0 -0.065722760200719738 -0.052253177456942877 0 -0.075647814056438792 -0.048762431536943832 0 -0.061428605263776047 -0.046553119166432878 0 -0.065722760200719738 -0.052253177456942877 0 -0.07269306068786438 -0.052406879740114577 0 -0.069833853901725543 -0.055329661047837618 0 -0.065722760200719738 -0.052253177456942877 0 -0.07269306068786438 -0.052406879740114577 0 -0.075647814056438792 -0.048762431536943832 0 -0.07269306068786438 -0.052406879740114577 0 -0.073703714626092445 -0.056102563442451223 0 -0.069833853901725543 -0.055329661047837618 0 -0.07269306068786438 -0.052406879740114577 0 -0.077079431972146645 -0.050953682142663811 0 -0.073703714626092445 -0.056102563442451223 0 -0.078708481780428496 -0.048351416250899462 0 -0.077079431972146645 -0.050953682142663811 0 -0.075647814056438792 -0.048762431536943832 0 -0.07269306068786438 -0.052406879740114577 0 -0.077079431972146645 -0.050953682142663811 0 -0.075647814056438792 -0.048762431536943832 0 -0.078708481780428496 -0.048351416250899462 0 -0.078067002861142085 -0.04575568247049161 0 -0.075647814056438792 -0.048762431536943832 0 -0.078535685693175539 -0.061573663464548622 0 -0.073703714626092445 -0.056102563442451223 0 -0.070308423821052124 -0.061023041189074957 0 -0.078535685693175539 -0.061573663464548622 0 -0.077079431972146645 -0.050953682142663811 0 -0.073703714626092445 -0.056102563442451223 0 -0.073703714626092445 -0.056102563442451223 0 -0.070308423821052124 -0.061023041189074957 0 -0.069833853901725543 -0.055329661047837618 0 -0.070308423821052124 -0.061023041189074957 0 -0.064391701294429504 -0.057679717025484439 0 -0.060830035872249492 -0.064558057335980773 0 -0.070308423821052124 -0.061023041189074957 0 -0.069833853901725543 -0.055329661047837618 0 -0.064391701294429504 -0.057679717025484439 0 -0.065722760200719738 -0.052253177456942877 0 -0.069833853901725543 -0.055329661047837618 0 -0.064391701294429504 -0.057679717025484439 0 -0.064391701294429504 -0.057679717025484439 0 -0.055978059279945473 -0.056388284161067823 0 -0.060830035872249492 -0.064558057335980773 0 -0.065722760200719738 -0.052253177456942877 0 -0.064391701294429504 -0.057679717025484439 0 -0.055978059279945473 -0.056388284161067823 0 -0.055978059279945473 -0.056388284161067823 0 -0.041230103293456458 -0.058058117591144771 0 -0.049479852383656611 -0.067543566470139038 0 -0.055978059279945473 -0.056388284161067823 0 -0.049741921456861897 -0.048697412542500033 0 -0.041230103293456458 -0.058058117591144771 0 -0.055978059279945473 -0.056388284161067823 0 -0.049741921456861897 -0.048697412542500033 0 -0.061428605263776047 -0.046553119166432878 0 -0.065722760200719738 -0.052253177456942877 0 -0.055978059279945473 -0.056388284161067823 0 -0.061428605263776047 -0.046553119166432878 0 -0.049741921456861897 -0.048697412542500033 0 -0.061428605263776047 -0.046553119166432878 0 -0.055132092173872667 -0.033226800447327051 0 -0.049741921456861897 -0.048697412542500033 0 -0.055132092173872667 -0.033226800447327051 0 -0.032367863380537598 -0.044965144957206583 0 -0.055132092173872667 -0.033226800447327051 0 -0.032367863380537598 -0.044965144957206583 0 -0.055132092173872667 -0.033226800447327051 0 -0.032367863380537598 -0.044965144957206583 0 -0.031233838643279398 -0.031193199633022049 0 -0.049741921456861897 -0.048697412542500033 0 -0.032367863380537598 -0.044965144957206583 0 -0.041230103293456458 -0.058058117591144771 0 -0.032367863380537598 -0.044965144957206583 0 -0.041230103293456458 -0.058058117591144771 0 -0.026902341230915561 -0.060374551747501753 0 -0.05822397002114936 -0.01402224463886402 0 -0.057836245250817257 0.0062936453779614283 0 -0.044352522143416888 0.0050416822031405977 0 -0.05822397002114936 -0.01402224463886402 0 -0.037926632337863607 -0.0068783069258408786 0 -0.05822397002114936 -0.01402224463886402 0 -0.068462160169621672 0.0025537029525893409 0 -0.057836245250817257 0.0062936453779614283 0 -0.055132092173872667 -0.033226800447327051 0 -0.05822397002114936 -0.01402224463886402 0 -0.036243114184870161 -0.018923029155399909 0 -0.055132092173872667 -0.033226800447327051 0 -0.036243114184870161 -0.018923029155399909 0 -0.031233838643279398 -0.031193199633022049 0 -0.055132092173872667 -0.033226800447327051 0 -0.036243114184870161 -0.018923029155399909 0 -0.05822397002114936 -0.01402224463886402 0 -0.036243114184870161 -0.018923029155399909 0 -0.037926632337863607 -0.0068783069258408786 0 -0.05822397002114936 -0.01402224463886402 0 -0.037926632337863607 -0.0068783069258408786 0 -0.044352522143416888 0.0050416822031405977 0 -0.036243114184870161 -0.018923029155399909 0 -0.037926632337863607 -0.0068783069258408786 0 -0.029121832422534862 -0.0067169982391169078 0 -0.037926632337863607 -0.0068783069258408786 0 -0.029539197120254941 -0.00051038393964639519 0 -0.029121832422534862 -0.0067169982391169078 0 -0.037926632337863607 -0.0068783069258408786 0 -0.029539197120254941 -0.00051038393964639519 0 -0.03614709390981162 0.0015378833132510439 0 -0.037926632337863607 -0.0068783069258408786 0 -0.03614709390981162 0.0015378833132510439 0 -0.044352522143416888 0.0050416822031405977 0 -0.036243114184870161 -0.018923029155399909 0 -0.017354136195868258 -0.0046192578634720229 0 -0.01819617019275287 -0.0061732580868559192 0 -0.036243114184870161 -0.018923029155399909 0 -0.017354136195868258 -0.0046192578634720229 0 -0.029121832422534862 -0.0067169982391169078 0 -0.036243114184870161 -0.018923029155399909 0 -0.01819617019275287 -0.0061732580868559192 0 -0.019637671972121611 -0.02148729346067638 0 -0.036243114184870161 -0.018923029155399909 0 -0.017354136195868258 -0.0046192578634720229 0 -0.017354136195868258 -0.0046192578634720229 0 -0.01819617019275287 -0.0061732580868559192 0 -0.013500839782477779 -0.0058155532537883976 0 -0.017354136195868258 -0.0046192578634720229 0 -0.01819617019275287 -0.0061732580868559192 0 -0.017354136195868258 -0.0046192578634720229 0 -0.024546082273817361 -0.00265401331122534 0 -0.02112675760807068 0.0030512678310729521 0 -0.024546082273817361 -0.00265401331122534 0 -0.029539197120254941 -0.00051038393964639519 0 -0.02112675760807068 0.0030512678310729521 0 -0.017354136195868258 -0.0046192578634720229 0 -0.024546082273817361 -0.00265401331122534 0 -0.029121832422534862 -0.0067169982391169078 0 -0.024546082273817361 -0.00265401331122534 0 -0.029539197120254941 -0.00051038393964639519 0 -0.029121832422534862 -0.0067169982391169078 0 -0.01819617019275287 -0.0061732580868559192 0 -0.019637671972121611 -0.02148729346067638 0 -0.011008321991883009 -0.01057962122923565 0 -0.036243114184870161 -0.018923029155399909 0 -0.019637671972121611 -0.02148729346067638 0 -0.031233838643279398 -0.031193199633022049 0 -0.019637671972121611 -0.02148729346067638 0 -0.031233838643279398 -0.031193199633022049 0 -0.016064986363794779 -0.036441041599790329 0 -0.0077215053668332834 -0.022860670268973711 0 -0.00118246574067416 -0.01324232368796026 0 0.0015263381015913891 -0.033415212413580753 0 -0.0077215053668332834 -0.022860670268973711 0 -0.016064986363794779 -0.036441041599790329 0 0.0015263381015913891 -0.033415212413580753 0 -0.019637671972121611 -0.02148729346067638 0 -0.0077215053668332834 -0.022860670268973711 0 -0.016064986363794779 -0.036441041599790329 0 -0.019637671972121611 -0.02148729346067638 0 -0.0077215053668332834 -0.022860670268973711 0 -0.011008321991883009 -0.01057962122923565 0 -0.011008321991883009 -0.01057962122923565 0 -0.00118246574067416 -0.01324232368796026 0 -0.0072764121498596901 -0.0036325873431357339 0 -0.0077215053668332834 -0.022860670268973711 0 -0.011008321991883009 -0.01057962122923565 0 -0.00118246574067416 -0.01324232368796026 0 -0.00118246574067416 -0.01324232368796026 0 -0.0072764121498596901 -0.0036325873431357339 0 0.0012074066645448821 -0.00065723147797176382 0 -0.0072764121498596901 -0.0036325873431357339 0 -0.013500839782477779 -0.0058155532537883976 0 -0.013607688627124061 -0.00178224205395049 0 -0.011008321991883009 -0.01057962122923565 0 -0.0072764121498596901 -0.0036325873431357339 0 -0.013500839782477779 -0.0058155532537883976 0 -0.01819617019275287 -0.0061732580868559192 0 -0.011008321991883009 -0.01057962122923565 0 -0.013500839782477779 -0.0058155532537883976 0 -0.017354136195868258 -0.0046192578634720229 0 -0.013500839782477779 -0.0058155532537883976 0 -0.013607688627124061 -0.00178224205395049 0 -0.017354136195868258 -0.0046192578634720229 0 -0.013607688627124061 -0.00178224205395049 0 -0.032367863380537598 -0.044965144957206583 0 -0.0096036345872028556 -0.056703489467087059 0 -0.032367863380537598 -0.044965144957206583 0 -0.026902341230915561 -0.060374551747501753 0 -0.0096036345872028556 -0.056703489467087059 0 -0.032367863380537598 -0.044965144957206583 0 -0.031233838643279398 -0.031193199633022049 0 -0.016064986363794779 -0.036441041599790329 0 -0.032367863380537598 -0.044965144957206583 0 -0.016064986363794779 -0.036441041599790329 0 -0.0096036345872028556 -0.056703489467087059 0 -0.0096036345872028556 -0.056703489467087059 0 0.0015263381015913891 -0.033415212413580753 0 -0.016064986363794779 -0.036441041599790329 0 -0.0096036345872028556 -0.056703489467087059 0 0.0015263381015913891 -0.033415212413580753 0 -0.0096036345872028556 -0.056703489467087059 0 0.0015263381015913891 -0.033415212413580753 0 0.007298405735321048 -0.051477207310420908 0 -0.0096036345872028556 -0.056703489467087059 0 0.0052181775422467033 -0.064346337314722044 0 -0.0096036345872028556 -0.056703489467087059 0 -0.0043762627118289626 -0.071729097412358583 0 0.0052181775422467033 -0.064346337314722044 0 -0.0043762627118289626 -0.071729097412358583 0 -0.0092607301227374331 -0.088572496961274561 0 -0.01646375475339092 -0.071057556949349329 0 -0.0096036345872028556 -0.056703489467087059 0 -0.01646375475339092 -0.071057556949349329 0 -0.0096036345872028556 -0.056703489467087059 0 -0.0043762627118289626 -0.071729097412358583 0 -0.01646375475339092 -0.071057556949349329 0 -0.0092607301227374331 -0.088572496961274561 0 -0.00044729776891663488 -0.1011528385718463 0 0.0042106568376920582 -0.081118225430045127 0 -0.0043762627118289626 -0.071729097412358583 0 -0.0092607301227374331 -0.088572496961274561 0 0.0042106568376920582 -0.081118225430045127 0 -0.0092607301227374331 -0.088572496961274561 0 -0.037642160748979789 -0.094071739377162955 0 -0.0092607301227374331 -0.088572496961274561 0 -0.023323874919582349 -0.085411624431610003 0 -0.01646375475339092 -0.071057556949349329 0 -0.0092607301227374331 -0.088572496961274561 0 -0.023323874919582349 -0.085411624431610003 0 -0.037642160748979789 -0.094071739377162955 0 -0.023323874919582349 -0.085411624431610003 0 -0.01646375475339092 -0.071057556949349329 0 -0.023323874919582349 -0.085411624431610003 0 -0.01646375475339092 -0.071057556949349329 0 -0.034846350139989962 -0.07108844977272101 0 -0.026902341230915561 -0.060374551747501753 0 -0.01646375475339092 -0.071057556949349329 0 -0.034846350139989962 -0.07108844977272101 0 -0.026902341230915561 -0.060374551747501753 0 -0.0096036345872028556 -0.056703489467087059 0 -0.01646375475339092 -0.071057556949349329 0 -0.041230103293456458 -0.058058117591144771 0 -0.026902341230915561 -0.060374551747501753 0 -0.034846350139989962 -0.07108844977272101 0 -0.041230103293456458 -0.058058117591144771 0 -0.034846350139989962 -0.07108844977272101 0 -0.049479852383656611 -0.067543566470139038 0 -0.034846350139989962 -0.07108844977272101 0 -0.048784805137481749 -0.081200653853927454 0 -0.049479852383656611 -0.067543566470139038 0 -0.023323874919582349 -0.085411624431610003 0 -0.034846350139989962 -0.07108844977272101 0 -0.036149297736508462 -0.082943116858855345 0 -0.023323874919582349 -0.085411624431610003 0 -0.036149297736508462 -0.082943116858855345 0 -0.037642160748979789 -0.094071739377162955 0 -0.036149297736508462 -0.082943116858855345 0 -0.048784805137481749 -0.081200653853927454 0 -0.037642160748979789 -0.094071739377162955 0 -0.034846350139989962 -0.07108844977272101 0 -0.036149297736508462 -0.082943116858855345 0 -0.048784805137481749 -0.081200653853927454 0 -0.063732237529271596 -0.080733089011810297 0 -0.066023591375222151 -0.09957098179305135 0 -0.048784805137481749 -0.081200653853927454 0 -0.066023591375222151 -0.09957098179305135 0 -0.048784805137481749 -0.081200653853927454 0 -0.037642160748979789 -0.094071739377162955 0 -0.063732237529271596 -0.080733089011810297 0 -0.048784805137481749 -0.081200653853927454 0 -0.058000192015007383 -0.073011667883306972 0 -0.055978059279945473 -0.056388284161067823 0 -0.060830035872249492 -0.064558057335980773 0 -0.049479852383656611 -0.067543566470139038 0 -0.058000192015007383 -0.073011667883306972 0 -0.060830035872249492 -0.064558057335980773 0 -0.049479852383656611 -0.067543566470139038 0 -0.067174029152377468 -0.071022972744677337 0 -0.058000192015007383 -0.073011667883306972 0 -0.060830035872249492 -0.064558057335980773 0 -0.048784805137481749 -0.081200653853927454 0 -0.058000192015007383 -0.073011667883306972 0 -0.049479852383656611 -0.067543566470139038 0 -0.069466171350113709 -0.1135628440840601 0 -0.054384952187449757 -0.110609208962567 0 -0.059238207921678762 -0.13024384051707169 0 -0.054384952187449757 -0.110609208962567 0 -0.059238207921678762 -0.13024384051707169 0 -0.032945469352336033 -0.1293562392835419 0 -0.066023591375222151 -0.09957098179305135 0 -0.054384952187449757 -0.110609208962567 0 -0.037642160748979789 -0.094071739377162955 0 -0.066023591375222151 -0.09957098179305135 0 -0.037642160748979789 -0.094071739377162955 0 -0.054384952187449757 -0.110609208962567 0 -0.037642160748979789 -0.094071739377162955 0 -0.035661083064217503 -0.11124856921529409 0 -0.054384952187449757 -0.110609208962567 0 -0.032945469352336033 -0.1293562392835419 0 -0.054384952187449757 -0.110609208962567 0 -0.035661083064217503 -0.11124856921529409 0 -0.032945469352336033 -0.1293562392835419 0 -0.01767174996810443 -0.1109570892379047 0 -0.012892303975098539 -0.12786221844410239 0 -0.032945469352336033 -0.1293562392835419 0 -0.035661083064217503 -0.11124856921529409 0 -0.01767174996810443 -0.1109570892379047 0 -0.032945469352336033 -0.1293562392835419 0 -0.0092607301227374331 -0.088572496961274561 0 -0.037642160748979789 -0.094071739377162955 0 -0.01767174996810443 -0.1109570892379047 0 -0.037642160748979789 -0.094071739377162955 0 -0.035661083064217503 -0.11124856921529409 0 -0.01767174996810443 -0.1109570892379047 0 -0.01767174996810443 -0.1109570892379047 0 -0.00044729776891663488 -0.1011528385718463 0 0.005085065621477718 -0.1151057880332567 0 -0.0092607301227374331 -0.088572496961274561 0 -0.01767174996810443 -0.1109570892379047 0 -0.00044729776891663488 -0.1011528385718463 0 -0.01767174996810443 -0.1109570892379047 0 -0.012892303975098539 -0.12786221844410239 0 0.005085065621477718 -0.1151057880332567 0 -0.012892303975098539 -0.12786221844410239 0 0.0027021066240326768 -0.1317064378292063 0 0.005085065621477718 -0.1151057880332567 0 -0.011505986517222349 -0.14810326960451681 0 -0.033736789854580403 -0.16402697950055581 0 -0.032945469352336033 -0.1293562392835419 0 -0.012892303975098539 -0.12786221844410239 0 -0.011505986517222349 -0.14810326960451681 0 0.0027021066240326768 -0.1317064378292063 0 -0.011505986517222349 -0.14810326960451681 0 -0.032945469352336033 -0.1293562392835419 0 -0.012892303975098539 -0.12786221844410239 0 -0.011505986517222349 -0.14810326960451681 0 -0.032945469352336033 -0.1293562392835419 0 -0.011505986517222349 -0.14810326960451681 0 0.009933496317892726 -0.16685029992549011 0 -0.011505986517222349 -0.14810326960451681 0 -0.0085976242789068957 -0.177408956520272 0 0.009933496317892726 -0.16685029992549011 0 -0.0085976242789068957 -0.177408956520272 0 -0.003739977245034012 -0.19168309442994089 0 -0.02712874487570623 -0.18796761311505439 0 -0.0085976242789068957 -0.177408956520272 0 -0.003739977245034012 -0.19168309442994089 0 0.0034571977838801569 -0.17702496179755631 0 -0.0085976242789068957 -0.177408956520272 0 -0.02712874487570623 -0.18796761311505439 0 -0.0085976242789068957 -0.177408956520272 0 -0.033736789854580403 -0.16402697950055581 0 -0.02712874487570623 -0.18796761311505439 0 -0.011505986517222349 -0.14810326960451681 0 -0.0085976242789068957 -0.177408956520272 0 -0.033736789854580403 -0.16402697950055581 0 -0.033736789854580403 -0.16402697950055581 0 -0.041678182321736049 -0.18065303021324261 0 -0.02712874487570623 -0.18796761311505439 0 -0.033736789854580403 -0.16402697950055581 0 -0.041678182321736049 -0.18065303021324261 0 -0.060187329084152079 -0.17209125852752319 0 -0.041678182321736049 -0.18065303021324261 0 -0.060187329084152079 -0.17209125852752319 0 -0.045659865472505487 -0.198526269709837 0 -0.060187329084152079 -0.17209125852752319 0 -0.045659865472505487 -0.198526269709837 0 -0.033736789854580403 -0.16402697950055581 0 -0.060187329084152079 -0.17209125852752319 0 -0.051699405537506939 -0.14899167338562519 0 -0.060187329084152079 -0.17209125852752319 0 -0.051699405537506939 -0.14899167338562519 0 -0.072389231474787458 -0.1492400490994332 0 -0.051699405537506939 -0.14899167338562519 0 -0.059238207921678762 -0.13024384051707169 0 -0.072389231474787458 -0.1492400490994332 0 -0.033736789854580403 -0.16402697950055581 0 -0.051699405537506939 -0.14899167338562519 0 -0.032945469352336033 -0.1293562392835419 0 -0.051699405537506939 -0.14899167338562519 0 -0.059238207921678762 -0.13024384051707169 0 -0.032945469352336033 -0.1293562392835419 0 -0.025857267464119819 -0.25506418495113531 0 -0.02368513365757598 -0.23851275990414511 0 -0.036167443228362108 -0.24337299090061551 0 -0.01269776775011346 -0.25850600500130039 0 -0.02368513365757598 -0.23851275990414511 0 -0.01269776775011346 -0.25850600500130039 0 -0.02368513365757598 -0.23851275990414511 0 -0.01082738352359053 -0.24876902592697839 0 -0.02368513365757598 -0.23851275990414511 0 -0.0067432183097289999 -0.239968376336817 0 -0.0090267388034834407 -0.23007068799598671 0 -0.02368513365757598 -0.23851275990414511 0 -0.01082738352359053 -0.24876902592697839 0 -0.0067432183097289999 -0.239968376336817 0 -0.01082738352359053 -0.24876902592697839 0 -0.0029313858115674811 -0.24854412401401971 0 -0.0067432183097289999 -0.239968376336817 0 -0.0029313858115674811 -0.24854412401401971 0 -0.0067432183097289999 -0.239968376336817 0 0.0026199421412959989 -0.2430643023623929 0 -0.0067432183097289999 -0.239968376336817 0 0.0026199421412959989 -0.2430643023623929 0 0.0017465435191736189 -0.23378549097037141 0 -0.0067432183097289999 -0.239968376336817 0 -0.0090267388034834407 -0.23007068799598671 0 0.0017465435191736189 -0.23378549097037141 0 -0.0090267388034834407 -0.23007068799598671 0 -0.00080535468136348092 -0.21995366459000901 0 -0.01839049427805331 -0.2195873775130934 0 -0.0090267388034834407 -0.23007068799598671 0 -0.00080535468136348092 -0.21995366459000901 0 0.0017465435191736189 -0.23378549097037141 0 -0.02368513365757598 -0.23851275990414511 0 -0.0090267388034834407 -0.23007068799598671 0 -0.01839049427805331 -0.2195873775130934 0 -0.02368513365757598 -0.23851275990414511 0 -0.01839049427805331 -0.2195873775130934 0 -0.034672499565036527 -0.2185195148069887 0 -0.02368513365757598 -0.23851275990414511 0 -0.034672499565036527 -0.2185195148069887 0 -0.01839049427805331 -0.2195873775130934 0 -0.027127261386640289 -0.20489204062456881 0 -0.034672499565036527 -0.2185195148069887 0 -0.01839049427805331 -0.2195873775130934 0 -0.027127261386640289 -0.20489204062456881 0 -0.01084996336714465 -0.20584666152463099 0 -0.00080535468136348092 -0.21995366459000901 0 -0.01839049427805331 -0.2195873775130934 0 -0.01084996336714465 -0.20584666152463099 0 -0.00080535468136348092 -0.21995366459000901 0 -0.01084996336714465 -0.20584666152463099 0 0.01016515501406726 -0.20926501301563591 0 -0.01084996336714465 -0.20584666152463099 0 -0.003739977245034012 -0.19168309442994089 0 0.01016515501406726 -0.20926501301563591 0 -0.01084996336714465 -0.20584666152463099 0 -0.003739977245034012 -0.19168309442994089 0 -0.02712874487570623 -0.18796761311505439 0 -0.027127261386640289 -0.20489204062456881 0 -0.01084996336714465 -0.20584666152463099 0 -0.02712874487570623 -0.18796761311505439 0 -0.041678182321736049 -0.18065303021324261 0 -0.02712874487570623 -0.18796761311505439 0 -0.045659865472505487 -0.198526269709837 0 -0.02712874487570623 -0.18796761311505439 0 -0.045659865472505487 -0.198526269709837 0 -0.027127261386640289 -0.20489204062456881 0 -0.02712874487570623 -0.18796761311505439 0 -0.045659865472505487 -0.198526269709837 0 -0.045659865472505487 -0.198526269709837 0 -0.067682806497079445 -0.21107449474949169 0 -0.062708331551170268 -0.19442045911658551 0 -0.060187329084152079 -0.17209125852752319 0 -0.045659865472505487 -0.198526269709837 0 -0.062708331551170268 -0.19442045911658551 0 -0.045659865472505487 -0.198526269709837 0 -0.067682806497079445 -0.21107449474949169 0 -0.045659865472505487 -0.198526269709837 0 -0.054546183461555722 -0.22015285450131489 0 -0.067682806497079445 -0.21107449474949169 0 -0.045659865472505487 -0.198526269709837 0 -0.034672499565036527 -0.2185195148069887 0 -0.054546183461555722 -0.22015285450131489 0 -0.045659865472505487 -0.198526269709837 0 -0.034672499565036527 -0.2185195148069887 0 -0.027127261386640289 -0.20489204062456881 0 -0.045659865472505487 -0.198526269709837 0 -0.034672499565036527 -0.2185195148069887 0 -0.034672499565036527 -0.2185195148069887 0 -0.044145410485190079 -0.23242073182379891 0 -0.054546183461555722 -0.22015285450131489 0 -0.02368513365757598 -0.23851275990414511 0 -0.034672499565036527 -0.2185195148069887 0 -0.044145410485190079 -0.23242073182379891 0 -0.044145410485190079 -0.23242073182379891 0 -0.054546183461555722 -0.22015285450131489 0 -0.061280333386656921 -0.23284462843810469 0 -0.061280333386656921 -0.23284462843810469 0 -0.050191684441297867 -0.2485850187836515 0 -0.071591358857016049 -0.2429226102204386 0 -0.050191684441297867 -0.2485850187836515 0 -0.071591358857016049 -0.2429226102204386 0 -0.056939497423126581 -0.24878681181634871 0 -0.050191684441297867 -0.2485850187836515 0 -0.071591358857016049 -0.2429226102204386 0 -0.044145410485190079 -0.23242073182379891 0 -0.061280333386656921 -0.23284462843810469 0 -0.050191684441297867 -0.2485850187836515 0 -0.041398382443623198 -0.25192549838374201 0 -0.056939497423126581 -0.24878681181634871 0 -0.050191684441297867 -0.2485850187836515 0 -0.044145410485190079 -0.23242073182379891 0 -0.050191684441297867 -0.2485850187836515 0 -0.036167443228362108 -0.24337299090061551 0 -0.02368513365757598 -0.23851275990414511 0 -0.044145410485190079 -0.23242073182379891 0 -0.036167443228362108 -0.24337299090061551 0 -0.025857267464119819 -0.25506418495113531 0 -0.050191684441297867 -0.2485850187836515 0 -0.036167443228362108 -0.24337299090061551 0 -0.097628444613881649 -0.25834262822693399 0 -0.087470553331264578 -0.24262075389877999 0 -0.077955776651182085 -0.24454236002529731 0 -0.087470553331264578 -0.24262075389877999 0 -0.087928467376508473 -0.23859976953689591 0 -0.1005617376665941 -0.23997685579502359 0 -0.087928467376508473 -0.23859976953689591 0 -0.07453604668454375 -0.2421434382925548 0 -0.07383618536286593 -0.22753148747966839 0 -0.087928467376508473 -0.23859976953689591 0 -0.07453604668454375 -0.2421434382925548 0 -0.087928467376508473 -0.23859976953689591 0 -0.077955776651182085 -0.24454236002529731 0 -0.07453604668454375 -0.2421434382925548 0 -0.087470553331264578 -0.24262075389877999 0 -0.087928467376508473 -0.23859976953689591 0 -0.077955776651182085 -0.24454236002529731 0 -0.087470553331264578 -0.24262075389877999 0 -0.077955776651182085 -0.24454236002529731 0 -0.056939497423126581 -0.24878681181634871 0 -0.077955776651182085 -0.24454236002529731 0 -0.071591358857016049 -0.2429226102204386 0 -0.056939497423126581 -0.24878681181634871 0 -0.077955776651182085 -0.24454236002529731 0 -0.077955776651182085 -0.24454236002529731 0 -0.071591358857016049 -0.2429226102204386 0 -0.07453604668454375 -0.2421434382925548 0 -0.077955776651182085 -0.24454236002529731 0 -0.07453604668454375 -0.2421434382925548 0 -0.071591358857016049 -0.2429226102204386 0 -0.07453604668454375 -0.2421434382925548 0 -0.056939497423126581 -0.24878681181634871 0 -0.071591358857016049 -0.2429226102204386 0 -0.061280333386656921 -0.23284462843810469 0 -0.071591358857016049 -0.2429226102204386 0 -0.07453604668454375 -0.2421434382925548 0 -0.061280333386656921 -0.23284462843810469 0 -0.07453604668454375 -0.2421434382925548 0 -0.07383618536286593 -0.22753148747966839 0 -0.089705747521653334 -0.22362271978914661 0 -0.067682806497079445 -0.21107449474949169 0 -0.054546183461555722 -0.22015285450131489 0 -0.061280333386656921 -0.23284462843810469 0 -0.07383618536286593 -0.22753148747966839 0 -0.054546183461555722 -0.22015285450131489 0 -0.07383618536286593 -0.22753148747966839 0 -0.067682806497079445 -0.21107449474949169 0 -0.061280333386656921 -0.23284462843810469 0 -0.07453604668454375 -0.2421434382925548 0 -0.07383618536286593 -0.22753148747966839 0 -0.087928467376508473 -0.23859976953689591 0 -0.07383618536286593 -0.22753148747966839 0 -0.089705747521653334 -0.22362271978914661 0 -0.087928467376508473 -0.23859976953689591 0 -0.089705747521653334 -0.22362271978914661 0 -0.1005617376665941 -0.23997685579502359 0 -0.089705747521653334 -0.22362271978914661 0 -0.067682806497079445 -0.21107449474949169 0 -0.089705747521653334 -0.22362271978914661 0 -0.084027466008495671 -0.20735524824550181 0 -0.09921486728828334 -0.20109800384388701 0 -0.089705747521653334 -0.22362271978914661 0 -0.084027466008495671 -0.20735524824550181 0 -0.067682806497079445 -0.21107449474949169 0 -0.084027466008495671 -0.20735524824550181 0 -0.067682806497079445 -0.21107449474949169 0 -0.079506442726966622 -0.19362577459948219 0 -0.067682806497079445 -0.21107449474949169 0 -0.062708331551170268 -0.19442045911658551 0 -0.079506442726966622 -0.19362577459948219 0 -0.079506442726966622 -0.19362577459948219 0 -0.09921486728828334 -0.20109800384388701 0 -0.089369030920126963 -0.1732707743578942 0 -0.084027466008495671 -0.20735524824550181 0 -0.079506442726966622 -0.19362577459948219 0 -0.09921486728828334 -0.20109800384388701 0 -0.09921486728828334 -0.20109800384388701 0 -0.1156293974943295 -0.1822747327150937 0 -0.1210853022939376 -0.205467400633562 0 -0.1156293974943295 -0.1822747327150937 0 -0.13505851963374399 -0.18906788910329131 0 -0.09921486728828334 -0.20109800384388701 0 -0.1210853022939376 -0.205467400633562 0 -0.1156293974943295 -0.1822747327150937 0 -0.1210853022939376 -0.205467400633562 0 -0.10755849924533691 -0.2178899443088799 0 -0.11989889803527461 -0.22145143588075511 0 -0.1210853022939376 -0.205467400633562 0 -0.11989889803527461 -0.22145143588075511 0 -0.13086176299679239 -0.21746526838305219 0 -0.089705747521653334 -0.22362271978914661 0 -0.09921486728828334 -0.20109800384388701 0 -0.10755849924533691 -0.2178899443088799 0 -0.09921486728828334 -0.20109800384388701 0 -0.1210853022939376 -0.205467400633562 0 -0.10755849924533691 -0.2178899443088799 0 -0.089705747521653334 -0.22362271978914661 0 -0.11172868854622731 -0.23617094482880149 0 -0.1005617376665941 -0.23997685579502359 0 -0.089705747521653334 -0.22362271978914661 0 -0.11172868854622731 -0.23617094482880149 0 -0.089705747521653334 -0.22362271978914661 0 -0.10755849924533691 -0.2178899443088799 0 -0.11172868854622731 -0.23617094482880149 0 -0.11989889803527461 -0.22145143588075511 0 -0.11172868854622731 -0.23617094482880149 0 -0.127825895831608 -0.22987551408160201 0 -0.10755849924533691 -0.2178899443088799 0 -0.11989889803527461 -0.22145143588075511 0 -0.11172868854622731 -0.23617094482880149 0 -0.13218950310710981 -0.25272660122947088 0 -0.1218823470606431 -0.24640061544388489 0 -0.1098930818979398 -0.24798588601512411 0 -0.11172868854622731 -0.23617094482880149 0 -0.13375162957080131 -0.24871916986845621 0 -0.11172868854622731 -0.23617094482880149 0 -0.1218823470606431 -0.24640061544388489 0 -0.13375162957080131 -0.24871916986845621 0 -0.11172868854622731 -0.23617094482880149 0 -0.13375162957080131 -0.24871916986845621 0 -0.127825895831608 -0.22987551408160201 0 -0.11172868854622731 -0.23617094482880149 0 -0.1218823470606431 -0.24640061544388489 0 -0.1098930818979398 -0.24798588601512411 0 -0.097628444613881649 -0.25834262822693399 0 -0.087470553331264578 -0.24262075389877999 0 -0.1098930818979398 -0.24798588601512411 0 -0.087470553331264578 -0.24262075389877999 0 -0.1098930818979398 -0.24798588601512411 0 -0.1005617376665941 -0.23997685579502359 0 -0.087470553331264578 -0.24262075389877999 0 -0.1098930818979398 -0.24798588601512411 0 -0.11172868854622731 -0.23617094482880149 0 -0.1098930818979398 -0.24798588601512411 0 -0.1005617376665941 -0.23997685579502359 0 -0.087470553331264578 -0.24262075389877999 0 -0.1005617376665941 -0.23997685579502359 0 -0.072389231474787458 -0.1492400490994332 0 -0.089369030920126963 -0.1732707743578942 0 -0.096011965921864201 -0.14265464397282879 0 -0.077516787342341589 -0.1242022911324857 0 -0.093262550211769629 -0.1231040070079162 0 -0.096011965921864201 -0.14265464397282879 0 -0.077516787342341589 -0.1242022911324857 0 -0.072389231474787458 -0.1492400490994332 0 -0.096011965921864201 -0.14265464397282879 0 -0.077516787342341589 -0.1242022911324857 0 -0.059238207921678762 -0.13024384051707169 0 -0.072389231474787458 -0.1492400490994332 0 -0.060187329084152079 -0.17209125852752319 0 -0.072389231474787458 -0.1492400490994332 0 -0.089369030920126963 -0.1732707743578942 0 -0.060187329084152079 -0.17209125852752319 0 -0.079506442726966622 -0.19362577459948219 0 -0.089369030920126963 -0.1732707743578942 0 -0.060187329084152079 -0.17209125852752319 0 -0.062708331551170268 -0.19442045911658551 0 -0.079506442726966622 -0.19362577459948219 0 -0.089369030920126963 -0.1732707743578942 0 -0.1107512355661594 -0.16096683979900789 0 -0.096011965921864201 -0.14265464397282879 0 -0.09921486728828334 -0.20109800384388701 0 -0.089369030920126963 -0.1732707743578942 0 -0.1156293974943295 -0.1822747327150937 0 -0.089369030920126963 -0.1732707743578942 0 -0.1156293974943295 -0.1822747327150937 0 -0.1107512355661594 -0.16096683979900789 0 -0.1156293974943295 -0.1822747327150937 0 -0.13204392770037571 -0.1634514615863005 0 -0.1156293974943295 -0.1822747327150937 0 -0.1107512355661594 -0.16096683979900789 0 -0.13204392770037571 -0.1634514615863005 0 -0.1107512355661594 -0.16096683979900789 0 -0.12070185579410091 -0.1431825863629223 0 -0.13204392770037571 -0.1634514615863005 0 -0.1107512355661594 -0.16096683979900789 0 -0.12070185579410091 -0.1431825863629223 0 -0.096011965921864201 -0.14265464397282879 0 -0.1071147179002416 -0.1244919901550422 0 -0.12070185579410091 -0.1431825863629223 0 -0.096011965921864201 -0.14265464397282879 0 -0.093262550211769629 -0.1231040070079162 0 -0.1071147179002416 -0.1244919901550422 0 -0.096011965921864201 -0.14265464397282879 0 -0.1071147179002416 -0.1244919901550422 0 -0.12070185579410091 -0.1431825863629223 0 -0.1306137014228527 -0.1212095633787966 0 -0.12070185579410091 -0.1431825863629223 0 -0.14845845790642179 -0.14462819045750719 0 -0.1306137014228527 -0.1212095633787966 0 -0.14845845790642179 -0.14462819045750719 0 -0.1306137014228527 -0.1212095633787966 0 -0.15036797716661271 -0.14243845987679379 0 -0.14845845790642179 -0.14462819045750719 0 -0.1306137014228527 -0.1212095633787966 0 -0.15406265534163929 -0.1294064941378926 0 -0.15036797716661271 -0.14243845987679379 0 -0.1306137014228527 -0.1212095633787966 0 -0.15406265534163929 -0.1294064941378926 0 -0.15036797716661271 -0.14243845987679379 0 -0.1564494690737798 -0.13971242061594299 0 -0.1543278084257422 -0.1453912472931165 0 -0.14845845790642179 -0.14462819045750719 0 -0.15894149653025619 -0.15184230729274609 0 -0.15519343748037609 -0.14309809199123349 0 -0.15036797716661271 -0.14243845987679379 0 -0.1564494690737798 -0.13971242061594299 0 -0.1543278084257422 -0.1453912472931165 0 -0.15519343748037609 -0.14309809199123349 0 -0.15036797716661271 -0.14243845987679379 0 -0.1543278084257422 -0.1453912472931165 0 -0.15036797716661271 -0.14243845987679379 0 -0.14845845790642179 -0.14462819045750719 0 -0.15036797716661271 -0.14243845987679379 0 -0.14845845790642179 -0.14462819045750719 0 -0.12070185579410091 -0.1431825863629223 0 -0.14845845790642179 -0.14462819045750719 0 -0.13204392770037571 -0.1634514615863005 0 -0.14845845790642179 -0.14462819045750719 0 -0.13204392770037571 -0.1634514615863005 0 -0.13204392770037571 -0.1634514615863005 0 -0.1475860696211248 -0.17640031700015249 0 -0.13505851963374399 -0.18906788910329131 0 -0.1156293974943295 -0.1822747327150937 0 -0.13204392770037571 -0.1634514615863005 0 -0.13505851963374399 -0.18906788910329131 0 -0.1475860696211248 -0.17640031700015249 0 -0.1655722477793394 -0.1670875310098065 0 -0.15496537504316019 -0.19429807729602311 0 -0.1475860696211248 -0.17640031700015249 0 -0.13505851963374399 -0.18906788910329131 0 -0.15496537504316019 -0.19429807729602311 0 -0.1475860696211248 -0.17640031700015249 0 -0.14862352044039201 -0.16347018067920821 0 -0.1655722477793394 -0.1670875310098065 0 -0.14845845790642179 -0.14462819045750719 0 -0.13204392770037571 -0.1634514615863005 0 -0.14862352044039201 -0.16347018067920821 0 -0.14845845790642179 -0.14462819045750719 0 -0.14862352044039201 -0.16347018067920821 0 -0.1655722477793394 -0.1670875310098065 0 -0.13204392770037571 -0.1634514615863005 0 -0.1475860696211248 -0.17640031700015249 0 -0.14862352044039201 -0.16347018067920821 0 -0.1655722477793394 -0.1670875310098065 0 -0.1716614177265566 -0.15146656102038991 0 -0.1655722477793394 -0.1670875310098065 0 -0.15894149653025619 -0.15184230729274609 0 -0.1716614177265566 -0.15146656102038991 0 -0.1655722477793394 -0.1670875310098065 0 -0.17557921295501691 -0.18022020591375351 0 -0.1689483943248192 -0.19264195369377959 0 -0.1655722477793394 -0.1670875310098065 0 -0.15496537504316019 -0.19429807729602311 0 -0.1689483943248192 -0.19264195369377959 0 -0.1655722477793394 -0.1670875310098065 0 -0.15496537504316019 -0.19429807729602311 0 -0.1655722477793394 -0.1670875310098065 0 -0.17557921295501691 -0.18022020591375351 0 -0.17557921295501691 -0.18022020591375351 0 -0.18239484980351819 -0.16464781923938721 0 -0.1907059301477185 -0.18468107337543721 0 -0.1655722477793394 -0.1670875310098065 0 -0.17557921295501691 -0.18022020591375351 0 -0.18239484980351819 -0.16464781923938721 0 -0.1655722477793394 -0.1670875310098065 0 -0.18239484980351819 -0.16464781923938721 0 -0.1716614177265566 -0.15146656102038991 0 -0.18239484980351819 -0.16464781923938721 0 -0.1716614177265566 -0.15146656102038991 0 -0.1894311146879058 -0.1465309504005988 0 -0.17775058767377289 -0.13584559103097291 0 -0.1716614177265566 -0.15146656102038991 0 -0.1894311146879058 -0.1465309504005988 0 -0.17775058767377289 -0.13584559103097291 0 -0.1716614177265566 -0.15146656102038991 0 -0.17775058767377289 -0.13584559103097291 0 -0.1894311146879058 -0.1465309504005988 0 -0.17775058767377289 -0.13584559103097291 0 -0.19823449762692411 -0.13229999761030051 0 -0.18534812722118199 -0.1163550958908785 0 -0.17775058767377289 -0.13584559103097291 0 -0.18534812722118199 -0.1163550958908785 0 -0.15406265534163929 -0.1294064941378926 0 -0.16394560233522651 -0.1386698702264933 0 -0.15606779039194271 -0.1160101434681408 0 -0.17775058767377289 -0.13584559103097291 0 -0.16394560233522651 -0.1386698702264933 0 -0.15606779039194271 -0.1160101434681408 0 -0.17775058767377289 -0.13584559103097291 0 -0.15606779039194271 -0.1160101434681408 0 -0.15406265534163929 -0.1294064941378926 0 -0.16394560233522651 -0.1386698702264933 0 -0.1564494690737798 -0.13971242061594299 0 -0.16394560233522651 -0.1386698702264933 0 -0.1564494690737798 -0.13971242061594299 0 -0.15962849525536979 -0.1448502401790808 0 -0.14845845790642179 -0.14462819045750719 0 -0.1655722477793394 -0.1670875310098065 0 -0.14845845790642179 -0.14462819045750719 0 -0.1655722477793394 -0.1670875310098065 0 -0.15894149653025619 -0.15184230729274609 0 -0.15519343748037609 -0.14309809199123349 0 -0.1564494690737798 -0.13971242061594299 0 -0.15962849525536979 -0.1448502401790808 0 -0.1543278084257422 -0.1453912472931165 0 -0.15519343748037609 -0.14309809199123349 0 -0.15962849525536979 -0.1448502401790808 0 -0.1543278084257422 -0.1453912472931165 0 -0.15962849525536979 -0.1448502401790808 0 -0.15894149653025619 -0.15184230729274609 0 -0.15962849525536979 -0.1448502401790808 0 -0.15894149653025619 -0.15184230729274609 0 -0.1716614177265566 -0.15146656102038991 0 -0.17775058767377289 -0.13584559103097291 0 -0.16394560233522651 -0.1386698702264933 0 -0.1716614177265566 -0.15146656102038991 0 -0.16394560233522651 -0.1386698702264933 0 -0.15962849525536979 -0.1448502401790808 0 -0.1716614177265566 -0.15146656102038991 0 -0.1534429259631987 -0.25724555178864622 0 -0.15289321433053751 -0.246830478479277 0 -0.1378886282313006 -0.2381062402767252 0 -0.1534429259631987 -0.25724555178864622 0 -0.1378886282313006 -0.2381062402767252 0 -0.15348527020851541 -0.23913552791147211 0 -0.1378886282313006 -0.2381062402767252 0 -0.15430752157141919 -0.22794821467022949 0 -0.15289321433053751 -0.246830478479277 0 -0.15348527020851541 -0.23913552791147211 0 -0.1601832428566283 -0.24550858739866141 0 -0.15289321433053751 -0.246830478479277 0 -0.15348527020851541 -0.23913552791147211 0 -0.1378886282313006 -0.2381062402767252 0 -0.1459019403517107 -0.25564217047089421 0 -0.13375162957080131 -0.24871916986845621 0 -0.1378886282313006 -0.2381062402767252 0 -0.13375162957080131 -0.24871916986845621 0 -0.1378886282313006 -0.2381062402767252 0 -0.127825895831608 -0.22987551408160201 0 -0.13375162957080131 -0.24871916986845621 0 -0.1378886282313006 -0.2381062402767252 0 -0.13218950310710981 -0.25272660122947088 0 -0.1218823470606431 -0.24640061544388489 0 -0.13375162957080131 -0.24871916986845621 0 -0.127825895831608 -0.22987551408160201 0 -0.14435850230698141 -0.22150862358223991 0 -0.13086176299679239 -0.21746526838305219 0 -0.1378886282313006 -0.2381062402767252 0 -0.127825895831608 -0.22987551408160201 0 -0.14435850230698141 -0.22150862358223991 0 -0.11989889803527461 -0.22145143588075511 0 -0.127825895831608 -0.22987551408160201 0 -0.13086176299679239 -0.21746526838305219 0 -0.1378886282313006 -0.2381062402767252 0 -0.14435850230698141 -0.22150862358223991 0 -0.14435850230698141 -0.22150862358223991 0 -0.15430752157141919 -0.22794821467022949 0 -0.16410544360365359 -0.21493654602220469 0 -0.1378886282313006 -0.2381062402767252 0 -0.14435850230698141 -0.22150862358223991 0 -0.15430752157141919 -0.22794821467022949 0 -0.14435850230698141 -0.22150862358223991 0 -0.15496537504316019 -0.19429807729602311 0 -0.14435850230698141 -0.22150862358223991 0 -0.1373527607074172 -0.20563907323320921 0 -0.15496537504316019 -0.19429807729602311 0 -0.14435850230698141 -0.22150862358223991 0 -0.15496537504316019 -0.19429807729602311 0 -0.16410544360365359 -0.21493654602220469 0 -0.14435850230698141 -0.22150862358223991 0 -0.1373527607074172 -0.20563907323320921 0 -0.13086176299679239 -0.21746526838305219 0 -0.1210853022939376 -0.205467400633562 0 -0.1373527607074172 -0.20563907323320921 0 -0.13086176299679239 -0.21746526838305219 0 -0.1210853022939376 -0.205467400633562 0 -0.1373527607074172 -0.20563907323320921 0 -0.13505851963374399 -0.18906788910329131 0 -0.1373527607074172 -0.20563907323320921 0 -0.13505851963374399 -0.18906788910329131 0 -0.15496537504316019 -0.19429807729602311 0 -0.1689483943248192 -0.19264195369377959 0 -0.17994482166635981 -0.2014366202218163 0 -0.16410544360365359 -0.21493654602220469 0 -0.15496537504316019 -0.19429807729602311 0 -0.1689483943248192 -0.19264195369377959 0 -0.16410544360365359 -0.21493654602220469 0 -0.17557921295501691 -0.18022020591375351 0 -0.1689483943248192 -0.19264195369377959 0 -0.17994482166635981 -0.2014366202218163 0 -0.17557921295501691 -0.18022020591375351 0 -0.17994482166635981 -0.2014366202218163 0 -0.1907059301477185 -0.18468107337543721 0 -0.17994482166635981 -0.2014366202218163 0 -0.1784102433228649 -0.21681777692650089 0 -0.16410544360365359 -0.21493654602220469 0 -0.17994482166635981 -0.2014366202218163 0 -0.18904495760185211 -0.20873870471059999 0 -0.19252771524915421 -0.19930647688205899 0 -0.17994482166635981 -0.2014366202218163 0 -0.1784102433228649 -0.21681777692650089 0 -0.18904495760185211 -0.20873870471059999 0 -0.1784102433228649 -0.21681777692650089 0 -0.19175951728552271 -0.21959172261586679 0 -0.18904495760185211 -0.20873870471059999 0 -0.15430752157141919 -0.22794821467022949 0 -0.16410544360365359 -0.21493654602220469 0 -0.16877954452522659 -0.2255120540677526 0 -0.15430752157141919 -0.22794821467022949 0 -0.16877954452522659 -0.2255120540677526 0 -0.16324537569009509 -0.2357306359809743 0 -0.15348527020851541 -0.23913552791147211 0 -0.15430752157141919 -0.22794821467022949 0 -0.16324537569009509 -0.2357306359809743 0 -0.16877954452522659 -0.2255120540677526 0 -0.17781387366555559 -0.23090770197000129 0 -0.16324537569009509 -0.2357306359809743 0 -0.1784102433228649 -0.21681777692650089 0 -0.16410544360365359 -0.21493654602220469 0 -0.16877954452522659 -0.2255120540677526 0 -0.1784102433228649 -0.21681777692650089 0 -0.16877954452522659 -0.2255120540677526 0 -0.17781387366555559 -0.23090770197000129 0 -0.1784102433228649 -0.21681777692650089 0 -0.17781387366555559 -0.23090770197000129 0 -0.19175951728552271 -0.21959172261586679 0 -0.17781387366555559 -0.23090770197000129 0 -0.1805311654956796 -0.2411950136452527 0 -0.19410287643929239 -0.23312434657521411 0 -0.17781387366555559 -0.23090770197000129 0 -0.1805311654956796 -0.2411950136452527 0 -0.16955513552828311 -0.24305067226283769 0 -0.17679077873490559 -0.25046109420941731 0 -0.1805311654956796 -0.2411950136452527 0 -0.18863044441395099 -0.24733650333174401 0 -0.17679077873490559 -0.25046109420941731 0 -0.1805311654956796 -0.2411950136452527 0 -0.16955513552828311 -0.24305067226283769 0 -0.16709258238786229 -0.25188408856254202 0 -0.17679077873490559 -0.25046109420941731 0 -0.16955513552828311 -0.24305067226283769 0 -0.16709258238786229 -0.25188408856254202 0 -0.16955513552828311 -0.24305067226283769 0 -0.1601832428566283 -0.24550858739866141 0 -0.17781387366555559 -0.23090770197000129 0 -0.16955513552828311 -0.24305067226283769 0 -0.16324537569009509 -0.2357306359809743 0 -0.16955513552828311 -0.24305067226283769 0 -0.16324537569009509 -0.2357306359809743 0 -0.1601832428566283 -0.24550858739866141 0 -0.15348527020851541 -0.23913552791147211 0 -0.16324537569009509 -0.2357306359809743 0 -0.1601832428566283 -0.24550858739866141 0 -0.1593809120407062 -0.25278805690175971 0 -0.15289321433053751 -0.246830478479277 0 -0.1601832428566283 -0.24550858739866141 0 -0.20565562739327201 -0.24334207984173631 0 -0.19410287643929239 -0.23312434657521411 0 -0.21201774175915139 -0.2290986139018284 0 -0.21472073189145299 -0.25725591714607071 0 -0.20565562739327201 -0.24334207984173631 0 -0.22837296648480071 -0.23789375384220129 0 -0.20565562739327201 -0.24334207984173631 0 -0.21201774175915139 -0.2290986139018284 0 -0.22837296648480071 -0.23789375384220129 0 -0.20565562739327201 -0.24334207984173631 0 -0.18863044441395099 -0.24733650333174401 0 -0.19410287643929239 -0.23312434657521411 0 -0.1805311654956796 -0.2411950136452527 0 -0.18863044441395099 -0.24733650333174401 0 -0.19410287643929239 -0.23312434657521411 0 -0.17781387366555559 -0.23090770197000129 0 -0.19410287643929239 -0.23312434657521411 0 -0.19175951728552271 -0.21959172261586679 0 -0.19410287643929239 -0.23312434657521411 0 -0.19175951728552271 -0.21959172261586679 0 -0.20443040571370949 -0.21985141578154491 0 -0.21201774175915139 -0.2290986139018284 0 -0.20443040571370949 -0.21985141578154491 0 -0.22630383013383959 -0.21240708539258099 0 -0.19410287643929239 -0.23312434657521411 0 -0.21201774175915139 -0.2290986139018284 0 -0.20443040571370949 -0.21985141578154491 0 -0.20157622681128409 -0.2075672839719423 0 -0.21557055542943429 -0.1904257004922347 0 -0.22630383013383959 -0.21240708539258099 0 -0.20157622681128409 -0.2075672839719423 0 -0.22630383013383959 -0.21240708539258099 0 -0.20443040571370949 -0.21985141578154491 0 -0.20157622681128409 -0.2075672839719423 0 -0.22630383013383959 -0.21240708539258099 0 -0.19175951728552271 -0.21959172261586679 0 -0.20443040571370949 -0.21985141578154491 0 -0.20157622681128409 -0.2075672839719423 0 -0.19175951728552271 -0.21959172261586679 0 -0.20157622681128409 -0.2075672839719423 0 -0.19175951728552271 -0.21959172261586679 0 -0.18904495760185211 -0.20873870471059999 0 -0.20157622681128409 -0.2075672839719423 0 -0.18904495760185211 -0.20873870471059999 0 -0.20157622681128409 -0.2075672839719423 0 -0.19252771524915421 -0.19930647688205899 0 -0.17994482166635981 -0.2014366202218163 0 -0.19252771524915421 -0.19930647688205899 0 -0.1907059301477185 -0.18468107337543721 0 -0.20157622681128409 -0.2075672839719423 0 -0.19252771524915421 -0.19930647688205899 0 -0.20187756758401409 -0.19506767240709361 0 -0.19252771524915421 -0.19930647688205899 0 -0.20187756758401409 -0.19506767240709361 0 -0.1907059301477185 -0.18468107337543721 0 -0.20157622681128409 -0.2075672839719423 0 -0.21557055542943429 -0.1904257004922347 0 -0.20187756758401409 -0.19506767240709361 0 -0.21557055542943429 -0.1904257004922347 0 -0.2038146335316797 -0.1820121315948606 0 -0.20157622681128409 -0.2075672839719423 0 -0.20187756758401409 -0.19506767240709361 0 -0.21557055542943429 -0.1904257004922347 0 -0.21557055542943429 -0.1904257004922347 0 -0.23533053747689989 -0.1962925907305976 0 -0.22630383013383959 -0.21240708539258099 0 -0.23533053747689989 -0.1962925907305976 0 -0.25103143345639523 -0.21724688681321891 0 -0.25418198431724581 -0.18809916394242601 0 -0.22630383013383959 -0.21240708539258099 0 -0.25103143345639523 -0.21724688681321891 0 -0.23533053747689989 -0.1962925907305976 0 -0.22630383013383959 -0.21240708539258099 0 -0.25103143345639523 -0.21724688681321891 0 -0.21201774175915139 -0.2290986139018284 0 -0.22630383013383959 -0.21240708539258099 0 -0.22837296648480071 -0.23789375384220129 0 -0.22630383013383959 -0.21240708539258099 0 -0.22837296648480071 -0.23789375384220129 0 -0.25103143345639523 -0.21724688681321891 0 -0.22837296648480071 -0.23789375384220129 0 -0.25431856302814809 -0.24833495949118861 0 -0.25103143345639523 -0.21724688681321891 0 -0.2335542019388327 -0.26090262277066528 0 -0.22837296648480071 -0.23789375384220129 0 -0.25431856302814809 -0.24833495949118861 0 -0.20708483324238849 -0.15128624944667929 0 -0.22647357207813959 -0.15205360930679629 0 -0.2195633859389316 -0.1340578990397249 0 -0.20708483324238849 -0.15128624944667929 0 -0.19823449762692411 -0.13229999761030051 0 -0.2195633859389316 -0.1340578990397249 0 -0.19823449762692411 -0.13229999761030051 0 -0.2195633859389316 -0.1340578990397249 0 -0.21022893699736381 -0.1097241998529486 0 -0.17775058767377289 -0.13584559103097291 0 -0.19823449762692411 -0.13229999761030051 0 -0.1894311146879058 -0.1465309504005988 0 -0.20708483324238849 -0.15128624944667929 0 -0.1894311146879058 -0.1465309504005988 0 -0.19351686899232889 -0.15854259719770419 0 -0.20708483324238849 -0.15128624944667929 0 -0.19823449762692411 -0.13229999761030051 0 -0.1894311146879058 -0.1465309504005988 0 -0.20708483324238849 -0.15128624944667929 0 -0.19351686899232889 -0.15854259719770419 0 -0.19880271024428661 -0.17007658736909009 0 -0.18239484980351819 -0.16464781923938721 0 -0.1894311146879058 -0.1465309504005988 0 -0.19351686899232889 -0.15854259719770419 0 -0.18239484980351819 -0.16464781923938721 0 -0.19351686899232889 -0.15854259719770419 0 -0.19880271024428661 -0.17007658736909009 0 -0.18239484980351819 -0.16464781923938721 0 -0.19880271024428661 -0.17007658736909009 0 -0.1907059301477185 -0.18468107337543721 0 -0.19880271024428661 -0.17007658736909009 0 -0.1907059301477185 -0.18468107337543721 0 -0.2038146335316797 -0.1820121315948606 0 -0.20187756758401409 -0.19506767240709361 0 -0.1907059301477185 -0.18468107337543721 0 -0.2038146335316797 -0.1820121315948606 0 -0.21557055542943429 -0.1904257004922347 0 -0.2038146335316797 -0.1820121315948606 0 -0.21355186476225221 -0.16985639920369799 0 -0.19880271024428661 -0.17007658736909009 0 -0.2038146335316797 -0.1820121315948606 0 -0.21355186476225221 -0.16985639920369799 0 -0.20708483324238849 -0.15128624944667929 0 -0.21355186476225221 -0.16985639920369799 0 -0.22647357207813959 -0.15205360930679629 0 -0.20708483324238849 -0.15128624944667929 0 -0.19880271024428661 -0.17007658736909009 0 -0.21355186476225221 -0.16985639920369799 0 -0.22956488404758479 -0.1732841170125273 0 -0.2435592126657353 -0.1561425335328199 0 -0.22647357207813959 -0.15205360930679629 0 -0.21355186476225221 -0.16985639920369799 0 -0.22956488404758479 -0.1732841170125273 0 -0.22647357207813959 -0.15205360930679629 0 -0.21557055542943429 -0.1904257004922347 0 -0.21355186476225221 -0.16985639920369799 0 -0.22956488404758479 -0.1732841170125273 0 -0.21557055542943429 -0.1904257004922347 0 -0.22956488404758479 -0.1732841170125273 0 -0.21557055542943429 -0.1904257004922347 0 -0.23533053747689989 -0.1962925907305976 0 -0.22956488404758479 -0.1732841170125273 0 -0.23533053747689989 -0.1962925907305976 0 -0.22956488404758479 -0.1732841170125273 0 -0.25418198431724581 -0.18809916394242601 0 -0.22956488404758479 -0.1732841170125273 0 -0.25418198431724581 -0.18809916394242601 0 -0.2565438833259911 -0.1687602707777138 0 -0.22956488404758479 -0.1732841170125273 0 -0.2435592126657353 -0.1561425335328199 0 -0.22956488404758479 -0.1732841170125273 0 -0.2435592126657353 -0.1561425335328199 0 -0.2565438833259911 -0.1687602707777138 0 -0.2435592126657353 -0.1561425335328199 0 -0.22647357207813959 -0.15205360930679629 0 -0.2432602079730701 -0.13485583854350039 0 -0.22647357207813959 -0.15205360930679629 0 -0.2195633859389316 -0.1340578990397249 0 -0.2432602079730701 -0.13485583854350039 0 -0.2195633859389316 -0.1340578990397249 0 -0.2432602079730701 -0.13485583854350039 0 -0.23065476516460279 -0.11957242830579699 0 -0.2432602079730701 -0.13485583854350039 0 -0.2499653418643101 -0.1102460646797562 0 -0.23065476516460279 -0.11957242830579699 0 -0.2499653418643101 -0.1102460646797562 0 -0.2308399038819596 -0.1034577205422559 0 -0.23065476516460279 -0.11957242830579699 0 -0.2308399038819596 -0.1034577205422559 0 -0.25308440776240432 -0.086371671251396109 0 -0.2499653418643101 -0.1102460646797562 0 -0.2308399038819596 -0.1034577205422559 0 -0.25308440776240432 -0.086371671251396109 0 -0.2308399038819596 -0.1034577205422559 0 -0.21022893699736381 -0.1097241998529486 0 -0.21520721362926831 -0.098298511723915558 0 -0.2308399038819596 -0.1034577205422559 0 -0.22013457808717909 -0.089221868029860679 0 -0.21520721362926831 -0.098298511723915558 0 -0.2308399038819596 -0.1034577205422559 0 -0.23065476516460279 -0.11957242830579699 0 -0.21022893699736381 -0.1097241998529486 0 -0.2195633859389316 -0.1340578990397249 0 -0.23065476516460279 -0.11957242830579699 0 -0.21022893699736381 -0.1097241998529486 0 -0.2335598957907816 -0.079883889973887123 0 -0.24475965461883589 -0.059498385283178377 0 -0.2582325144520296 -0.070050845257802419 0 -0.2335598957907816 -0.079883889973887123 0 -0.2582325144520296 -0.070050845257802419 0 -0.25308440776240432 -0.086371671251396109 0 -0.2308399038819596 -0.1034577205422559 0 -0.2335598957907816 -0.079883889973887123 0 -0.25308440776240432 -0.086371671251396109 0 -0.2308399038819596 -0.1034577205422559 0 -0.22013457808717909 -0.089221868029860679 0 -0.2335598957907816 -0.079883889973887123 0 -0.22013457808717909 -0.089221868029860679 0 -0.2335598957907816 -0.079883889973887123 0 -0.21963876375789801 -0.077814354495200549 0 -0.2335598957907816 -0.079883889973887123 0 -0.21595644614104051 -0.065738508165203102 0 -0.24475965461883589 -0.059498385283178377 0 -0.21595644614104051 -0.065738508165203102 0 -0.24475965461883589 -0.059498385283178377 0 -0.2335598957907816 -0.079883889973887123 0 -0.21963876375789801 -0.077814354495200549 0 -0.21595644614104051 -0.065738508165203102 0 -0.20438945881064449 -0.068244458930106389 0 -0.21100771399754009 -0.086966924160961745 0 -0.21595644614104051 -0.065738508165203102 0 -0.21100771399754009 -0.086966924160961745 0 -0.20438945881064449 -0.068244458930106389 0 -0.21595644614104051 -0.065738508165203102 0 -0.21100771399754009 -0.086966924160961745 0 -0.21963876375789801 -0.077814354495200549 0 -0.21595644614104051 -0.065738508165203102 0 -0.21100771399754009 -0.086966924160961745 0 -0.20438945881064449 -0.068244458930106389 0 -0.21595644614104051 -0.065738508165203102 0 -0.20438945881064449 -0.068244458930106389 0 -0.21595644614104051 -0.065738508165203102 0 -0.20711132549122371 -0.057203435059411119 0 -0.20438945881064449 -0.068244458930106389 0 -0.21100771399754009 -0.086966924160961745 0 -0.19851231957361129 -0.085310821531315487 0 -0.22013457808717909 -0.089221868029860679 0 -0.21963876375789801 -0.077814354495200549 0 -0.21100771399754009 -0.086966924160961745 0 -0.22013457808717909 -0.089221868029860679 0 -0.21100771399754009 -0.086966924160961745 0 -0.21520721362926831 -0.098298511723915558 0 -0.21100771399754009 -0.086966924160961745 0 -0.19851231957361129 -0.085310821531315487 0 -0.20550431009004061 -0.095676697317907802 0 -0.21100771399754009 -0.086966924160961745 0 -0.21520721362926831 -0.098298511723915558 0 -0.20550431009004061 -0.095676697317907802 0 -0.19851231957361129 -0.085310821531315487 0 -0.18118326058104209 -0.08825419183970401 0 -0.18409944718507371 -0.07264022497537044 0 -0.19851231957361129 -0.085310821531315487 0 -0.19294566676858971 -0.096864600750783431 0 -0.18118326058104209 -0.08825419183970401 0 -0.19851231957361129 -0.085310821531315487 0 -0.20550431009004061 -0.095676697317907802 0 -0.19294566676858971 -0.096864600750783431 0 -0.20438945881064449 -0.068244458930106389 0 -0.19851231957361129 -0.085310821531315487 0 -0.18409944718507371 -0.07264022497537044 0 -0.20438945881064449 -0.068244458930106389 0 -0.18409944718507371 -0.07264022497537044 0 -0.18769526278089041 -0.057829612445021099 0 -0.20438945881064449 -0.068244458930106389 0 -0.18409944718507371 -0.07264022497537044 0 -0.21022893699736381 -0.1097241998529486 0 -0.21520721362926831 -0.098298511723915558 0 -0.20550431009004061 -0.095676697317907802 0 -0.21022893699736381 -0.1097241998529486 0 -0.20550431009004061 -0.095676697317907802 0 -0.19294566676858971 -0.096864600750783431 0 -0.19294566676858971 -0.096864600750783431 0 -0.18534812722118199 -0.1163550958908785 0 -0.21022893699736381 -0.1097241998529486 0 -0.19294566676858971 -0.096864600750783431 0 -0.18534812722118199 -0.1163550958908785 0 -0.19823449762692411 -0.13229999761030051 0 -0.21022893699736381 -0.1097241998529486 0 -0.18534812722118199 -0.1163550958908785 0 -0.18534812722118199 -0.1163550958908785 0 -0.17423934197139679 -0.1017815859784342 0 -0.15606779039194271 -0.1160101434681408 0 -0.17775058767377289 -0.13584559103097291 0 -0.18534812722118199 -0.1163550958908785 0 -0.15606779039194271 -0.1160101434681408 0 -0.16057304666404501 -0.10079887419961479 0 -0.17423934197139679 -0.1017815859784342 0 -0.15606779039194271 -0.1160101434681408 0 -0.16057304666404501 -0.10079887419961479 0 -0.16746185343044401 -0.091445336260546128 0 -0.1570966781871318 -0.090327755750333361 0 -0.16057304666404501 -0.10079887419961479 0 -0.17423934197139679 -0.1017815859784342 0 -0.16746185343044401 -0.091445336260546128 0 -0.17423934197139679 -0.1017815859784342 0 -0.18118326058104209 -0.08825419183970401 0 -0.16746185343044401 -0.091445336260546128 0 -0.19294566676858971 -0.096864600750783431 0 -0.18534812722118199 -0.1163550958908785 0 -0.17423934197139679 -0.1017815859784342 0 -0.19294566676858971 -0.096864600750783431 0 -0.17423934197139679 -0.1017815859784342 0 -0.18118326058104209 -0.08825419183970401 0 -0.18118326058104209 -0.08825419183970401 0 -0.18409944718507371 -0.07264022497537044 0 -0.16915717098214109 -0.081397787743409861 0 -0.18118326058104209 -0.08825419183970401 0 -0.16746185343044401 -0.091445336260546128 0 -0.16915717098214109 -0.081397787743409861 0 -0.18409944718507371 -0.07264022497537044 0 -0.1702117591297739 -0.06777753321031553 0 -0.16380943555950259 -0.077035991020633382 0 -0.18409944718507371 -0.07264022497537044 0 -0.16380943555950259 -0.077035991020633382 0 -0.16915717098214109 -0.081397787743409861 0 -0.18409944718507371 -0.07264022497537044 0 -0.17187825396406881 -0.057945450019426657 0 -0.18769526278089041 -0.057829612445021099 0 -0.18409944718507371 -0.07264022497537044 0 -0.16380943555950259 -0.077035991020633382 0 -0.18409944718507371 -0.07264022497537044 0 -0.1702117591297739 -0.06777753321031553 0 -0.17187825396406881 -0.057945450019426657 0 -0.16380943555950259 -0.077035991020633382 0 -0.16105989981045041 -0.063488466825831633 0 -0.14595160177326619 -0.062470528310013429 0 -0.1702117591297739 -0.06777753321031553 0 -0.16105989981045041 -0.063488466825831633 0 -0.17187825396406881 -0.057945450019426657 0 -0.1702117591297739 -0.06777753321031553 0 -0.16380943555950259 -0.077035991020633382 0 -0.16105989981045041 -0.063488466825831633 0 -0.16380943555950259 -0.077035991020633382 0 -0.16109871639751261 -0.084134952385501949 0 -0.14796844382834351 -0.080467891152587012 0 -0.16746185343044401 -0.091445336260546128 0 -0.16915717098214109 -0.081397787743409861 0 -0.16109871639751261 -0.084134952385501949 0 -0.16380943555950259 -0.077035991020633382 0 -0.16915717098214109 -0.081397787743409861 0 -0.16109871639751261 -0.084134952385501949 0 -0.16380943555950259 -0.077035991020633382 0 -0.16915717098214109 -0.081397787743409861 0 -0.16746185343044401 -0.091445336260546128 0 -0.16109871639751261 -0.084134952385501949 0 -0.1570966781871318 -0.090327755750333361 0 -0.16380943555950259 -0.077035991020633382 0 -0.14796844382834351 -0.080467891152587012 0 -0.14796844382834351 -0.080467891152587012 0 -0.13497135686491851 -0.078315161523928284 0 -0.1484932433812913 -0.094043062253026791 0 -0.1570966781871318 -0.090327755750333361 0 -0.14796844382834351 -0.080467891152587012 0 -0.1484932433812913 -0.094043062253026791 0 -0.16109871639751261 -0.084134952385501949 0 -0.1570966781871318 -0.090327755750333361 0 -0.14796844382834351 -0.080467891152587012 0 -0.16380943555950259 -0.077035991020633382 0 -0.14796844382834351 -0.080467891152587012 0 -0.14595160177326619 -0.062470528310013429 0 -0.16380943555950259 -0.077035991020633382 0 -0.14595160177326619 -0.062470528310013429 0 -0.14796844382834351 -0.080467891152587012 0 -0.13497135686491851 -0.078315161523928284 0 -0.14595160177326619 -0.062470528310013429 0 -0.1158705629695205 -0.060236298698018297 0 -0.13497135686491851 -0.078315161523928284 0 -0.1158705629695205 -0.060236298698018297 0 -0.13497135686491851 -0.078315161523928284 0 -0.13122182239868371 -0.062231763532838429 0 -0.13497135686491851 -0.078315161523928284 0 -0.13122182239868371 -0.062231763532838429 0 -0.14595160177326619 -0.062470528310013429 0 -0.112702195828283 -0.076339248342475546 0 -0.13497135686491851 -0.078315161523928284 0 -0.13438499311011279 -0.096174695905308166 0 -0.13497135686491851 -0.078315161523928284 0 -0.13438499311011279 -0.096174695905308166 0 -0.1484932433812913 -0.094043062253026791 0 -0.11276894493928399 -0.097790936300085646 0 -0.13438499311011279 -0.096174695905308166 0 -0.1306137014228527 -0.1212095633787966 0 -0.13438499311011279 -0.096174695905308166 0 -0.1306137014228527 -0.1212095633787966 0 -0.15606779039194271 -0.1160101434681408 0 -0.15406265534163929 -0.1294064941378926 0 -0.1306137014228527 -0.1212095633787966 0 -0.15606779039194271 -0.1160101434681408 0 -0.13438499311011279 -0.096174695905308166 0 -0.15606779039194271 -0.1160101434681408 0 -0.1484932433812913 -0.094043062253026791 0 -0.16057304666404501 -0.10079887419961479 0 -0.15606779039194271 -0.1160101434681408 0 -0.1484932433812913 -0.094043062253026791 0 -0.13438499311011279 -0.096174695905308166 0 -0.15606779039194271 -0.1160101434681408 0 -0.16057304666404501 -0.10079887419961479 0 -0.1570966781871318 -0.090327755750333361 0 -0.1484932433812913 -0.094043062253026791 0 -0.14513665439653431 -0.02122229521611602 0 -0.15148395360685291 -0.031475856168514699 0 -0.16129500549156001 -0.024264335985147129 0 -0.14513665439653431 -0.02122229521611602 0 -0.1346415055917565 -0.031432898451717602 0 -0.15148395360685291 -0.031475856168514699 0 -0.14513665439653431 -0.02122229521611602 0 -0.15327979458335059 -0.01391829646419882 0 -0.16129500549156001 -0.024264335985147129 0 -0.1412848112475209 -0.008091449167619497 0 -0.15773416148281841 -0.0035868741371463562 0 -0.14801408494475049 0.0031182785745780331 0 -0.15327979458335059 -0.01391829646419882 0 -0.1412848112475209 -0.008091449167619497 0 -0.15773416148281841 -0.0035868741371463562 0 -0.14513665439653431 -0.02122229521611602 0 -0.15327979458335059 -0.01391829646419882 0 -0.1412848112475209 -0.008091449167619497 0 -0.1236693299605585 -0.0137973575501921 0 -0.1412848112475209 -0.008091449167619497 0 -0.12735709500343681 0.004015926865657337 0 -0.1412848112475209 -0.008091449167619497 0 -0.12735709500343681 0.004015926865657337 0 -0.14801408494475049 0.0031182785745780331 0 -0.1236693299605585 -0.0137973575501921 0 -0.1412848112475209 -0.008091449167619497 0 -0.13426109495296229 -0.02049569832685658 0 -0.1236693299605585 -0.0137973575501921 0 -0.1221370268088495 -0.025998648103035 0 -0.13426109495296229 -0.02049569832685658 0 -0.14513665439653431 -0.02122229521611602 0 -0.1412848112475209 -0.008091449167619497 0 -0.13426109495296229 -0.02049569832685658 0 -0.14513665439653431 -0.02122229521611602 0 -0.13426109495296229 -0.02049569832685658 0 -0.1346415055917565 -0.031432898451717602 0 -0.1221370268088495 -0.025998648103035 0 -0.12530131535501859 -0.034952786400489197 0 -0.1346415055917565 -0.031432898451717602 0 -0.1221370268088495 -0.025998648103035 0 -0.13426109495296229 -0.02049569832685658 0 -0.1346415055917565 -0.031432898451717602 0 -0.12530131535501859 -0.034952786400489197 0 -0.1346415055917565 -0.031432898451717602 0 -0.12809376798702951 -0.047905065599393698 0 -0.1346415055917565 -0.031432898451717602 0 -0.12809376798702951 -0.047905065599393698 0 -0.14629371500633531 -0.042796653234188263 0 -0.12809376798702951 -0.047905065599393698 0 -0.14595160177326619 -0.062470528310013429 0 -0.12809376798702951 -0.047905065599393698 0 -0.14595160177326619 -0.062470528310013429 0 -0.14629371500633531 -0.042796653234188263 0 -0.13122182239868371 -0.062231763532838429 0 -0.12809376798702951 -0.047905065599393698 0 -0.14595160177326619 -0.062470528310013429 0 -0.1158705629695205 -0.060236298698018297 0 -0.13122182239868371 -0.062231763532838429 0 -0.12809376798702951 -0.047905065599393698 0 -0.14595160177326619 -0.062470528310013429 0 -0.14629371500633531 -0.042796653234188263 0 -0.15696853651444401 -0.052603520026387289 0 -0.16105989981045041 -0.063488466825831633 0 -0.14595160177326619 -0.062470528310013429 0 -0.15696853651444401 -0.052603520026387289 0 -0.15148395360685291 -0.031475856168514699 0 -0.14629371500633531 -0.042796653234188263 0 -0.16402488563849801 -0.041062174760887443 0 -0.1346415055917565 -0.031432898451717602 0 -0.15148395360685291 -0.031475856168514699 0 -0.14629371500633531 -0.042796653234188263 0 -0.14629371500633531 -0.042796653234188263 0 -0.16402488563849801 -0.041062174760887443 0 -0.15696853651444401 -0.052603520026387289 0 -0.15148395360685291 -0.031475856168514699 0 -0.16402488563849801 -0.041062174760887443 0 -0.16129500549156001 -0.024264335985147129 0 -0.16402488563849801 -0.041062174760887443 0 -0.17409393016306191 -0.030370879776367592 0 -0.16129500549156001 -0.024264335985147129 0 -0.16402488563849801 -0.041062174760887443 0 -0.15696853651444401 -0.052603520026387289 0 -0.17187825396406881 -0.057945450019426657 0 -0.16105989981045041 -0.063488466825831633 0 -0.15696853651444401 -0.052603520026387289 0 -0.17187825396406881 -0.057945450019426657 0 -0.16402488563849801 -0.041062174760887443 0 -0.17187825396406881 -0.057945450019426657 0 -0.18133558272394029 -0.043618149437272283 0 -0.17187825396406881 -0.057945450019426657 0 -0.18133558272394029 -0.043618149437272283 0 -0.18769526278089041 -0.057829612445021099 0 -0.18133558272394029 -0.043618149437272283 0 -0.17409393016306191 -0.030370879776367592 0 -0.18915768363079971 -0.025155098795753519 0 -0.16402488563849801 -0.041062174760887443 0 -0.18133558272394029 -0.043618149437272283 0 -0.17409393016306191 -0.030370879776367592 0 -0.17409393016306191 -0.030370879776367592 0 -0.17549551533112251 -0.014893414490097231 0 -0.18915768363079971 -0.025155098795753519 0 -0.16129500549156001 -0.024264335985147129 0 -0.16350931143073591 -0.01273440345064396 0 -0.17549551533112251 -0.014893414490097231 0 -0.17409393016306191 -0.030370879776367592 0 -0.16129500549156001 -0.024264335985147129 0 -0.17549551533112251 -0.014893414490097231 0 -0.15327979458335059 -0.01391829646419882 0 -0.16129500549156001 -0.024264335985147129 0 -0.16350931143073591 -0.01273440345064396 0 -0.15773416148281841 -0.0035868741371463562 0 -0.16716832075785379 -0.0032078365625175 0 -0.1619193683370386 0.0066468078375689294 0 -0.15773416148281841 -0.0035868741371463562 0 -0.16350931143073591 -0.01273440345064396 0 -0.16716832075785379 -0.0032078365625175 0 -0.15327979458335059 -0.01391829646419882 0 -0.15773416148281841 -0.0035868741371463562 0 -0.16350931143073591 -0.01273440345064396 0 -0.16350931143073591 -0.01273440345064396 0 -0.16716832075785379 -0.0032078365625175 0 -0.17549551533112251 -0.014893414490097231 0 -0.17549551533112251 -0.014893414490097231 0 -0.18154179604087481 -0.0036104187285780349 0 -0.18915768363079971 -0.025155098795753519 0 -0.18154179604087481 -0.0036104187285780349 0 -0.18915768363079971 -0.025155098795753519 0 -0.17549551533112251 -0.014893414490097231 0 -0.17584419881677341 0.0071523107965592754 0 -0.17549551533112251 -0.014893414490097231 0 -0.18154179604087481 -0.0036104187285780349 0 -0.17584419881677341 0.0071523107965592754 0 -0.16716832075785379 -0.0032078365625175 0 -0.17549551533112251 -0.014893414490097231 0 -0.17584419881677341 0.0071523107965592754 0 -0.18154179604087481 -0.0036104187285780349 0 -0.19066530249761049 -0.0041303576494283751 0 -0.18915768363079971 -0.025155098795753519 0 -0.18154179604087481 -0.0036104187285780349 0 -0.19066530249761049 -0.0041303576494283751 0 -0.18717715497560061 0.0062623078557712403 0 -0.19066530249761049 -0.0041303576494283751 0 -0.1989264366345522 -0.0080023544535597537 0 -0.18915768363079971 -0.025155098795753519 0 -0.19066530249761049 -0.0041303576494283751 0 -0.1989264366345522 -0.0080023544535597537 0 -0.1965234412062255 0.0098537758749781944 0 -0.1989264366345522 -0.0080023544535597537 0 -0.2007918169376324 -0.0191738513677071 0 -0.20680177871376751 -0.0119671669755851 0 -0.18915768363079971 -0.025155098795753519 0 -0.2007918169376324 -0.0191738513677071 0 -0.21013076049929519 -0.028334228638799381 0 -0.1989264366345522 -0.0080023544535597537 0 -0.18915768363079971 -0.025155098795753519 0 -0.2007918169376324 -0.0191738513677071 0 -0.2007918169376324 -0.0191738513677071 0 -0.21013076049929519 -0.028334228638799381 0 -0.20680177871376751 -0.0119671669755851 0 -0.21013076049929519 -0.028334228638799381 0 -0.21702438745170211 -0.0043907958627755336 0 -0.21921501925093501 -0.017985606360015789 0 -0.21013076049929519 -0.028334228638799381 0 -0.21702438745170211 -0.0043907958627755336 0 -0.21013076049929519 -0.028334228638799381 0 -0.22271521407306469 -0.037269361340154371 0 -0.21921501925093501 -0.017985606360015789 0 -0.21013076049929519 -0.028334228638799381 0 -0.21702438745170211 -0.0043907958627755336 0 -0.20680177871376751 -0.0119671669755851 0 -0.1989264366345522 -0.0080023544535597537 0 -0.20680177871376751 -0.0119671669755851 0 -0.20713549204565579 6.5395444916274768e-05 0 -0.21702438745170211 -0.0043907958627755336 0 -0.20680177871376751 -0.0119671669755851 0 -0.20713549204565579 6.5395444916274768e-05 0 -0.20438945881064449 -0.068244458930106389 0 -0.1967735712207245 -0.046699778862929052 0 -0.20438945881064449 -0.068244458930106389 0 -0.18769526278089041 -0.057829612445021099 0 -0.1967735712207245 -0.046699778862929052 0 -0.20438945881064449 -0.068244458930106389 0 -0.1967735712207245 -0.046699778862929052 0 -0.20711132549122371 -0.057203435059411119 0 -0.18133558272394029 -0.043618149437272283 0 -0.18769526278089041 -0.057829612445021099 0 -0.1967735712207245 -0.046699778862929052 0 -0.18133558272394029 -0.043618149437272283 0 -0.18915768363079971 -0.025155098795753519 0 -0.1967735712207245 -0.046699778862929052 0 -0.18915768363079971 -0.025155098795753519 0 -0.1967735712207245 -0.046699778862929052 0 -0.18915768363079971 -0.025155098795753519 0 -0.21013076049929519 -0.028334228638799381 0 -0.1967735712207245 -0.046699778862929052 0 -0.21013076049929519 -0.028334228638799381 0 -0.21132582579248671 -0.048130994279405613 0 -0.22271521407306469 -0.037269361340154371 0 -0.21013076049929519 -0.028334228638799381 0 -0.1967735712207245 -0.046699778862929052 0 -0.21132582579248671 -0.048130994279405613 0 -0.21595644614104051 -0.065738508165203102 0 -0.21132582579248671 -0.048130994279405613 0 -0.22271521407306469 -0.037269361340154371 0 -0.21595644614104051 -0.065738508165203102 0 -0.21132582579248671 -0.048130994279405613 0 -0.20711132549122371 -0.057203435059411119 0 -0.1967735712207245 -0.046699778862929052 0 -0.21132582579248671 -0.048130994279405613 0 -0.20711132549122371 -0.057203435059411119 0 -0.21595644614104051 -0.065738508165203102 0 -0.2284172135094342 -0.053659916570315727 0 -0.24475965461883589 -0.059498385283178377 0 -0.21595644614104051 -0.065738508165203102 0 -0.2284172135094342 -0.053659916570315727 0 -0.22271521407306469 -0.037269361340154371 0 -0.21595644614104051 -0.065738508165203102 0 -0.22271521407306469 -0.037269361340154371 0 -0.2284172135094342 -0.053659916570315727 0 -0.22271521407306469 -0.037269361340154371 0 -0.23903543051913109 -0.043198085603962481 0 -0.22271521407306469 -0.037269361340154371 0 -0.23903543051913109 -0.043198085603962481 0 -0.24161885061771041 -0.026720350447010301 0 -0.23903543051913109 -0.043198085603962481 0 -0.24161885061771041 -0.026720350447010301 0 -0.25766621977661042 -0.038842414379153638 0 -0.23903543051913109 -0.043198085603962481 0 -0.24475965461883589 -0.059498385283178377 0 -0.25766621977661042 -0.038842414379153638 0 -0.2284172135094342 -0.053659916570315727 0 -0.23903543051913109 -0.043198085603962481 0 -0.24475965461883589 -0.059498385283178377 0 -0.22947398200509031 -0.0088002145151058891 0 -0.22867745033346079 0.0038692188645070222 0 -0.2401015516947359 0.00075261550232862703 0 -0.21702438745170211 -0.0043907958627755336 0 -0.22947398200509031 -0.0088002145151058891 0 -0.22867745033346079 0.0038692188645070222 0 -0.21702438745170211 -0.0043907958627755336 0 -0.22947398200509031 -0.0088002145151058891 0 -0.21921501925093501 -0.017985606360015789 0 -0.22271521407306469 -0.037269361340154371 0 -0.22947398200509031 -0.0088002145151058891 0 -0.21921501925093501 -0.017985606360015789 0 -0.22271521407306469 -0.037269361340154371 0 -0.22947398200509031 -0.0088002145151058891 0 -0.22271521407306469 -0.037269361340154371 0 -0.22947398200509031 -0.0088002145151058891 0 -0.24161885061771041 -0.026720350447010301 0 -0.22947398200509031 -0.0088002145151058891 0 -0.24161885061771041 -0.026720350447010301 0 -0.2437457614006571 -0.011962382738850049 0 -0.24161885061771041 -0.026720350447010301 0 -0.2437457614006571 -0.011962382738850049 0 -0.2598032925822476 -0.0188915667982569 0 -0.22947398200509031 -0.0088002145151058891 0 -0.2437457614006571 -0.011962382738850049 0 -0.2401015516947359 0.00075261550232862703 0 -0.2437457614006571 -0.011962382738850049 0 -0.25267499080189931 -0.0034516002120552492 0 -0.2401015516947359 0.00075261550232862703 0 -0.25267499080189931 -0.0034516002120552492 0 -0.2598032925822476 -0.0188915667982569 0 -0.26909988492935111 -0.0018655285383734981 0 -0.2437457614006571 -0.011962382738850049 0 -0.25267499080189931 -0.0034516002120552492 0 -0.2598032925822476 -0.0188915667982569 0 -0.2598032925822476 -0.0188915667982569 0 -0.27267419604841259 -0.026924212746328481 0 -0.25766621977661042 -0.038842414379153638 0 -0.24161885061771041 -0.026720350447010301 0 -0.2598032925822476 -0.0188915667982569 0 -0.25766621977661042 -0.038842414379153638 0 -0.2598032925822476 -0.0188915667982569 0 -0.27267419604841259 -0.026924212746328481 0 -0.27804425228895369 -0.016131696666228459 0 -0.27267419604841259 -0.026924212746328481 0 -0.27804425228895369 -0.016131696666228459 0 -0.28378415359151371 -0.031280105512012511 0 -0.27804425228895369 -0.016131696666228459 0 -0.26909988492935111 -0.0018655285383734981 0 -0.2917254884257266 -0.0017566381736345419 0 -0.2598032925822476 -0.0188915667982569 0 -0.27804425228895369 -0.016131696666228459 0 -0.26909988492935111 -0.0018655285383734981 0 -0.27804425228895369 -0.016131696666228459 0 -0.2917254884257266 -0.0017566381736345419 0 -0.2928870998243559 -0.020527937726781 0 -0.27804425228895369 -0.016131696666228459 0 -0.2928870998243559 -0.020527937726781 0 -0.28378415359151371 -0.031280105512012511 0 -0.2928870998243559 -0.020527937726781 0 -0.29943422057661201 -0.032203920876667472 0 -0.28378415359151371 -0.031280105512012511 0 -0.2928870998243559 -0.020527937726781 0 -0.31144738423897378 -0.02126732740536201 0 -0.29943422057661201 -0.032203920876667472 0 -0.31144738423897378 -0.02126732740536201 0 -0.31110423911055801 -0.035316851109560482 0 -0.29943422057661201 -0.032203920876667472 0 -0.2917254884257266 -0.0017566381736345419 0 -0.31144738423897378 -0.02126732740536201 0 -0.31177688145040278 0.0050359958776742568 0 -0.2917254884257266 -0.0017566381736345419 0 -0.2928870998243559 -0.020527937726781 0 -0.31144738423897378 -0.02126732740536201 0 -0.2917254884257266 -0.0017566381736345419 0 -0.31144738423897378 -0.02126732740536201 0 -0.30323190850646392 -0.052883144282766713 0 -0.3023660715744253 -0.047018139519123002 0 -0.29757341552329353 -0.05219957266967655 0 -0.29931176789370939 -0.061629941742321552 0 -0.30659897303184058 -0.057135789817405573 0 -0.30728911182784302 -0.064893595009923935 0 -0.30323190850646392 -0.052883144282766713 0 -0.29931176789370939 -0.061629941742321552 0 -0.30659897303184058 -0.057135789817405573 0 -0.30323190850646392 -0.052883144282766713 0 -0.29757341552329353 -0.05219957266967655 0 -0.29931176789370939 -0.061629941742321552 0 -0.30659897303184058 -0.057135789817405573 0 -0.30728911182784302 -0.064893595009923935 0 -0.31405483352543062 -0.056831087900065053 0 -0.30323190850646392 -0.052883144282766713 0 -0.3023660715744253 -0.047018139519123002 0 -0.31025625293594222 -0.050033124508212908 0 -0.30659897303184058 -0.057135789817405573 0 -0.31025625293594222 -0.050033124508212908 0 -0.31405483352543062 -0.056831087900065053 0 -0.30323190850646392 -0.052883144282766713 0 -0.30659897303184058 -0.057135789817405573 0 -0.31025625293594222 -0.050033124508212908 0 -0.3023660715744253 -0.047018139519123002 0 -0.31110423911055801 -0.035316851109560482 0 -0.29943422057661201 -0.032203920876667472 0 -0.3023660715744253 -0.047018139519123002 0 -0.29943422057661201 -0.032203920876667472 0 -0.29166722635019171 -0.038853801873014321 0 -0.29943422057661201 -0.032203920876667472 0 -0.29166722635019171 -0.038853801873014321 0 -0.28378415359151371 -0.031280105512012511 0 -0.3023660715744253 -0.047018139519123002 0 -0.29166722635019171 -0.038853801873014321 0 -0.28390051605192418 -0.042754285685484159 0 -0.29166722635019171 -0.038853801873014321 0 -0.28378415359151371 -0.031280105512012511 0 -0.28390051605192418 -0.042754285685484159 0 -0.3023660715744253 -0.047018139519123002 0 -0.28390051605192418 -0.042754285685484159 0 -0.27356286309663053 -0.053258262401150697 0 -0.3023660715744253 -0.047018139519123002 0 -0.27356286309663053 -0.053258262401150697 0 -0.29757341552329353 -0.05219957266967655 0 -0.27356286309663053 -0.053258262401150697 0 -0.27532891164284878 -0.069285621960536392 0 -0.29757341552329353 -0.05219957266967655 0 -0.27532891164284878 -0.069285621960536392 0 -0.3023660715744253 -0.047018139519123002 0 -0.29757341552329353 -0.05219957266967655 0 -0.27356286309663053 -0.053258262401150697 0 -0.29757341552329353 -0.05219957266967655 0 -0.29931176789370939 -0.061629941742321552 0 -0.27532891164284878 -0.069285621960536392 0 -0.27267419604841259 -0.026924212746328481 0 -0.27375437843427658 -0.039043607324579933 0 -0.25766621977661042 -0.038842414379153638 0 -0.27356286309663053 -0.053258262401150697 0 -0.27375437843427658 -0.039043607324579933 0 -0.25766621977661042 -0.038842414379153638 0 -0.28378415359151371 -0.031280105512012511 0 -0.28390051605192418 -0.042754285685484159 0 -0.27375437843427658 -0.039043607324579933 0 -0.27267419604841259 -0.026924212746328481 0 -0.28378415359151371 -0.031280105512012511 0 -0.27375437843427658 -0.039043607324579933 0 -0.28390051605192418 -0.042754285685484159 0 -0.27356286309663053 -0.053258262401150697 0 -0.27375437843427658 -0.039043607324579933 0 -0.24475965461883589 -0.059498385283178377 0 -0.27356286309663053 -0.053258262401150697 0 -0.2582325144520296 -0.070050845257802419 0 -0.24475965461883589 -0.059498385283178377 0 -0.27356286309663053 -0.053258262401150697 0 -0.24475965461883589 -0.059498385283178377 0 -0.27356286309663053 -0.053258262401150697 0 -0.25766621977661042 -0.038842414379153638 0 -0.2582325144520296 -0.070050845257802419 0 -0.25308440776240432 -0.086371671251396109 0 -0.27532891164284878 -0.069285621960536392 0 -0.25308440776240432 -0.086371671251396109 0 -0.27532891164284878 -0.069285621960536392 0 -0.25308440776240432 -0.086371671251396109 0 -0.27361062541114611 -0.085405998149086934 0 -0.26907394573302829 -0.10103393024372311 0 -0.27361062541114611 -0.085405998149086934 0 -0.26907394573302829 -0.10103393024372311 0 -0.28494676303449051 -0.09097811142482605 0 -0.25308440776240432 -0.086371671251396109 0 -0.27361062541114611 -0.085405998149086934 0 -0.27532891164284878 -0.069285621960536392 0 -0.27356286309663053 -0.053258262401150697 0 -0.2582325144520296 -0.070050845257802419 0 -0.27532891164284878 -0.069285621960536392 0 -0.27361062541114611 -0.085405998149086934 0 -0.27532891164284878 -0.069285621960536392 0 -0.28561909888295839 -0.079360655864953042 0 -0.2432602079730701 -0.13485583854350039 0 -0.2499653418643101 -0.1102460646797562 0 -0.26490928006600228 -0.12397715003998409 0 -0.2499653418643101 -0.1102460646797562 0 -0.26490928006600228 -0.12397715003998409 0 -0.26907394573302829 -0.10103393024372311 0 -0.2499653418643101 -0.1102460646797562 0 -0.25308440776240432 -0.086371671251396109 0 -0.26907394573302829 -0.10103393024372311 0 -0.26907394573302829 -0.10103393024372311 0 -0.28789548083438649 -0.11161882002010511 0 -0.28494676303449051 -0.09097811142482605 0 -0.26490928006600228 -0.12397715003998409 0 -0.28789548083438649 -0.11161882002010511 0 -0.28428672055728371 -0.13281235115180859 0 -0.26490928006600228 -0.12397715003998409 0 -0.26907394573302829 -0.10103393024372311 0 -0.28789548083438649 -0.11161882002010511 0 -0.28789548083438649 -0.11161882002010511 0 -0.28428672055728371 -0.13281235115180859 0 -0.30877835781368662 -0.12931532841693749 0 -0.28789548083438649 -0.11161882002010511 0 -0.29765529442092259 -0.094840601490837839 0 -0.28494676303449051 -0.09097811142482605 0 -0.30761934067920371 -0.1042503242997595 0 -0.29765529442092259 -0.094840601490837839 0 -0.30832877355579341 -0.086934752854072747 0 -0.30761934067920371 -0.1042503242997595 0 -0.30832877355579341 -0.086934752854072747 0 -0.31968159473222052 -0.091584555267719248 0 -0.28789548083438649 -0.11161882002010511 0 -0.30761934067920371 -0.1042503242997595 0 -0.29765529442092259 -0.094840601490837839 0 -0.28789548083438649 -0.11161882002010511 0 -0.30761934067920371 -0.1042503242997595 0 -0.30877835781368662 -0.12931532841693749 0 -0.29931176789370939 -0.061629941742321552 0 -0.27532891164284878 -0.069285621960536392 0 -0.29568251685582603 -0.071589435967753134 0 -0.27532891164284878 -0.069285621960536392 0 -0.29568251685582603 -0.071589435967753134 0 -0.28561909888295839 -0.079360655864953042 0 -0.29568251685582603 -0.071589435967753134 0 -0.28561909888295839 -0.079360655864953042 0 -0.29849490204505058 -0.081938345925378783 0 -0.27361062541114611 -0.085405998149086934 0 -0.28561909888295839 -0.079360655864953042 0 -0.28494676303449051 -0.09097811142482605 0 -0.29765529442092259 -0.094840601490837839 0 -0.28494676303449051 -0.09097811142482605 0 -0.29849490204505058 -0.081938345925378783 0 -0.28561909888295839 -0.079360655864953042 0 -0.28494676303449051 -0.09097811142482605 0 -0.29849490204505058 -0.081938345925378783 0 -0.29849490204505058 -0.081938345925378783 0 -0.30832877355579341 -0.086934752854072747 0 -0.3066986514807607 -0.074546990101646726 0 -0.29765529442092259 -0.094840601490837839 0 -0.29849490204505058 -0.081938345925378783 0 -0.30832877355579341 -0.086934752854072747 0 -0.30832877355579341 -0.086934752854072747 0 -0.3066986514807607 -0.074546990101646726 0 -0.31636087034116728 -0.076704125898778439 0 -0.3066986514807607 -0.074546990101646726 0 -0.31411021802290889 -0.069356746280106005 0 -0.31636087034116728 -0.076704125898778439 0 -0.29568251685582603 -0.071589435967753134 0 -0.29849490204505058 -0.081938345925378783 0 -0.3066986514807607 -0.074546990101646726 0 -0.29568251685582603 -0.071589435967753134 0 -0.3066986514807607 -0.074546990101646726 0 -0.30728911182784302 -0.064893595009923935 0 -0.29931176789370939 -0.061629941742321552 0 -0.29568251685582603 -0.071589435967753134 0 -0.30728911182784302 -0.064893595009923935 0 -0.3066986514807607 -0.074546990101646726 0 -0.30728911182784302 -0.064893595009923935 0 -0.31411021802290889 -0.069356746280106005 0 -0.30728911182784302 -0.064893595009923935 0 -0.31630436981946819 -0.062936971351065629 0 -0.31411021802290889 -0.069356746280106005 0 -0.31630436981946819 -0.062936971351065629 0 -0.31411021802290889 -0.069356746280106005 0 -0.32389808664530562 -0.067702049039115322 0 -0.31630436981946819 -0.062936971351065629 0 -0.32389808664530562 -0.067702049039115322 0 -0.32481687078849097 -0.058022226865728103 0 -0.32389808664530562 -0.067702049039115322 0 -0.3259684841043719 -0.075020057435826168 0 -0.31636087034116728 -0.076704125898778439 0 -0.31411021802290889 -0.069356746280106005 0 -0.32389808664530562 -0.067702049039115322 0 -0.31636087034116728 -0.076704125898778439 0 -0.30832877355579341 -0.086934752854072747 0 -0.32608803180755441 -0.084321365842938284 0 -0.30832877355579341 -0.086934752854072747 0 -0.31968159473222052 -0.091584555267719248 0 -0.32608803180755441 -0.084321365842938284 0 -0.30832877355579341 -0.086934752854072747 0 -0.31636087034116728 -0.076704125898778439 0 -0.32608803180755441 -0.084321365842938284 0 -0.31968159473222052 -0.091584555267719248 0 -0.32608803180755441 -0.084321365842938284 0 -0.3259684841043719 -0.075020057435826168 0 -0.31636087034116728 -0.076704125898778439 0 -0.32608803180755441 -0.084321365842938284 0 -0.31968159473222052 -0.091584555267719248 0 -0.32608803180755441 -0.084321365842938284 0 -0.34030971713070318 -0.087052614945596102 0 -0.32608803180755441 -0.084321365842938284 0 -0.34030971713070318 -0.087052614945596102 0 -0.34745734249292459 -0.081176736816750444 0 -0.32608803180755441 -0.084321365842938284 0 -0.33752694762346008 -0.07135268896247253 0 -0.34745734249292459 -0.081176736816750444 0 -0.32608803180755441 -0.084321365842938284 0 -0.34745734249292459 -0.081176736816750444 0 -0.33752694762346008 -0.07135268896247253 0 -0.3489658634393657 -0.058384012082006782 0 -0.33645864726091979 -0.05858208772264157 0 -0.33752694762346008 -0.07135268896247253 0 -0.3489658634393657 -0.058384012082006782 0 -0.32389808664530562 -0.067702049039115322 0 -0.33752694762346008 -0.07135268896247253 0 -0.33645864726091979 -0.05858208772264157 0 -0.3259684841043719 -0.075020057435826168 0 -0.32608803180755441 -0.084321365842938284 0 -0.33752694762346008 -0.07135268896247253 0 -0.32608803180755441 -0.084321365842938284 0 -0.33752694762346008 -0.07135268896247253 0 -0.32389808664530562 -0.067702049039115322 0 -0.3259684841043719 -0.075020057435826168 0 -0.33752694762346008 -0.07135268896247253 0 -0.32454403747219479 -0.1081839716812668 0 -0.30877835781368662 -0.12931532841693749 0 -0.30761934067920371 -0.1042503242997595 0 -0.32454403747219479 -0.1081839716812668 0 -0.30877835781368662 -0.12931532841693749 0 -0.32454403747219479 -0.1081839716812668 0 -0.33570809008837621 -0.11845594114356341 0 -0.30877835781368662 -0.12931532841693749 0 -0.30761934067920371 -0.1042503242997595 0 -0.31968159473222052 -0.091584555267719248 0 -0.32454403747219479 -0.1081839716812668 0 -0.34030971713070318 -0.087052614945596102 0 -0.32454403747219479 -0.1081839716812668 0 -0.34278855512837281 -0.1049294584887832 0 -0.31968159473222052 -0.091584555267719248 0 -0.34030971713070318 -0.087052614945596102 0 -0.32454403747219479 -0.1081839716812668 0 -0.34030971713070318 -0.087052614945596102 0 -0.32454403747219479 -0.1081839716812668 0 -0.32454403747219479 -0.1081839716812668 0 -0.34278855512837281 -0.1049294584887832 0 -0.33570809008837621 -0.11845594114356341 0 -0.33570809008837621 -0.11845594114356341 0 -0.35404294059136687 -0.1217835462641018 0 -0.33688620478323589 -0.13358080389391511 0 -0.34278855512837281 -0.1049294584887832 0 -0.35404294059136687 -0.1217835462641018 0 -0.35932798989652742 -0.1047455147758234 0 -0.34278855512837281 -0.1049294584887832 0 -0.33570809008837621 -0.11845594114356341 0 -0.35404294059136687 -0.1217835462641018 0 -0.34278855512837281 -0.1049294584887832 0 -0.35932798989652742 -0.1047455147758234 0 -0.35079718399447979 -0.093651592615473511 0 -0.34030971713070318 -0.087052614945596102 0 -0.34278855512837281 -0.1049294584887832 0 -0.35079718399447979 -0.093651592615473511 0 -0.35932798989652742 -0.1047455147758234 0 -0.35079718399447979 -0.093651592615473511 0 -0.36132419909701757 -0.091459041133748031 0 -0.35932798989652742 -0.1047455147758234 0 -0.37367929427193591 -0.1014825750548952 0 -0.37212838853434238 -0.11808059788504249 0 -0.35932798989652742 -0.1047455147758234 0 -0.37367929427193591 -0.1014825750548952 0 -0.36132419909701757 -0.091459041133748031 0 -0.35404294059136687 -0.1217835462641018 0 -0.37212838853434238 -0.11808059788504249 0 -0.37028068739271691 -0.13083580994494901 0 -0.35404294059136687 -0.1217835462641018 0 -0.35932798989652742 -0.1047455147758234 0 -0.37212838853434238 -0.11808059788504249 0 -0.35069420168351129 -0.07223638641294812 0 -0.34745734249292459 -0.081176736816750444 0 -0.36882665317829499 -0.078032107790563188 0 -0.36882665317829499 -0.078032107790563188 0 -0.3489658634393657 -0.058384012082006782 0 -0.35069420168351129 -0.07223638641294812 0 -0.36882665317829499 -0.078032107790563188 0 -0.3489658634393657 -0.058384012082006782 0 -0.33752694762346008 -0.07135268896247253 0 -0.35069420168351129 -0.07223638641294812 0 -0.3489658634393657 -0.058384012082006782 0 -0.33752694762346008 -0.07135268896247253 0 -0.35069420168351129 -0.07223638641294812 0 -0.34745734249292459 -0.081176736816750444 0 -0.34745734249292459 -0.081176736816750444 0 -0.36882665317829499 -0.078032107790563188 0 -0.34745734249292459 -0.081176736816750444 0 -0.36132419909701757 -0.091459041133748031 0 -0.36882665317829499 -0.078032107790563188 0 -0.34030971713070318 -0.087052614945596102 0 -0.34745734249292459 -0.081176736816750444 0 -0.35079718399447979 -0.093651592615473511 0 -0.34745734249292459 -0.081176736816750444 0 -0.35079718399447979 -0.093651592615473511 0 -0.36132419909701757 -0.091459041133748031 0 -0.37367929427193591 -0.1014825750548952 0 -0.36132419909701757 -0.091459041133748031 0 -0.36882665317829499 -0.078032107790563188 0 -0.36882665317829499 -0.078032107790563188 0 -0.36862349457690058 -0.057461967220355487 0 -0.3489658634393657 -0.058384012082006782 0 -0.36882665317829499 -0.078032107790563188 0 -0.36862349457690058 -0.057461967220355487 0 -0.37947166312044489 -0.067272628224985004 0 -0.36862349457690058 -0.057461967220355487 0 -0.3489658634393657 -0.058384012082006782 0 -0.36066681755822472 -0.045118253717945672 0 -0.36862349457690058 -0.057461967220355487 0 -0.37355784227175309 -0.045246792894939887 0 -0.3815482533063424 -0.052412606119804542 0 -0.36862349457690058 -0.057461967220355487 0 -0.36066681755822472 -0.045118253717945672 0 -0.37355784227175309 -0.045246792894939887 0 -0.3489658634393657 -0.058384012082006782 0 -0.36066681755822472 -0.045118253717945672 0 -0.3489658634393657 -0.058384012082006782 0 -0.34511111307690212 -0.046137334811030092 0 -0.36066681755822472 -0.045118253717945672 0 -0.35304062521722218 -0.036039659744318157 0 -0.3553139768507978 -0.023567241021099371 0 -0.33371347875736079 -0.040226824134751989 0 -0.34511111307690212 -0.046137334811030092 0 -0.35304062521722218 -0.036039659744318157 0 -0.33371347875736079 -0.040226824134751989 0 -0.34511111307690212 -0.046137334811030092 0 -0.35304062521722218 -0.036039659744318157 0 -0.36066681755822472 -0.045118253717945672 0 -0.36066681755822472 -0.045118253717945672 0 -0.37236777167708351 -0.031852495353884333 0 -0.35304062521722218 -0.036039659744318157 0 -0.37236777167708351 -0.031852495353884333 0 -0.35304062521722218 -0.036039659744318157 0 -0.36066681755822472 -0.045118253717945672 0 -0.37236777167708351 -0.031852495353884333 0 -0.36066681755822472 -0.045118253717945672 0 -0.37355784227175309 -0.045246792894939887 0 -0.37236777167708351 -0.031852495353884333 0 -0.37236777167708351 -0.031852495353884333 0 -0.3739022591900184 -0.02415390189740213 0 -0.36770044175442279 -0.02036669541201027 0 -0.37236777167708351 -0.031852495353884333 0 -0.36770044175442279 -0.02036669541201027 0 -0.3553139768507978 -0.023567241021099371 0 -0.36770044175442279 -0.02036669541201027 0 -0.35847393927256738 -0.010652033510738681 0 -0.38297625517291389 -0.017448943304264108 0 -0.35304062521722218 -0.036039659744318157 0 -0.37236777167708351 -0.031852495353884333 0 -0.3553139768507978 -0.023567241021099371 0 -0.3739022591900184 -0.02415390189740213 0 -0.36770044175442279 -0.02036669541201027 0 -0.38297625517291389 -0.017448943304264108 0 -0.36770044175442279 -0.02036669541201027 0 -0.35847393927256738 -0.010652033510738681 0 -0.3553139768507978 -0.023567241021099371 0 -0.35847393927256738 -0.010652033510738681 0 -0.38297625517291389 -0.017448943304264108 0 -0.37278444596104371 -0.0079457960458173115 0 -0.35847393927256738 -0.010652033510738681 0 -0.38297625517291389 -0.017448943304264108 0 -0.37474494217865062 -0.0022388935110706832 0 -0.37278444596104371 -0.0079457960458173115 0 -0.36307869926690151 -0.00068504054922277494 0 -0.37278444596104371 -0.0079457960458173115 0 -0.36307869926690151 -0.00068504054922277494 0 -0.35847393927256738 -0.010652033510738681 0 -0.36307869926690151 -0.00068504054922277494 0 -0.34718119132474479 -0.01384164818341615 0 -0.36064890389212972 0.0125435277679194 0 -0.36307869926690151 -0.00068504054922277494 0 -0.35847393927256738 -0.010652033510738681 0 -0.34718119132474479 -0.01384164818341615 0 -0.34718119132474479 -0.01384164818341615 0 -0.36064890389212972 0.0125435277679194 0 -0.34718119132474479 -0.01384164818341615 0 -0.3553139768507978 -0.023567241021099371 0 -0.33371347875736079 -0.040226824134751989 0 -0.35847393927256738 -0.010652033510738681 0 -0.34718119132474479 -0.01384164818341615 0 -0.3553139768507978 -0.023567241021099371 0 -0.34718119132474479 -0.01384164818341615 0 -0.33035884889608558 -0.02420969997450095 0 -0.33371347875736079 -0.040226824134751989 0 -0.34718119132474479 -0.01384164818341615 0 -0.33371347875736079 -0.040226824134751989 0 -0.34718119132474479 -0.01384164818341615 0 -0.32828291010712762 -0.0049346835118845543 0 -0.34055428987364128 0.0059527955302196532 0 -0.34718119132474479 -0.01384164818341615 0 -0.33035884889608558 -0.02420969997450095 0 -0.32828291010712762 -0.0049346835118845543 0 -0.31144738423897378 -0.02126732740536201 0 -0.32828291010712762 -0.0049346835118845543 0 -0.31177688145040278 0.0050359958776742568 0 -0.31144738423897378 -0.02126732740536201 0 -0.33116928005221918 -0.040778016637091109 0 -0.31144738423897378 -0.02126732740536201 0 -0.33035884889608558 -0.02420969997450095 0 -0.32828291010712762 -0.0049346835118845543 0 -0.31144738423897378 -0.02126732740536201 0 -0.33035884889608558 -0.02420969997450095 0 -0.33116928005221918 -0.040778016637091109 0 -0.3023660715744253 -0.047018139519123002 0 -0.31110423911055801 -0.035316851109560482 0 -0.33116928005221918 -0.040778016637091109 0 -0.3023660715744253 -0.047018139519123002 0 -0.31025625293594222 -0.050033124508212908 0 -0.33116928005221918 -0.040778016637091109 0 -0.3023660715744253 -0.047018139519123002 0 -0.33116928005221918 -0.040778016637091109 0 -0.31144738423897378 -0.02126732740536201 0 -0.31110423911055801 -0.035316851109560482 0 -0.33116928005221918 -0.040778016637091109 0 -0.31025625293594222 -0.050033124508212908 0 -0.31770057673851387 -0.05020147555903863 0 -0.33116928005221918 -0.040778016637091109 0 -0.31025625293594222 -0.050033124508212908 0 -0.31770057673851387 -0.05020147555903863 0 -0.31405483352543062 -0.056831087900065053 0 -0.31770057673851387 -0.05020147555903863 0 -0.31405483352543062 -0.056831087900065053 0 -0.31936567051967829 -0.054711673150449433 0 -0.31630436981946819 -0.062936971351065629 0 -0.31936567051967829 -0.054711673150449433 0 -0.32481687078849097 -0.058022226865728103 0 -0.30728911182784302 -0.064893595009923935 0 -0.31630436981946819 -0.062936971351065629 0 -0.31405483352543062 -0.056831087900065053 0 -0.31630436981946819 -0.062936971351065629 0 -0.31405483352543062 -0.056831087900065053 0 -0.31936567051967829 -0.054711673150449433 0 -0.31770057673851387 -0.05020147555903863 0 -0.32448711316898249 -0.050622394842538963 0 -0.33116928005221918 -0.040778016637091109 0 -0.31936567051967829 -0.054711673150449433 0 -0.32481687078849097 -0.058022226865728103 0 -0.32448711316898249 -0.050622394842538963 0 -0.31770057673851387 -0.05020147555903863 0 -0.31936567051967829 -0.054711673150449433 0 -0.32448711316898249 -0.050622394842538963 0 -0.32481687078849097 -0.058022226865728103 0 -0.32770904195502032 -0.053173566283506987 0 -0.32448711316898249 -0.050622394842538963 0 -0.32770904195502032 -0.053173566283506987 0 -0.32448711316898249 -0.050622394842538963 0 -0.32972533979495861 -0.048040159006195682 0 -0.3489658634393657 -0.058384012082006782 0 -0.34511111307690212 -0.046137334811030092 0 -0.3326728772282519 -0.042265511425067279 0 -0.32972533979495861 -0.048040159006195682 0 -0.33645864726091979 -0.05858208772264157 0 -0.3326728772282519 -0.042265511425067279 0 -0.3489658634393657 -0.058384012082006782 0 -0.3326728772282519 -0.042265511425067279 0 -0.32770904195502032 -0.053173566283506987 0 -0.32972533979495861 -0.048040159006195682 0 -0.33645864726091979 -0.05858208772264157 0 -0.3489658634393657 -0.058384012082006782 0 -0.33645864726091979 -0.05858208772264157 0 -0.3326728772282519 -0.042265511425067279 0 -0.32389808664530562 -0.067702049039115322 0 -0.32481687078849097 -0.058022226865728103 0 -0.33645864726091979 -0.05858208772264157 0 -0.32481687078849097 -0.058022226865728103 0 -0.32770904195502032 -0.053173566283506987 0 -0.33645864726091979 -0.05858208772264157 0 -0.34511111307690212 -0.046137334811030092 0 -0.33371347875736079 -0.040226824134751989 0 -0.3326728772282519 -0.042265511425067279 0 -0.33035884889608558 -0.02420969997450095 0 -0.33116928005221918 -0.040778016637091109 0 -0.33371347875736079 -0.040226824134751989 0 -0.35304062521722218 -0.036039659744318157 0 -0.33371347875736079 -0.040226824134751989 0 -0.32448711316898249 -0.050622394842538963 0 -0.32972533979495861 -0.048040159006195682 0 -0.33116928005221918 -0.040778016637091109 0 -0.33116928005221918 -0.040778016637091109 0 -0.3326728772282519 -0.042265511425067279 0 -0.32972533979495861 -0.048040159006195682 0 -0.3326728772282519 -0.042265511425067279 0 -0.32972533979495861 -0.048040159006195682 0 -0.33116928005221918 -0.040778016637091109 0 -0.3326728772282519 -0.042265511425067279 0 -0.33116928005221918 -0.040778016637091109 0 -0.33371347875736079 -0.040226824134751989 0 -0.33116928005221918 -0.040778016637091109 0 -0.33371347875736079 -0.040226824134751989 0 -0.3326728772282519 -0.042265511425067279 0 -0.33371347875736079 -0.040226824134751989 0 -0.3326728772282519 -0.042265511425067279 0 -0.2907170577323625 -0.25177677077710309 0 -0.30853150187083839 -0.25429835417001312 0 -0.30748271917561598 -0.2431056607245809 0 -0.30748271917561598 -0.2431056607245809 0 -0.3004866401015065 -0.2269264896544945 0 -0.32066485276457768 -0.2334308190911655 0 -0.2907170577323625 -0.25177677077710309 0 -0.30748271917561598 -0.2431056607245809 0 -0.3004866401015065 -0.2269264896544945 0 -0.30853150187083839 -0.25429835417001312 0 -0.30748271917561598 -0.2431056607245809 0 -0.32023222063025569 -0.2489608815952247 0 -0.3004866401015065 -0.2269264896544945 0 -0.27575903677895092 -0.22208668823385669 0 -0.3004866401015065 -0.2269264896544945 0 -0.27309361240676189 -0.24179026653703889 0 -0.27575903677895092 -0.22208668823385669 0 -0.3004866401015065 -0.2269264896544945 0 -0.27575903677895092 -0.22208668823385669 0 -0.29482007196541532 -0.2089319155152673 0 -0.2907170577323625 -0.25177677077710309 0 -0.3004866401015065 -0.2269264896544945 0 -0.27309361240676189 -0.24179026653703889 0 -0.27309361240676189 -0.24179026653703889 0 -0.25431856302814809 -0.24833495949118861 0 -0.25103143345639523 -0.21724688681321891 0 -0.27575903677895092 -0.22208668823385669 0 -0.25103143345639523 -0.21724688681321891 0 -0.27309361240676189 -0.24179026653703889 0 -0.27575903677895092 -0.22208668823385669 0 -0.25103143345639523 -0.21724688681321891 0 -0.27575903677895092 -0.22208668823385669 0 -0.25103143345639523 -0.21724688681321891 0 -0.27708552823660842 -0.19790031786117671 0 -0.25103143345639523 -0.21724688681321891 0 -0.25418198431724581 -0.18809916394242601 0 -0.27708552823660842 -0.19790031786117671 0 -0.27708552823660842 -0.19790031786117671 0 -0.29482007196541532 -0.2089319155152673 0 -0.30195969341908391 -0.19078830755985379 0 -0.29482007196541532 -0.2089319155152673 0 -0.30195969341908391 -0.19078830755985379 0 -0.32674672588845421 -0.2120308859258328 0 -0.3004866401015065 -0.2269264896544945 0 -0.29482007196541532 -0.2089319155152673 0 -0.32674672588845421 -0.2120308859258328 0 -0.27575903677895092 -0.22208668823385669 0 -0.27708552823660842 -0.19790031786117671 0 -0.29482007196541532 -0.2089319155152673 0 -0.30195969341908391 -0.19078830755985379 0 -0.30674796742087651 -0.1684647150882764 0 -0.32123008678095788 -0.18729232698745699 0 -0.30674796742087651 -0.1684647150882764 0 -0.2930126781551784 -0.15044668515260809 0 -0.3206808779707625 -0.15110047818677941 0 -0.27724699849667023 -0.17157804188827869 0 -0.2930126781551784 -0.15044668515260809 0 -0.30674796742087651 -0.1684647150882764 0 -0.27724699849667023 -0.17157804188827869 0 -0.2930126781551784 -0.15044668515260809 0 -0.27708552823660842 -0.19790031786117671 0 -0.30195969341908391 -0.19078830755985379 0 -0.27724699849667023 -0.17157804188827869 0 -0.30195969341908391 -0.19078830755985379 0 -0.30674796742087651 -0.1684647150882764 0 -0.27724699849667023 -0.17157804188827869 0 -0.25418198431724581 -0.18809916394242601 0 -0.27708552823660842 -0.19790031786117671 0 -0.27724699849667023 -0.17157804188827869 0 -0.25418198431724581 -0.18809916394242601 0 -0.2565438833259911 -0.1687602707777138 0 -0.27724699849667023 -0.17157804188827869 0 -0.2435592126657353 -0.1561425335328199 0 -0.2565438833259911 -0.1687602707777138 0 -0.26683780591716472 -0.14870377212940841 0 -0.27724699849667023 -0.17157804188827869 0 -0.26683780591716472 -0.14870377212940841 0 -0.2930126781551784 -0.15044668515260809 0 -0.2565438833259911 -0.1687602707777138 0 -0.27724699849667023 -0.17157804188827869 0 -0.26683780591716472 -0.14870377212940841 0 -0.2435592126657353 -0.1561425335328199 0 -0.2432602079730701 -0.13485583854350039 0 -0.26683780591716472 -0.14870377212940841 0 -0.2432602079730701 -0.13485583854350039 0 -0.26490928006600228 -0.12397715003998409 0 -0.26683780591716472 -0.14870377212940841 0 -0.26490928006600228 -0.12397715003998409 0 -0.26683780591716472 -0.14870377212940841 0 -0.28428672055728371 -0.13281235115180859 0 -0.28428672055728371 -0.13281235115180859 0 -0.2930126781551784 -0.15044668515260809 0 -0.30877835781368662 -0.12931532841693749 0 -0.26683780591716472 -0.14870377212940841 0 -0.28428672055728371 -0.13281235115180859 0 -0.2930126781551784 -0.15044668515260809 0 -0.2930126781551784 -0.15044668515260809 0 -0.30877835781368662 -0.12931532841693749 0 -0.3206808779707625 -0.15110047818677941 0 -0.2930126781551784 -0.15044668515260809 0 -0.30877835781368662 -0.12931532841693749 0 -0.33570809008837621 -0.11845594114356341 0 -0.30877835781368662 -0.12931532841693749 0 -0.33688620478323589 -0.13358080389391511 0 -0.30877835781368662 -0.12931532841693749 0 -0.3206808779707625 -0.15110047818677941 0 -0.33688620478323589 -0.13358080389391511 0 -0.3206808779707625 -0.15110047818677941 0 -0.33688620478323589 -0.13358080389391511 0 -0.34399943231138669 -0.15408109000358611 0 -0.33688620478323589 -0.13358080389391511 0 -0.35929992868189681 -0.1386942596847188 0 -0.35404294059136687 -0.1217835462641018 0 -0.33688620478323589 -0.13358080389391511 0 -0.35929992868189681 -0.1386942596847188 0 -0.35404294059136687 -0.1217835462641018 0 -0.35929992868189681 -0.1386942596847188 0 -0.37028068739271691 -0.13083580994494901 0 -0.35929992868189681 -0.1386942596847188 0 -0.37028068739271691 -0.13083580994494901 0 -0.3804539816512269 -0.14482329966991631 0 -0.35929992868189681 -0.1386942596847188 0 -0.3804539816512269 -0.14482329966991631 0 -0.35929992868189681 -0.1386942596847188 0 -0.3655172116091886 -0.15688196674787641 0 -0.3804539816512269 -0.14482329966991631 0 -0.3655172116091886 -0.15688196674787641 0 -0.3804539816512269 -0.14482329966991631 0 -0.3655172116091886 -0.15688196674787641 0 -0.37839901512320262 -0.15996290040625341 0 -0.3804539816512269 -0.14482329966991631 0 -0.33688620478323589 -0.13358080389391511 0 -0.35929992868189681 -0.1386942596847188 0 -0.34399943231138669 -0.15408109000358611 0 -0.35929992868189681 -0.1386942596847188 0 -0.34399943231138669 -0.15408109000358611 0 -0.3655172116091886 -0.15688196674787641 0 -0.34399943231138669 -0.15408109000358611 0 -0.35323542112630057 -0.1671812377988513 0 -0.3655172116091886 -0.15688196674787641 0 -0.3655172116091886 -0.15688196674787641 0 -0.37378547386561772 -0.17392500984250869 0 -0.37839901512320262 -0.15996290040625341 0 -0.35323542112630057 -0.1671812377988513 0 -0.3655172116091886 -0.15688196674787641 0 -0.37378547386561772 -0.17392500984250869 0 -0.37378547386561772 -0.17392500984250869 0 -0.35240556330307887 -0.18479875362473361 0 -0.36895563931783232 -0.19259611207654981 0 -0.35323542112630057 -0.1671812377988513 0 -0.37378547386561772 -0.17392500984250869 0 -0.35240556330307887 -0.18479875362473361 0 -0.35323542112630057 -0.1671812377988513 0 -0.35240556330307887 -0.18479875362473361 0 -0.33400288196205857 -0.17193246321376471 0 -0.35240556330307887 -0.18479875362473361 0 -0.33400288196205857 -0.17193246321376471 0 -0.33669316521431608 -0.19324526314955739 0 -0.33400288196205857 -0.17193246321376471 0 -0.32123008678095788 -0.18729232698745699 0 -0.33669316521431608 -0.19324526314955739 0 -0.3206808779707625 -0.15110047818677941 0 -0.34399943231138669 -0.15408109000358611 0 -0.33400288196205857 -0.17193246321376471 0 -0.34399943231138669 -0.15408109000358611 0 -0.35323542112630057 -0.1671812377988513 0 -0.33400288196205857 -0.17193246321376471 0 -0.30674796742087651 -0.1684647150882764 0 -0.3206808779707625 -0.15110047818677941 0 -0.33400288196205857 -0.17193246321376471 0 -0.30674796742087651 -0.1684647150882764 0 -0.33400288196205857 -0.17193246321376471 0 -0.32123008678095788 -0.18729232698745699 0 -0.30195969341908391 -0.19078830755985379 0 -0.32123008678095788 -0.18729232698745699 0 -0.32674672588845421 -0.2120308859258328 0 -0.32674672588845421 -0.2120308859258328 0 -0.35024140450074381 -0.20994798342056251 0 -0.32674672588845421 -0.2120308859258328 0 -0.33669316521431608 -0.19324526314955739 0 -0.35024140450074381 -0.20994798342056251 0 -0.32674672588845421 -0.2120308859258328 0 -0.35024140450074381 -0.20994798342056251 0 -0.3377174746324717 -0.2284461722996495 0 -0.32123008678095788 -0.18729232698745699 0 -0.32674672588845421 -0.2120308859258328 0 -0.33669316521431608 -0.19324526314955739 0 -0.35240556330307887 -0.18479875362473361 0 -0.36895563931783232 -0.19259611207654981 0 -0.35024140450074381 -0.20994798342056251 0 -0.35240556330307887 -0.18479875362473361 0 -0.33669316521431608 -0.19324526314955739 0 -0.35024140450074381 -0.20994798342056251 0 -0.36895563931783232 -0.19259611207654981 0 -0.37373608311303341 -0.20786508091529229 0 -0.35024140450074381 -0.20994798342056251 0 -0.37373608311303341 -0.20786508091529229 0 -0.35024140450074381 -0.20994798342056251 0 -0.37373608311303341 -0.20786508091529229 0 -0.35024140450074381 -0.20994798342056251 0 -0.36602803805366552 -0.21914337572849349 0 -0.37373608311303341 -0.20786508091529229 0 -0.36602803805366552 -0.21914337572849349 0 -0.37785639846487218 -0.21906994256996459 0 -0.35024140450074381 -0.20994798342056251 0 -0.357966965356528 -0.23170644806675769 0 -0.3377174746324717 -0.2284461722996495 0 -0.35024140450074381 -0.20994798342056251 0 -0.357966965356528 -0.23170644806675769 0 -0.36602803805366552 -0.21914337572849349 0 -0.357966965356528 -0.23170644806675769 0 -0.36602803805366552 -0.21914337572849349 0 -0.36983275924353248 -0.22875232439276311 0 -0.36602803805366552 -0.21914337572849349 0 -0.36983275924353248 -0.22875232439276311 0 -0.37785639846487218 -0.21906994256996459 0 -0.357966965356528 -0.23170644806675769 0 -0.36983275924353248 -0.22875232439276311 0 -0.37747963509906429 -0.24508953120583671 0 -0.35872453044413888 -0.25078889886649508 0 -0.357966965356528 -0.23170644806675769 0 -0.37747963509906429 -0.24508953120583671 0 -0.357966965356528 -0.23170644806675769 0 -0.34395992200845399 -0.24382677409400949 0 -0.3377174746324717 -0.2284461722996495 0 -0.35872453044413888 -0.25078889886649508 0 -0.357966965356528 -0.23170644806675769 0 -0.34395992200845399 -0.24382677409400949 0 -0.33345250408021371 -0.25331871279766999 0 -0.34395992200845399 -0.24382677409400949 0 -0.33132333615916232 -0.2411148243472106 0 -0.33345250408021371 -0.25331871279766999 0 -0.33132333615916232 -0.2411148243472106 0 -0.32023222063025569 -0.2489608815952247 0 -0.34395992200845399 -0.24382677409400949 0 -0.33132333615916232 -0.2411148243472106 0 -0.3377174746324717 -0.2284461722996495 0 -0.32674672588845421 -0.2120308859258328 0 -0.3377174746324717 -0.2284461722996495 0 -0.32066485276457768 -0.2334308190911655 0 -0.33132333615916232 -0.2411148243472106 0 -0.3377174746324717 -0.2284461722996495 0 -0.32066485276457768 -0.2334308190911655 0 -0.3004866401015065 -0.2269264896544945 0 -0.32674672588845421 -0.2120308859258328 0 -0.32066485276457768 -0.2334308190911655 0 -0.30748271917561598 -0.2431056607245809 0 -0.32066485276457768 -0.2334308190911655 0 -0.32023222063025569 -0.2489608815952247 0 -0.33132333615916232 -0.2411148243472106 0 -0.32066485276457768 -0.2334308190911655 0 -0.32023222063025569 -0.2489608815952247 0 -0.43445882011373449 -0.25478651907497341 0 -0.43806130733353449 -0.23541812032183559 0 -0.43445882011373449 -0.25478651907497341 0 -0.4258852610480256 -0.24284815888716721 0 -0.43806130733353449 -0.23541812032183559 0 -0.4258852610480256 -0.24284815888716721 0 -0.42538833238501789 -0.2333934851751748 0 -0.41698539980062188 -0.23875950084572559 0 -0.43445882011373449 -0.25478651907497341 0 -0.4258852610480256 -0.24284815888716721 0 -0.42335340856967768 -0.24893549408922019 0 -0.4258852610480256 -0.24284815888716721 0 -0.42538833238501789 -0.2333934851751748 0 -0.43806130733353449 -0.23541812032183559 0 -0.43091611572645672 -0.22699763907763329 0 -0.42538833238501789 -0.2333934851751748 0 -0.43806130733353449 -0.23541812032183559 0 -0.43091611572645672 -0.22699763907763329 0 -0.44166379455333399 -0.21604972156869759 0 -0.43806130733353449 -0.23541812032183559 0 -0.43091611572645672 -0.22699763907763329 0 -0.43133498143110582 -0.21921018883561361 0 -0.44166379455333399 -0.21604972156869759 0 -0.43133498143110582 -0.21921018883561361 0 -0.4232485836513401 -0.22477446532261011 0 -0.4232102070061276 -0.21869015764887889 0 -0.43091611572645672 -0.22699763907763329 0 -0.43133498143110582 -0.21921018883561361 0 -0.4232485836513401 -0.22477446532261011 0 -0.43091611572645672 -0.22699763907763329 0 -0.4232485836513401 -0.22477446532261011 0 -0.42538833238501789 -0.2333934851751748 0 -0.4232485836513401 -0.22477446532261011 0 -0.42538833238501789 -0.2333934851751748 0 -0.41731365953457839 -0.2310953018814938 0 -0.4232485836513401 -0.22477446532261011 0 -0.41731365953457839 -0.2310953018814938 0 -0.4121948509493269 -0.2247325638453028 0 -0.41731365953457839 -0.2310953018814938 0 -0.4080561583250083 -0.23272886934204159 0 -0.41698539980062188 -0.23875950084572559 0 -0.4232485836513401 -0.22477446532261011 0 -0.4121948509493269 -0.2247325638453028 0 -0.41685681033243982 -0.21746512418924929 0 -0.4232485836513401 -0.22477446532261011 0 -0.41685681033243982 -0.21746512418924929 0 -0.4232102070061276 -0.21869015764887889 0 -0.4121948509493269 -0.2247325638453028 0 -0.4080561583250083 -0.23272886934204159 0 -0.39971520205611372 -0.2221352637332015 0 -0.4121948509493269 -0.2247325638453028 0 -0.40807454407470489 -0.21592977391801271 0 -0.41685681033243982 -0.21746512418924929 0 -0.4121948509493269 -0.2247325638453028 0 -0.39971520205611372 -0.2221352637332015 0 -0.40807454407470489 -0.21592977391801271 0 -0.41731365953457839 -0.2310953018814938 0 -0.4121948509493269 -0.2247325638453028 0 -0.4080561583250083 -0.23272886934204159 0 -0.4080561583250083 -0.23272886934204159 0 -0.40983148527785651 -0.24118391776602099 0 -0.41698539980062188 -0.23875950084572559 0 -0.42538833238501789 -0.2333934851751748 0 -0.41731365953457839 -0.2310953018814938 0 -0.41698539980062188 -0.23875950084572559 0 -0.40983148527785651 -0.24118391776602099 0 -0.41698539980062188 -0.23875950084572559 0 -0.41627810448972868 -0.24641300060905449 0 -0.4258852610480256 -0.24284815888716721 0 -0.42335340856967768 -0.24893549408922019 0 -0.41627810448972868 -0.24641300060905449 0 -0.4258852610480256 -0.24284815888716721 0 -0.41698539980062188 -0.23875950084572559 0 -0.41627810448972868 -0.24641300060905449 0 -0.41679144862722167 -0.25169429778568547 0 -0.42335340856967768 -0.24893549408922019 0 -0.41627810448972868 -0.24641300060905449 0 -0.41385673751816382 -0.25312989710486528 0 -0.41627810448972868 -0.24641300060905449 0 -0.4086566941719203 -0.24778871483445111 0 -0.40983148527785651 -0.24118391776602099 0 -0.41627810448972868 -0.24641300060905449 0 -0.4086566941719203 -0.24778871483445111 0 -0.40282532782868952 -0.25224285689579767 0 -0.4086566941719203 -0.24778871483445111 0 -0.40022281387448849 -0.24084313907701979 0 -0.40983148527785651 -0.24118391776602099 0 -0.4086566941719203 -0.24778871483445111 0 -0.40022281387448849 -0.24084313907701979 0 -0.4080561583250083 -0.23272886934204159 0 -0.40983148527785651 -0.24118391776602099 0 -0.40022281387448849 -0.24084313907701979 0 -0.40022281387448849 -0.24084313907701979 0 -0.3903832871219331 -0.2411545733314838 0 -0.38772777019650018 -0.2315142496456449 0 -0.3938256931015453 -0.25037754026629511 0 -0.40022281387448849 -0.24084313907701979 0 -0.3903832871219331 -0.2411545733314838 0 -0.3938256931015453 -0.25037754026629511 0 -0.3903832871219331 -0.2411545733314838 0 -0.37747963509906429 -0.24508953120583671 0 -0.3903832871219331 -0.2411545733314838 0 -0.37747963509906429 -0.24508953120583671 0 -0.38772777019650018 -0.2315142496456449 0 -0.37747963509906429 -0.24508953120583671 0 -0.37785639846487218 -0.21906994256996459 0 -0.37747963509906429 -0.24508953120583671 0 -0.37785639846487218 -0.21906994256996459 0 -0.38772777019650018 -0.2315142496456449 0 -0.36983275924353248 -0.22875232439276311 0 -0.37747963509906429 -0.24508953120583671 0 -0.37785639846487218 -0.21906994256996459 0 -0.37785639846487218 -0.21906994256996459 0 -0.38772777019650018 -0.2315142496456449 0 -0.38790285805175961 -0.2167146319195192 0 -0.4080561583250083 -0.23272886934204159 0 -0.40022281387448849 -0.24084313907701979 0 -0.39971520205611372 -0.2221352637332015 0 -0.40022281387448849 -0.24084313907701979 0 -0.39971520205611372 -0.2221352637332015 0 -0.38772777019650018 -0.2315142496456449 0 -0.39971520205611372 -0.2221352637332015 0 -0.38790285805175961 -0.2167146319195192 0 -0.40022281387448849 -0.24084313907701979 0 -0.38772777019650018 -0.2315142496456449 0 -0.39971520205611372 -0.2221352637332015 0 -0.39971520205611372 -0.2221352637332015 0 -0.39723076172532301 -0.205782178410022 0 -0.40807454407470489 -0.21592977391801271 0 -0.39971520205611372 -0.2221352637332015 0 -0.39723076172532301 -0.205782178410022 0 -0.38790285805175961 -0.2167146319195192 0 -0.39723076172532301 -0.205782178410022 0 -0.41303892827123678 -0.21093405469715851 0 -0.40807454407470489 -0.21592977391801271 0 -0.37373608311303341 -0.20786508091529229 0 -0.39723076172532301 -0.205782178410022 0 -0.38370630256805799 -0.1971119561512929 0 -0.37373608311303341 -0.20786508091529229 0 -0.39723076172532301 -0.205782178410022 0 -0.38790285805175961 -0.2167146319195192 0 -0.37373608311303341 -0.20786508091529229 0 -0.39723076172532301 -0.205782178410022 0 -0.37373608311303341 -0.20786508091529229 0 -0.37785639846487218 -0.21906994256996459 0 -0.38790285805175961 -0.2167146319195192 0 -0.36895563931783232 -0.19259611207654981 0 -0.38370630256805799 -0.1971119561512929 0 -0.3831693110633177 -0.1873742460103984 0 -0.36895563931783232 -0.19259611207654981 0 -0.37373608311303341 -0.20786508091529229 0 -0.38370630256805799 -0.1971119561512929 0 -0.38370630256805799 -0.1971119561512929 0 -0.39543971762078378 -0.19194216334420211 0 -0.3831693110633177 -0.1873742460103984 0 -0.39723076172532301 -0.205782178410022 0 -0.38370630256805799 -0.1971119561512929 0 -0.39543971762078378 -0.19194216334420211 0 -0.39723076172532301 -0.205782178410022 0 -0.39543971762078378 -0.19194216334420211 0 -0.40534117689708921 -0.19634387975323889 0 -0.39543971762078378 -0.19194216334420211 0 -0.40534117689708921 -0.19634387975323889 0 -0.40730162077548249 -0.18407395049314179 0 -0.39723076172532301 -0.205782178410022 0 -0.40534117689708921 -0.19634387975323889 0 -0.42072544033761272 -0.20369927590475301 0 -0.42032122747045741 -0.1927313373696285 0 -0.42072544033761272 -0.20369927590475301 0 -0.40730162077548249 -0.18407395049314179 0 -0.42072544033761272 -0.20369927590475301 0 -0.40730162077548249 -0.18407395049314179 0 -0.40534117689708921 -0.19634387975323889 0 -0.42072544033761272 -0.20369927590475301 0 -0.40730162077548249 -0.18407395049314179 0 -0.39723076172532301 -0.205782178410022 0 -0.41303892827123678 -0.21093405469715851 0 -0.42072544033761272 -0.20369927590475301 0 -0.39723076172532301 -0.205782178410022 0 -0.42072544033761272 -0.20369927590475301 0 -0.41303892827123678 -0.21093405469715851 0 -0.40807454407470489 -0.21592977391801271 0 -0.41685681033243982 -0.21746512418924929 0 -0.41303892827123678 -0.21093405469715851 0 -0.41685681033243982 -0.21746512418924929 0 -0.42140045260962489 -0.21331085224804261 0 -0.41685681033243982 -0.21746512418924929 0 -0.42140045260962489 -0.21331085224804261 0 -0.4232102070061276 -0.21869015764887889 0 -0.41303892827123678 -0.21093405469715851 0 -0.42140045260962489 -0.21331085224804261 0 -0.42072544033761272 -0.20369927590475301 0 -0.42512182626149492 -0.2033095177213731 0 -0.43378961613155448 -0.20908682079381441 0 -0.44184138868315109 -0.20247798044170351 0 -0.42072544033761272 -0.20369927590475301 0 -0.42512182626149492 -0.2033095177213731 0 -0.43133498143110582 -0.21921018883561361 0 -0.42072544033761272 -0.20369927590475301 0 -0.42512182626149492 -0.2033095177213731 0 -0.43133498143110582 -0.21921018883561361 0 -0.42512182626149492 -0.2033095177213731 0 -0.43378961613155448 -0.20908682079381441 0 -0.43133498143110582 -0.21921018883561361 0 -0.42140045260962489 -0.21331085224804261 0 -0.4232102070061276 -0.21869015764887889 0 -0.43133498143110582 -0.21921018883561361 0 -0.42072544033761272 -0.20369927590475301 0 -0.43133498143110582 -0.21921018883561361 0 -0.42140045260962489 -0.21331085224804261 0 -0.42072544033761272 -0.20369927590475301 0 -0.43133498143110582 -0.21921018883561361 0 -0.43378961613155448 -0.20908682079381441 0 -0.44166379455333399 -0.21604972156869759 0 -0.42032122747045741 -0.1927313373696285 0 -0.44184138868315109 -0.20247798044170351 0 -0.42032122747045741 -0.1927313373696285 0 -0.43099962817645188 -0.18319011649723049 0 -0.43833565968517207 -0.19112957676178299 0 -0.42032122747045741 -0.1927313373696285 0 -0.42512182626149492 -0.2033095177213731 0 -0.44184138868315109 -0.20247798044170351 0 -0.42032122747045741 -0.1927313373696285 0 -0.43833565968517207 -0.19112957676178299 0 -0.44184138868315109 -0.20247798044170351 0 -0.42032122747045741 -0.1927313373696285 0 -0.42072544033761272 -0.20369927590475301 0 -0.42512182626149492 -0.2033095177213731 0 -0.42549584187692119 -0.17333418479170171 0 -0.43099962817645188 -0.18319011649723049 0 -0.41834400919125792 -0.18158621355319651 0 -0.42032122747045741 -0.1927313373696285 0 -0.43099962817645188 -0.18319011649723049 0 -0.41834400919125792 -0.18158621355319651 0 -0.43099962817645188 -0.18319011649723049 0 -0.43495901877196291 -0.17485617288990979 0 -0.44455133712372419 -0.18300714728765441 0 -0.42549584187692119 -0.17333418479170171 0 -0.43099962817645188 -0.18319011649723049 0 -0.43495901877196291 -0.17485617288990979 0 -0.42549584187692119 -0.17333418479170171 0 -0.43495901877196291 -0.17485617288990979 0 -0.43155613508544272 -0.1669321437644439 0 -0.43495901877196291 -0.17485617288990979 0 -0.43155613508544272 -0.1669321437644439 0 -0.44219215159727421 -0.16781727210851849 0 -0.43155613508544272 -0.1669321437644439 0 -0.43166640735559808 -0.1552039120346444 0 -0.44219215159727421 -0.16781727210851849 0 -0.43155613508544272 -0.1669321437644439 0 -0.4214232379976206 -0.16216052115063159 0 -0.43166640735559808 -0.1552039120346444 0 -0.42549584187692119 -0.17333418479170171 0 -0.43155613508544272 -0.1669321437644439 0 -0.4214232379976206 -0.16216052115063159 0 -0.42549584187692119 -0.17333418479170171 0 -0.4214232379976206 -0.16216052115063159 0 -0.41110577652129249 -0.1670682470007229 0 -0.4214232379976206 -0.16216052115063159 0 -0.41110577652129249 -0.1670682470007229 0 -0.40669002996807779 -0.1495058137550834 0 -0.41110577652129249 -0.1670682470007229 0 -0.41834400919125792 -0.18158621355319651 0 -0.40730162077548249 -0.18407395049314179 0 -0.42549584187692119 -0.17333418479170171 0 -0.41110577652129249 -0.1670682470007229 0 -0.41834400919125792 -0.18158621355319651 0 -0.42032122747045741 -0.1927313373696285 0 -0.41834400919125792 -0.18158621355319651 0 -0.40730162077548249 -0.18407395049314179 0 -0.39543971762078378 -0.19194216334420211 0 -0.40730162077548249 -0.18407395049314179 0 -0.39267839793348491 -0.17927693187167279 0 -0.40730162077548249 -0.18407395049314179 0 -0.39267839793348491 -0.17927693187167279 0 -0.39387780121335469 -0.16444862508152899 0 -0.40730162077548249 -0.18407395049314179 0 -0.39387780121335469 -0.16444862508152899 0 -0.37378547386561772 -0.17392500984250869 0 -0.36895563931783232 -0.19259611207654981 0 -0.3831693110633177 -0.1873742460103984 0 -0.37378547386561772 -0.17392500984250869 0 -0.39267839793348491 -0.17927693187167279 0 -0.3831693110633177 -0.1873742460103984 0 -0.37378547386561772 -0.17392500984250869 0 -0.39267839793348491 -0.17927693187167279 0 -0.39387780121335469 -0.16444862508152899 0 -0.39543971762078378 -0.19194216334420211 0 -0.39267839793348491 -0.17927693187167279 0 -0.3831693110633177 -0.1873742460103984 0 -0.37378547386561772 -0.17392500984250869 0 -0.37839901512320262 -0.15996290040625341 0 -0.39387780121335469 -0.16444862508152899 0 -0.37839901512320262 -0.15996290040625341 0 -0.39387780121335469 -0.16444862508152899 0 -0.3804539816512269 -0.14482329966991631 0 -0.41110577652129249 -0.1670682470007229 0 -0.39387780121335469 -0.16444862508152899 0 -0.40669002996807779 -0.1495058137550834 0 -0.41110577652129249 -0.1670682470007229 0 -0.40730162077548249 -0.18407395049314179 0 -0.39387780121335469 -0.16444862508152899 0 -0.39387780121335469 -0.16444862508152899 0 -0.3804539816512269 -0.14482329966991631 0 -0.40669002996807779 -0.1495058137550834 0 -0.3804539816512269 -0.14482329966991631 0 -0.39647179587780151 -0.13189450107720049 0 -0.40669002996807779 -0.1495058137550834 0 -0.3804539816512269 -0.14482329966991631 0 -0.40669002996807779 -0.1495058137550834 0 -0.39387780121335469 -0.16444862508152899 0 -0.3804539816512269 -0.14482329966991631 0 -0.3804539816512269 -0.14482329966991631 0 -0.38278168804071749 -0.12940228238898679 0 -0.39647179587780151 -0.13189450107720049 0 -0.3804539816512269 -0.14482329966991631 0 -0.39647179587780151 -0.13189450107720049 0 -0.37212838853434238 -0.11808059788504249 0 -0.37028068739271691 -0.13083580994494901 0 -0.38278168804071749 -0.12940228238898679 0 -0.37028068739271691 -0.13083580994494901 0 -0.3804539816512269 -0.14482329966991631 0 -0.38278168804071749 -0.12940228238898679 0 -0.38278168804071749 -0.12940228238898679 0 -0.39647179587780151 -0.13189450107720049 0 -0.39044023874876249 -0.11757149150947201 0 -0.39647179587780151 -0.13189450107720049 0 -0.40828286160401828 -0.1310364195873514 0 -0.40669002996807779 -0.1495058137550834 0 -0.39647179587780151 -0.13189450107720049 0 -0.40828286160401828 -0.1310364195873514 0 -0.41122993917504558 -0.1199812866788818 0 -0.39647179587780151 -0.13189450107720049 0 -0.41122993917504558 -0.1199812866788818 0 -0.40828286160401828 -0.1310364195873514 0 -0.41930562378398423 -0.12797048681614909 0 -0.41122993917504558 -0.1199812866788818 0 -0.41930562378398423 -0.12797048681614909 0 -0.41533589961201212 -0.13938201891822019 0 -0.4273858072007774 -0.14414008567558009 0 -0.40828286160401828 -0.1310364195873514 0 -0.41533589961201212 -0.13938201891822019 0 -0.40669002996807779 -0.1495058137550834 0 -0.40828286160401828 -0.1310364195873514 0 -0.41930562378398423 -0.12797048681614909 0 -0.41533589961201212 -0.13938201891822019 0 -0.40669002996807779 -0.1495058137550834 0 -0.43166640735559808 -0.1552039120346444 0 -0.4214232379976206 -0.16216052115063159 0 -0.40669002996807779 -0.1495058137550834 0 -0.43166640735559808 -0.1552039120346444 0 -0.41533589961201212 -0.13938201891822019 0 -0.40669002996807779 -0.1495058137550834 0 -0.4273858072007774 -0.14414008567558009 0 -0.40669002996807779 -0.1495058137550834 0 -0.4273858072007774 -0.14414008567558009 0 -0.43166640735559808 -0.1552039120346444 0 -0.43166640735559808 -0.1552039120346444 0 -0.43525592456887258 -0.14374997194848471 0 -0.44410307239699631 -0.15282998285397989 0 -0.4273858072007774 -0.14414008567558009 0 -0.43166640735559808 -0.1552039120346444 0 -0.43525592456887258 -0.14374997194848471 0 -0.41930562378398423 -0.12797048681614909 0 -0.43525592456887258 -0.14374997194848471 0 -0.41930562378398423 -0.12797048681614909 0 -0.4273858072007774 -0.14414008567558009 0 -0.43525592456887258 -0.14374997194848471 0 -0.41930562378398423 -0.12797048681614909 0 -0.4273858072007774 -0.14414008567558009 0 -0.41930562378398423 -0.12797048681614909 0 -0.43525592456887258 -0.14374997194848471 0 -0.43389101300267191 -0.13422730327376839 0 -0.41930562378398423 -0.12797048681614909 0 -0.43389101300267191 -0.13422730327376839 0 -0.4149348530849476 -0.1169905694289516 0 -0.43389101300267191 -0.13422730327376839 0 -0.4149348530849476 -0.1169905694289516 0 -0.43389101300267191 -0.13422730327376839 0 -0.43160182387889101 -0.1187955019330571 0 -0.44085253015216358 -0.1237950587173612 0 -0.43389101300267191 -0.13422730327376839 0 -0.44872577578551592 -0.13320174295465559 0 -0.452847172920396 -0.1514640371185853 0 -0.44872577578551592 -0.13320174295465559 0 -0.45896755277767909 -0.12575633132281341 0 -0.45000974795797011 -0.119430952696417 0 -0.44872577578551592 -0.13320174295465559 0 -0.45000974795797011 -0.119430952696417 0 -0.44085253015216358 -0.1237950587173612 0 -0.43389101300267191 -0.13422730327376839 0 -0.44872577578551592 -0.13320174295465559 0 -0.44085253015216358 -0.1237950587173612 0 -0.43525592456887258 -0.14374997194848471 0 -0.43389101300267191 -0.13422730327376839 0 -0.452847172920396 -0.1514640371185853 0 -0.43525592456887258 -0.14374997194848471 0 -0.44410307239699631 -0.15282998285397989 0 -0.452847172920396 -0.1514640371185853 0 -0.44872577578551592 -0.13320174295465559 0 -0.452847172920396 -0.1514640371185853 0 -0.456386085566235 -0.14096643446963419 0 -0.43389101300267191 -0.13422730327376839 0 -0.452847172920396 -0.1514640371185853 0 -0.44410307239699631 -0.15282998285397989 0 -0.452847172920396 -0.1514640371185853 0 -0.45664278474311831 -0.16090201031420531 0 -0.452847172920396 -0.1514640371185853 0 -0.456386085566235 -0.14096643446963419 0 -0.46738274896045578 -0.15003021006820461 0 -0.452847172920396 -0.1514640371185853 0 -0.46738274896045578 -0.15003021006820461 0 -0.45664278474311831 -0.16090201031420531 0 -0.456386085566235 -0.14096643446963419 0 -0.46738274896045578 -0.15003021006820461 0 -0.47200539146090159 -0.13839174763128981 0 -0.456386085566235 -0.14096643446963419 0 -0.47200539146090159 -0.13839174763128981 0 -0.47750202174635031 -0.1215216316744509 0 -0.456386085566235 -0.14096643446963419 0 -0.45896755277767909 -0.12575633132281341 0 -0.47750202174635031 -0.1215216316744509 0 -0.456386085566235 -0.14096643446963419 0 -0.47750202174635031 -0.1215216316744509 0 -0.44872577578551592 -0.13320174295465559 0 -0.456386085566235 -0.14096643446963419 0 -0.45896755277767909 -0.12575633132281341 0 -0.47200539146090159 -0.13839174763128981 0 -0.48675070957056549 -0.14104871431286931 0 -0.47750202174635031 -0.1215216316744509 0 -0.50000000000000011 -0.12648838757554831 0 -0.48675070957056549 -0.14104871431286931 0 -0.5 -0.15043640832747529 0 -0.50000000000000011 -0.12648838757554831 0 -0.48675070957056549 -0.14104871431286931 0 -0.47750202174635031 -0.1215216316744509 0 -0.48675070957056549 -0.14104871431286931 0 -0.5 -0.15043640832747529 0 -0.48062174440056549 -0.15969986187448909 0 -0.46738274896045578 -0.15003021006820461 0 -0.47200539146090159 -0.13839174763128981 0 -0.48675070957056549 -0.14104871431286931 0 -0.48675070957056549 -0.14104871431286931 0 -0.48062174440056549 -0.15969986187448909 0 -0.46738274896045578 -0.15003021006820461 0 -0.48675070957056549 -0.14104871431286931 0 -0.48062174440056549 -0.15969986187448909 0 -0.48062174440056549 -0.15969986187448909 0 -0.46548313673471758 -0.16971310035941381 0 -0.46753260370971428 -0.1600862956540782 0 -0.46738274896045578 -0.15003021006820461 0 -0.48062174440056549 -0.15969986187448909 0 -0.46753260370971428 -0.1600862956540782 0 -0.48062174440056549 -0.15969986187448909 0 -0.47449277923056221 -0.17835100943610771 0 -0.46548313673471758 -0.16971310035941381 0 -0.48062174440056549 -0.15969986187448909 0 -0.47449277923056221 -0.17835100943610771 0 -0.5 -0.15043640832747529 0 -0.48062174440056549 -0.15969986187448909 0 -0.49999999999999828 -0.17438442907940241 0 -0.48062174440056549 -0.15969986187448909 0 -0.49999999999999828 -0.17438442907940241 0 -0.47449277923056221 -0.17835100943610771 0 -0.49999999999999828 -0.17438442907940241 0 -0.47449277923056221 -0.17835100943610771 0 -0.49999999999999828 -0.17438442907940241 0 -0.47449277923056221 -0.17835100943610771 0 -0.48549376880548989 -0.19132810400505559 0 -0.47449277923056221 -0.17835100943610771 0 -0.46892716456320649 -0.19528781647494389 0 -0.47449277923056221 -0.17835100943610771 0 -0.45952205817714309 -0.18067907836188021 0 -0.46892716456320649 -0.19528781647494389 0 -0.45952205817714309 -0.18067907836188021 0 -0.46548313673471758 -0.16971310035941381 0 -0.45289664290439807 -0.17180374819378549 0 -0.47449277923056221 -0.17835100943610771 0 -0.45952205817714309 -0.18067907836188021 0 -0.47449277923056221 -0.17835100943610771 0 -0.45952205817714309 -0.18067907836188021 0 -0.46548313673471758 -0.16971310035941381 0 -0.46548313673471758 -0.16971310035941381 0 -0.46753260370971428 -0.1600862956540782 0 -0.45664278474311831 -0.16090201031420531 0 -0.46738274896045578 -0.15003021006820461 0 -0.46753260370971428 -0.1600862956540782 0 -0.45664278474311831 -0.16090201031420531 0 -0.46548313673471758 -0.16971310035941381 0 -0.45664278474311831 -0.16090201031420531 0 -0.45289664290439807 -0.17180374819378549 0 -0.45664278474311831 -0.16090201031420531 0 -0.45289664290439807 -0.17180374819378549 0 -0.44219215159727421 -0.16781727210851849 0 -0.43166640735559808 -0.1552039120346444 0 -0.45664278474311831 -0.16090201031420531 0 -0.44219215159727421 -0.16781727210851849 0 -0.43166640735559808 -0.1552039120346444 0 -0.45664278474311831 -0.16090201031420531 0 -0.43166640735559808 -0.1552039120346444 0 -0.44410307239699631 -0.15282998285397989 0 -0.45664278474311831 -0.16090201031420531 0 -0.43495901877196291 -0.17485617288990979 0 -0.44219215159727421 -0.16781727210851849 0 -0.44455133712372419 -0.18300714728765441 0 -0.43099962817645188 -0.18319011649723049 0 -0.44455133712372419 -0.18300714728765441 0 -0.43833565968517207 -0.19112957676178299 0 -0.45952205817714309 -0.18067907836188021 0 -0.44455133712372419 -0.18300714728765441 0 -0.45396471697207569 -0.194241302212698 0 -0.45952205817714309 -0.18067907836188021 0 -0.44455133712372419 -0.18300714728765441 0 -0.45952205817714309 -0.18067907836188021 0 -0.45289664290439807 -0.17180374819378549 0 -0.44455133712372419 -0.18300714728765441 0 -0.45289664290439807 -0.17180374819378549 0 -0.44219215159727421 -0.16781727210851849 0 -0.44455133712372419 -0.18300714728765441 0 -0.44455133712372419 -0.18300714728765441 0 -0.43833565968517207 -0.19112957676178299 0 -0.45396471697207569 -0.194241302212698 0 -0.43833565968517207 -0.19112957676178299 0 -0.44184138868315109 -0.20247798044170351 0 -0.45396471697207569 -0.194241302212698 0 -0.44184138868315109 -0.20247798044170351 0 -0.46336154989584488 -0.2122246235137781 0 -0.45396471697207569 -0.194241302212698 0 -0.44184138868315109 -0.20247798044170351 0 -0.46336154989584488 -0.2122246235137781 0 -0.45338394269579491 -0.2190794284651259 0 -0.43378961613155448 -0.20908682079381441 0 -0.44184138868315109 -0.20247798044170351 0 -0.44166379455333399 -0.21604972156869759 0 -0.44184138868315109 -0.20247798044170351 0 -0.44166379455333399 -0.21604972156869759 0 -0.45338394269579491 -0.2190794284651259 0 -0.44184138868315109 -0.20247798044170351 0 -0.46336154989584488 -0.2122246235137781 0 -0.46336154989584488 -0.2122246235137781 0 -0.46892716456320649 -0.19528781647494389 0 -0.46336154989584488 -0.2122246235137781 0 -0.45396471697207569 -0.194241302212698 0 -0.46892716456320649 -0.19528781647494389 0 -0.45952205817714309 -0.18067907836188021 0 -0.45396471697207569 -0.194241302212698 0 -0.46892716456320649 -0.19528781647494389 0 -0.47449277923056221 -0.17835100943610771 0 -0.46892716456320649 -0.19528781647494389 0 -0.48549376880548989 -0.19132810400505559 0 -0.46892716456320649 -0.19528781647494389 0 -0.48549376880548989 -0.19132810400505559 0 -0.47978640147694102 -0.20418872613165631 0 -0.5 -0.20182215567114031 0 -0.48549376880548989 -0.19132810400505559 0 -0.47978640147694102 -0.20418872613165631 0 -0.49999999999999828 -0.17438442907940241 0 -0.5 -0.20182215567114031 0 -0.48549376880548989 -0.19132810400505559 0 -0.5 -0.20182215567114031 0 -0.48114952412016337 -0.22028093099336349 0 -0.49893749834448198 -0.22833723847294871 0 -0.5 -0.20182215567114031 0 -0.47978640147694102 -0.20418872613165631 0 -0.48114952412016337 -0.22028093099336349 0 -0.46336154989584488 -0.2122246235137781 0 -0.48114952412016337 -0.22028093099336349 0 -0.46336154989584488 -0.2122246235137781 0 -0.47978640147694102 -0.20418872613165631 0 -0.48114952412016337 -0.22028093099336349 0 -0.46336154989584488 -0.2122246235137781 0 -0.46892716456320649 -0.19528781647494389 0 -0.47978640147694102 -0.20418872613165631 0 -0.46336154989584488 -0.2122246235137781 0 -0.48114952412016337 -0.22028093099336349 0 -0.46857810181099829 -0.22486784275082261 0 -0.48114952412016337 -0.22028093099336349 0 -0.48798868478634799 -0.231470988200419 0 -0.47142395938804471 -0.23802335247430181 0 -0.48114952412016337 -0.22028093099336349 0 -0.47142395938804471 -0.23802335247430181 0 -0.46857810181099829 -0.22486784275082261 0 -0.48114952412016337 -0.22028093099336349 0 -0.48798868478634799 -0.231470988200419 0 -0.49893749834448198 -0.22833723847294871 0 -0.48114952412016337 -0.22028093099336349 0 -0.49893749834448198 -0.22833723847294871 0 -0.48798868478634799 -0.231470988200419 0 -0.49893749834448198 -0.22833723847294871 0 -0.4875835208682564 -0.24248539692068891 0 -0.5 -0.25669760885461612 0 -0.49893749834448198 -0.22833723847294871 0 -0.4875835208682564 -0.24248539692068891 0 -0.48798868478634799 -0.231470988200419 0 -0.4875835208682564 -0.24248539692068891 0 -0.47142395938804471 -0.23802335247430181 0 -0.47878778985378329 -0.25835102983948688 0 -0.4875835208682564 -0.24248539692068891 0 -0.47142395938804471 -0.23802335247430181 0 -0.45662330498375908 -0.25656877445722759 0 -0.47142395938804471 -0.23802335247430181 0 -0.45034617445999431 -0.24335722649563979 0 -0.47142395938804471 -0.23802335247430181 0 -0.45735065046854989 -0.23051648340969341 0 -0.45034617445999431 -0.24335722649563979 0 -0.46336154989584488 -0.2122246235137781 0 -0.46857810181099829 -0.22486784275082261 0 -0.45735065046854989 -0.23051648340969341 0 -0.46336154989584488 -0.2122246235137781 0 -0.45735065046854989 -0.23051648340969341 0 -0.47142395938804471 -0.23802335247430181 0 -0.46857810181099829 -0.22486784275082261 0 -0.45735065046854989 -0.23051648340969341 0 -0.46336154989584488 -0.2122246235137781 0 -0.45338394269579491 -0.2190794284651259 0 -0.45735065046854989 -0.23051648340969341 0 -0.45338394269579491 -0.2190794284651259 0 -0.45735065046854989 -0.23051648340969341 0 -0.43806130733353449 -0.23541812032183559 0 -0.44166379455333399 -0.21604972156869759 0 -0.43806130733353449 -0.23541812032183559 0 -0.44166379455333399 -0.21604972156869759 0 -0.45338394269579491 -0.2190794284651259 0 -0.43806130733353449 -0.23541812032183559 0 -0.45735065046854989 -0.23051648340969341 0 -0.45034617445999431 -0.24335722649563979 0 -0.43806130733353449 -0.23541812032183559 0 -0.43445882011373449 -0.25478651907497341 0 -0.45034617445999431 -0.24335722649563979 0 -0.43806130733353449 -0.23541812032183559 0 -0.41324955929443102 -0.038374170610562031 0 -0.41005136228565903 -0.05540387285823338 0 -0.42435348212729052 -0.04457483879584373 0 -0.41324955929443102 -0.038374170610562031 0 -0.41005136228565903 -0.05540387285823338 0 -0.39900851660089293 -0.046429079601448257 0 -0.41324955929443102 -0.038374170610562031 0 -0.40747857107326091 -0.02424585309778798 0 -0.40045416304880688 -0.034240371911693122 0 -0.41005136228565903 -0.05540387285823338 0 -0.4246600563061857 -0.059067830999859447 0 -0.41422906440869389 -0.068128229862373102 0 -0.41005136228565903 -0.05540387285823338 0 -0.4246600563061857 -0.059067830999859447 0 -0.42435348212729052 -0.04457483879584373 0 -0.4246600563061857 -0.059067830999859447 0 -0.42435348212729052 -0.04457483879584373 0 -0.43957367317472601 -0.045089571971719818 0 -0.4246600563061857 -0.059067830999859447 0 -0.43957367317472601 -0.045089571971719818 0 -0.44544580640037118 -0.056213229689383748 0 -0.41324955929443102 -0.038374170610562031 0 -0.42435348212729052 -0.04457483879584373 0 -0.42981912379901888 -0.030443092666165631 0 -0.42435348212729052 -0.04457483879584373 0 -0.42981912379901888 -0.030443092666165631 0 -0.43957367317472601 -0.045089571971719818 0 -0.41302196833726168 -0.01226972299954816 0 -0.4392085005598273 -0.024676348383282701 0 -0.42659341977192161 -0.010103830507352861 0 -0.41302196833726168 -0.01226972299954816 0 -0.4392085005598273 -0.024676348383282701 0 -0.42981912379901888 -0.030443092666165631 0 -0.41673372021425997 -0.022240754673565791 0 -0.4392085005598273 -0.024676348383282701 0 -0.41302196833726168 -0.01226972299954816 0 -0.41673372021425997 -0.022240754673565791 0 -0.4392085005598273 -0.024676348383282701 0 -0.43741768347029059 -0.01288367903972009 0 -0.42659341977192161 -0.010103830507352861 0 -0.4392085005598273 -0.024676348383282701 0 -0.4441818909265971 -0.00998157505946092 0 -0.42578104856505677 0.0031949168855625672 0 -0.43741768347029059 -0.01288367903972009 0 -0.4441818909265971 -0.00998157505946092 0 -0.42578104856505677 0.0031949168855625672 0 -0.43741768347029059 -0.01288367903972009 0 -0.42659341977192161 -0.010103830507352861 0 -0.42578104856505677 0.0031949168855625672 0 -0.43741768347029059 -0.01288367903972009 0 -0.42578104856505677 0.0031949168855625672 0 -0.42659341977192161 -0.010103830507352861 0 -0.41753789792717189 -0.0038843189997757009 0 -0.42578104856505677 0.0031949168855625672 0 -0.42659341977192161 -0.010103830507352861 0 -0.41753789792717189 -0.0038843189997757009 0 -0.41302196833726168 -0.01226972299954816 0 -0.41753789792717189 -0.0038843189997757009 0 -0.41302196833726168 -0.01226972299954816 0 -0.40771050441737638 -0.0035262849216432719 0 -0.41753789792717189 -0.0038843189997757009 0 -0.40771050441737638 -0.0035262849216432719 0 -0.41105156913745711 0.0034129409419674369 0 -0.42981912379901888 -0.030443092666165631 0 -0.40747857107326091 -0.02424585309778798 0 -0.41324955929443102 -0.038374170610562031 0 -0.42981912379901888 -0.030443092666165631 0 -0.40747857107326091 -0.02424585309778798 0 -0.42981912379901888 -0.030443092666165631 0 -0.41673372021425997 -0.022240754673565791 0 -0.40747857107326091 -0.02424585309778798 0 -0.41302196833726168 -0.01226972299954816 0 -0.41673372021425997 -0.022240754673565791 0 -0.40747857107326091 -0.02424585309778798 0 -0.41673372021425997 -0.022240754673565791 0 -0.40747857107326091 -0.02424585309778798 0 -0.40747857107326091 -0.02424585309778798 0 -0.38992317137517202 -0.02804917422583518 0 -0.40747857107326091 -0.02424585309778798 0 -0.38992317137517202 -0.02804917422583518 0 -0.38297625517291389 -0.017448943304264108 0 -0.40747857107326091 -0.02424585309778798 0 -0.38992317137517202 -0.02804917422583518 0 -0.40045416304880688 -0.034240371911693122 0 -0.40747857107326091 -0.02424585309778798 0 -0.39567459441968961 -0.012635194689989219 0 -0.38297625517291389 -0.017448943304264108 0 -0.40747857107326091 -0.02424585309778798 0 -0.38297625517291389 -0.017448943304264108 0 -0.41302196833726168 -0.01226972299954816 0 -0.40747857107326091 -0.02424585309778798 0 -0.39567459441968961 -0.012635194689989219 0 -0.41302196833726168 -0.01226972299954816 0 -0.40771050441737638 -0.0035262849216432719 0 -0.38683543611469601 0.0001369023841863784 0 -0.41302196833726168 -0.01226972299954816 0 -0.39567459441968961 -0.012635194689989219 0 -0.38683543611469601 0.0001369023841863784 0 -0.41302196833726168 -0.01226972299954816 0 -0.38683543611469601 0.0001369023841863784 0 -0.40771050441737638 -0.0035262849216432719 0 -0.38683543611469601 0.0001369023841863784 0 -0.40226596945639398 0.0014711925349297271 0 -0.39567459441968961 -0.012635194689989219 0 -0.38502252263107412 -0.0084426060797158468 0 -0.38683543611469601 0.0001369023841863784 0 -0.39567459441968961 -0.012635194689989219 0 -0.38502252263107412 -0.0084426060797158468 0 -0.38297625517291389 -0.017448943304264108 0 -0.38502252263107412 -0.0084426060797158468 0 -0.38009964520605882 -0.0090403485437739461 0 -0.38297625517291389 -0.017448943304264108 0 -0.37278444596104371 -0.0079457960458173115 0 -0.38009964520605882 -0.0090403485437739461 0 -0.38297625517291389 -0.017448943304264108 0 -0.37474494217865062 -0.0022388935110706832 0 -0.38502252263107412 -0.0084426060797158468 0 -0.38683543611469601 0.0001369023841863784 0 -0.37474494217865062 -0.0022388935110706832 0 -0.38502252263107412 -0.0084426060797158468 0 -0.38009964520605882 -0.0090403485437739461 0 -0.37474494217865062 -0.0022388935110706832 0 -0.37278444596104371 -0.0079457960458173115 0 -0.38009964520605882 -0.0090403485437739461 0 -0.37236777167708351 -0.031852495353884333 0 -0.38992317137517202 -0.02804917422583518 0 -0.37990921189048049 -0.023302515363219579 0 -0.37236777167708351 -0.031852495353884333 0 -0.38992317137517202 -0.02804917422583518 0 -0.38992317137517202 -0.02804917422583518 0 -0.38297625517291389 -0.017448943304264108 0 -0.37990921189048049 -0.023302515363219579 0 -0.3739022591900184 -0.02415390189740213 0 -0.38297625517291389 -0.017448943304264108 0 -0.37990921189048049 -0.023302515363219579 0 -0.37236777167708351 -0.031852495353884333 0 -0.3739022591900184 -0.02415390189740213 0 -0.37990921189048049 -0.023302515363219579 0 -0.37236777167708351 -0.031852495353884333 0 -0.37990921189048049 -0.023302515363219579 0 -0.38458287424021398 -0.039388642062709187 0 -0.39900851660089293 -0.046429079601448257 0 -0.3815482533063424 -0.052412606119804542 0 -0.37355784227175309 -0.045246792894939887 0 -0.37236777167708351 -0.031852495353884333 0 -0.38458287424021398 -0.039388642062709187 0 -0.37236777167708351 -0.031852495353884333 0 -0.38992317137517202 -0.02804917422583518 0 -0.38458287424021398 -0.039388642062709187 0 -0.37355784227175309 -0.045246792894939887 0 -0.38458287424021398 -0.039388642062709187 0 -0.3815482533063424 -0.052412606119804542 0 -0.38458287424021398 -0.039388642062709187 0 -0.39900851660089293 -0.046429079601448257 0 -0.40045416304880688 -0.034240371911693122 0 -0.38992317137517202 -0.02804917422583518 0 -0.38458287424021398 -0.039388642062709187 0 -0.40045416304880688 -0.034240371911693122 0 -0.41324955929443102 -0.038374170610562031 0 -0.39900851660089293 -0.046429079601448257 0 -0.40045416304880688 -0.034240371911693122 0 -0.39900851660089293 -0.046429079601448257 0 -0.39626447370361728 -0.06091275685647668 0 -0.3815482533063424 -0.052412606119804542 0 -0.41005136228565903 -0.05540387285823338 0 -0.39626447370361728 -0.06091275685647668 0 -0.40517181862379281 -0.066558370858305557 0 -0.41005136228565903 -0.05540387285823338 0 -0.39900851660089293 -0.046429079601448257 0 -0.39626447370361728 -0.06091275685647668 0 -0.36862349457690058 -0.057461967220355487 0 -0.3815482533063424 -0.052412606119804542 0 -0.37947166312044489 -0.067272628224985004 0 -0.3815482533063424 -0.052412606119804542 0 -0.37947166312044489 -0.067272628224985004 0 -0.39260231949431601 -0.074533368335879327 0 -0.36882665317829499 -0.078032107790563188 0 -0.39260231949431601 -0.074533368335879327 0 -0.39626447370361728 -0.06091275685647668 0 -0.3815482533063424 -0.052412606119804542 0 -0.39260231949431601 -0.074533368335879327 0 -0.3815482533063424 -0.052412606119804542 0 -0.39260231949431601 -0.074533368335879327 0 -0.36882665317829499 -0.078032107790563188 0 -0.37947166312044489 -0.067272628224985004 0 -0.39260231949431601 -0.074533368335879327 0 -0.36882665317829499 -0.078032107790563188 0 -0.39260231949431601 -0.074533368335879327 0 -0.39002829617667018 -0.099006697234722524 0 -0.36882665317829499 -0.078032107790563188 0 -0.39002829617667018 -0.099006697234722524 0 -0.37367929427193591 -0.1014825750548952 0 -0.36882665317829499 -0.078032107790563188 0 -0.39002829617667018 -0.099006697234722524 0 -0.39260231949431601 -0.074533368335879327 0 -0.39002829617667018 -0.099006697234722524 0 -0.39510370691593599 -0.098958215311000047 0 -0.39260231949431601 -0.074533368335879327 0 -0.40274583300482147 -0.094831984843681591 0 -0.39260231949431601 -0.074533368335879327 0 -0.39510370691593599 -0.098958215311000047 0 -0.40274583300482147 -0.094831984843681591 0 -0.40361170428446441 -0.083317353290434007 0 -0.39260231949431601 -0.074533368335879327 0 -0.40274583300482147 -0.094831984843681591 0 -0.40361170428446441 -0.083317353290434007 0 -0.39867569396630093 -0.073639632925658519 0 -0.40696916935602839 -0.074517235882718885 0 -0.39867569396630093 -0.073639632925658519 0 -0.40517181862379281 -0.066558370858305557 0 -0.40696916935602839 -0.074517235882718885 0 -0.39626447370361728 -0.06091275685647668 0 -0.39867569396630093 -0.073639632925658519 0 -0.40517181862379281 -0.066558370858305557 0 -0.39626447370361728 -0.06091275685647668 0 -0.39867569396630093 -0.073639632925658519 0 -0.39260231949431601 -0.074533368335879327 0 -0.40361170428446441 -0.083317353290434007 0 -0.39867569396630093 -0.073639632925658519 0 -0.39260231949431601 -0.074533368335879327 0 -0.39867569396630093 -0.073639632925658519 0 -0.39260231949431601 -0.074533368335879327 0 -0.37212838853434238 -0.11808059788504249 0 -0.38278168804071749 -0.12940228238898679 0 -0.39044023874876249 -0.11757149150947201 0 -0.37367929427193591 -0.1014825750548952 0 -0.37212838853434238 -0.11808059788504249 0 -0.39044023874876249 -0.11757149150947201 0 -0.37367929427193591 -0.1014825750548952 0 -0.39044023874876249 -0.11757149150947201 0 -0.39002829617667018 -0.099006697234722524 0 -0.39510370691593599 -0.098958215311000047 0 -0.40274583300482147 -0.094831984843681591 0 -0.41288934651532883 -0.11513060135148299 0 -0.39002829617667018 -0.099006697234722524 0 -0.39510370691593599 -0.098958215311000047 0 -0.41122993917504558 -0.1199812866788818 0 -0.39510370691593599 -0.098958215311000047 0 -0.41288934651532883 -0.11513060135148299 0 -0.39647179587780151 -0.13189450107720049 0 -0.39044023874876249 -0.11757149150947201 0 -0.41122993917504558 -0.1199812866788818 0 -0.39002829617667018 -0.099006697234722524 0 -0.41122993917504558 -0.1199812866788818 0 -0.39044023874876249 -0.11757149150947201 0 -0.39002829617667018 -0.099006697234722524 0 -0.41122993917504558 -0.1199812866788818 0 -0.39510370691593599 -0.098958215311000047 0 -0.41122993917504558 -0.1199812866788818 0 -0.41288934651532883 -0.11513060135148299 0 -0.41930562378398423 -0.12797048681614909 0 -0.41122993917504558 -0.1199812866788818 0 -0.4149348530849476 -0.1169905694289516 0 -0.41930562378398423 -0.12797048681614909 0 -0.41122993917504558 -0.1199812866788818 0 -0.41930562378398423 -0.12797048681614909 0 -0.4149348530849476 -0.1169905694289516 0 -0.41122993917504558 -0.1199812866788818 0 -0.41288934651532883 -0.11513060135148299 0 -0.4149348530849476 -0.1169905694289516 0 -0.41122993917504558 -0.1199812866788818 0 -0.4149348530849476 -0.1169905694289516 0 -0.41288934651532883 -0.11513060135148299 0 -0.4149348530849476 -0.1169905694289516 0 -0.41288934651532883 -0.11513060135148299 0 -0.4149348530849476 -0.1169905694289516 0 -0.41458672172207622 -0.10427776634057311 0 -0.40274583300482147 -0.094831984843681591 0 -0.41288934651532883 -0.11513060135148299 0 -0.4149348530849476 -0.1169905694289516 0 -0.41458672172207622 -0.10427776634057311 0 -0.43059848591229039 -0.1043464168163742 0 -0.40274583300482147 -0.094831984843681591 0 -0.41288934651532883 -0.11513060135148299 0 -0.41458672172207622 -0.10427776634057311 0 -0.41458672172207622 -0.10427776634057311 0 -0.41348552386521947 -0.090840815536544176 0 -0.43025813067654672 -0.08737754853092726 0 -0.40274583300482147 -0.094831984843681591 0 -0.41458672172207622 -0.10427776634057311 0 -0.41348552386521947 -0.090840815536544176 0 -0.43059848591229039 -0.1043464168163742 0 -0.43025813067654672 -0.08737754853092726 0 -0.44626211873963212 -0.091702264203795431 0 -0.41458672172207622 -0.10427776634057311 0 -0.43059848591229039 -0.1043464168163742 0 -0.43025813067654672 -0.08737754853092726 0 -0.41458672172207622 -0.10427776634057311 0 -0.43025813067654672 -0.08737754853092726 0 -0.4149348530849476 -0.1169905694289516 0 -0.43059848591229039 -0.1043464168163742 0 -0.43160182387889101 -0.1187955019330571 0 -0.4149348530849476 -0.1169905694289516 0 -0.43059848591229039 -0.1043464168163742 0 -0.43389101300267191 -0.13422730327376839 0 -0.4149348530849476 -0.1169905694289516 0 -0.43160182387889101 -0.1187955019330571 0 -0.43059848591229039 -0.1043464168163742 0 -0.43160182387889101 -0.1187955019330571 0 -0.44003429013576911 -0.11331979272890801 0 -0.43160182387889101 -0.1187955019330571 0 -0.44085253015216358 -0.1237950587173612 0 -0.44003429013576911 -0.11331979272890801 0 -0.41422906440869389 -0.068128229862373102 0 -0.41539885585273961 -0.080089681603359497 0 -0.42594434486026628 -0.073522222089585226 0 -0.4246600563061857 -0.059067830999859447 0 -0.41422906440869389 -0.068128229862373102 0 -0.42594434486026628 -0.073522222089585226 0 -0.41005136228565903 -0.05540387285823338 0 -0.40517181862379281 -0.066558370858305557 0 -0.41422906440869389 -0.068128229862373102 0 -0.40517181862379281 -0.066558370858305557 0 -0.41422906440869389 -0.068128229862373102 0 -0.40696916935602839 -0.074517235882718885 0 -0.41422906440869389 -0.068128229862373102 0 -0.40696916935602839 -0.074517235882718885 0 -0.41539885585273961 -0.080089681603359497 0 -0.41348552386521947 -0.090840815536544176 0 -0.41539885585273961 -0.080089681603359497 0 -0.43025813067654672 -0.08737754853092726 0 -0.40361170428446441 -0.083317353290434007 0 -0.41348552386521947 -0.090840815536544176 0 -0.41539885585273961 -0.080089681603359497 0 -0.40361170428446441 -0.083317353290434007 0 -0.40696916935602839 -0.074517235882718885 0 -0.41539885585273961 -0.080089681603359497 0 -0.40361170428446441 -0.083317353290434007 0 -0.40274583300482147 -0.094831984843681591 0 -0.41348552386521947 -0.090840815536544176 0 -0.41539885585273961 -0.080089681603359497 0 -0.43025813067654672 -0.08737754853092726 0 -0.42594434486026628 -0.073522222089585226 0 -0.4246600563061857 -0.059067830999859447 0 -0.44592953963101739 -0.07047733072128165 0 -0.43025813067654672 -0.08737754853092726 0 -0.42594434486026628 -0.073522222089585226 0 -0.44592953963101739 -0.07047733072128165 0 -0.4246600563061857 -0.059067830999859447 0 -0.42594434486026628 -0.073522222089585226 0 -0.44592953963101739 -0.07047733072128165 0 -0.44592953963101739 -0.07047733072128165 0 -0.45893666683642192 -0.056450303318209168 0 -0.44592953963101739 -0.07047733072128165 0 -0.44626211873963212 -0.091702264203795431 0 -0.46192575156697407 -0.079058111591217034 0 -0.43025813067654672 -0.08737754853092726 0 -0.44592953963101739 -0.07047733072128165 0 -0.43025813067654672 -0.08737754853092726 0 -0.44592953963101739 -0.07047733072128165 0 -0.44626211873963212 -0.091702264203795431 0 -0.44626211873963212 -0.091702264203795431 0 -0.46631049206888459 -0.091444160656324658 0 -0.46192575156697407 -0.079058111591217034 0 -0.44626211873963212 -0.091702264203795431 0 -0.46192575156697407 -0.079058111591217034 0 -0.46631049206888459 -0.091444160656324658 0 -0.46192575156697407 -0.079058111591217034 0 -0.47702460168979111 -0.087157524427869615 0 -0.44592953963101739 -0.07047733072128165 0 -0.46192575156697407 -0.079058111591217034 0 -0.45893666683642192 -0.056450303318209168 0 -0.46192575156697407 -0.079058111591217034 0 -0.47491389520024407 -0.068573693827893439 0 -0.45893666683642192 -0.056450303318209168 0 -0.46192575156697407 -0.079058111591217034 0 -0.47491389520024407 -0.068573693827893439 0 -0.44592953963101739 -0.07047733072128165 0 -0.46192575156697407 -0.079058111591217034 0 -0.45000974795797011 -0.119430952696417 0 -0.44085253015216358 -0.1237950587173612 0 -0.44003429013576911 -0.11331979272890801 0 -0.45000974795797011 -0.119430952696417 0 -0.44003429013576911 -0.11331979272890801 0 -0.44926481423485548 -0.10476542824413421 0 -0.43059848591229039 -0.1043464168163742 0 -0.44626211873963212 -0.091702264203795431 0 -0.43059848591229039 -0.1043464168163742 0 -0.44626211873963212 -0.091702264203795431 0 -0.44926481423485548 -0.10476542824413421 0 -0.43059848591229039 -0.1043464168163742 0 -0.44003429013576911 -0.11331979272890801 0 -0.44926481423485548 -0.10476542824413421 0 -0.44626211873963212 -0.091702264203795431 0 -0.44926481423485548 -0.10476542824413421 0 -0.46153012095291662 -0.1019472767233552 0 -0.44626211873963212 -0.091702264203795431 0 -0.46631049206888459 -0.091444160656324658 0 -0.46153012095291662 -0.1019472767233552 0 -0.46631049206888459 -0.091444160656324658 0 -0.46153012095291662 -0.1019472767233552 0 -0.4710589232177344 -0.098453604121520433 0 -0.46153012095291662 -0.1019472767233552 0 -0.46221413283232399 -0.11366089481890911 0 -0.47430793409480421 -0.10627177682285049 0 -0.44926481423485548 -0.10476542824413421 0 -0.46153012095291662 -0.1019472767233552 0 -0.46221413283232399 -0.11366089481890911 0 -0.45896755277767909 -0.12575633132281341 0 -0.46221413283232399 -0.11366089481890911 0 -0.47750202174635031 -0.1215216316744509 0 -0.45000974795797011 -0.119430952696417 0 -0.44926481423485548 -0.10476542824413421 0 -0.46221413283232399 -0.11366089481890911 0 -0.45896755277767909 -0.12575633132281341 0 -0.45000974795797011 -0.119430952696417 0 -0.46221413283232399 -0.11366089481890911 0 -0.47750202174635031 -0.1215216316744509 0 -0.47430793409480421 -0.10627177682285049 0 -0.48673501487359588 -0.1010237797652184 0 -0.46221413283232399 -0.11366089481890911 0 -0.47750202174635031 -0.1215216316744509 0 -0.47430793409480421 -0.10627177682285049 0 -0.47430793409480421 -0.10627177682285049 0 -0.47745372589702628 -0.099742000537211661 0 -0.48673501487359588 -0.1010237797652184 0 -0.46153012095291662 -0.1019472767233552 0 -0.47430793409480421 -0.10627177682285049 0 -0.4710589232177344 -0.098453604121520433 0 -0.46631049206888459 -0.091444160656324658 0 -0.4710589232177344 -0.098453604121520433 0 -0.47771303140197108 -0.093218841439257433 0 -0.47430793409480421 -0.10627177682285049 0 -0.4710589232177344 -0.098453604121520433 0 -0.47745372589702628 -0.099742000537211661 0 -0.4710589232177344 -0.098453604121520433 0 -0.47745372589702628 -0.099742000537211661 0 -0.47771303140197108 -0.093218841439257433 0 -0.47745372589702628 -0.099742000537211661 0 -0.48673501487359588 -0.1010237797652184 0 -0.47771303140197108 -0.093218841439257433 0 -0.48673501487359588 -0.1010237797652184 0 -0.47771303140197108 -0.093218841439257433 0 -0.47702460168979111 -0.087157524427869615 0 -0.47750202174635031 -0.1215216316744509 0 -0.48673501487359588 -0.1010237797652184 0 -0.4986179579264654 -0.1020768288792674 0 -0.48673501487359588 -0.1010237797652184 0 -0.49842317329231273 -0.098636270432611556 0 -0.47702460168979111 -0.087157524427869615 0 -0.48673501487359588 -0.1010237797652184 0 -0.49842317329231273 -0.098636270432611556 0 -0.4986179579264654 -0.1020768288792674 0 -0.49999999999999939 -0.099482120969144883 0 -0.49842317329231273 -0.098636270432611556 0 -0.4986179579264654 -0.1020768288792674 0 -0.49842317329231273 -0.098636270432611556 0 -0.4986179579264654 -0.1020768288792674 0 -0.49999999999999939 -0.099482120969144883 0 -0.49842317329231273 -0.098636270432611556 0 -0.50000000000000011 -0.12648838757554831 0 -0.47750202174635031 -0.1215216316744509 0 -0.4986179579264654 -0.1020768288792674 0 -0.47750202174635031 -0.1215216316744509 0 -0.4986179579264654 -0.1020768288792674 0 -0.47491389520024407 -0.068573693827893439 0 -0.47702460168979111 -0.087157524427869615 0 -0.4847984782487687 -0.075944598732494498 0 -0.47491389520024407 -0.068573693827893439 0 -0.47702460168979111 -0.087157524427869615 0 -0.47967839073812912 -0.064727650616396362 0 -0.4847984782487687 -0.075944598732494498 0 -0.48794163871831331 -0.064119883023254248 0 -0.47967839073812912 -0.064727650616396362 0 -0.47491389520024407 -0.068573693827893439 0 -0.4847984782487687 -0.075944598732494498 0 -0.47967839073812912 -0.064727650616396362 0 -0.47491389520024407 -0.068573693827893439 0 -0.46192575156697407 -0.079058111591217034 0 -0.47702460168979111 -0.087157524427869615 0 -0.46192575156697407 -0.079058111591217034 0 -0.47491389520024407 -0.068573693827893439 0 -0.47702460168979111 -0.087157524427869615 0 -0.46631049206888459 -0.091444160656324658 0 -0.47771303140197108 -0.093218841439257433 0 -0.47702460168979111 -0.087157524427869615 0 -0.47771303140197108 -0.093218841439257433 0 -0.47702460168979111 -0.087157524427869615 0 -0.49842317329231273 -0.098636270432611556 0 -0.49712708577170861 -0.075742961183477536 0 -0.4847984782487687 -0.075944598732494498 0 -0.49999999999999939 -0.099482120969144883 0 -0.49842317329231273 -0.098636270432611556 0 -0.5 -0.078030389970551228 0 -0.49842317329231273 -0.098636270432611556 0 -0.49712708577170861 -0.075742961183477536 0 -0.49842317329231273 -0.098636270432611556 0 -0.5 -0.078030389970551228 0 -0.49712708577170861 -0.075742961183477536 0 -0.49842317329231273 -0.098636270432611556 0 -0.47702460168979111 -0.087157524427869615 0 -0.4847984782487687 -0.075944598732494498 0 -0.49842317329231273 -0.098636270432611556 0 -0.47702460168979111 -0.087157524427869615 0 -0.5 -0.078030389970551228 0 -0.49712708577170861 -0.075742961183477536 0 -0.49999999999999928 -0.056578658971957581 0 -0.49712708577170861 -0.075742961183477536 0 -0.49583099825110311 -0.052849651934343489 0 -0.49712708577170861 -0.075742961183477536 0 -0.48794163871831331 -0.064119883023254248 0 -0.49583099825110311 -0.052849651934343489 0 -0.49712708577170861 -0.075742961183477536 0 -0.4847984782487687 -0.075944598732494498 0 -0.48794163871831331 -0.064119883023254248 0 -0.49712708577170861 -0.075742961183477536 0 -0.49999999999999928 -0.056578658971957581 0 -0.49583099825110311 -0.052849651934343489 0 -0.49583099825110311 -0.052849651934343489 0 -0.47748890114140963 -0.036443372127734748 0 -0.48227324058185622 -0.051334552649559453 0 -0.49999999999999928 -0.056578658971957581 0 -0.49583099825110311 -0.052849651934343489 0 -0.49999999999999928 -0.056578658971957581 0 -0.50000000000000144 -0.053559852644015388 0 -0.49583099825110311 -0.052849651934343489 0 -0.48794163871831331 -0.064119883023254248 0 -0.49583099825110311 -0.052849651934343489 0 -0.48227324058185622 -0.051334552649559453 0 -0.50000000000000144 -0.053559852644015388 0 -0.49583099825110311 -0.052849651934343489 0 -0.48598145264485831 -0.02728491224803695 0 -0.49583099825110311 -0.052849651934343489 0 -0.47748890114140963 -0.036443372127734748 0 -0.48598145264485831 -0.02728491224803695 0 -0.50000000000000144 -0.053559852644015388 0 -0.48598145264485831 -0.02728491224803695 0 -0.50000000000000144 -0.053559852644015388 0 -0.48598145264485831 -0.02728491224803695 0 -0.5 -0.025161366008633609 0 -0.49583099825110311 -0.052849651934343489 0 -0.47748890114140963 -0.036443372127734748 0 -0.47748890114140963 -0.036443372127734748 0 -0.48598145264485831 -0.02728491224803695 0 -0.47748890114140963 -0.036443372127734748 0 -0.47194379404182718 -0.042423275915137587 0 -0.48227324058185622 -0.051334552649559453 0 -0.47748890114140963 -0.036443372127734748 0 -0.47194379404182718 -0.042423275915137587 0 -0.47748890114140963 -0.036443372127734748 0 -0.47194379404182718 -0.042423275915137587 0 -0.47056077858213702 -0.03024644074295027 0 -0.47194379404182718 -0.042423275915137587 0 -0.46539503278239303 -0.037082973767017267 0 -0.47056077858213702 -0.03024644074295027 0 -0.47194379404182718 -0.042423275915137587 0 -0.47056077858213702 -0.03024644074295027 0 -0.47748890114140963 -0.036443372127734748 0 -0.47056077858213702 -0.03024644074295027 0 -0.47748890114140963 -0.036443372127734748 0 -0.47056077858213702 -0.03024644074295027 0 -0.47745882259212458 -0.028728106929589409 0 -0.47967839073812912 -0.064727650616396362 0 -0.47491389520024407 -0.068573693827893439 0 -0.47194379404182718 -0.042423275915137587 0 -0.47967839073812912 -0.064727650616396362 0 -0.47194379404182718 -0.042423275915137587 0 -0.48227324058185622 -0.051334552649559453 0 -0.47491389520024407 -0.068573693827893439 0 -0.47194379404182718 -0.042423275915137587 0 -0.47967839073812912 -0.064727650616396362 0 -0.48794163871831331 -0.064119883023254248 0 -0.48227324058185622 -0.051334552649559453 0 -0.47491389520024407 -0.068573693827893439 0 -0.47194379404182718 -0.042423275915137587 0 -0.45893666683642192 -0.056450303318209168 0 -0.45893666683642192 -0.056450303318209168 0 -0.45743491846808387 -0.04563500224908737 0 -0.44544580640037118 -0.056213229689383748 0 -0.47194379404182718 -0.042423275915137587 0 -0.45893666683642192 -0.056450303318209168 0 -0.45743491846808387 -0.04563500224908737 0 -0.47194379404182718 -0.042423275915137587 0 -0.45893666683642192 -0.056450303318209168 0 -0.46539503278239303 -0.037082973767017267 0 -0.44890774518284438 -0.02927164544362729 0 -0.46539503278239303 -0.037082973767017267 0 -0.45215967652477718 -0.036640332234541717 0 -0.44890774518284438 -0.02927164544362729 0 -0.46539503278239303 -0.037082973767017267 0 -0.44890774518284438 -0.02927164544362729 0 -0.46189821575704781 -0.02986243911986371 0 -0.47194379404182718 -0.042423275915137587 0 -0.46539503278239303 -0.037082973767017267 0 -0.45743491846808387 -0.04563500224908737 0 -0.46539503278239303 -0.037082973767017267 0 -0.46189821575704781 -0.02986243911986371 0 -0.47056077858213702 -0.03024644074295027 0 -0.46539503278239303 -0.037082973767017267 0 -0.45743491846808387 -0.04563500224908737 0 -0.45215967652477718 -0.036640332234541717 0 -0.42981912379901888 -0.030443092666165631 0 -0.45215967652477718 -0.036640332234541717 0 -0.45743491846808387 -0.04563500224908737 0 -0.45215967652477718 -0.036640332234541717 0 -0.43957367317472601 -0.045089571971719818 0 -0.42981912379901888 -0.030443092666165631 0 -0.45215967652477718 -0.036640332234541717 0 -0.43957367317472601 -0.045089571971719818 0 -0.45743491846808387 -0.04563500224908737 0 -0.43957367317472601 -0.045089571971719818 0 -0.44544580640037118 -0.056213229689383748 0 -0.4246600563061857 -0.059067830999859447 0 -0.44592953963101739 -0.07047733072128165 0 -0.44544580640037118 -0.056213229689383748 0 -0.44592953963101739 -0.07047733072128165 0 -0.45893666683642192 -0.056450303318209168 0 -0.44544580640037118 -0.056213229689383748 0 -0.4441818909265971 -0.00998157505946092 0 -0.45588653083934588 0.00041698580085632909 0 -0.44737850259376799 0.0077656591989471307 0 -0.4441818909265971 -0.00998157505946092 0 -0.4570262928383732 -0.018140378997512391 0 -0.45633913854906122 -0.0094275687658610888 0 -0.4441818909265971 -0.00998157505946092 0 -0.45633913854906122 -0.0094275687658610888 0 -0.45588653083934588 0.00041698580085632909 0 -0.43741768347029059 -0.01288367903972009 0 -0.4441818909265971 -0.00998157505946092 0 -0.44890774518284438 -0.02927164544362729 0 -0.42981912379901888 -0.030443092666165631 0 -0.45215967652477718 -0.036640332234541717 0 -0.4392085005598273 -0.024676348383282701 0 -0.4441818909265971 -0.00998157505946092 0 -0.44890774518284438 -0.02927164544362729 0 -0.46258273328813732 -0.023158067004484729 0 -0.43741768347029059 -0.01288367903972009 0 -0.44890774518284438 -0.02927164544362729 0 -0.43741768347029059 -0.01288367903972009 0 -0.4392085005598273 -0.024676348383282701 0 -0.44890774518284438 -0.02927164544362729 0 -0.4392085005598273 -0.024676348383282701 0 -0.44890774518284438 -0.02927164544362729 0 -0.45215967652477718 -0.036640332234541717 0 -0.4392085005598273 -0.024676348383282701 0 -0.44890774518284438 -0.02927164544362729 0 -0.4441818909265971 -0.00998157505946092 0 -0.46258273328813732 -0.023158067004484729 0 -0.46258273328813732 -0.023158067004484729 0 -0.46826183959192841 -0.01000530680732737 0 -0.47056077858213702 -0.03024644074295027 0 -0.4441818909265971 -0.00998157505946092 0 -0.4570262928383732 -0.018140378997512391 0 -0.46258273328813732 -0.023158067004484729 0 -0.4570262928383732 -0.018140378997512391 0 -0.46258273328813732 -0.023158067004484729 0 -0.44890774518284438 -0.02927164544362729 0 -0.46189821575704781 -0.02986243911986371 0 -0.46258273328813732 -0.023158067004484729 0 -0.46258273328813732 -0.023158067004484729 0 -0.47056077858213702 -0.03024644074295027 0 -0.46189821575704781 -0.02986243911986371 0 -0.46258273328813732 -0.023158067004484729 0 -0.47056077858213702 -0.03024644074295027 0 -0.4570262928383732 -0.018140378997512391 0 -0.46258273328813732 -0.023158067004484729 0 -0.46826183959192841 -0.01000530680732737 0 -0.4570262928383732 -0.018140378997512391 0 -0.46826183959192841 -0.01000530680732737 0 -0.45633913854906122 -0.0094275687658610888 0 -0.46826183959192841 -0.01000530680732737 0 -0.45633913854906122 -0.0094275687658610888 0 -0.45588653083934588 0.00041698580085632909 0 -0.46826183959192841 -0.01000530680732737 0 -0.47597217662329228 -0.0085245425598697612 0 -0.4659629006017233 0.010235827128295859 0 -0.46826183959192841 -0.01000530680732737 0 -0.47597217662329228 -0.0085245425598697612 0 -0.47580415800009379 -0.02093770259963601 0 -0.47597217662329228 -0.0085245425598697612 0 -0.48922725890134677 -0.010453537226696331 0 -0.48082517856277007 0.001845263919603602 0 -0.47597217662329228 -0.0085245425598697612 0 -0.47580415800009379 -0.02093770259963601 0 -0.48598145264485831 -0.02728491224803695 0 -0.47597217662329228 -0.0085245425598697612 0 -0.48598145264485831 -0.02728491224803695 0 -0.46826183959192841 -0.01000530680732737 0 -0.47056077858213702 -0.03024644074295027 0 -0.47580415800009379 -0.02093770259963601 0 -0.47597217662329228 -0.0085245425598697612 0 -0.48598145264485831 -0.02728491224803695 0 -0.4893389393206713 -0.02366416211133009 0 -0.46826183959192841 -0.01000530680732737 0 -0.47056077858213702 -0.03024644074295027 0 -0.47056077858213702 -0.03024644074295027 0 -0.47580415800009379 -0.02093770259963601 0 -0.47745882259212458 -0.028728106929589409 0 -0.47580415800009379 -0.02093770259963601 0 -0.47745882259212458 -0.028728106929589409 0 -0.48598145264485831 -0.02728491224803695 0 -0.47748890114140963 -0.036443372127734748 0 -0.47745882259212458 -0.028728106929589409 0 -0.48598145264485831 -0.02728491224803695 0 -0.48598145264485831 -0.02728491224803695 0 -0.4893389393206713 -0.02366416211133009 0 -0.5 -0.025161366008633609 0 -0.48598145264485831 -0.02728491224803695 0 -0.4893389393206713 -0.02366416211133009 0 -0.4893389393206713 -0.02366416211133009 0 -0.5 -0.025161366008633609 0 -0.48922725890134677 -0.010453537226696331 0 -0.48922725890134677 -0.010453537226696331 0 -0.5 0.0032371206267481911 0 -0.48082517856277007 0.001845263919603602 0 -0.5 -0.025161366008633609 0 -0.48922725890134677 -0.010453537226696331 0 -0.5 0.0032371206267481911 0 -0.47597217662329228 -0.0085245425598697612 0 -0.4893389393206713 -0.02366416211133009 0 -0.48922725890134677 -0.010453537226696331 0 -0.5 0.0032371206267481911 0 -0.48596576445654982 0.01457961489688041 0 -0.48082517856277007 0.001845263919603602 0 -0.48596576445654982 0.01457961489688041 0 -0.47541999506787802 0.025418180444172121 0 -0.5 0.031635607262129987 0 -0.5 0.0032371206267481911 0 -0.48596576445654982 0.01457961489688041 0 -0.5 0.031635607262129987 0 -0.48596576445654982 0.01457961489688041 0 -0.47541999506787802 0.025418180444172121 0 -0.47401658579892991 0.013489912392399149 0 -0.47541999506787802 0.025418180444172121 0 -0.46963945276383978 0.01793989872667965 0 -0.47401658579892991 0.013489912392399149 0 -0.47597217662329228 -0.0085245425598697612 0 -0.48082517856277007 0.001845263919603602 0 -0.4659629006017233 0.010235827128295859 0 -0.47401658579892991 0.013489912392399149 0 -0.48082517856277007 0.001845263919603602 0 -0.4659629006017233 0.010235827128295859 0 -0.46963945276383978 0.01793989872667965 0 -0.47401658579892991 0.013489912392399149 0 -0.4659629006017233 0.010235827128295859 0 -0.47597217662329228 -0.0085245425598697612 0 -0.4659629006017233 0.010235827128295859 0 -0.48596576445654982 0.01457961489688041 0 -0.47401658579892991 0.013489912392399149 0 -0.48082517856277007 0.001845263919603602 0 -0.5 0.060034093897511798 0 -0.47816362815030861 0.043832779932641487 0 -0.48068047186290208 0.063626500276227002 0 -0.47541999506787802 0.025418180444172121 0 -0.5 0.031635607262129987 0 -0.47816362815030861 0.043832779932641487 0 -0.5 0.060034093897511798 0 -0.5 0.031635607262129987 0 -0.47816362815030861 0.043832779932641487 0 -0.47541999506787802 0.025418180444172121 0 -0.47816362815030861 0.043832779932641487 0 -0.46442391639916691 0.036471327701905212 0 -0.47816362815030861 0.043832779932641487 0 -0.46119618507356652 0.049359273152949731 0 -0.48068047186290208 0.063626500276227002 0 -0.46119618507356652 0.049359273152949731 0 -0.46103932749027238 0.064238871702306077 0 -0.48068047186290208 0.063626500276227002 0 -0.46119618507356652 0.049359273152949731 0 -0.44286953411296898 0.045255716157198693 0 -0.46103932749027238 0.064238871702306077 0 -0.47816362815030861 0.043832779932641487 0 -0.46119618507356652 0.049359273152949731 0 -0.46442391639916691 0.036471327701905212 0 -0.46119618507356652 0.049359273152949731 0 -0.46442391639916691 0.036471327701905212 0 -0.45082509298125129 0.038608595210277222 0 -0.46442391639916691 0.036471327701905212 0 -0.45082509298125129 0.038608595210277222 0 -0.4583939967914884 0.024422211169287101 0 -0.45082509298125129 0.038608595210277222 0 -0.4583939967914884 0.024422211169287101 0 -0.46119618507356652 0.049359273152949731 0 -0.45082509298125129 0.038608595210277222 0 -0.44286953411296898 0.045255716157198693 0 -0.45082509298125129 0.038608595210277222 0 -0.4405409619944019 0.035432846457562263 0 -0.4458839614772655 0.023387518650519249 0 -0.45082509298125129 0.038608595210277222 0 -0.4405409619944019 0.035432846457562263 0 -0.44286953411296898 0.045255716157198693 0 -0.4405409619944019 0.035432846457562263 0 -0.44286953411296898 0.045255716157198693 0 -0.43229092530358848 0.04451632412921195 0 -0.44286953411296898 0.045255716157198693 0 -0.44282721760043869 0.062046251170956107 0 -0.46103932749027238 0.064238871702306077 0 -0.44286953411296898 0.045255716157198693 0 -0.44282721760043869 0.062046251170956107 0 -0.43188097302969042 0.056955122555226501 0 -0.44286953411296898 0.045255716157198693 0 -0.46103932749027238 0.064238871702306077 0 -0.46826183959192841 -0.01000530680732737 0 -0.45588653083934588 0.00041698580085632909 0 -0.4659629006017233 0.010235827128295859 0 -0.46826183959192841 -0.01000530680732737 0 -0.4659629006017233 0.010235827128295859 0 -0.45609316173783881 0.014082317838893479 0 -0.45588653083934588 0.00041698580085632909 0 -0.4659629006017233 0.010235827128295859 0 -0.46963945276383978 0.01793989872667965 0 -0.4659629006017233 0.010235827128295859 0 -0.4583939967914884 0.024422211169287101 0 -0.4659629006017233 0.010235827128295859 0 -0.4583939967914884 0.024422211169287101 0 -0.47541999506787802 0.025418180444172121 0 -0.46963945276383978 0.01793989872667965 0 -0.4583939967914884 0.024422211169287101 0 -0.47541999506787802 0.025418180444172121 0 -0.46442391639916691 0.036471327701905212 0 -0.4583939967914884 0.024422211169287101 0 -0.45609316173783881 0.014082317838893479 0 -0.4659629006017233 0.010235827128295859 0 -0.4583939967914884 0.024422211169287101 0 -0.45609316173783881 0.014082317838893479 0 -0.4583939967914884 0.024422211169287101 0 -0.4458839614772655 0.023387518650519249 0 -0.45082509298125129 0.038608595210277222 0 -0.4583939967914884 0.024422211169287101 0 -0.4458839614772655 0.023387518650519249 0 -0.4405409619944019 0.035432846457562263 0 -0.4458839614772655 0.023387518650519249 0 -0.43566193494816191 0.02574822372494872 0 -0.4458839614772655 0.023387518650519249 0 -0.4359559447540089 0.01018896392150693 0 -0.43566193494816191 0.02574822372494872 0 -0.4441818909265971 -0.00998157505946092 0 -0.44737850259376799 0.0077656591989471307 0 -0.4359559447540089 0.01018896392150693 0 -0.4458839614772655 0.023387518650519249 0 -0.44737850259376799 0.0077656591989471307 0 -0.4359559447540089 0.01018896392150693 0 -0.45609316173783881 0.014082317838893479 0 -0.4458839614772655 0.023387518650519249 0 -0.44737850259376799 0.0077656591989471307 0 -0.45609316173783881 0.014082317838893479 0 -0.45588653083934588 0.00041698580085632909 0 -0.44737850259376799 0.0077656591989471307 0 -0.4441818909265971 -0.00998157505946092 0 -0.4359559447540089 0.01018896392150693 0 -0.42578104856505677 0.0031949168855625672 0 -0.42578104856505677 0.0031949168855625672 0 -0.41622595309658328 0.016397403714119251 0 -0.42870406893849561 0.019163111370922251 0 -0.4359559447540089 0.01018896392150693 0 -0.42578104856505677 0.0031949168855625672 0 -0.42870406893849561 0.019163111370922251 0 -0.41753789792717189 -0.0038843189997757009 0 -0.42578104856505677 0.0031949168855625672 0 -0.41105156913745711 0.0034129409419674369 0 -0.42578104856505677 0.0031949168855625672 0 -0.40852807671777941 0.0155494406680463 0 -0.41622595309658328 0.016397403714119251 0 -0.42578104856505677 0.0031949168855625672 0 -0.40852807671777941 0.0155494406680463 0 -0.41105156913745711 0.0034129409419674369 0 -0.42578104856505677 0.0031949168855625672 0 -0.40852807671777941 0.0155494406680463 0 -0.42578104856505677 0.0031949168855625672 0 -0.41622595309658328 0.016397403714119251 0 -0.40852807671777941 0.0155494406680463 0 -0.41105156913745711 0.0034129409419674369 0 -0.40262572535869262 0.0089097845909437267 0 -0.40771050441737638 -0.0035262849216432719 0 -0.41105156913745711 0.0034129409419674369 0 -0.40226596945639398 0.0014711925349297271 0 -0.40667085762811028 0.029599890542676258 0 -0.41622595309658328 0.016397403714119251 0 -0.42870406893849561 0.019163111370922251 0 -0.40667085762811028 0.029599890542676258 0 -0.42870406893849561 0.019163111370922251 0 -0.40667085762811028 0.029599890542676258 0 -0.41990433555607742 0.03061685230769556 0 -0.42870406893849561 0.019163111370922251 0 -0.40852807671777941 0.0155494406680463 0 -0.40667085762811028 0.029599890542676258 0 -0.41622595309658328 0.016397403714119251 0 -0.40667085762811028 0.029599890542676258 0 -0.41622595309658328 0.016397403714119251 0 -0.41990433555607742 0.03061685230769556 0 -0.4284463216954002 0.029357354603554459 0 -0.42870406893849561 0.019163111370922251 0 -0.4359559447540089 0.01018896392150693 0 -0.42870406893849561 0.019163111370922251 0 -0.43566193494816191 0.02574822372494872 0 -0.4284463216954002 0.029357354603554459 0 -0.42870406893849561 0.019163111370922251 0 -0.43566193494816191 0.02574822372494872 0 -0.4284463216954002 0.029357354603554459 0 -0.43566193494816191 0.02574822372494872 0 -0.43264023121812112 0.033917661463996759 0 -0.4405409619944019 0.035432846457562263 0 -0.43264023121812112 0.033917661463996759 0 -0.43229092530358848 0.04451632412921195 0 -0.43264023121812112 0.033917661463996759 0 -0.43229092530358848 0.04451632412921195 0 -0.42532103781614489 0.037340924150209003 0 -0.4405409619944019 0.035432846457562263 0 -0.43566193494816191 0.02574822372494872 0 -0.43264023121812112 0.033917661463996759 0 -0.43229092530358848 0.04451632412921195 0 -0.42532103781614489 0.037340924150209003 0 -0.42042490988599091 0.046091327469671317 0 -0.4284463216954002 0.029357354603554459 0 -0.43264023121812112 0.033917661463996759 0 -0.42532103781614489 0.037340924150209003 0 -0.41990433555607742 0.03061685230769556 0 -0.4284463216954002 0.029357354603554459 0 -0.42532103781614489 0.037340924150209003 0 -0.43229092530358848 0.04451632412921195 0 -0.43188097302969042 0.056955122555226501 0 -0.42585725303016408 0.051510102087770737 0 -0.44286953411296898 0.045255716157198693 0 -0.43229092530358848 0.04451632412921195 0 -0.43188097302969042 0.056955122555226501 0 -0.43229092530358848 0.04451632412921195 0 -0.42585725303016408 0.051510102087770737 0 -0.42042490988599091 0.046091327469671317 0 -0.43188097302969042 0.056955122555226501 0 -0.41883220390138681 0.058477634196973202 0 -0.43131469147834472 0.070632617455275076 0 -0.43188097302969042 0.056955122555226501 0 -0.42585725303016408 0.051510102087770737 0 -0.41883220390138681 0.058477634196973202 0 -0.41883220390138681 0.058477634196973202 0 -0.40840220717331749 0.048304634434869917 0 -0.39985653820026013 0.060860810446949978 0 -0.42585725303016408 0.051510102087770737 0 -0.41883220390138681 0.058477634196973202 0 -0.42042490988599091 0.046091327469671317 0 -0.41883220390138681 0.058477634196973202 0 -0.40840220717331749 0.048304634434869917 0 -0.42042490988599091 0.046091327469671317 0 -0.41990433555607742 0.03061685230769556 0 -0.42532103781614489 0.037340924150209003 0 -0.4122967326089878 0.037821593301397609 0 -0.42532103781614489 0.037340924150209003 0 -0.42042490988599091 0.046091327469671317 0 -0.4122967326089878 0.037821593301397609 0 -0.40840220717331749 0.048304634434869917 0 -0.4122967326089878 0.037821593301397609 0 -0.40579981868685489 0.041495006097714962 0 -0.40840220717331749 0.048304634434869917 0 -0.42042490988599091 0.046091327469671317 0 -0.4122967326089878 0.037821593301397609 0 -0.4122967326089878 0.037821593301397609 0 -0.40278544391907911 0.034968452634622761 0 -0.40579981868685489 0.041495006097714962 0 -0.40667085762811028 0.029599890542676258 0 -0.4122967326089878 0.037821593301397609 0 -0.40278544391907911 0.034968452634622761 0 -0.40667085762811028 0.029599890542676258 0 -0.41990433555607742 0.03061685230769556 0 -0.4122967326089878 0.037821593301397609 0 -0.40667085762811028 0.029599890542676258 0 -0.40278544391907911 0.034968452634622761 0 -0.40667085762811028 0.029599890542676258 0 -0.38856614517843069 0.038175802748282091 0 -0.40667085762811028 0.029599890542676258 0 -0.38856614517843069 0.038175802748282091 0 -0.39127510487050182 0.027903964450529759 0 -0.40667085762811028 0.029599890542676258 0 -0.40278544391907911 0.034968452634622761 0 -0.38856614517843069 0.038175802748282091 0 -0.40278544391907911 0.034968452634622761 0 -0.40579981868685489 0.041495006097714962 0 -0.3977250587697031 0.045015474274426849 0 -0.40840220717331749 0.048304634434869917 0 -0.40579981868685489 0.041495006097714962 0 -0.3977250587697031 0.045015474274426849 0 -0.40278544391907911 0.034968452634622761 0 -0.3977250587697031 0.045015474274426849 0 -0.38856614517843069 0.038175802748282091 0 -0.40840220717331749 0.048304634434869917 0 -0.3977250587697031 0.045015474274426849 0 -0.39985653820026013 0.060860810446949978 0 -0.3977250587697031 0.045015474274426849 0 -0.39985653820026013 0.060860810446949978 0 -0.38472691017257071 0.052921849058569698 0 -0.39985653820026013 0.060860810446949978 0 -0.38472691017257071 0.052921849058569698 0 -0.38510762700538009 0.066428587654483159 0 -0.38472691017257071 0.052921849058569698 0 -0.37046143272875132 0.04675171495388801 0 -0.37000681959492809 0.05831264468359916 0 -0.38472691017257071 0.052921849058569698 0 -0.38510762700538009 0.066428587654483159 0 -0.37000681959492809 0.05831264468359916 0 -0.38856614517843069 0.038175802748282091 0 -0.37871402691879819 0.03757115751491092 0 -0.37046143272875132 0.04675171495388801 0 -0.38856614517843069 0.038175802748282091 0 -0.37046143272875132 0.04675171495388801 0 -0.38472691017257071 0.052921849058569698 0 -0.38856614517843069 0.038175802748282091 0 -0.37046143272875132 0.04675171495388801 0 -0.38856614517843069 0.038175802748282091 0 -0.38315308642314733 0.033917821982192238 0 -0.39127510487050182 0.027903964450529759 0 -0.38856614517843069 0.038175802748282091 0 -0.38315308642314733 0.033917821982192238 0 -0.37871402691879819 0.03757115751491092 0 -0.3977250587697031 0.045015474274426849 0 -0.38472691017257071 0.052921849058569698 0 -0.38856614517843069 0.038175802748282091 0 -0.37871402691879819 0.03757115751491092 0 -0.3764786745208083 0.032098692741998169 0 -0.37046143272875132 0.04675171495388801 0 -0.38315308642314733 0.033917821982192238 0 -0.3764786745208083 0.032098692741998169 0 -0.38155727091044611 0.028316364585127811 0 -0.38315308642314733 0.033917821982192238 0 -0.37871402691879819 0.03757115751491092 0 -0.3764786745208083 0.032098692741998169 0 -0.3764786745208083 0.032098692741998169 0 -0.38155727091044611 0.028316364585127811 0 -0.37960108001976323 0.022263106047543741 0 -0.37960108001976323 0.022263106047543741 0 -0.37998819155715241 0.0057865511937031933 0 -0.37123175334181557 0.027162262264614271 0 -0.3764786745208083 0.032098692741998169 0 -0.37960108001976323 0.022263106047543741 0 -0.37123175334181557 0.027162262264614271 0 -0.38155727091044611 0.028316364585127811 0 -0.38533699425949169 0.022674384769296389 0 -0.37960108001976323 0.022263106047543741 0 -0.38155727091044611 0.028316364585127811 0 -0.38533699425949169 0.022674384769296389 0 -0.39127510487050182 0.027903964450529759 0 -0.38315308642314733 0.033917821982192238 0 -0.38155727091044611 0.028316364585127811 0 -0.39127510487050182 0.027903964450529759 0 -0.39054146691731162 0.018060194648231769 0 -0.38533699425949169 0.022674384769296389 0 -0.39127510487050182 0.027903964450529759 0 -0.38533699425949169 0.022674384769296389 0 -0.3837100485794358 0.01682829411504885 0 -0.37960108001976323 0.022263106047543741 0 -0.39054146691731162 0.018060194648231769 0 -0.38533699425949169 0.022674384769296389 0 -0.3837100485794358 0.01682829411504885 0 -0.3837100485794358 0.01682829411504885 0 -0.37960108001976323 0.022263106047543741 0 -0.37998819155715241 0.0057865511937031933 0 -0.37998819155715241 0.0057865511937031933 0 -0.38683543611469601 0.0001369023841863784 0 -0.36064890389212972 0.0125435277679194 0 -0.37998819155715241 0.0057865511937031933 0 -0.38683543611469601 0.0001369023841863784 0 -0.38901012294298121 0.0062908016400105649 0 -0.38683543611469601 0.0001369023841863784 0 -0.38901012294298121 0.0062908016400105649 0 -0.39501457079486157 0.0055715078560810288 0 -0.37998819155715241 0.0057865511937031933 0 -0.38901012294298121 0.0062908016400105649 0 -0.38744744785130802 0.01185902438546781 0 -0.3837100485794358 0.01682829411504885 0 -0.37998819155715241 0.0057865511937031933 0 -0.38744744785130802 0.01185902438546781 0 -0.38901012294298121 0.0062908016400105649 0 -0.38744744785130802 0.01185902438546781 0 -0.39422738021243581 0.01127211946813913 0 -0.39054146691731162 0.018060194648231769 0 -0.3837100485794358 0.01682829411504885 0 -0.38744744785130802 0.01185902438546781 0 -0.39054146691731162 0.018060194648231769 0 -0.39422738021243581 0.01127211946813913 0 -0.39743955081534421 0.016339100765178138 0 -0.39054146691731162 0.018060194648231769 0 -0.38744744785130802 0.01185902438546781 0 -0.39422738021243581 0.01127211946813913 0 -0.39422738021243581 0.01127211946813913 0 -0.39501457079486157 0.0055715078560810288 0 -0.40262572535869262 0.0089097845909437267 0 -0.39422738021243581 0.01127211946813913 0 -0.40262572535869262 0.0089097845909437267 0 -0.39743955081534421 0.016339100765178138 0 -0.38683543611469601 0.0001369023841863784 0 -0.39501457079486157 0.0055715078560810288 0 -0.40226596945639398 0.0014711925349297271 0 -0.38901012294298121 0.0062908016400105649 0 -0.39422738021243581 0.01127211946813913 0 -0.39501457079486157 0.0055715078560810288 0 -0.41105156913745711 0.0034129409419674369 0 -0.40226596945639398 0.0014711925349297271 0 -0.40262572535869262 0.0089097845909437267 0 -0.39501457079486157 0.0055715078560810288 0 -0.40226596945639398 0.0014711925349297271 0 -0.40262572535869262 0.0089097845909437267 0 -0.40852807671777941 0.0155494406680463 0 -0.40262572535869262 0.0089097845909437267 0 -0.39743955081534421 0.016339100765178138 0 -0.40852807671777941 0.0155494406680463 0 -0.39127510487050182 0.027903964450529759 0 -0.40852807671777941 0.0155494406680463 0 -0.40667085762811028 0.029599890542676258 0 -0.39127510487050182 0.027903964450529759 0 -0.40852807671777941 0.0155494406680463 0 -0.39127510487050182 0.027903964450529759 0 -0.39743955081534421 0.016339100765178138 0 -0.39054146691731162 0.018060194648231769 0 -0.39127510487050182 0.027903964450529759 0 -0.39743955081534421 0.016339100765178138 0 -0.39792088922733271 0.1160922105611595 0 -0.40104213778508202 0.092866093853817611 0 -0.41467909406405851 0.1139188519362445 0 -0.39792088922733271 0.1160922105611595 0 -0.3782625711058698 0.101617738696854 0 -0.40104213778508202 0.092866093853817611 0 -0.3782625711058698 0.101617738696854 0 -0.38372255811484618 0.13025780258704611 0 -0.3782625711058698 0.101617738696854 0 -0.38372255811484618 0.13025780258704611 0 -0.36747352968705388 0.12273486311700831 0 -0.39792088922733271 0.1160922105611595 0 -0.3782625711058698 0.101617738696854 0 -0.38372255811484618 0.13025780258704611 0 -0.39792088922733271 0.1160922105611595 0 -0.3782625711058698 0.101617738696854 0 -0.3782625711058698 0.101617738696854 0 -0.40104213778508202 0.092866093853817611 0 -0.37470600383380392 0.082961959162170973 0 -0.39520328107527708 0.075997639864115257 0 -0.40104213778508202 0.092866093853817611 0 -0.37470600383380392 0.082961959162170973 0 -0.3782625711058698 0.101617738696854 0 -0.37470600383380392 0.082961959162170973 0 -0.40104213778508202 0.092866093853817611 0 -0.37470600383380392 0.082961959162170973 0 -0.38510762700538009 0.066428587654483159 0 -0.37000681959492809 0.05831264468359916 0 -0.37470600383380392 0.082961959162170973 0 -0.38510762700538009 0.066428587654483159 0 -0.39520328107527708 0.075997639864115257 0 -0.37470600383380392 0.082961959162170973 0 -0.39985653820026013 0.060860810446949978 0 -0.39520328107527708 0.075997639864115257 0 -0.41322693425173768 0.074694678089132868 0 -0.39985653820026013 0.060860810446949978 0 -0.38510762700538009 0.066428587654483159 0 -0.39520328107527708 0.075997639864115257 0 -0.39520328107527708 0.075997639864115257 0 -0.40104213778508202 0.092866093853817611 0 -0.41322693425173768 0.074694678089132868 0 -0.40104213778508202 0.092866093853817611 0 -0.41322693425173768 0.074694678089132868 0 -0.42957324029363853 0.085693113452461764 0 -0.41883220390138681 0.058477634196973202 0 -0.41322693425173768 0.074694678089132868 0 -0.43131469147834472 0.070632617455275076 0 -0.41883220390138681 0.058477634196973202 0 -0.39985653820026013 0.060860810446949978 0 -0.41322693425173768 0.074694678089132868 0 -0.43131469147834472 0.070632617455275076 0 -0.42957324029363853 0.085693113452461764 0 -0.4470315618909167 0.073148927984774167 0 -0.41322693425173768 0.074694678089132868 0 -0.43131469147834472 0.070632617455275076 0 -0.42957324029363853 0.085693113452461764 0 -0.44282721760043869 0.062046251170956107 0 -0.43188097302969042 0.056955122555226501 0 -0.43131469147834472 0.070632617455275076 0 -0.42957324029363853 0.085693113452461764 0 -0.42737827173636012 0.1027702285454639 0 -0.44343173260412461 0.097571970950778963 0 -0.40104213778508202 0.092866093853817611 0 -0.42737827173636012 0.1027702285454639 0 -0.41467909406405851 0.1139188519362445 0 -0.40104213778508202 0.092866093853817611 0 -0.42737827173636012 0.1027702285454639 0 -0.40104213778508202 0.092866093853817611 0 -0.42957324029363853 0.085693113452461764 0 -0.42737827173636012 0.1027702285454639 0 -0.39792088922733271 0.1160922105611595 0 -0.41467909406405851 0.1139188519362445 0 -0.417579207348795 0.13056668242546571 0 -0.39792088922733271 0.1160922105611595 0 -0.417579207348795 0.13056668242546571 0 -0.41467909406405851 0.1139188519362445 0 -0.42608096723388439 0.1205091241492761 0 -0.417579207348795 0.13056668242546571 0 -0.42737827173636012 0.1027702285454639 0 -0.41467909406405851 0.1139188519362445 0 -0.42608096723388439 0.1205091241492761 0 -0.42737827173636012 0.1027702285454639 0 -0.42608096723388439 0.1205091241492761 0 -0.43826405507869293 0.1195835460605416 0 -0.42608096723388439 0.1205091241492761 0 -0.43826405507869293 0.1195835460605416 0 -0.43293323699752101 0.1317554923945817 0 -0.43826405507869293 0.1195835460605416 0 -0.45371440568763749 0.1126743632371118 0 -0.44901593584904892 0.12912088192892021 0 -0.42737827173636012 0.1027702285454639 0 -0.43826405507869293 0.1195835460605416 0 -0.45371440568763749 0.1126743632371118 0 -0.4523882543875366 0.10983005993361 0 -0.45371440568763749 0.1126743632371118 0 -0.42737827173636012 0.1027702285454639 0 -0.4523882543875366 0.10983005993361 0 -0.44343173260412461 0.097571970950778963 0 -0.42737827173636012 0.1027702285454639 0 -0.4523882543875366 0.10983005993361 0 -0.45371440568763749 0.1126743632371118 0 -0.42737827173636012 0.1027702285454639 0 -0.45371440568763749 0.1126743632371118 0 -0.44343173260412461 0.097571970950778963 0 -0.45084974973894648 0.096020795281878568 0 -0.45306155814551219 0.1028275296158008 0 -0.44343173260412461 0.097571970950778963 0 -0.45084974973894648 0.096020795281878568 0 -0.44733932132275389 0.088290098875458828 0 -0.4523882543875366 0.10983005993361 0 -0.44343173260412461 0.097571970950778963 0 -0.45306155814551219 0.1028275296158008 0 -0.4523882543875366 0.10983005993361 0 -0.45306155814551219 0.1028275296158008 0 -0.45661100561120399 0.109540819014999 0 -0.45306155814551219 0.1028275296158008 0 -0.46084618436187341 0.10490351706993729 0 -0.45661100561120399 0.109540819014999 0 -0.45306155814551219 0.1028275296158008 0 -0.46084618436187341 0.10490351706993729 0 -0.45799439118323759 0.099220837031069903 0 -0.46084618436187341 0.10490351706993729 0 -0.4635407771028337 0.1124237257980706 0 -0.45661100561120399 0.109540819014999 0 -0.45799439118323759 0.099220837031069903 0 -0.46723244863383712 0.097971273043108306 0 -0.45594156200913483 0.091684632610025046 0 -0.45084974973894648 0.096020795281878568 0 -0.45799439118323759 0.099220837031069903 0 -0.45594156200913483 0.091684632610025046 0 -0.45084974973894648 0.096020795281878568 0 -0.45306155814551219 0.1028275296158008 0 -0.45799439118323759 0.099220837031069903 0 -0.46084618436187341 0.10490351706993729 0 -0.45799439118323759 0.099220837031069903 0 -0.46723244863383712 0.097971273043108306 0 -0.46084618436187341 0.10490351706993729 0 -0.46723244863383712 0.097971273043108306 0 -0.46686982756835349 0.1074114054382402 0 -0.46084618436187341 0.10490351706993729 0 -0.46686982756835349 0.1074114054382402 0 -0.4635407771028337 0.1124237257980706 0 -0.45371440568763749 0.1126743632371118 0 -0.46425598871103851 0.13528374379222011 0 -0.4635407771028337 0.1124237257980706 0 -0.45674497769142258 0.1138140594952527 0 -0.46958882025875243 0.12035793204680111 0 -0.46686982756835349 0.1074114054382402 0 -0.4635407771028337 0.1124237257980706 0 -0.47044075898603932 0.11380610730348489 0 -0.4635407771028337 0.1124237257980706 0 -0.46958882025875243 0.12035793204680111 0 -0.47044075898603932 0.11380610730348489 0 -0.45674497769142258 0.1138140594952527 0 -0.45371440568763749 0.1126743632371118 0 -0.46425598871103851 0.13528374379222011 0 -0.45674497769142258 0.1138140594952527 0 -0.46958882025875243 0.12035793204680111 0 -0.46425598871103851 0.13528374379222011 0 -0.4523882543875366 0.10983005993361 0 -0.45661100561120399 0.109540819014999 0 -0.45371440568763749 0.1126743632371118 0 -0.45674497769142258 0.1138140594952527 0 -0.45661100561120399 0.109540819014999 0 -0.45371440568763749 0.1126743632371118 0 -0.45674497769142258 0.1138140594952527 0 -0.45371440568763749 0.1126743632371118 0 -0.4635407771028337 0.1124237257980706 0 -0.45674497769142258 0.1138140594952527 0 -0.45661100561120399 0.109540819014999 0 -0.44282721760043869 0.062046251170956107 0 -0.4470315618909167 0.073148927984774167 0 -0.46103932749027238 0.064238871702306077 0 -0.44282721760043869 0.062046251170956107 0 -0.43131469147834472 0.070632617455275076 0 -0.4470315618909167 0.073148927984774167 0 -0.42957324029363853 0.085693113452461764 0 -0.44343173260412461 0.097571970950778963 0 -0.44733932132275389 0.088290098875458828 0 -0.42957324029363853 0.085693113452461764 0 -0.4470315618909167 0.073148927984774167 0 -0.44733932132275389 0.088290098875458828 0 -0.4470315618909167 0.073148927984774167 0 -0.44733932132275389 0.088290098875458828 0 -0.46047789149500767 0.082617330138573752 0 -0.45084974973894648 0.096020795281878568 0 -0.44733932132275389 0.088290098875458828 0 -0.45594156200913483 0.091684632610025046 0 -0.44733932132275389 0.088290098875458828 0 -0.45594156200913483 0.091684632610025046 0 -0.46047789149500767 0.082617330138573752 0 -0.46723244863383712 0.097971273043108306 0 -0.45594156200913483 0.091684632610025046 0 -0.46047789149500767 0.082617330138573752 0 -0.46047789149500767 0.082617330138573752 0 -0.46103932749027238 0.064238871702306077 0 -0.47920912086757578 0.083222027247413538 0 -0.4470315618909167 0.073148927984774167 0 -0.46047789149500767 0.082617330138573752 0 -0.46103932749027238 0.064238871702306077 0 -0.46103932749027238 0.064238871702306077 0 -0.48068047186290208 0.063626500276227002 0 -0.47920912086757578 0.083222027247413538 0 -0.46103932749027238 0.064238871702306077 0 -0.47920912086757578 0.083222027247413538 0 -0.46723244863383712 0.097971273043108306 0 -0.46047789149500767 0.082617330138573752 0 -0.47920912086757578 0.083222027247413538 0 -0.48068047186290208 0.063626500276227002 0 -0.47920912086757578 0.083222027247413538 0 -0.5 0.088432580532893601 0 -0.47920912086757578 0.083222027247413538 0 -0.49737891424487929 0.102205182792521 0 -0.47920912086757578 0.083222027247413538 0 -0.5 0.088432580532893601 0 -0.49737891424487929 0.102205182792521 0 -0.5 0.060034093897511798 0 -0.48068047186290208 0.063626500276227002 0 -0.5 0.088432580532893601 0 -0.47827810320487629 0.116675775998883 0 -0.48837893466537508 0.1117690854599766 0 -0.4842723158563047 0.1301441798928954 0 -0.47827810320487629 0.116675775998883 0 -0.47512549980118862 0.10796659812409699 0 -0.48837893466537508 0.1117690854599766 0 -0.47827810320487629 0.116675775998883 0 -0.46958882025875243 0.12035793204680111 0 -0.4842723158563047 0.1301441798928954 0 -0.47827810320487629 0.116675775998883 0 -0.47044075898603932 0.11380610730348489 0 -0.47512549980118862 0.10796659812409699 0 -0.46686982756835349 0.1074114054382402 0 -0.47044075898603932 0.11380610730348489 0 -0.47512549980118862 0.10796659812409699 0 -0.47827810320487629 0.116675775998883 0 -0.46958882025875243 0.12035793204680111 0 -0.47044075898603932 0.11380610730348489 0 -0.46723244863383712 0.097971273043108306 0 -0.47512549980118862 0.10796659812409699 0 -0.48162445158666772 0.1005823670901454 0 -0.46723244863383712 0.097971273043108306 0 -0.47920912086757578 0.083222027247413538 0 -0.48162445158666772 0.1005823670901454 0 -0.46723244863383712 0.097971273043108306 0 -0.46686982756835349 0.1074114054382402 0 -0.47512549980118862 0.10796659812409699 0 -0.47512549980118862 0.10796659812409699 0 -0.48162445158666772 0.1005823670901454 0 -0.48837893466537508 0.1117690854599766 0 -0.48162445158666772 0.1005823670901454 0 -0.49737891424487929 0.102205182792521 0 -0.48837893466537508 0.1117690854599766 0 -0.47920912086757578 0.083222027247413538 0 -0.48162445158666772 0.1005823670901454 0 -0.49737891424487929 0.102205182792521 0 -0.5 0.088432580532893601 0 -0.49737891424487929 0.102205182792521 0 -0.5 0.1168310671682755 0 -0.49737891424487929 0.102205182792521 0 -0.5 0.1168310671682755 0 -0.48837893466537508 0.1117690854599766 0 -0.5 0.1168310671682755 0 -0.48837893466537508 0.1117690854599766 0 -0.4842723158563047 0.1301441798928954 0 -0.5 0.1168310671682755 0 -0.4842723158563047 0.1301441798928954 0 -0.5 0.14522955380365729 0 -0.46958882025875243 0.12035793204680111 0 -0.4842723158563047 0.1301441798928954 0 -0.46425598871103851 0.13528374379222011 0 -0.4842723158563047 0.1301441798928954 0 -0.47479757173443998 0.15789312434732811 0 -0.46425598871103851 0.13528374379222011 0 -0.47479757173443998 0.15789312434732811 0 -0.46425598871103851 0.13528374379222011 0 -0.4842723158563047 0.1301441798928954 0 -0.5 0.14522955380365729 0 -0.47479757173443998 0.15789312434732811 0 -0.5 0.14522955380365729 0 -0.49999999999999972 0.17362804043903909 0 -0.47479757173443998 0.15789312434732811 0 -0.49999999999999972 0.17362804043903909 0 -0.47479757173443998 0.15789312434732811 0 -0.49999999999999972 0.17362804043903909 0 -0.49200992699072321 0.1743962810239672 0 -0.47479757173443998 0.15789312434732811 0 -0.48341269367675271 0.17637066895233999 0 -0.49170634683837577 0.1941587336203292 0 -0.49368671912131301 0.1828531969182482 0 -0.49999999999999972 0.17362804043903909 0 -0.5 0.19278741936367841 0 -0.49368671912131301 0.1828531969182482 0 -0.48341269367675271 0.17637066895233999 0 -0.49170634683837577 0.1941587336203292 0 -0.49368671912131301 0.1828531969182482 0 -0.49999999999999972 0.17362804043903909 0 -0.49200992699072321 0.1743962810239672 0 -0.49200992699072321 0.1743962810239672 0 -0.48341269367675271 0.17637066895233999 0 -0.49368671912131301 0.1828531969182482 0 -0.49200992699072321 0.1743962810239672 0 -0.48341269367675271 0.17637066895233999 0 -0.48341269367675271 0.17637066895233999 0 -0.45591042926964898 0.18268667049205081 0 -0.47274380268756999 0.19288508587190861 0 -0.48341269367675271 0.17637066895233999 0 -0.45591042926964898 0.18268667049205081 0 -0.49200992699072321 0.1743962810239672 0 -0.48341269367675271 0.17637066895233999 0 -0.47479757173443998 0.15789312434732811 0 -0.48341269367675271 0.17637066895233999 0 -0.47479757173443998 0.15789312434732811 0 -0.48341269367675271 0.17637066895233999 0 -0.47479757173443998 0.15789312434732811 0 -0.45723956394668003 0.16387676974864759 0 -0.48341269367675271 0.17637066895233999 0 -0.45723956394668003 0.16387676974864759 0 -0.45591042926964898 0.18268667049205081 0 -0.45591042926964898 0.18268667049205081 0 -0.43992511097516529 0.17411109905454999 0 -0.4284081648625454 0.1890026720317621 0 -0.45591042926964898 0.18268667049205081 0 -0.4284081648625454 0.1890026720317621 0 -0.45723956394668003 0.16387676974864759 0 -0.45591042926964898 0.18268667049205081 0 -0.43992511097516529 0.17411109905454999 0 -0.45723956394668003 0.16387676974864759 0 -0.43992511097516529 0.17411109905454999 0 -0.43892522612619872 0.15930650560997939 0 -0.43892522612619872 0.15930650560997939 0 -0.43796764784210812 0.14528805014891141 0 -0.45386540436598038 0.14482430837095511 0 -0.45723956394668003 0.16387676974864759 0 -0.43892522612619872 0.15930650560997939 0 -0.45386540436598038 0.14482430837095511 0 -0.45386540436598038 0.14482430837095511 0 -0.43293323699752101 0.1317554923945817 0 -0.43826405507869293 0.1195835460605416 0 -0.44901593584904892 0.12912088192892021 0 -0.43293323699752101 0.1317554923945817 0 -0.43796764784210812 0.14528805014891141 0 -0.45386540436598038 0.14482430837095511 0 -0.43293323699752101 0.1317554923945817 0 -0.44901593584904892 0.12912088192892021 0 -0.45386540436598038 0.14482430837095511 0 -0.43293323699752101 0.1317554923945817 0 -0.45371440568763749 0.1126743632371118 0 -0.44901593584904892 0.12912088192892021 0 -0.46425598871103851 0.13528374379222011 0 -0.44901593584904892 0.12912088192892021 0 -0.46425598871103851 0.13528374379222011 0 -0.45386540436598038 0.14482430837095511 0 -0.47479757173443998 0.15789312434732811 0 -0.45723956394668003 0.16387676974864759 0 -0.45386540436598038 0.14482430837095511 0 -0.47479757173443998 0.15789312434732811 0 -0.46425598871103851 0.13528374379222011 0 -0.45386540436598038 0.14482430837095511 0 -0.47479757173443998 0.15789312434732811 0 -0.45386540436598038 0.14482430837095511 0 -0.48226153920099157 0.23766317590200001 0 -0.47864167104372218 0.246590621409366 0 -0.48932095354102823 0.25454658797793611 0 -0.47315400564016008 0.2364435414805684 0 -0.47864167104372218 0.246590621409366 0 -0.46938038244821267 0.25133041049185839 0 -0.47315400564016008 0.2364435414805684 0 -0.48226153920099157 0.23766317590200001 0 -0.47864167104372218 0.246590621409366 0 -0.49106398183666961 0.22759324404760359 0 -0.48932095354102823 0.25454658797793611 0 -0.5 0.23810140997737081 0 -0.49106398183666961 0.22759324404760359 0 -0.48932095354102823 0.25454658797793611 0 -0.48226153920099157 0.23766317590200001 0 -0.49106398183666961 0.22759324404760359 0 -0.48932095354102823 0.25454658797793611 0 -0.5 0.23810140997737081 0 -0.49106398183666961 0.22759324404760359 0 -0.50000000000000022 0.21194679828831781 0 -0.49106398183666961 0.22759324404760359 0 -0.47912708394337772 0.2231418845945258 0 -0.48726644121087642 0.21298690825741631 0 -0.48226153920099157 0.23766317590200001 0 -0.49106398183666961 0.22759324404760359 0 -0.47912708394337772 0.2231418845945258 0 -0.47315400564016008 0.2364435414805684 0 -0.48226153920099157 0.23766317590200001 0 -0.47912708394337772 0.2231418845945258 0 -0.47315400564016008 0.2364435414805684 0 -0.47912708394337772 0.2231418845945258 0 -0.46764368341616458 0.22415830119077751 0 -0.47912708394337772 0.2231418845945258 0 -0.47360767850491831 0.20951316246361981 0 -0.46764368341616458 0.22415830119077751 0 -0.47360767850491831 0.20951316246361981 0 -0.48726644121087642 0.21298690825741631 0 -0.49170634683837577 0.1941587336203292 0 -0.47912708394337772 0.2231418845945258 0 -0.47360767850491831 0.20951316246361981 0 -0.48726644121087642 0.21298690825741631 0 -0.49106398183666961 0.22759324404760359 0 -0.50000000000000022 0.21194679828831781 0 -0.48726644121087642 0.21298690825741631 0 -0.50000000000000022 0.21194679828831781 0 -0.48726644121087642 0.21298690825741631 0 -0.49170634683837577 0.1941587336203292 0 -0.50000000000000022 0.21194679828831781 0 -0.49170634683837577 0.1941587336203292 0 -0.50000000000000022 0.21194679828831781 0 -0.5 0.19278741936367841 0 -0.49170634683837577 0.1941587336203292 0 -0.49368671912131301 0.1828531969182482 0 -0.5 0.19278741936367841 0 -0.49170634683837577 0.1941587336203292 0 -0.48341269367675271 0.17637066895233999 0 -0.49170634683837577 0.1941587336203292 0 -0.47274380268756999 0.19288508587190861 0 -0.47360767850491831 0.20951316246361981 0 -0.49170634683837577 0.1941587336203292 0 -0.47274380268756999 0.19288508587190861 0 -0.47360767850491831 0.20951316246361981 0 -0.47274380268756999 0.19288508587190861 0 -0.45820261548712909 0.20353130823034371 0 -0.45591042926964898 0.18268667049205081 0 -0.47274380268756999 0.19288508587190861 0 -0.45820261548712909 0.20353130823034371 0 -0.45591042926964898 0.18268667049205081 0 -0.43516662619925378 0.20614333559983469 0 -0.4284081648625454 0.1890026720317621 0 -0.45591042926964898 0.18268667049205081 0 -0.45820261548712909 0.20353130823034371 0 -0.43516662619925378 0.20614333559983469 0 -0.44192508753596349 0.22328399916790689 0 -0.43516662619925378 0.20614333559983469 0 -0.45032248765871591 0.2151961798839368 0 -0.44192508753596349 0.22328399916790689 0 -0.43516662619925378 0.20614333559983469 0 -0.45032248765871591 0.2151961798839368 0 -0.45820261548712909 0.20353130823034371 0 -0.43516662619925378 0.20614333559983469 0 -0.45032248765871591 0.2151961798839368 0 -0.46109406183397039 0.21551848415653921 0 -0.45620465585954723 0.2251951411450015 0 -0.45032248765871591 0.2151961798839368 0 -0.45820261548712909 0.20353130823034371 0 -0.46109406183397039 0.21551848415653921 0 -0.47360767850491831 0.20951316246361981 0 -0.45820261548712909 0.20353130823034371 0 -0.46109406183397039 0.21551848415653921 0 -0.47360767850491831 0.20951316246361981 0 -0.46109406183397039 0.21551848415653921 0 -0.46764368341616458 0.22415830119077751 0 -0.47315400564016008 0.2364435414805684 0 -0.46764368341616458 0.22415830119077751 0 -0.45925329591452863 0.2407771106774913 0 -0.46764368341616458 0.22415830119077751 0 -0.45620465585954723 0.2251951411450015 0 -0.45925329591452863 0.2407771106774913 0 -0.46109406183397039 0.21551848415653921 0 -0.46764368341616458 0.22415830119077751 0 -0.45620465585954723 0.2251951411450015 0 -0.45032248765871591 0.2151961798839368 0 -0.45620465585954723 0.2251951411450015 0 -0.44192508753596349 0.22328399916790689 0 -0.44192508753596349 0.22328399916790689 0 -0.44062222049055039 0.24203477259657111 0 -0.43146145522804691 0.2313120115293863 0 -0.45620465585954723 0.2251951411450015 0 -0.44062222049055039 0.24203477259657111 0 -0.45620465585954723 0.2251951411450015 0 -0.44192508753596349 0.22328399916790689 0 -0.44062222049055039 0.24203477259657111 0 -0.44062222049055039 0.24203477259657111 0 -0.45046339488490522 0.249057113070103 0 -0.44442574262614493 0.25832327296872359 0 -0.44062222049055039 0.24203477259657111 0 -0.45046339488490522 0.249057113070103 0 -0.45925329591452863 0.2407771106774913 0 -0.45620465585954723 0.2251951411450015 0 -0.44062222049055039 0.24203477259657111 0 -0.45925329591452863 0.2407771106774913 0 -0.45046339488490522 0.249057113070103 0 -0.45925329591452863 0.2407771106774913 0 -0.45807104112411212 0.25534721177055669 0 -0.45925329591452863 0.2407771106774913 0 -0.46938038244821267 0.25133041049185839 0 -0.45807104112411212 0.25534721177055669 0 -0.47315400564016008 0.2364435414805684 0 -0.45925329591452863 0.2407771106774913 0 -0.46938038244821267 0.25133041049185839 0 -0.4198454647722451 0.23985190764030939 0 -0.40081965837488509 0.24074316727492401 0 -0.40585136056822319 0.25674789398696107 0 -0.4198454647722451 0.23985190764030939 0 -0.405480724964072 0.22581663549259839 0 -0.40081965837488509 0.24074316727492401 0 -0.44062222049055039 0.24203477259657111 0 -0.4198454647722451 0.23985190764030939 0 -0.42503978512155383 0.25887440404814072 0 -0.44062222049055039 0.24203477259657111 0 -0.4198454647722451 0.23985190764030939 0 -0.43146145522804691 0.2313120115293863 0 -0.4198454647722451 0.23985190764030939 0 -0.43146145522804691 0.2313120115293863 0 -0.42370673975344808 0.22056464269113771 0 -0.44192508753596349 0.22328399916790689 0 -0.43146145522804691 0.2313120115293863 0 -0.42370673975344808 0.22056464269113771 0 -0.4198454647722451 0.23985190764030939 0 -0.42370673975344808 0.22056464269113771 0 -0.405480724964072 0.22581663549259839 0 -0.42370673975344808 0.22056464269113771 0 -0.40708390191205951 0.20882890034131879 0 -0.405480724964072 0.22581663549259839 0 -0.42370673975344808 0.22056464269113771 0 -0.40708390191205951 0.20882890034131879 0 -0.42107335870595469 0.2022269477122331 0 -0.44192508753596349 0.22328399916790689 0 -0.42370673975344808 0.22056464269113771 0 -0.43516662619925378 0.20614333559983469 0 -0.42370673975344808 0.22056464269113771 0 -0.43516662619925378 0.20614333559983469 0 -0.42107335870595469 0.2022269477122331 0 -0.43516662619925378 0.20614333559983469 0 -0.4284081648625454 0.1890026720317621 0 -0.42107335870595469 0.2022269477122331 0 -0.43516662619925378 0.20614333559983469 0 -0.4284081648625454 0.1890026720317621 0 -0.4284081648625454 0.1890026720317621 0 -0.40915969581062839 0.19342315750049971 0 -0.4284081648625454 0.1890026720317621 0 -0.42107335870595469 0.2022269477122331 0 -0.40915969581062839 0.19342315750049971 0 -0.40708390191205951 0.20882890034131879 0 -0.42107335870595469 0.2022269477122331 0 -0.40915969581062839 0.19342315750049971 0 -0.40708390191205951 0.20882890034131879 0 -0.40915969581062839 0.19342315750049971 0 -0.38991122675871148 0.19784364296923759 0 -0.40915969581062839 0.19342315750049971 0 -0.38991122675871148 0.19784364296923759 0 -0.40915969581062839 0.19342315750049971 0 -0.38991122675871148 0.19784364296923759 0 -0.39569501158598158 0.17813944679546001 0 -0.39158905321283283 0.2136173787495643 0 -0.38435338999826391 0.22831720607051781 0 -0.36414166766971379 0.2074649771098355 0 -0.38991122675871148 0.19784364296923759 0 -0.39158905321283283 0.2136173787495643 0 -0.36414166766971379 0.2074649771098355 0 -0.40708390191205951 0.20882890034131879 0 -0.39158905321283283 0.2136173787495643 0 -0.405480724964072 0.22581663549259839 0 -0.40708390191205951 0.20882890034131879 0 -0.38991122675871148 0.19784364296923759 0 -0.39158905321283283 0.2136173787495643 0 -0.405480724964072 0.22581663549259839 0 -0.38435338999826391 0.22831720607051781 0 -0.40081965837488509 0.24074316727492401 0 -0.39158905321283283 0.2136173787495643 0 -0.405480724964072 0.22581663549259839 0 -0.38435338999826391 0.22831720607051781 0 -0.37619177155740557 0.24036243622333081 0 -0.38790582398472923 0.24962922847932231 0 -0.36318679658289171 0.25196182354824148 0 -0.38435338999826391 0.22831720607051781 0 -0.37619177155740557 0.24036243622333081 0 -0.38790582398472923 0.24962922847932231 0 -0.38435338999826391 0.22831720607051781 0 -0.38790582398472923 0.24962922847932231 0 -0.40081965837488509 0.24074316727492401 0 -0.38790582398472923 0.24962922847932231 0 -0.40081965837488509 0.24074316727492401 0 -0.40585136056822319 0.25674789398696107 0 -0.40926453963391513 0.14045102348790381 0 -0.42614672387873248 0.14526589422012931 0 -0.41883635224822963 0.16472684775983329 0 -0.40926453963391513 0.14045102348790381 0 -0.41883635224822963 0.16472684775983329 0 -0.40926453963391513 0.14045102348790381 0 -0.41883635224822963 0.16472684775983329 0 -0.40029434983296169 0.15790366282291429 0 -0.40926453963391513 0.14045102348790381 0 -0.417579207348795 0.13056668242546571 0 -0.40026410281127539 0.13237877311027449 0 -0.40926453963391513 0.14045102348790381 0 -0.417579207348795 0.13056668242546571 0 -0.42614672387873248 0.14526589422012931 0 -0.417579207348795 0.13056668242546571 0 -0.43293323699752101 0.1317554923945817 0 -0.42614672387873248 0.14526589422012931 0 -0.42608096723388439 0.1205091241492761 0 -0.417579207348795 0.13056668242546571 0 -0.43293323699752101 0.1317554923945817 0 -0.43796764784210812 0.14528805014891141 0 -0.43293323699752101 0.1317554923945817 0 -0.42614672387873248 0.14526589422012931 0 -0.43892522612619872 0.15930650560997939 0 -0.43796764784210812 0.14528805014891141 0 -0.42614672387873248 0.14526589422012931 0 -0.43892522612619872 0.15930650560997939 0 -0.42614672387873248 0.14526589422012931 0 -0.41883635224822963 0.16472684775983329 0 -0.43992511097516529 0.17411109905454999 0 -0.43892522612619872 0.15930650560997939 0 -0.41883635224822963 0.16472684775983329 0 -0.4284081648625454 0.1890026720317621 0 -0.41883635224822963 0.16472684775983329 0 -0.43992511097516529 0.17411109905454999 0 -0.4284081648625454 0.1890026720317621 0 -0.41883635224822963 0.16472684775983329 0 -0.40915969581062839 0.19342315750049971 0 -0.41883635224822963 0.16472684775983329 0 -0.39569501158598158 0.17813944679546001 0 -0.4284081648625454 0.1890026720317621 0 -0.40915969581062839 0.19342315750049971 0 -0.41883635224822963 0.16472684775983329 0 -0.40029434983296169 0.15790366282291429 0 -0.39569501158598158 0.17813944679546001 0 -0.38484252596519369 0.16167484958157691 0 -0.41883635224822963 0.16472684775983329 0 -0.40029434983296169 0.15790366282291429 0 -0.39569501158598158 0.17813944679546001 0 -0.39569501158598158 0.17813944679546001 0 -0.38484252596519369 0.16167484958157691 0 -0.36525228834216061 0.17922160577889321 0 -0.38991122675871148 0.19784364296923759 0 -0.39569501158598158 0.17813944679546001 0 -0.36525228834216061 0.17922160577889321 0 -0.39283331973148827 0.14452614648979731 0 -0.38372255811484618 0.13025780258704611 0 -0.36636290901460722 0.1509782344479508 0 -0.38484252596519369 0.16167484958157691 0 -0.39283331973148827 0.14452614648979731 0 -0.36636290901460722 0.1509782344479508 0 -0.40029434983296169 0.15790366282291429 0 -0.38484252596519369 0.16167484958157691 0 -0.39283331973148827 0.14452614648979731 0 -0.40926453963391513 0.14045102348790381 0 -0.40029434983296169 0.15790366282291429 0 -0.39283331973148827 0.14452614648979731 0 -0.39283331973148827 0.14452614648979731 0 -0.40026410281127539 0.13237877311027449 0 -0.38372255811484618 0.13025780258704611 0 -0.39792088922733271 0.1160922105611595 0 -0.417579207348795 0.13056668242546571 0 -0.40026410281127539 0.13237877311027449 0 -0.39792088922733271 0.1160922105611595 0 -0.40026410281127539 0.13237877311027449 0 -0.38372255811484618 0.13025780258704611 0 -0.40926453963391513 0.14045102348790381 0 -0.39283331973148827 0.14452614648979731 0 -0.40026410281127539 0.13237877311027449 0 -0.38372255811484618 0.13025780258704611 0 -0.36636290901460722 0.1509782344479508 0 -0.36747352968705388 0.12273486311700831 0 -0.36636290901460722 0.1509782344479508 0 -0.36747352968705388 0.12273486311700831 0 -0.35528769071996391 0.12689780186549679 0 -0.36636290901460722 0.1509782344479508 0 -0.36747352968705388 0.12273486311700831 0 -0.35528769071996391 0.12689780186549679 0 -0.33512599087492562 0.1447950320020088 0 -0.35528769071996391 0.12689780186549679 0 -0.35168351666373848 0.14314256241625531 0 -0.33512599087492562 0.1447950320020088 0 -0.35528769071996391 0.12689780186549679 0 -0.33512599087492562 0.1447950320020088 0 -0.34115039425197219 0.12498493974687711 0 -0.35528769071996391 0.12689780186549679 0 -0.35168351666373848 0.14314256241625531 0 -0.36636290901460722 0.1509782344479508 0 -0.35168351666373848 0.14314256241625531 0 -0.36636290901460722 0.1509782344479508 0 -0.34333519974196419 0.16612441953572921 0 -0.38484252596519369 0.16167484958157691 0 -0.36636290901460722 0.1509782344479508 0 -0.36525228834216061 0.17922160577889321 0 -0.36636290901460722 0.1509782344479508 0 -0.36525228834216061 0.17922160577889321 0 -0.36525228834216061 0.17922160577889321 0 -0.34333519974196419 0.16612441953572921 0 -0.34654591437965571 0.19533490523866279 0 -0.36636290901460722 0.1509782344479508 0 -0.36525228834216061 0.17922160577889321 0 -0.34333519974196419 0.16612441953572921 0 -0.34333519974196419 0.16612441953572921 0 -0.31496429102988749 0.16269226213852109 0 -0.33512599087492562 0.1447950320020088 0 -0.34333519974196419 0.16612441953572921 0 -0.34654591437965571 0.19533490523866279 0 -0.32412519241006588 0.1878495682783011 0 -0.31496429102988749 0.16269226213852109 0 -0.32412519241006588 0.1878495682783011 0 -0.34333519974196419 0.16612441953572921 0 -0.31496429102988749 0.16269226213852109 0 -0.32412519241006588 0.1878495682783011 0 -0.31303823693556859 0.17707572181323081 0 -0.31496429102988749 0.16269226213852109 0 -0.32412519241006588 0.1878495682783011 0 -0.31303823693556859 0.17707572181323081 0 -0.32412519241006588 0.1878495682783011 0 -0.3108046026399135 0.18379038091696129 0 -0.31496429102988749 0.16269226213852109 0 -0.31353256245119709 0.1587605055712967 0 -0.31354631638020197 0.13395604467094269 0 -0.33512599087492562 0.1447950320020088 0 -0.3122891553291075 0.14635758184588041 0 -0.31353256245119709 0.1587605055712967 0 -0.33512599087492562 0.1447950320020088 0 -0.3122891553291075 0.14635758184588041 0 -0.31496429102988749 0.16269226213852109 0 -0.31353256245119709 0.1587605055712967 0 -0.33512599087492562 0.1447950320020088 0 -0.31496429102988749 0.16269226213852109 0 -0.33512599087492562 0.1447950320020088 0 -0.31354631638020197 0.13395604467094269 0 -0.32917568526667751 0.12578156900391591 0 -0.33512599087492562 0.1447950320020088 0 -0.31354631638020197 0.13395604467094269 0 -0.32917568526667751 0.12578156900391591 0 -0.32114709127587232 0.11611322513389059 0 -0.32917568526667751 0.12578156900391591 0 -0.33512599087492562 0.1447950320020088 0 -0.34115039425197219 0.12498493974687711 0 -0.35168351666373848 0.14314256241625531 0 -0.34333519974196419 0.16612441953572921 0 -0.33512599087492562 0.1447950320020088 0 -0.36303104699726713 0.23570834844077809 0 -0.34244699517042121 0.23816418055786151 0 -0.36318679658289171 0.25196182354824148 0 -0.34244699517042121 0.23816418055786151 0 -0.36318679658289171 0.25196182354824148 0 -0.33952374355129727 0.25899057541505788 0 -0.37619177155740557 0.24036243622333081 0 -0.36303104699726713 0.23570834844077809 0 -0.36318679658289171 0.25196182354824148 0 -0.38435338999826391 0.22831720607051781 0 -0.37619177155740557 0.24036243622333081 0 -0.36303104699726713 0.23570834844077809 0 -0.38435338999826391 0.22831720607051781 0 -0.36303104699726713 0.23570834844077809 0 -0.36414166766971379 0.2074649771098355 0 -0.36303104699726713 0.23570834844077809 0 -0.36414166766971379 0.2074649771098355 0 -0.36303104699726713 0.23570834844077809 0 -0.35084793517488477 0.2210857468323085 0 -0.34244699517042121 0.23816418055786151 0 -0.36303104699726713 0.23570834844077809 0 -0.35084793517488477 0.2210857468323085 0 -0.36414166766971379 0.2074649771098355 0 -0.35084793517488477 0.2210857468323085 0 -0.36414166766971379 0.2074649771098355 0 -0.34654591437965571 0.19533490523866279 0 -0.36525228834216061 0.17922160577889321 0 -0.36414166766971379 0.2074649771098355 0 -0.38991122675871148 0.19784364296923759 0 -0.36525228834216061 0.17922160577889321 0 -0.36414166766971379 0.2074649771098355 0 -0.36525228834216061 0.17922160577889321 0 -0.36414166766971379 0.2074649771098355 0 -0.34654591437965571 0.19533490523866279 0 -0.32412519241006588 0.1878495682783011 0 -0.33328609379024349 0.2130068744180813 0 -0.34654591437965571 0.19533490523866279 0 -0.32412519241006588 0.1878495682783011 0 -0.33328609379024349 0.2130068744180813 0 -0.32412519241006588 0.1878495682783011 0 -0.33328609379024349 0.2130068744180813 0 -0.31080006153106382 0.20197173666100501 0 -0.32412519241006588 0.1878495682783011 0 -0.31080006153106382 0.20197173666100501 0 -0.3108046026399135 0.18379038091696129 0 -0.33328609379024349 0.2130068744180813 0 -0.31873218963182409 0.22654972870499029 0 -0.31080006153106382 0.20197173666100501 0 -0.35084793517488477 0.2210857468323085 0 -0.34654591437965571 0.19533490523866279 0 -0.33328609379024349 0.2130068744180813 0 -0.35084793517488477 0.2210857468323085 0 -0.33328609379024349 0.2130068744180813 0 -0.34244699517042121 0.23816418055786151 0 -0.33328609379024349 0.2130068744180813 0 -0.34244699517042121 0.23816418055786151 0 -0.33328609379024349 0.2130068744180813 0 -0.31873218963182409 0.22654972870499029 0 -0.34244699517042121 0.23816418055786151 0 -0.31873218963182409 0.22654972870499029 0 -0.32200613725511351 0.24850726385495631 0 -0.34244699517042121 0.23816418055786151 0 -0.31873218963182409 0.22654972870499029 0 -0.32200613725511351 0.24850726385495631 0 -0.30672251365844311 0.23743048015470111 0 -0.32200613725511351 0.24850726385495631 0 -0.34244699517042121 0.23816418055786151 0 -0.33952374355129727 0.25899057541505788 0 -0.29125564533142001 0.24067530578368901 0 -0.30672251365844311 0.23743048015470111 0 -0.30640548876467488 0.25787073169030861 0 -0.32200613725511351 0.24850726385495631 0 -0.30672251365844311 0.23743048015470111 0 -0.30640548876467488 0.25787073169030861 0 -0.29125564533142001 0.24067530578368901 0 -0.30672251365844311 0.23743048015470111 0 -0.29521310730918271 0.21354937073956171 0 -0.31873218963182409 0.22654972870499029 0 -0.30672251365844311 0.23743048015470111 0 -0.29521310730918271 0.21354937073956171 0 -0.29125564533142001 0.24067530578368901 0 -0.29521310730918271 0.21354937073956171 0 -0.29125564533142001 0.24067530578368901 0 -0.29521310730918271 0.21354937073956171 0 -0.27258595833473342 0.22149207507906341 0 -0.29521310730918271 0.21354937073956171 0 -0.28878760701375322 0.1984352968903606 0 -0.27490594785389072 0.20112241201531189 0 -0.31873218963182409 0.22654972870499029 0 -0.29521310730918271 0.21354937073956171 0 -0.31080006153106382 0.20197173666100501 0 -0.29521310730918271 0.21354937073956171 0 -0.29917056928694541 0.1864234356954344 0 -0.29521310730918271 0.21354937073956171 0 -0.31080006153106382 0.20197173666100501 0 -0.29917056928694541 0.1864234356954344 0 -0.31080006153106382 0.20197173666100501 0 -0.3108046026399135 0.18379038091696129 0 -0.29917056928694541 0.1864234356954344 0 -0.28878760701375322 0.1984352968903606 0 -0.29917056928694541 0.1864234356954344 0 -0.28955343229492791 0.1852490896997587 0 -0.29521310730918271 0.21354937073956171 0 -0.28878760701375322 0.1984352968903606 0 -0.29917056928694541 0.1864234356954344 0 -0.28878760701375322 0.1984352968903606 0 -0.27938784373491388 0.18917199981814359 0 -0.28955343229492791 0.1852490896997587 0 -0.27938784373491388 0.18917199981814359 0 -0.27490594785389072 0.20112241201531189 0 -0.26439180367967152 0.18225540552070321 0 -0.28878760701375322 0.1984352968903606 0 -0.27938784373491388 0.18917199981814359 0 -0.27490594785389072 0.20112241201531189 0 -0.27490594785389072 0.20112241201531189 0 -0.25370102580463139 0.2052288024824625 0 -0.26439180367967152 0.18225540552070321 0 -0.25370102580463139 0.2052288024824625 0 -0.26439180367967152 0.18225540552070321 0 -0.23359887481107691 0.1809086922627815 0 -0.27490594785389072 0.20112241201531189 0 -0.25370102580463139 0.2052288024824625 0 -0.27258595833473342 0.22149207507906341 0 -0.29521310730918271 0.21354937073956171 0 -0.27490594785389072 0.20112241201531189 0 -0.27258595833473342 0.22149207507906341 0 -0.29125564533142001 0.24067530578368901 0 -0.27258595833473342 0.22149207507906341 0 -0.26834113505385238 0.23837358332174549 0 -0.27258595833473342 0.22149207507906341 0 -0.25272375818517617 0.22994970808158929 0 -0.26834113505385238 0.23837358332174549 0 -0.25370102580463139 0.2052288024824625 0 -0.27258595833473342 0.22149207507906341 0 -0.25272375818517617 0.22994970808158929 0 -0.25272375818517617 0.22994970808158929 0 -0.25621817608628389 0.2460965770837312 0 -0.26834113505385238 0.23837358332174549 0 -0.25621817608628389 0.2460965770837312 0 -0.26834113505385238 0.23837358332174549 0 -0.26892213733164849 0.25365425058065472 0 -0.29125564533142001 0.24067530578368901 0 -0.26834113505385238 0.23837358332174549 0 -0.26892213733164849 0.25365425058065472 0 -0.29370567785695612 0.15770531643225719 0 -0.28412418886142132 0.16518528890623771 0 -0.28065913062351988 0.14575155473079041 0 -0.30159211447790629 0.14759241864651959 0 -0.29370567785695612 0.15770531643225719 0 -0.28065913062351988 0.14575155473079041 0 -0.29682817834931757 0.13068013418198679 0 -0.30159211447790629 0.14759241864651959 0 -0.28065913062351988 0.14575155473079041 0 -0.29682817834931757 0.13068013418198679 0 -0.28065913062351988 0.14575155473079041 0 -0.28285123447775751 0.1183560919224374 0 -0.31354631638020197 0.13395604467094269 0 -0.29682817834931757 0.13068013418198679 0 -0.30159211447790629 0.14759241864651959 0 -0.31354631638020197 0.13395604467094269 0 -0.3122891553291075 0.14635758184588041 0 -0.30159211447790629 0.14759241864651959 0 -0.31353256245119709 0.1587605055712967 0 -0.3122891553291075 0.14635758184588041 0 -0.30159211447790629 0.14759241864651959 0 -0.31496429102988749 0.16269226213852109 0 -0.31353256245119709 0.1587605055712967 0 -0.30488677357152572 0.1641353808659653 0 -0.30159211447790629 0.14759241864651959 0 -0.30488677357152572 0.1641353808659653 0 -0.29370567785695612 0.15770531643225719 0 -0.31353256245119709 0.1587605055712967 0 -0.30159211447790629 0.14759241864651959 0 -0.30488677357152572 0.1641353808659653 0 -0.31496429102988749 0.16269226213852109 0 -0.30225886166240762 0.17397067591913981 0 -0.31303823693556859 0.17707572181323081 0 -0.31496429102988749 0.16269226213852109 0 -0.30225886166240762 0.17397067591913981 0 -0.31496429102988749 0.16269226213852109 0 -0.30488677357152572 0.1641353808659653 0 -0.30225886166240762 0.17397067591913981 0 -0.30488677357152572 0.1641353808659653 0 -0.30225886166240762 0.17397067591913981 0 -0.29597535979189887 0.1670989905046398 0 -0.30488677357152572 0.1641353808659653 0 -0.29370567785695612 0.15770531643225719 0 -0.29597535979189887 0.1670989905046398 0 -0.31303823693556859 0.17707572181323081 0 -0.3108046026399135 0.18379038091696129 0 -0.30225886166240762 0.17397067591913981 0 -0.30225886166240762 0.17397067591913981 0 -0.29917056928694541 0.1864234356954344 0 -0.28955343229492791 0.1852490896997587 0 -0.3108046026399135 0.18379038091696129 0 -0.30225886166240762 0.17397067591913981 0 -0.29917056928694541 0.1864234356954344 0 -0.30225886166240762 0.17397067591913981 0 -0.28955343229492791 0.1852490896997587 0 -0.30225886166240762 0.17397067591913981 0 -0.28955343229492791 0.1852490896997587 0 -0.29024545837739651 0.173916500811098 0 -0.28955343229492791 0.1852490896997587 0 -0.29024545837739651 0.173916500811098 0 -0.27889874324695868 0.17762520371433099 0 -0.29024545837739651 0.173916500811098 0 -0.28412418886142132 0.16518528890623771 0 -0.27889874324695868 0.17762520371433099 0 -0.27938784373491388 0.18917199981814359 0 -0.28955343229492791 0.1852490896997587 0 -0.27889874324695868 0.17762520371433099 0 -0.29370567785695612 0.15770531643225719 0 -0.29597535979189887 0.1670989905046398 0 -0.28412418886142132 0.16518528890623771 0 -0.30225886166240762 0.17397067591913981 0 -0.29024545837739651 0.173916500811098 0 -0.29597535979189887 0.1670989905046398 0 -0.29024545837739651 0.173916500811098 0 -0.29597535979189887 0.1670989905046398 0 -0.28412418886142132 0.16518528890623771 0 -0.28412418886142132 0.16518528890623771 0 -0.26844272787379447 0.16268744982768751 0 -0.27889874324695868 0.17762520371433099 0 -0.28412418886142132 0.16518528890623771 0 -0.26844272787379447 0.16268744982768751 0 -0.28065913062351988 0.14575155473079041 0 -0.26844272787379447 0.16268744982768751 0 -0.27889874324695868 0.17762520371433099 0 -0.26439180367967152 0.18225540552070321 0 -0.27938784373491388 0.18917199981814359 0 -0.27889874324695868 0.17762520371433099 0 -0.26439180367967152 0.18225540552070321 0 -0.26844272787379447 0.16268744982768751 0 -0.26439180367967152 0.18225540552070321 0 -0.247018622616726 0.15992587597476091 0 -0.26844272787379447 0.16268744982768751 0 -0.25846103874104392 0.14702121199507179 0 -0.247018622616726 0.15992587597476091 0 -0.26844272787379447 0.16268744982768751 0 -0.25846103874104392 0.14702121199507179 0 -0.28065913062351988 0.14575155473079041 0 -0.25846103874104392 0.14702121199507179 0 -0.28065913062351988 0.14575155473079041 0 -0.25922316449870308 0.12628093809151891 0 -0.28065913062351988 0.14575155473079041 0 -0.25922316449870308 0.12628093809151891 0 -0.28285123447775751 0.1183560919224374 0 -0.25846103874104392 0.14702121199507179 0 -0.25922316449870308 0.12628093809151891 0 -0.2369615480924761 0.1404602413506009 0 -0.25922316449870308 0.12628093809151891 0 -0.25136603029008331 0.1103208693098497 0 -0.26687835675477128 0.1014348965859585 0 -0.25136603029008331 0.1103208693098497 0 -0.26687835675477128 0.1014348965859585 0 -0.24377998071086901 0.096378574065869249 0 -0.26687835675477128 0.1014348965859585 0 -0.28737892951993471 0.098967158637655914 0 -0.27569457229827071 0.081243623470509244 0 -0.26687835675477128 0.1014348965859585 0 -0.28285123447775751 0.1183560919224374 0 -0.28737892951993471 0.098967158637655914 0 -0.25922316449870308 0.12628093809151891 0 -0.26687835675477128 0.1014348965859585 0 -0.28285123447775751 0.1183560919224374 0 -0.29682817834931757 0.13068013418198679 0 -0.28285123447775751 0.1183560919224374 0 -0.30549209578720232 0.10774456093924389 0 -0.28285123447775751 0.1183560919224374 0 -0.28737892951993471 0.098967158637655914 0 -0.30549209578720232 0.10774456093924389 0 -0.28737892951993471 0.098967158637655914 0 -0.30549209578720232 0.10774456093924389 0 -0.29743787519420251 0.08153307720754506 0 -0.30549209578720232 0.10774456093924389 0 -0.29743787519420251 0.08153307720754506 0 -0.31354631638020197 0.13395604467094269 0 -0.29682817834931757 0.13068013418198679 0 -0.30549209578720232 0.10774456093924389 0 -0.31354631638020197 0.13395604467094269 0 -0.30549209578720232 0.10774456093924389 0 -0.29926204670725021 0.066629363318123747 0 -0.30931237829482389 0.073252958087475881 0 -0.31697319293959142 0.061410437985649477 0 -0.29926204670725021 0.066629363318123747 0 -0.30931237829482389 0.073252958087475881 0 -0.29743787519420251 0.08153307720754506 0 -0.30549209578720232 0.10774456093924389 0 -0.29743787519420251 0.08153307720754506 0 -0.31312795334666071 0.083579729522452809 0 -0.30931237829482389 0.073252958087475881 0 -0.29743787519420251 0.08153307720754506 0 -0.31312795334666071 0.083579729522452809 0 -0.28737892951993471 0.098967158637655914 0 -0.29743787519420251 0.08153307720754506 0 -0.27569457229827071 0.081243623470509244 0 -0.29743787519420251 0.08153307720754506 0 -0.28743776060402371 0.060458689408765323 0 -0.28938365460120269 0.05532159347584624 0 -0.29743787519420251 0.08153307720754506 0 -0.28938365460120269 0.05532159347584624 0 -0.29926204670725021 0.066629363318123747 0 -0.29743787519420251 0.08153307720754506 0 -0.28938365460120269 0.05532159347584624 0 -0.29743787519420251 0.08153307720754506 0 -0.27569457229827071 0.081243623470509244 0 -0.28743776060402371 0.060458689408765323 0 -0.27569457229827071 0.081243623470509244 0 -0.26257114212692878 0.06573449919026883 0 -0.28743776060402371 0.060458689408765323 0 -0.26257114212692878 0.06573449919026883 0 -0.28743776060402371 0.060458689408765323 0 -0.26687835675477128 0.1014348965859585 0 -0.25261226255175379 0.080423606239198905 0 -0.24377998071086901 0.096378574065869249 0 -0.26687835675477128 0.1014348965859585 0 -0.27569457229827071 0.081243623470509244 0 -0.25261226255175379 0.080423606239198905 0 -0.26257114212692878 0.06573449919026883 0 -0.23770452364983391 0.071010308971772351 0 -0.25261226255175379 0.080423606239198905 0 -0.26257114212692878 0.06573449919026883 0 -0.23770452364983391 0.071010308971772351 0 -0.27569457229827071 0.081243623470509244 0 -0.25261226255175379 0.080423606239198905 0 -0.26257114212692878 0.06573449919026883 0 -0.2522816967992324 0.037264740289820159 0 -0.27263172987273521 0.051913181220590639 0 -0.24906194248509719 0.058488871325365822 0 -0.26257114212692878 0.06573449919026883 0 -0.27263172987273521 0.051913181220590639 0 -0.24906194248509719 0.058488871325365822 0 -0.2522816967992324 0.037264740289820159 0 -0.2684979789729644 0.03593820420606865 0 -0.27263172987273521 0.051913181220590639 0 -0.2684979789729644 0.03593820420606865 0 -0.27263172987273521 0.051913181220590639 0 -0.28132943400820298 0.02911010974414751 0 -0.27263172987273521 0.051913181220590639 0 -0.28132943400820298 0.02911010974414751 0 -0.28938365460120269 0.05532159347584624 0 -0.26257114212692878 0.06573449919026883 0 -0.27263172987273521 0.051913181220590639 0 -0.28743776060402371 0.060458689408765323 0 -0.25267499080189931 -0.0034516002120552492 0 -0.26909988492935111 -0.0018655285383734981 0 -0.25157722050270093 0.012682655753942951 0 -0.26909988492935111 -0.0018655285383734981 0 -0.25157722050270093 0.012682655753942951 0 -0.27200359261247947 0.017754051058092819 0 -0.2522816967992324 0.037264740289820159 0 -0.25157722050270093 0.012682655753942951 0 -0.27200359261247947 0.017754051058092819 0 -0.2522816967992324 0.037264740289820159 0 -0.2684979789729644 0.03593820420606865 0 -0.27200359261247947 0.017754051058092819 0 -0.2522816967992324 0.037264740289820159 0 -0.27200359261247947 0.017754051058092819 0 -0.27200359261247947 0.017754051058092819 0 -0.28831373269731447 0.017122983851404761 0 -0.28132943400820298 0.02911010974414751 0 -0.2684979789729644 0.03593820420606865 0 -0.27200359261247947 0.017754051058092819 0 -0.28132943400820298 0.02911010974414751 0 -0.26909988492935111 -0.0018655285383734981 0 -0.2917254884257266 -0.0017566381736345419 0 -0.27200359261247947 0.017754051058092819 0 -0.2917254884257266 -0.0017566381736345419 0 -0.27200359261247947 0.017754051058092819 0 -0.28831373269731447 0.017122983851404761 0 -0.2917254884257266 -0.0017566381736345419 0 -0.28831373269731447 0.017122983851404761 0 -0.29997880334656019 0.01439552450637107 0 -0.2917254884257266 -0.0017566381736345419 0 -0.27200359261247947 0.017754051058092819 0 -0.28831373269731447 0.017122983851404761 0 -0.29656482898857922 0.02610767777843559 0 -0.29997880334656019 0.01439552450637107 0 -0.28831373269731447 0.017122983851404761 0 -0.28132943400820298 0.02911010974414751 0 -0.29656482898857922 0.02610767777843559 0 -0.28132943400820298 0.02911010974414751 0 -0.29656482898857922 0.02610767777843559 0 -0.29344050585463782 0.03493273697686209 0 -0.29656482898857922 0.02610767777843559 0 -0.31039051656375261 0.022327184027059441 0 -0.30541723396373921 0.038711125382435783 0 -0.31039051656375261 0.022327184027059441 0 -0.30541723396373921 0.038711125382435783 0 -0.32038394146944787 0.031620215762440292 0 -0.29656482898857922 0.02610767777843559 0 -0.31039051656375261 0.022327184027059441 0 -0.29997880334656019 0.01439552450637107 0 -0.31039051656375261 0.022327184027059441 0 -0.31177688145040278 0.0050359958776742568 0 -0.29997880334656019 0.01439552450637107 0 -0.2917254884257266 -0.0017566381736345419 0 -0.31177688145040278 0.0050359958776742568 0 -0.29997880334656019 0.01439552450637107 0 -0.27263172987273521 0.051913181220590639 0 -0.28743776060402371 0.060458689408765323 0 -0.28938365460120269 0.05532159347584624 0 -0.28938365460120269 0.05532159347584624 0 -0.29045052645802971 0.045802035002429492 0 -0.29738278035354182 0.050541329601553678 0 -0.28938365460120269 0.05532159347584624 0 -0.29738278035354182 0.050541329601553678 0 -0.29780899910201009 0.056562827273038227 0 -0.29926204670725021 0.066629363318123747 0 -0.28938365460120269 0.05532159347584624 0 -0.29780899910201009 0.056562827273038227 0 -0.28132943400820298 0.02911010974414751 0 -0.28938365460120269 0.05532159347584624 0 -0.29045052645802971 0.045802035002429492 0 -0.28132943400820298 0.02911010974414751 0 -0.28938365460120269 0.05532159347584624 0 -0.28132943400820298 0.02911010974414751 0 -0.29344050585463782 0.03493273697686209 0 -0.29045052645802971 0.045802035002429492 0 -0.29344050585463782 0.03493273697686209 0 -0.29045052645802971 0.045802035002429492 0 -0.30541723396373921 0.038711125382435783 0 -0.29045052645802971 0.045802035002429492 0 -0.30541723396373921 0.038711125382435783 0 -0.29738278035354182 0.050541329601553678 0 -0.29045052645802971 0.045802035002429492 0 -0.30541723396373921 0.038711125382435783 0 -0.29656482898857922 0.02610767777843559 0 -0.29344050585463782 0.03493273697686209 0 -0.30541723396373921 0.038711125382435783 0 -0.30541723396373921 0.038711125382435783 0 -0.30520751474604563 0.05375902269662923 0 -0.31780711793698518 0.045521831715634557 0 -0.29926204670725021 0.066629363318123747 0 -0.30520751474604563 0.05375902269662923 0 -0.31697319293959142 0.061410437985649477 0 -0.30541723396373921 0.038711125382435783 0 -0.30520751474604563 0.05375902269662923 0 -0.29738278035354182 0.050541329601553678 0 -0.30520751474604563 0.05375902269662923 0 -0.29738278035354182 0.050541329601553678 0 -0.29780899910201009 0.056562827273038227 0 -0.29926204670725021 0.066629363318123747 0 -0.30520751474604563 0.05375902269662923 0 -0.29780899910201009 0.056562827273038227 0 -0.32553678940662539 0.052415823907368687 0 -0.31780711793698518 0.045521831715634557 0 -0.33422422494732851 0.04449049745268327 0 -0.31697319293959142 0.061410437985649477 0 -0.32553678940662539 0.052415823907368687 0 -0.31780711793698518 0.045521831715634557 0 -0.30520751474604563 0.05375902269662923 0 -0.31697319293959142 0.061410437985649477 0 -0.31780711793698518 0.045521831715634557 0 -0.31697319293959142 0.061410437985649477 0 -0.32808937753058609 0.059947696530402161 0 -0.32553678940662539 0.052415823907368687 0 -0.31780711793698518 0.045521831715634557 0 -0.32038394146944787 0.031620215762440292 0 -0.33422422494732851 0.04449049745268327 0 -0.30541723396373921 0.038711125382435783 0 -0.31780711793698518 0.045521831715634557 0 -0.32038394146944787 0.031620215762440292 0 -0.30541723396373921 0.038711125382435783 0 -0.32038394146944787 0.031620215762440292 0 -0.32038394146944787 0.031620215762440292 0 -0.33422422494732851 0.04449049745268327 0 -0.33422422494732851 0.04449049745268327 0 -0.34051642268078958 0.02208187176518148 0 -0.34924074101412461 0.03711639968071382 0 -0.32038394146944787 0.031620215762440292 0 -0.33422422494732851 0.04449049745268327 0 -0.34051642268078958 0.02208187176518148 0 -0.33422422494732851 0.04449049745268327 0 -0.34715076893326918 0.04673829876922056 0 -0.34924074101412461 0.03711639968071382 0 -0.33422422494732851 0.04449049745268327 0 -0.34806450842520742 0.057360779142928031 0 -0.34715076893326918 0.04673829876922056 0 -0.33422422494732851 0.04449049745268327 0 -0.34806450842520742 0.057360779142928031 0 -0.33422422494732851 0.04449049745268327 0 -0.33482930480244999 0.055095026294593591 0 -0.34806450842520742 0.057360779142928031 0 -0.3407399656121517 0.06083029771636933 0 -0.33482930480244999 0.055095026294593591 0 -0.33440717105718593 0.063083878638897639 0 -0.3407399656121517 0.06083029771636933 0 -0.33482930480244999 0.055095026294593591 0 -0.34806450842520742 0.057360779142928031 0 -0.32808937753058609 0.059947696530402161 0 -0.33482930480244999 0.055095026294593591 0 -0.33440717105718593 0.063083878638897639 0 -0.32808937753058609 0.059947696530402161 0 -0.32553678940662539 0.052415823907368687 0 -0.33482930480244999 0.055095026294593591 0 -0.32553678940662539 0.052415823907368687 0 -0.33422422494732851 0.04449049745268327 0 -0.33482930480244999 0.055095026294593591 0 -0.31039051656375261 0.022327184027059441 0 -0.31177688145040278 0.0050359958776742568 0 -0.3261420213634148 0.01391490981329808 0 -0.32828291010712762 -0.0049346835118845543 0 -0.31177688145040278 0.0050359958776742568 0 -0.3261420213634148 0.01391490981329808 0 -0.31039051656375261 0.022327184027059441 0 -0.32038394146944787 0.031620215762440292 0 -0.3261420213634148 0.01391490981329808 0 -0.31039051656375261 0.022327184027059441 0 -0.32038394146944787 0.031620215762440292 0 -0.32038394146944787 0.031620215762440292 0 -0.34051642268078958 0.02208187176518148 0 -0.32038394146944787 0.031620215762440292 0 -0.3261420213634148 0.01391490981329808 0 -0.34051642268078958 0.02208187176518148 0 -0.3261420213634148 0.01391490981329808 0 -0.34051642268078958 0.02208187176518148 0 -0.34055428987364128 0.0059527955302196532 0 -0.32828291010712762 -0.0049346835118845543 0 -0.3261420213634148 0.01391490981329808 0 -0.34055428987364128 0.0059527955302196532 0 -0.34051642268078958 0.02208187176518148 0 -0.34055428987364128 0.0059527955302196532 0 -0.36064890389212972 0.0125435277679194 0 -0.34718119132474479 -0.01384164818341615 0 -0.34055428987364128 0.0059527955302196532 0 -0.36064890389212972 0.0125435277679194 0 -0.34051642268078958 0.02208187176518148 0 -0.36064890389212972 0.0125435277679194 0 -0.34051642268078958 0.02208187176518148 0 -0.35699945364537122 0.027147445145089769 0 -0.34924074101412461 0.03711639968071382 0 -0.34051642268078958 0.02208187176518148 0 -0.35699945364537122 0.027147445145089769 0 -0.36064890389212972 0.0125435277679194 0 -0.35699945364537122 0.027147445145089769 0 -0.36163302121541668 0.029781402687577421 0 -0.35940737946489582 0.035374977024224222 0 -0.37998819155715241 0.0057865511937031933 0 -0.36738966121720701 0.029980518529024301 0 -0.37123175334181557 0.027162262264614271 0 -0.37998819155715241 0.0057865511937031933 0 -0.36738966121720701 0.029980518529024301 0 -0.3645477689834325 0.020181962352102071 0 -0.37998819155715241 0.0057865511937031933 0 -0.36738966121720701 0.029980518529024301 0 -0.36273559053419291 0.026622670051971411 0 -0.36738966121720701 0.029980518529024301 0 -0.3645477689834325 0.020181962352102071 0 -0.35699945364537122 0.027147445145089769 0 -0.36163302121541668 0.029781402687577421 0 -0.36273559053419291 0.026622670051971411 0 -0.35699945364537122 0.027147445145089769 0 -0.36273559053419291 0.026622670051971411 0 -0.3645477689834325 0.020181962352102071 0 -0.36163302121541668 0.029781402687577421 0 -0.36273559053419291 0.026622670051971411 0 -0.36738966121720701 0.029980518529024301 0 -0.35699945364537122 0.027147445145089769 0 -0.3645477689834325 0.020181962352102071 0 -0.36064890389212972 0.0125435277679194 0 -0.3645477689834325 0.020181962352102071 0 -0.36064890389212972 0.0125435277679194 0 -0.37998819155715241 0.0057865511937031933 0 -0.3645477689834325 0.020181962352102071 0 -0.36064890389212972 0.0125435277679194 0 -0.38683543611469601 0.0001369023841863784 0 -0.36064890389212972 0.0125435277679194 0 -0.37474494217865062 -0.0022388935110706832 0 -0.38683543611469601 0.0001369023841863784 0 -0.36064890389212972 0.0125435277679194 0 -0.37474494217865062 -0.0022388935110706832 0 -0.36307869926690151 -0.00068504054922277494 0 -0.36064890389212972 0.0125435277679194 0 -0.35479113087726238 0.05417448586434577 0 -0.34715076893326918 0.04673829876922056 0 -0.35593663516940488 0.04278932274017315 0 -0.35479113087726238 0.05417448586434577 0 -0.35147867423579721 0.06053566178096708 0 -0.3622197730044176 0.060127746183944272 0 -0.35479113087726238 0.05417448586434577 0 -0.35147867423579721 0.06053566178096708 0 -0.35479113087726238 0.05417448586434577 0 -0.34806450842520742 0.057360779142928031 0 -0.35147867423579721 0.06053566178096708 0 -0.35479113087726238 0.05417448586434577 0 -0.34806450842520742 0.057360779142928031 0 -0.34806450842520742 0.057360779142928031 0 -0.35147867423579721 0.06053566178096708 0 -0.3447014191436914 0.063951910484466787 0 -0.34806450842520742 0.057360779142928031 0 -0.35147867423579721 0.06053566178096708 0 -0.3407399656121517 0.06083029771636933 0 -0.34806450842520742 0.057360779142928031 0 -0.3407399656121517 0.06083029771636933 0 -0.34806450842520742 0.057360779142928031 0 -0.3447014191436914 0.063951910484466787 0 -0.35479113087726238 0.05417448586434577 0 -0.34806450842520742 0.057360779142928031 0 -0.34715076893326918 0.04673829876922056 0 -0.34715076893326918 0.04673829876922056 0 -0.34924074101412461 0.03711639968071382 0 -0.35593663516940488 0.04278932274017315 0 -0.36738966121720701 0.029980518529024301 0 -0.35479113087726238 0.05417448586434577 0 -0.35593663516940488 0.04278932274017315 0 -0.35699945364537122 0.027147445145089769 0 -0.34924074101412461 0.03711639968071382 0 -0.35940737946489582 0.035374977024224222 0 -0.34924074101412461 0.03711639968071382 0 -0.35593663516940488 0.04278932274017315 0 -0.35940737946489582 0.035374977024224222 0 -0.36738966121720701 0.029980518529024301 0 -0.35479113087726238 0.05417448586434577 0 -0.36677646394688163 0.041367990420506082 0 -0.37123175334181557 0.027162262264614271 0 -0.37046143272875132 0.04675171495388801 0 -0.36738966121720701 0.029980518529024301 0 -0.35479113087726238 0.05417448586434577 0 -0.37123175334181557 0.027162262264614271 0 -0.36677646394688163 0.041367990420506082 0 -0.37046143272875132 0.04675171495388801 0 -0.3764786745208083 0.032098692741998169 0 -0.37123175334181557 0.027162262264614271 0 -0.37046143272875132 0.04675171495388801 0 -0.36163302121541668 0.029781402687577421 0 -0.36738966121720701 0.029980518529024301 0 -0.35940737946489582 0.035374977024224222 0 -0.36738966121720701 0.029980518529024301 0 -0.35593663516940488 0.04278932274017315 0 -0.35940737946489582 0.035374977024224222 0 -0.36738966121720701 0.029980518529024301 0 -0.37123175334181557 0.027162262264614271 0 -0.36677646394688163 0.041367990420506082 0 -0.36677646394688163 0.041367990420506082 0 -0.37046143272875132 0.04675171495388801 0 -0.36802302346639398 0.047906750352184523 0 -0.36677646394688163 0.041367990420506082 0 -0.36802302346639398 0.047906750352184523 0 -0.37046143272875132 0.04675171495388801 0 -0.37000681959492809 0.05831264468359916 0 -0.36802302346639398 0.047906750352184523 0 -0.37000681959492809 0.05831264468359916 0 -0.37046143272875132 0.04675171495388801 0 -0.36802302346639398 0.047906750352184523 0 -0.37000681959492809 0.05831264468359916 0 -0.37046143272875132 0.04675171495388801 0 -0.36802302346639398 0.047906750352184523 0 -0.35479113087726238 0.05417448586434577 0 -0.36802302346639398 0.047906750352184523 0 -0.35479113087726238 0.05417448586434577 0 -0.36802302346639398 0.047906750352184523 0 -0.3622197730044176 0.060127746183944272 0 -0.35479113087726238 0.05417448586434577 0 -0.36677646394688163 0.041367990420506082 0 -0.36802302346639398 0.047906750352184523 0 -0.36802302346639398 0.047906750352184523 0 -0.3622197730044176 0.060127746183944272 0 -0.37000681959492809 0.05831264468359916 0 -0.35147867423579721 0.06053566178096708 0 -0.36926886504626422 0.077079019973005369 0 -0.3622197730044176 0.060127746183944272 0 -0.37000681959492809 0.05831264468359916 0 -0.36926886504626422 0.077079019973005369 0 -0.37000681959492809 0.05831264468359916 0 -0.36926886504626422 0.077079019973005369 0 -0.37079498002478778 0.078498176574577722 0 -0.36926886504626422 0.077079019973005369 0 -0.34551673285671652 0.071984855543133663 0 -0.36912013352382872 0.080861301107253064 0 -0.37000681959492809 0.05831264468359916 0 -0.37079498002478778 0.078498176574577722 0 -0.37470600383380392 0.082961959162170973 0 -0.35147867423579721 0.06053566178096708 0 -0.3622197730044176 0.060127746183944272 0 -0.36926886504626422 0.077079019973005369 0 -0.37000681959492809 0.05831264468359916 0 -0.37470600383380392 0.082961959162170973 0 -0.37000681959492809 0.05831264468359916 0 -0.36926886504626422 0.077079019973005369 0 -0.36926886504626422 0.077079019973005369 0 -0.37079498002478778 0.078498176574577722 0 -0.34551673285671652 0.071984855543133663 0 -0.34763839367566191 0.079069075487607554 0 -0.36912013352382872 0.080861301107253064 0 -0.34551673285671652 0.071984855543133663 0 -0.36912013352382872 0.080861301107253064 0 -0.35147867423579721 0.06053566178096708 0 -0.36926886504626422 0.077079019973005369 0 -0.34551673285671652 0.071984855543133663 0 -0.34408269824063842 0.074738747125954852 0 -0.34763839367566191 0.079069075487607554 0 -0.34179116264722731 0.080399472229040897 0 -0.34408269824063842 0.074738747125954852 0 -0.34551673285671652 0.071984855543133663 0 -0.34763839367566191 0.079069075487607554 0 -0.34408269824063842 0.074738747125954852 0 -0.34551673285671652 0.071984855543133663 0 -0.35147867423579721 0.06053566178096708 0 -0.34551673285671652 0.071984855543133663 0 -0.3447014191436914 0.063951910484466787 0 -0.35147867423579721 0.06053566178096708 0 -0.34551673285671652 0.071984855543133663 0 -0.34763839367566191 0.079069075487607554 0 -0.36858415035949882 0.094491491786065696 0 -0.34763839367566191 0.079069075487607554 0 -0.36858415035949882 0.094491491786065696 0 -0.35198293914272999 0.094145145766245733 0 -0.34456144318064219 0.08667329674911145 0 -0.34763839367566191 0.079069075487607554 0 -0.35198293914272999 0.094145145766245733 0 -0.34456144318064219 0.08667329674911145 0 -0.35198293914272999 0.094145145766245733 0 -0.34431035454597703 0.093789606507308373 0 -0.34456144318064219 0.08667329674911145 0 -0.34763839367566191 0.079069075487607554 0 -0.34179116264722731 0.080399472229040897 0 -0.3782625711058698 0.101617738696854 0 -0.37470600383380392 0.082961959162170973 0 -0.36858415035949882 0.094491491786065696 0 -0.34763839367566191 0.079069075487607554 0 -0.36912013352382872 0.080861301107253064 0 -0.36858415035949882 0.094491491786065696 0 -0.36926886504626422 0.077079019973005369 0 -0.37079498002478778 0.078498176574577722 0 -0.36912013352382872 0.080861301107253064 0 -0.36926886504626422 0.077079019973005369 0 -0.36912013352382872 0.080861301107253064 0 -0.36912013352382872 0.080861301107253064 0 -0.37470600383380392 0.082961959162170973 0 -0.37079498002478778 0.078498176574577722 0 -0.36912013352382872 0.080861301107253064 0 -0.37470600383380392 0.082961959162170973 0 -0.36912013352382872 0.080861301107253064 0 -0.37470600383380392 0.082961959162170973 0 -0.36858415035949882 0.094491491786065696 0 -0.36912013352382872 0.080861301107253064 0 -0.36858415035949882 0.094491491786065696 0 -0.36858415035949882 0.094491491786065696 0 -0.36747352968705388 0.12273486311700831 0 -0.3782625711058698 0.101617738696854 0 -0.36858415035949882 0.094491491786065696 0 -0.36858415035949882 0.094491491786065696 0 -0.36006702585218792 0.10838608290929221 0 -0.35198293914272999 0.094145145766245733 0 -0.36858415035949882 0.094491491786065696 0 -0.36006702585218792 0.10838608290929221 0 -0.36747352968705388 0.12273486311700831 0 -0.3782625711058698 0.101617738696854 0 -0.36858415035949882 0.094491491786065696 0 -0.36747352968705388 0.12273486311700831 0 -0.36006702585218792 0.10838608290929221 0 -0.36747352968705388 0.12273486311700831 0 -0.35832203275528268 0.1183511860346923 0 -0.35528769071996391 0.12689780186549679 0 -0.36747352968705388 0.12273486311700831 0 -0.35832203275528268 0.1183511860346923 0 -0.35528769071996391 0.12689780186549679 0 -0.35832203275528268 0.1183511860346923 0 -0.35045988476192508 0.115385996246972 0 -0.36006702585218792 0.10838608290929221 0 -0.35832203275528268 0.1183511860346923 0 -0.35045988476192508 0.115385996246972 0 -0.35045988476192508 0.115385996246972 0 -0.34547580274860562 0.10394098399483009 0 -0.33570271963636877 0.11206429961599181 0 -0.35528769071996391 0.12689780186549679 0 -0.35045988476192508 0.115385996246972 0 -0.34115039425197219 0.12498493974687711 0 -0.36006702585218792 0.10838608290929221 0 -0.35198293914272999 0.094145145766245733 0 -0.34547580274860562 0.10394098399483009 0 -0.36006702585218792 0.10838608290929221 0 -0.35045988476192508 0.115385996246972 0 -0.34547580274860562 0.10394098399483009 0 -0.35198293914272999 0.094145145766245733 0 -0.34547580274860562 0.10394098399483009 0 -0.34431035454597703 0.093789606507308373 0 -0.34547580274860562 0.10394098399483009 0 -0.34431035454597703 0.093789606507308373 0 -0.335413749579693 0.097286071719103154 0 -0.34547580274860562 0.10394098399483009 0 -0.335413749579693 0.097286071719103154 0 -0.33570271963636877 0.11206429961599181 0 -0.335413749579693 0.097286071719103154 0 -0.33570271963636877 0.11206429961599181 0 -0.32444247844199348 0.1047035033472971 0 -0.35045988476192508 0.115385996246972 0 -0.34115039425197219 0.12498493974687711 0 -0.33570271963636877 0.11206429961599181 0 -0.32917568526667751 0.12578156900391591 0 -0.33570271963636877 0.11206429961599181 0 -0.32114709127587232 0.11611322513389059 0 -0.32917568526667751 0.12578156900391591 0 -0.34115039425197219 0.12498493974687711 0 -0.33570271963636877 0.11206429961599181 0 -0.31354631638020197 0.13395604467094269 0 -0.30549209578720232 0.10774456093924389 0 -0.32114709127587232 0.11611322513389059 0 -0.30549209578720232 0.10774456093924389 0 -0.32114709127587232 0.11611322513389059 0 -0.32444247844199348 0.1047035033472971 0 -0.33570271963636877 0.11206429961599181 0 -0.32114709127587232 0.11611322513389059 0 -0.32444247844199348 0.1047035033472971 0 -0.30549209578720232 0.10774456093924389 0 -0.32444247844199348 0.1047035033472971 0 -0.32445673593083119 0.090309359328255762 0 -0.30549209578720232 0.10774456093924389 0 -0.32445673593083119 0.090309359328255762 0 -0.31312795334666071 0.083579729522452809 0 -0.335413749579693 0.097286071719103154 0 -0.32444247844199348 0.1047035033472971 0 -0.32445673593083119 0.090309359328255762 0 -0.32445673593083119 0.090309359328255762 0 -0.3275606083710243 0.080211281293741998 0 -0.31312795334666071 0.083579729522452809 0 -0.3275606083710243 0.080211281293741998 0 -0.31312795334666071 0.083579729522452809 0 -0.31976082328641481 0.073112182403608325 0 -0.30931237829482389 0.073252958087475881 0 -0.31312795334666071 0.083579729522452809 0 -0.31976082328641481 0.073112182403608325 0 -0.30931237829482389 0.073252958087475881 0 -0.31697319293959142 0.061410437985649477 0 -0.31976082328641481 0.073112182403608325 0 -0.31697319293959142 0.061410437985649477 0 -0.31976082328641481 0.073112182403608325 0 -0.32886731949388731 0.069155273298144179 0 -0.31697319293959142 0.061410437985649477 0 -0.32808937753058609 0.059947696530402161 0 -0.32886731949388731 0.069155273298144179 0 -0.3275606083710243 0.080211281293741998 0 -0.31976082328641481 0.073112182403608325 0 -0.32886731949388731 0.069155273298144179 0 -0.32886731949388731 0.069155273298144179 0 -0.33770721458858299 0.069047958238937293 0 -0.336378655355973 0.076693290193422539 0 -0.3275606083710243 0.080211281293741998 0 -0.32886731949388731 0.069155273298144179 0 -0.336378655355973 0.076693290193422539 0 -0.33440717105718593 0.063083878638897639 0 -0.32886731949388731 0.069155273298144179 0 -0.33770721458858299 0.069047958238937293 0 -0.32808937753058609 0.059947696530402161 0 -0.33440717105718593 0.063083878638897639 0 -0.32886731949388731 0.069155273298144179 0 -0.3407399656121517 0.06083029771636933 0 -0.33440717105718593 0.063083878638897639 0 -0.33770721458858299 0.069047958238937293 0 -0.3407399656121517 0.06083029771636933 0 -0.3447014191436914 0.063951910484466787 0 -0.33770721458858299 0.069047958238937293 0 -0.34551673285671652 0.071984855543133663 0 -0.3447014191436914 0.063951910484466787 0 -0.33770721458858299 0.069047958238937293 0 -0.34408269824063842 0.074738747125954852 0 -0.33770721458858299 0.069047958238937293 0 -0.336378655355973 0.076693290193422539 0 -0.34408269824063842 0.074738747125954852 0 -0.34551673285671652 0.071984855543133663 0 -0.33770721458858299 0.069047958238937293 0 -0.34551673285671652 0.071984855543133663 0 -0.33770721458858299 0.069047958238937293 0 -0.34408269824063842 0.074738747125954852 0 -0.336378655355973 0.076693290193422539 0 -0.34179116264722731 0.080399472229040897 0 -0.336378655355973 0.076693290193422539 0 -0.34179116264722731 0.080399472229040897 0 -0.33708436589161489 0.085963183755354639 0 -0.34456144318064219 0.08667329674911145 0 -0.34179116264722731 0.080399472229040897 0 -0.33708436589161489 0.085963183755354639 0 -0.34456144318064219 0.08667329674911145 0 -0.34431035454597703 0.093789606507308373 0 -0.33708436589161489 0.085963183755354639 0 -0.34431035454597703 0.093789606507308373 0 -0.335413749579693 0.097286071719103154 0 -0.33708436589161489 0.085963183755354639 0 -0.335413749579693 0.097286071719103154 0 -0.32445673593083119 0.090309359328255762 0 -0.33708436589161489 0.085963183755354639 0 -0.32445673593083119 0.090309359328255762 0 -0.3275606083710243 0.080211281293741998 0 -0.33708436589161489 0.085963183755354639 0 -0.3275606083710243 0.080211281293741998 0 -0.336378655355973 0.076693290193422539 0 -0.33708436589161489 0.085963183755354639 0 -0.38891458820749281 0.47713565504117422 0 -0.42172655890518862 0.5 0 -0.3640375775585698 0.5 0 -0.38891458820749281 0.47713565504117422 0 -0.37103467036260362 0.45695891695805302 0 -0.36943712044780219 0.47475959506207249 0 -0.39694697642853649 0.45370639251272787 0 -0.37103467036260362 0.45695891695805302 0 -0.38891458820749281 0.47713565504117422 0 -0.39694697642853649 0.45370639251272787 0 -0.37103467036260362 0.45695891695805302 0 -0.38249991962136642 0.44345487931465249 0 -0.39694697642853649 0.45370639251272787 0 -0.37103467036260362 0.45695891695805302 0 -0.38249991962136642 0.44345487931465249 0 -0.39694697642853649 0.45370639251272787 0 -0.40464661760035381 0.43350824459614162 0 -0.38891458820749281 0.47713565504117422 0 -0.39694697642853649 0.45370639251272787 0 -0.41631826774707797 0.4711213942969617 0 -0.39694697642853649 0.45370639251272787 0 -0.42285928249446952 0.45045386806740279 0 -0.41631826774707797 0.4711213942969617 0 -0.42285928249446952 0.45045386806740279 0 -0.42501824733507809 0.43459816807542118 0 -0.40464661760035381 0.43350824459614162 0 -0.39694697642853649 0.45370639251272787 0 -0.42285928249446952 0.45045386806740279 0 -0.39694697642853649 0.45370639251272787 0 -0.42285928249446952 0.45045386806740279 0 -0.40464661760035381 0.43350824459614162 0 -0.42285928249446952 0.45045386806740279 0 -0.43521244088076849 0.46107148678855758 0 -0.44877158856040261 0.44720134362207808 0 -0.42285928249446952 0.45045386806740279 0 -0.44877158856040261 0.44720134362207808 0 -0.42285928249446952 0.45045386806740279 0 -0.43592409671607729 0.44045812782560079 0 -0.44877158856040261 0.44720134362207808 0 -0.42285928249446952 0.45045386806740279 0 -0.43592409671607729 0.44045812782560079 0 -0.42501824733507809 0.43459816807542118 0 -0.42285928249446952 0.45045386806740279 0 -0.43521244088076849 0.46107148678855758 0 -0.41631826774707797 0.4711213942969617 0 -0.41631826774707797 0.4711213942969617 0 -0.42172655890518862 0.5 0 -0.43935827984199688 0.47473889959161758 0 -0.43521244088076849 0.46107148678855758 0 -0.41631826774707797 0.4711213942969617 0 -0.43935827984199688 0.47473889959161758 0 -0.38891458820749281 0.47713565504117422 0 -0.41631826774707797 0.4711213942969617 0 -0.42172655890518862 0.5 0 -0.42172655890518862 0.5 0 -0.43935827984199688 0.47473889959161758 0 -0.47784082473980471 0.47626967285504462 0 -0.42172655890518862 0.5 0 -0.5 0.5 0 -0.47784082473980471 0.47626967285504462 0 -0.43935827984199688 0.47473889959161758 0 -0.47784082473980471 0.47626967285504462 0 -0.4487547857598953 0.46184192836472759 0 -0.5 0.5 0 -0.47784082473980471 0.47626967285504462 0 -0.49999999999999589 0.44077113011354369 0 -0.47784082473980471 0.47626967285504462 0 -0.47438579428019922 0.44398623686781052 0 -0.4627013265822788 0.4545376326069438 0 -0.47784082473980471 0.47626967285504462 0 -0.49999999999999589 0.44077113011354369 0 -0.47438579428019922 0.44398623686781052 0 -0.49999999999999589 0.44077113011354369 0 -0.47438579428019922 0.44398623686781052 0 -0.48180565015534738 0.42787197640755792 0 -0.49999999999999589 0.44077113011354369 0 -0.47438579428019922 0.44398623686781052 0 -0.47438579428019922 0.44398623686781052 0 -0.4627013265822788 0.4545376326069438 0 -0.44877158856040261 0.44720134362207808 0 -0.47438579428019922 0.44398623686781052 0 -0.44877158856040261 0.44720134362207808 0 -0.47438579428019922 0.44398623686781052 0 -0.44877158856040261 0.44720134362207808 0 -0.46289485375526918 0.43579199928955081 0 -0.44877158856040261 0.44720134362207808 0 -0.44878504691792248 0.43547483269414872 0 -0.46289485375526918 0.43579199928955081 0 -0.47784082473980471 0.47626967285504462 0 -0.4627013265822788 0.4545376326069438 0 -0.4487547857598953 0.46184192836472759 0 -0.4627013265822788 0.4545376326069438 0 -0.4487547857598953 0.46184192836472759 0 -0.44877158856040261 0.44720134362207808 0 -0.4487547857598953 0.46184192836472759 0 -0.44877158856040261 0.44720134362207808 0 -0.43521244088076849 0.46107148678855758 0 -0.4487547857598953 0.46184192836472759 0 -0.44877158856040261 0.44720134362207808 0 -0.43521244088076849 0.46107148678855758 0 -0.43935827984199688 0.47473889959161758 0 -0.4487547857598953 0.46184192836472759 0 -0.44877158856040261 0.44720134362207808 0 -0.44508566455651338 0.43839632914573512 0 -0.44878504691792248 0.43547483269414872 0 -0.44877158856040261 0.44720134362207808 0 -0.44878504691792248 0.43547483269414872 0 -0.43592409671607729 0.44045812782560079 0 -0.44877158856040261 0.44720134362207808 0 -0.44508566455651338 0.43839632914573512 0 -0.44531233658805403 0.42513554986162888 0 -0.44878504691792248 0.43547483269414872 0 -0.44880957839306629 0.41410011360809668 0 -0.44878504691792248 0.43547483269414872 0 -0.44880957839306629 0.41410011360809668 0 -0.43788570063392329 0.43164093021736671 0 -0.44531233658805403 0.42513554986162888 0 -0.44878504691792248 0.43547483269414872 0 -0.43592409671607729 0.44045812782560079 0 -0.44508566455651338 0.43839632914573512 0 -0.43788570063392329 0.43164093021736671 0 -0.44508566455651338 0.43839632914573512 0 -0.43788570063392329 0.43164093021736671 0 -0.44878504691792248 0.43547483269414872 0 -0.44508566455651338 0.43839632914573512 0 -0.44878504691792248 0.43547483269414872 0 -0.44531233658805403 0.42513554986162888 0 -0.44880957839306629 0.41410011360809668 0 -0.42391867717568832 0.41711337076656618 0 -0.44880957839306629 0.41410011360809668 0 -0.46585669794528167 0.42199291516666237 0 -0.4641229039382897 0.40091036417177778 0 -0.44878504691792248 0.43547483269414872 0 -0.46585669794528167 0.42199291516666237 0 -0.44878504691792248 0.43547483269414872 0 -0.44880957839306629 0.41410011360809668 0 -0.46585669794528167 0.42199291516666237 0 -0.44878504691792248 0.43547483269414872 0 -0.46585669794528167 0.42199291516666237 0 -0.46289485375526918 0.43579199928955081 0 -0.47438579428019922 0.44398623686781052 0 -0.46289485375526918 0.43579199928955081 0 -0.48180565015534738 0.42787197640755792 0 -0.46585669794528167 0.42199291516666237 0 -0.46289485375526918 0.43579199928955081 0 -0.48180565015534738 0.42787197640755792 0 -0.46585669794528167 0.42199291516666237 0 -0.48292834897264081 0.4085109976391762 0 -0.4641229039382897 0.40091036417177778 0 -0.46585669794528167 0.42199291516666237 0 -0.48292834897264081 0.4085109976391762 0 -0.46585669794528167 0.42199291516666237 0 -0.48180565015534738 0.42787197640755792 0 -0.48292834897264081 0.4085109976391762 0 -0.48292834897264081 0.4085109976391762 0 -0.5 0.41790010511261683 0 -0.5 0.39502908011169002 0 -0.48180565015534738 0.42787197640755792 0 -0.48292834897264081 0.4085109976391762 0 -0.5 0.41790010511261683 0 -0.49999999999999589 0.44077113011354369 0 -0.48180565015534738 0.42787197640755792 0 -0.5 0.41790010511261683 0 -0.48850556386005051 0.3766603246979251 0 -0.5 0.39502908011169002 0 -0.47832653283541199 0.38608194873200979 0 -0.48850556386005051 0.3766603246979251 0 -0.5 0.39502908011169002 0 -0.5 0.36887446842263683 0 -0.48292834897264081 0.4085109976391762 0 -0.5 0.39502908011169002 0 -0.47832653283541199 0.38608194873200979 0 -0.48292834897264081 0.4085109976391762 0 -0.5 0.39502908011169002 0 -0.48292834897264081 0.4085109976391762 0 -0.47832653283541199 0.38608194873200979 0 -0.4641229039382897 0.40091036417177778 0 -0.48850556386005051 0.3766603246979251 0 -0.47832653283541199 0.38608194873200979 0 -0.48259334700195489 0.36409898273387958 0 -0.47832653283541199 0.38608194873200979 0 -0.46059005399087027 0.38292215568240928 0 -0.4641229039382897 0.40091036417177778 0 -0.47832653283541199 0.38608194873200979 0 -0.46059005399087027 0.38292215568240928 0 -0.46572599417265398 0.36772482908493609 0 -0.44880957839306629 0.41410011360809668 0 -0.4641229039382897 0.40091036417177778 0 -0.44883410986820999 0.3927253945220448 0 -0.46059005399087027 0.38292215568240928 0 -0.4641229039382897 0.40091036417177778 0 -0.44883410986820999 0.3927253945220448 0 -0.44880957839306629 0.41410011360809668 0 -0.44883410986820999 0.3927253945220448 0 -0.43699833754743561 0.40294499431243458 0 -0.44880957839306629 0.41410011360809668 0 -0.44883410986820999 0.3927253945220448 0 -0.44883410986820999 0.3927253945220448 0 -0.43978391516082421 0.3912231797547942 0 -0.43699833754743561 0.40294499431243458 0 -0.44883410986820999 0.3927253945220448 0 -0.43978391516082421 0.3912231797547942 0 -0.44802713623065987 0.37645115623263098 0 -0.44883410986820999 0.3927253945220448 0 -0.44885864134335329 0.37135067543599282 0 -0.44883410986820999 0.3927253945220448 0 -0.44802713623065987 0.37645115623263098 0 -0.44885864134335329 0.37135067543599282 0 -0.43978391516082421 0.3912231797547942 0 -0.44802713623065987 0.37645115623263098 0 -0.42527607699699133 0.39277117395206662 0 -0.46059005399087027 0.38292215568240928 0 -0.44883410986820999 0.3927253945220448 0 -0.44885864134335329 0.37135067543599282 0 -0.44802713623065987 0.37645115623263098 0 -0.4250431626101242 0.37647010748543319 0 -0.42527607699699133 0.39277117395206662 0 -0.44802713623065987 0.37645115623263098 0 -0.42527607699699133 0.39277117395206662 0 -0.4250431626101242 0.37647010748543319 0 -0.4134887672477453 0.38574914578498593 0 -0.40122768387689522 0.38158953953487368 0 -0.4250431626101242 0.37647010748543319 0 -0.40122768387689522 0.38158953953487368 0 -0.4250431626101242 0.37647010748543319 0 -0.4134887672477453 0.38574914578498593 0 -0.42527607699699133 0.39277117395206662 0 -0.4250431626101242 0.37647010748543319 0 -0.40122768387689522 0.38158953953487368 0 -0.40086489287733429 0.37467411733839928 0 -0.4134887672477453 0.38574914578498593 0 -0.40798835104355652 0.39359067917546098 0 -0.40557429982823212 0.38794008425198068 0 -0.4134887672477453 0.38574914578498593 0 -0.40122768387689522 0.38158953953487368 0 -0.40557429982823212 0.38794008425198068 0 -0.40798835104355652 0.39359067917546098 0 -0.42527607699699133 0.39277117395206662 0 -0.40252501776332311 0.40909119167150271 0 -0.42527607699699133 0.39277117395206662 0 -0.40252501776332311 0.40909119167150271 0 -0.4134887672477453 0.38574914578498593 0 -0.40798835104355652 0.39359067917546098 0 -0.42527607699699133 0.39277117395206662 0 -0.42527607699699133 0.39277117395206662 0 -0.43699833754743561 0.40294499431243458 0 -0.42391867717568832 0.41711337076656618 0 -0.43978391516082421 0.3912231797547942 0 -0.42527607699699133 0.39277117395206662 0 -0.43699833754743561 0.40294499431243458 0 -0.44880957839306629 0.41410011360809668 0 -0.43699833754743561 0.40294499431243458 0 -0.42391867717568832 0.41711337076656618 0 -0.44531233658805403 0.42513554986162888 0 -0.42391867717568832 0.41711337076656618 0 -0.43788570063392329 0.43164093021736671 0 -0.44531233658805403 0.42513554986162888 0 -0.42391867717568832 0.41711337076656618 0 -0.43788570063392329 0.43164093021736671 0 -0.42391867717568832 0.41711337076656618 0 -0.42501824733507809 0.43459816807542118 0 -0.43592409671607729 0.44045812782560079 0 -0.43788570063392329 0.43164093021736671 0 -0.42501824733507809 0.43459816807542118 0 -0.42391867717568832 0.41711337076656618 0 -0.42501824733507809 0.43459816807542118 0 -0.40464661760035381 0.43350824459614162 0 -0.42527607699699133 0.39277117395206662 0 -0.42391867717568832 0.41711337076656618 0 -0.40252501776332311 0.40909119167150271 0 -0.42391867717568832 0.41711337076656618 0 -0.40252501776332311 0.40909119167150271 0 -0.40464661760035381 0.43350824459614162 0 -0.42391867717568832 0.41711337076656618 0 -0.40252501776332311 0.40909119167150271 0 -0.40252501776332311 0.40909119167150271 0 -0.37875820238401509 0.42613984176471847 0 -0.40252501776332311 0.40909119167150271 0 -0.40464661760035381 0.43350824459614162 0 -0.37875820238401509 0.42613984176471847 0 -0.38249991962136642 0.44345487931465249 0 -0.40464661760035381 0.43350824459614162 0 -0.37875820238401509 0.42613984176471847 0 -0.40252501776332311 0.40909119167150271 0 -0.37875820238401509 0.42613984176471847 0 -0.37769092578324193 0.39977892163450779 0 -0.37769092578324193 0.39977892163450779 0 -0.38963770449155072 0.39285491215608792 0 -0.37686086334024771 0.38257038446795849 0 -0.40252501776332311 0.40909119167150271 0 -0.37769092578324193 0.39977892163450779 0 -0.38963770449155072 0.39285491215608792 0 -0.40252501776332311 0.40909119167150271 0 -0.37769092578324193 0.39977892163450779 0 -0.37686086334024771 0.38257038446795849 0 -0.39363670834615189 0.38450398520198442 0 -0.40086489287733429 0.37467411733839928 0 -0.38963770449155072 0.39285491215608792 0 -0.37686086334024771 0.38257038446795849 0 -0.39363670834615189 0.38450398520198442 0 -0.37686086334024771 0.38257038446795849 0 -0.40086489287733429 0.37467411733839928 0 -0.37686086334024771 0.38257038446795849 0 -0.40086489287733429 0.37467411733839928 0 -0.39033592763893787 0.37070590072739279 0 -0.39363670834615189 0.38450398520198442 0 -0.40122768387689522 0.38158953953487368 0 -0.39959239714473138 0.39083097251260251 0 -0.38963770449155072 0.39285491215608792 0 -0.39363670834615189 0.38450398520198442 0 -0.39959239714473138 0.39083097251260251 0 -0.39363670834615189 0.38450398520198442 0 -0.40122768387689522 0.38158953953487368 0 -0.40086489287733429 0.37467411733839928 0 -0.40122768387689522 0.38158953953487368 0 -0.40557429982823212 0.38794008425198068 0 -0.39959239714473138 0.39083097251260251 0 -0.40798835104355652 0.39359067917546098 0 -0.40557429982823212 0.38794008425198068 0 -0.39959239714473138 0.39083097251260251 0 -0.40252501776332311 0.40909119167150271 0 -0.38963770449155072 0.39285491215608792 0 -0.39959239714473138 0.39083097251260251 0 -0.40798835104355652 0.39359067917546098 0 -0.40252501776332311 0.40909119167150271 0 -0.39959239714473138 0.39083097251260251 0 -0.3926828114571661 0.35541775914535301 0 -0.40105078960399698 0.34662517948293931 0 -0.40586906590548888 0.3393029225754271 0 -0.3926828114571661 0.35541775914535301 0 -0.39400561065841477 0.34382680172727831 0 -0.40586906590548888 0.3393029225754271 0 -0.3926828114571661 0.35541775914535301 0 -0.40586906590548888 0.3393029225754271 0 -0.3926828114571661 0.35541775914535301 0 -0.39969836615416421 0.35756427730283669 0 -0.39341808057325789 0.36431669671432632 0 -0.3926828114571661 0.35541775914535301 0 -0.40105078960399698 0.34662517948293931 0 -0.39969836615416421 0.35756427730283669 0 -0.3926828114571661 0.35541775914535301 0 -0.39400561065841477 0.34382680172727831 0 -0.38539473684528258 0.34837828204789067 0 -0.40105078960399698 0.34662517948293931 0 -0.40525205349158999 0.35429039595711992 0 -0.40888688292129022 0.34941903462410451 0 -0.40105078960399698 0.34662517948293931 0 -0.4080564418273247 0.34368885170405422 0 -0.40888688292129022 0.34941903462410451 0 -0.40105078960399698 0.34662517948293931 0 -0.40525205349158999 0.35429039595711992 0 -0.39969836615416421 0.35756427730283669 0 -0.40525205349158999 0.35429039595711992 0 -0.39969836615416421 0.35756427730283669 0 -0.40553625032349627 0.36037170931698131 0 -0.40553625032349627 0.36037170931698131 0 -0.40544017780568847 0.3661562974108753 0 -0.40025021147547779 0.36436392320030081 0 -0.40544017780568847 0.3661562974108753 0 -0.40025021147547779 0.36436392320030081 0 -0.397742957241214 0.36844985128713797 0 -0.39969836615416421 0.35756427730283669 0 -0.40553625032349627 0.36037170931698131 0 -0.40025021147547779 0.36436392320030081 0 -0.40544017780568847 0.3661562974108753 0 -0.40086489287733429 0.37467411733839928 0 -0.397742957241214 0.36844985128713797 0 -0.40086489287733429 0.37467411733839928 0 -0.397742957241214 0.36844985128713797 0 -0.39033592763893787 0.37070590072739279 0 -0.397742957241214 0.36844985128713797 0 -0.39341808057325789 0.36431669671432632 0 -0.39033592763893787 0.37070590072739279 0 -0.39969836615416421 0.35756427730283669 0 -0.40025021147547779 0.36436392320030081 0 -0.39341808057325789 0.36431669671432632 0 -0.40025021147547779 0.36436392320030081 0 -0.397742957241214 0.36844985128713797 0 -0.39341808057325789 0.36431669671432632 0 -0.3926828114571661 0.35541775914535301 0 -0.39341808057325789 0.36431669671432632 0 -0.37949655700884349 0.37153259571527891 0 -0.37949655700884349 0.37153259571527891 0 -0.37823932191431281 0.35548757599615399 0 -0.37024808467873749 0.36543132639488701 0 -0.3926828114571661 0.35541775914535301 0 -0.37949655700884349 0.37153259571527891 0 -0.37823932191431281 0.35548757599615399 0 -0.3926828114571661 0.35541775914535301 0 -0.37949655700884349 0.37153259571527891 0 -0.39341808057325789 0.36431669671432632 0 -0.39033592763893787 0.37070590072739279 0 -0.37949655700884349 0.37153259571527891 0 -0.37686086334024771 0.38257038446795849 0 -0.39033592763893787 0.37070590072739279 0 -0.37949655700884349 0.37153259571527891 0 -0.37823932191431281 0.35548757599615399 0 -0.38539473684528258 0.34837828204789067 0 -0.3787015959315434 0.33902802614693439 0 -0.3926828114571661 0.35541775914535301 0 -0.37823932191431281 0.35548757599615399 0 -0.38539473684528258 0.34837828204789067 0 -0.3787015959315434 0.33902802614693439 0 -0.37816355277066899 0.32985684687273281 0 -0.39158393304450312 0.32769252248945308 0 -0.39400561065841477 0.34382680172727831 0 -0.38539473684528258 0.34837828204789067 0 -0.3787015959315434 0.33902802614693439 0 -0.39158393304450312 0.32769252248945308 0 -0.37442838800096029 0.32044424157556423 0 -0.37816355277066899 0.32985684687273281 0 -0.39158393304450312 0.32769252248945308 0 -0.37442838800096029 0.32044424157556423 0 -0.38613629988198012 0.31665983269396758 0 -0.39158393304450312 0.32769252248945308 0 -0.37442838800096029 0.32044424157556423 0 -0.38613629988198012 0.31665983269396758 0 -0.37442838800096029 0.32044424157556423 0 -0.37415321332832258 0.31386652142517069 0 -0.39158393304450312 0.32769252248945308 0 -0.4039094095666334 0.320812311378052 0 -0.40925887999808552 0.33516025262174892 0 -0.38613629988198012 0.31665983269396758 0 -0.39830358576524327 0.31266849694114901 0 -0.39158393304450312 0.32769252248945308 0 -0.39830358576524327 0.31266849694114901 0 -0.39158393304450312 0.32769252248945308 0 -0.4039094095666334 0.320812311378052 0 -0.39830358576524327 0.31266849694114901 0 -0.4039094095666334 0.320812311378052 0 -0.40826549608127172 0.31275764886218971 0 -0.3787015959315434 0.33902802614693439 0 -0.40777024278950652 0.33697950655941222 0 -0.39158393304450312 0.32769252248945308 0 -0.40925887999808552 0.33516025262174892 0 -0.39158393304450312 0.32769252248945308 0 -0.40777024278950652 0.33697950655941222 0 -0.40925887999808552 0.33516025262174892 0 -0.3787015959315434 0.33902802614693439 0 -0.39158393304450312 0.32769252248945308 0 -0.40777024278950652 0.33697950655941222 0 -0.39400561065841477 0.34382680172727831 0 -0.3787015959315434 0.33902802614693439 0 -0.40777024278950652 0.33697950655941222 0 -0.39400561065841477 0.34382680172727831 0 -0.40586906590548888 0.3393029225754271 0 -0.40777024278950652 0.33697950655941222 0 -0.40105078960399698 0.34662517948293931 0 -0.40586906590548888 0.3393029225754271 0 -0.40105078960399698 0.34662517948293931 0 -0.40586906590548888 0.3393029225754271 0 -0.4080564418273247 0.34368885170405422 0 -0.4080564418273247 0.34368885170405422 0 -0.41125860555200922 0.34134685969384471 0 -0.40895905381070002 0.33957121871677393 0 -0.40586906590548888 0.3393029225754271 0 -0.4080564418273247 0.34368885170405422 0 -0.40895905381070002 0.33957121871677393 0 -0.4080564418273247 0.34368885170405422 0 -0.41125860555200922 0.34134685969384471 0 -0.41366919887348358 0.34576378073699821 0 -0.41125860555200922 0.34134685969384471 0 -0.41273643032526569 0.33662953043248711 0 -0.41433336845197538 0.3415594658204692 0 -0.41125860555200922 0.34134685969384471 0 -0.41433336845197538 0.3415594658204692 0 -0.41366919887348358 0.34576378073699821 0 -0.41125860555200922 0.34134685969384471 0 -0.41273643032526569 0.33662953043248711 0 -0.40895905381070002 0.33957121871677393 0 -0.41273643032526569 0.33662953043248711 0 -0.40777024278950652 0.33697950655941222 0 -0.41273643032526569 0.33662953043248711 0 -0.40895905381070002 0.33957121871677393 0 -0.40777024278950652 0.33697950655941222 0 -0.41273643032526569 0.33662953043248711 0 -0.40777024278950652 0.33697950655941222 0 -0.40925887999808552 0.33516025262174892 0 -0.40777024278950652 0.33697950655941222 0 -0.40925887999808552 0.33516025262174892 0 -0.40586906590548888 0.3393029225754271 0 -0.40895905381070002 0.33957121871677393 0 -0.40777024278950652 0.33697950655941222 0 -0.40586906590548888 0.3393029225754271 0 -0.40777024278950652 0.33697950655941222 0 -0.41273643032526569 0.33662953043248711 0 -0.40925887999808552 0.33516025262174892 0 -0.40925887999808552 0.33516025262174892 0 -0.42024067891477529 0.32173946694831868 0 -0.40925887999808552 0.33516025262174892 0 -0.42071708592719742 0.33131558094746122 0 -0.42024067891477529 0.32173946694831868 0 -0.41273643032526569 0.33662953043248711 0 -0.40925887999808552 0.33516025262174892 0 -0.42071708592719742 0.33131558094746122 0 -0.41273643032526569 0.33662953043248711 0 -0.4199209072431685 0.34318781838679219 0 -0.41433336845197538 0.3415594658204692 0 -0.4199209072431685 0.34318781838679219 0 -0.41433336845197538 0.3415594658204692 0 -0.41366919887348358 0.34576378073699821 0 -0.40925887999808552 0.33516025262174892 0 -0.41892768793075841 0.31754462100172592 0 -0.42141481873501418 0.31567829233095179 0 -0.40925887999808552 0.33516025262174892 0 -0.411263050936583 0.31954773430139438 0 -0.41892768793075841 0.31754462100172592 0 -0.40925887999808552 0.33516025262174892 0 -0.42141481873501418 0.31567829233095179 0 -0.40925887999808552 0.33516025262174892 0 -0.42024067891477529 0.32173946694831868 0 -0.42141481873501418 0.31567829233095179 0 -0.411263050936583 0.31954773430139438 0 -0.40826549608127172 0.31275764886218971 0 -0.41647318301620623 0.31168328686166002 0 -0.4039094095666334 0.320812311378052 0 -0.411263050936583 0.31954773430139438 0 -0.40826549608127172 0.31275764886218971 0 -0.4039094095666334 0.320812311378052 0 -0.40925887999808552 0.33516025262174892 0 -0.411263050936583 0.31954773430139438 0 -0.411263050936583 0.31954773430139438 0 -0.41892768793075841 0.31754462100172592 0 -0.41647318301620623 0.31168328686166002 0 -0.41892768793075841 0.31754462100172592 0 -0.42141481873501418 0.31567829233095179 0 -0.41892768793075841 0.31754462100172592 0 -0.42141481873501418 0.31567829233095179 0 -0.41647318301620623 0.31168328686166002 0 -0.42024067891477529 0.32173946694831868 0 -0.43790895006943947 0.32081412042189511 0 -0.43122247783146522 0.30831868127488848 0 -0.42024067891477529 0.32173946694831868 0 -0.42938605365092247 0.3272194948190838 0 -0.43790895006943947 0.32081412042189511 0 -0.42024067891477529 0.32173946694831868 0 -0.42141481873501418 0.31567829233095179 0 -0.43122247783146522 0.30831868127488848 0 -0.42024067891477529 0.32173946694831868 0 -0.43122247783146522 0.30831868127488848 0 -0.42071708592719742 0.33131558094746122 0 -0.42024067891477529 0.32173946694831868 0 -0.42938605365092247 0.3272194948190838 0 -0.42938605365092247 0.3272194948190838 0 -0.43674098495811231 0.33493788649063261 0 -0.43790895006943947 0.32081412042189511 0 -0.43790895006943947 0.32081412042189511 0 -0.4401847358662575 0.3127477530096977 0 -0.43122247783146522 0.30831868127488848 0 -0.41273643032526569 0.33662953043248711 0 -0.43674098495811231 0.33493788649063261 0 -0.42071708592719742 0.33131558094746122 0 -0.42938605365092247 0.3272194948190838 0 -0.43674098495811231 0.33493788649063261 0 -0.41273643032526569 0.33662953043248711 0 -0.4199209072431685 0.34318781838679219 0 -0.43385085243219867 0.34555045147446217 0 -0.41273643032526569 0.33662953043248711 0 -0.42071708592719742 0.33131558094746122 0 -0.43674098495811231 0.33493788649063261 0 -0.41273643032526569 0.33662953043248711 0 -0.43385085243219867 0.34555045147446217 0 -0.41273643032526569 0.33662953043248711 0 -0.43674098495811231 0.33493788649063261 0 -0.43385085243219867 0.34555045147446217 0 -0.43385085243219867 0.34555045147446217 0 -0.4302486007270056 0.35272204188882378 0 -0.42573384958437638 0.34916959158482058 0 -0.43385085243219867 0.34555045147446217 0 -0.43539550265875948 0.35741731211322858 0 -0.44110397924445488 0.35756373905142852 0 -0.43539550265875948 0.35741731211322858 0 -0.4302486007270056 0.35272204188882378 0 -0.42757171946388478 0.35850981688022993 0 -0.43385085243219867 0.34555045147446217 0 -0.43539550265875948 0.35741731211322858 0 -0.4302486007270056 0.35272204188882378 0 -0.4302486007270056 0.35272204188882378 0 -0.42480748600639012 0.35482075793933809 0 -0.42573384958437638 0.34916959158482058 0 -0.4302486007270056 0.35272204188882378 0 -0.42757171946388478 0.35850981688022993 0 -0.42480748600639012 0.35482075793933809 0 -0.42757171946388478 0.35850981688022993 0 -0.42480748600639012 0.35482075793933809 0 -0.42195212413097077 0.36043988011418487 0 -0.4199209072431685 0.34318781838679219 0 -0.43385085243219867 0.34555045147446217 0 -0.42573384958437638 0.34916959158482058 0 -0.42480748600639012 0.35482075793933809 0 -0.42573384958437638 0.34916959158482058 0 -0.41984140151311927 0.3495668882346864 0 -0.4199209072431685 0.34318781838679219 0 -0.42573384958437638 0.34916959158482058 0 -0.41984140151311927 0.3495668882346864 0 -0.4199209072431685 0.34318781838679219 0 -0.41984140151311927 0.3495668882346864 0 -0.41366919887348358 0.34576378073699821 0 -0.41984140151311927 0.3495668882346864 0 -0.41366919887348358 0.34576378073699821 0 -0.41404230344944593 0.35073751764187411 0 -0.42480748600639012 0.35482075793933809 0 -0.41984140151311927 0.3495668882346864 0 -0.41755863725870102 0.35684421707679032 0 -0.42480748600639012 0.35482075793933809 0 -0.41755863725870102 0.35684421707679032 0 -0.42195212413097077 0.36043988011418487 0 -0.41984140151311927 0.3495668882346864 0 -0.41755863725870102 0.35684421707679032 0 -0.41404230344944593 0.35073751764187411 0 -0.41755863725870102 0.35684421707679032 0 -0.41125051028190041 0.35540848222164118 0 -0.41404230344944593 0.35073751764187411 0 -0.41125051028190041 0.35540848222164118 0 -0.40888688292129022 0.34941903462410451 0 -0.41404230344944593 0.35073751764187411 0 -0.41755863725870102 0.35684421707679032 0 -0.41125051028190041 0.35540848222164118 0 -0.41142088061722581 0.36176204086772412 0 -0.40553625032349627 0.36037170931698131 0 -0.41125051028190041 0.35540848222164118 0 -0.41142088061722581 0.36176204086772412 0 -0.40525205349158999 0.35429039595711992 0 -0.40553625032349627 0.36037170931698131 0 -0.41125051028190041 0.35540848222164118 0 -0.40525205349158999 0.35429039595711992 0 -0.41125051028190041 0.35540848222164118 0 -0.40888688292129022 0.34941903462410451 0 -0.4080564418273247 0.34368885170405422 0 -0.40888688292129022 0.34941903462410451 0 -0.41366919887348358 0.34576378073699821 0 -0.40888688292129022 0.34941903462410451 0 -0.41366919887348358 0.34576378073699821 0 -0.41404230344944593 0.35073751764187411 0 -0.4250431626101242 0.37647010748543319 0 -0.40086489287733429 0.37467411733839928 0 -0.42486892241442098 0.36677785020884007 0 -0.40086489287733429 0.37467411733839928 0 -0.42486892241442098 0.36677785020884007 0 -0.40086489287733429 0.37467411733839928 0 -0.41378193274770297 0.36450427419225789 0 -0.42486892241442098 0.36677785020884007 0 -0.40544017780568847 0.3661562974108753 0 -0.40086489287733429 0.37467411733839928 0 -0.41378193274770297 0.36450427419225789 0 -0.40544017780568847 0.3661562974108753 0 -0.41142088061722581 0.36176204086772412 0 -0.41378193274770297 0.36450427419225789 0 -0.40553625032349627 0.36037170931698131 0 -0.40544017780568847 0.3661562974108753 0 -0.41142088061722581 0.36176204086772412 0 -0.41755863725870102 0.35684421707679032 0 -0.41378193274770297 0.36450427419225789 0 -0.42195212413097077 0.36043988011418487 0 -0.41378193274770297 0.36450427419225789 0 -0.42486892241442098 0.36677785020884007 0 -0.42195212413097077 0.36043988011418487 0 -0.41755863725870102 0.35684421707679032 0 -0.41142088061722581 0.36176204086772412 0 -0.41378193274770297 0.36450427419225789 0 -0.4250431626101242 0.37647010748543319 0 -0.44885864134335329 0.37135067543599282 0 -0.4250431626101242 0.37647010748543319 0 -0.42486892241442098 0.36677785020884007 0 -0.44885864134335329 0.37135067543599282 0 -0.42486892241442098 0.36677785020884007 0 -0.448872951951507 0.35888158307927881 0 -0.43539550265875948 0.35741731211322858 0 -0.42486892241442098 0.36677785020884007 0 -0.44110397924445488 0.35756373905142852 0 -0.43539550265875948 0.35741731211322858 0 -0.42757171946388478 0.35850981688022993 0 -0.42486892241442098 0.36677785020884007 0 -0.42757171946388478 0.35850981688022993 0 -0.42486892241442098 0.36677785020884007 0 -0.42195212413097077 0.36043988011418487 0 -0.42486892241442098 0.36677785020884007 0 -0.44885864134335329 0.37135067543599282 0 -0.448872951951507 0.35888158307927881 0 -0.44802713623065987 0.37645115623263098 0 -0.4250431626101242 0.37647010748543319 0 -0.44885864134335329 0.37135067543599282 0 -0.42486892241442098 0.36677785020884007 0 -0.44110397924445488 0.35756373905142852 0 -0.448872951951507 0.35888158307927881 0 -0.44885864134335329 0.37135067543599282 0 -0.448872951951507 0.35888158307927881 0 -0.44885864134335329 0.37135067543599282 0 -0.448872951951507 0.35888158307927881 0 -0.45634368000688869 0.36512471152292858 0 -0.43385085243219867 0.34555045147446217 0 -0.45496527453913199 0.35447137251643651 0 -0.44889299330712729 0.34242966823447613 0 -0.43385085243219867 0.34555045147446217 0 -0.45496527453913199 0.35447137251643651 0 -0.43385085243219867 0.34555045147446217 0 -0.44887533288597797 0.35680703170406669 0 -0.45496527453913199 0.35447137251643651 0 -0.43385085243219867 0.34555045147446217 0 -0.44110397924445488 0.35756373905142852 0 -0.44887533288597797 0.35680703170406669 0 -0.44110397924445488 0.35756373905142852 0 -0.44887533288597797 0.35680703170406669 0 -0.448872951951507 0.35888158307927881 0 -0.44887533288597797 0.35680703170406669 0 -0.448872951951507 0.35888158307927881 0 -0.44887533288597797 0.35680703170406669 0 -0.448872951951507 0.35888158307927881 0 -0.45496527453913199 0.35447137251643651 0 -0.448872951951507 0.35888158307927881 0 -0.45496527453913199 0.35447137251643651 0 -0.47186707529616939 0.3513175305497272 0 -0.448872951951507 0.35888158307927881 0 -0.47186707529616939 0.3513175305497272 0 -0.448872951951507 0.35888158307927881 0 -0.45634368000688869 0.36512471152292858 0 -0.47186707529616939 0.3513175305497272 0 -0.45911772068334677 0.34536620346235469 0 -0.45496527453913199 0.35447137251643651 0 -0.47186707529616939 0.3513175305497272 0 -0.45911772068334677 0.34536620346235469 0 -0.45496527453913199 0.35447137251643651 0 -0.44889299330712729 0.34242966823447613 0 -0.46572599417265398 0.36772482908493609 0 -0.45634368000688869 0.36512471152292858 0 -0.47186707529616939 0.3513175305497272 0 -0.46059005399087027 0.38292215568240928 0 -0.44885864134335329 0.37135067543599282 0 -0.46572599417265398 0.36772482908493609 0 -0.44885864134335329 0.37135067543599282 0 -0.46572599417265398 0.36772482908493609 0 -0.44885864134335329 0.37135067543599282 0 -0.46572599417265398 0.36772482908493609 0 -0.45634368000688869 0.36512471152292858 0 -0.47832653283541199 0.38608194873200979 0 -0.46572599417265398 0.36772482908493609 0 -0.48259334700195489 0.36409898273387958 0 -0.46572599417265398 0.36772482908493609 0 -0.48259334700195489 0.36409898273387958 0 -0.47186707529616939 0.3513175305497272 0 -0.46572599417265398 0.36772482908493609 0 -0.48259334700195489 0.36409898273387958 0 -0.47186707529616939 0.3513175305497272 0 -0.494861198640831 0.34375347802017348 0 -0.47186707529616939 0.3513175305497272 0 -0.48536711719674469 0.35339641184703091 0 -0.494861198640831 0.34375347802017348 0 -0.48259334700195489 0.36409898273387958 0 -0.47186707529616939 0.3513175305497272 0 -0.48536711719674469 0.35339641184703091 0 -0.48259334700195489 0.36409898273387958 0 -0.49214684784802371 0.35441565608434311 0 -0.48536711719674469 0.35339641184703091 0 -0.49214684784802371 0.35441565608434311 0 -0.5 0.36887446842263683 0 -0.5 0.34271985673358363 0 -0.49214684784802371 0.35441565608434311 0 -0.48536711719674469 0.35339641184703091 0 -0.494861198640831 0.34375347802017348 0 -0.49214684784802371 0.35441565608434311 0 -0.494861198640831 0.34375347802017348 0 -0.5 0.34271985673358363 0 -0.48850556386005051 0.3766603246979251 0 -0.48259334700195489 0.36409898273387958 0 -0.5 0.36887446842263683 0 -0.48259334700195489 0.36409898273387958 0 -0.49214684784802371 0.35441565608434311 0 -0.5 0.36887446842263683 0 -0.485708092488497 0.3189911195031831 0 -0.5 0.31656524504453032 0 -0.48475009422380527 0.3315545986069256 0 -0.485708092488497 0.3189911195031831 0 -0.5 0.31656524504453032 0 -0.48583489694974541 0.30845327583860088 0 -0.5 0.31656524504453032 0 -0.5 0.34271985673358363 0 -0.48475009422380527 0.3315545986069256 0 -0.494861198640831 0.34375347802017348 0 -0.5 0.34271985673358363 0 -0.48475009422380527 0.3315545986069256 0 -0.48475009422380527 0.3315545986069256 0 -0.46074553959095882 0.3332462425487791 0 -0.47186707529616939 0.3513175305497272 0 -0.494861198640831 0.34375347802017348 0 -0.48475009422380527 0.3315545986069256 0 -0.47186707529616939 0.3513175305497272 0 -0.48475009422380527 0.3315545986069256 0 -0.46074553959095882 0.3332462425487791 0 -0.48475009422380527 0.3315545986069256 0 -0.47224737878043732 0.31939135852267558 0 -0.46074553959095882 0.3332462425487791 0 -0.485708092488497 0.3189911195031831 0 -0.48475009422380527 0.3315545986069256 0 -0.47224737878043732 0.31939135852267558 0 -0.485708092488497 0.3189911195031831 0 -0.47224737878043732 0.31939135852267558 0 -0.48583489694974541 0.30845327583860088 0 -0.47224737878043732 0.31939135852267558 0 -0.46258830912673421 0.31343425170936878 0 -0.46074553959095882 0.3332462425487791 0 -0.46258830912673421 0.31343425170936878 0 -0.46074553959095882 0.3332462425487791 0 -0.45107709460752138 0.31557533431346357 0 -0.45911772068334677 0.34536620346235469 0 -0.47186707529616939 0.3513175305497272 0 -0.46074553959095882 0.3332462425487791 0 -0.45911772068334677 0.34536620346235469 0 -0.46074553959095882 0.3332462425487791 0 -0.44889299330712729 0.34242966823447613 0 -0.43674098495811231 0.33493788649063261 0 -0.46074553959095882 0.3332462425487791 0 -0.43674098495811231 0.33493788649063261 0 -0.46074553959095882 0.3332462425487791 0 -0.44889299330712729 0.34242966823447613 0 -0.43674098495811231 0.33493788649063261 0 -0.46074553959095882 0.3332462425487791 0 -0.43790895006943947 0.32081412042189511 0 -0.43674098495811231 0.33493788649063261 0 -0.43385085243219867 0.34555045147446217 0 -0.44889299330712729 0.34242966823447613 0 -0.46074553959095882 0.3332462425487791 0 -0.45107709460752138 0.31557533431346357 0 -0.43790895006943947 0.32081412042189511 0 -0.45107709460752138 0.31557533431346357 0 -0.43790895006943947 0.32081412042189511 0 -0.4401847358662575 0.3127477530096977 0 -0.44444415583193408 0.29216055381020578 0 -0.43122247783146522 0.30831868127488848 0 -0.44810052680614793 0.29565349026271098 0 -0.43122247783146522 0.30831868127488848 0 -0.44368336155109173 0.30649675881006838 0 -0.44810052680614793 0.29565349026271098 0 -0.43122247783146522 0.30831868127488848 0 -0.4401847358662575 0.3127477530096977 0 -0.44368336155109173 0.30649675881006838 0 -0.43122247783146522 0.30831868127488848 0 -0.44444415583193408 0.29216055381020578 0 -0.44810052680614793 0.29565349026271098 0 -0.43122247783146522 0.30831868127488848 0 -0.45107709460752138 0.31557533431346357 0 -0.4401847358662575 0.3127477530096977 0 -0.44368336155109173 0.30649675881006838 0 -0.44368336155109173 0.30649675881006838 0 -0.44996115485610377 0.3015940899144034 0 -0.4551770389262465 0.30483297142504889 0 -0.44368336155109173 0.30649675881006838 0 -0.44996115485610377 0.3015940899144034 0 -0.44810052680614793 0.29565349026271098 0 -0.45288369214092922 0.29939313915978533 0 -0.44996115485610377 0.3015940899144034 0 -0.44810052680614793 0.29565349026271098 0 -0.45288369214092922 0.29939313915978533 0 -0.44996115485610377 0.3015940899144034 0 -0.4551770389262465 0.30483297142504889 0 -0.45107709460752138 0.31557533431346357 0 -0.44368336155109173 0.30649675881006838 0 -0.4551770389262465 0.30483297142504889 0 -0.44702735364695217 0.27675533545947301 0 -0.43422108619098299 0.29621681389521232 0 -0.44444415583193408 0.29216055381020578 0 -0.44702735364695217 0.27675533545947301 0 -0.43422108619098299 0.29621681389521232 0 -0.44702735364695217 0.27675533545947301 0 -0.43274811138672559 0.28469846643612018 0 -0.43422108619098299 0.29621681389521232 0 -0.44810052680614793 0.29565349026271098 0 -0.4493542421043164 0.28919027156790111 0 -0.45395006383388498 0.28587005882998617 0 -0.44444415583193408 0.29216055381020578 0 -0.44810052680614793 0.29565349026271098 0 -0.4493542421043164 0.28919027156790111 0 -0.44444415583193408 0.29216055381020578 0 -0.4493542421043164 0.28919027156790111 0 -0.44702735364695217 0.27675533545947301 0 -0.4493542421043164 0.28919027156790111 0 -0.45395006383388498 0.28587005882998617 0 -0.44702735364695217 0.27675533545947301 0 -0.44810052680614793 0.29565349026271098 0 -0.45395006383388498 0.28587005882998617 0 -0.46497857578083068 0.28298829925053381 0 -0.44810052680614793 0.29565349026271098 0 -0.4593999708052337 0.29480301670676529 0 -0.46497857578083068 0.28298829925053381 0 -0.44810052680614793 0.29565349026271098 0 -0.46497857578083068 0.28298829925053381 0 -0.45288369214092922 0.29939313915978533 0 -0.44810052680614793 0.29565349026271098 0 -0.4593999708052337 0.29480301670676529 0 -0.4593999708052337 0.29480301670676529 0 -0.46827174088950307 0.29409138505043392 0 -0.46497857578083068 0.28298829925053381 0 -0.46258830912673421 0.31343425170936878 0 -0.45107709460752138 0.31557533431346357 0 -0.4551770389262465 0.30483297142504889 0 -0.45288369214092922 0.29939313915978533 0 -0.4593999708052337 0.29480301670676529 0 -0.4551770389262465 0.30483297142504889 0 -0.4593999708052337 0.29480301670676529 0 -0.4551770389262465 0.30483297142504889 0 -0.46625021185001803 0.30380681263807602 0 -0.4593999708052337 0.29480301670676529 0 -0.46827174088950307 0.29409138505043392 0 -0.46625021185001803 0.30380681263807602 0 -0.47224737878043732 0.31939135852267558 0 -0.46258830912673421 0.31343425170936878 0 -0.46625021185001803 0.30380681263807602 0 -0.46258830912673421 0.31343425170936878 0 -0.4551770389262465 0.30483297142504889 0 -0.46625021185001803 0.30380681263807602 0 -0.47551717359816043 0.30301602212345602 0 -0.4769183937012712 0.29196404103452073 0 -0.48583489694974541 0.30845327583860088 0 -0.47224737878043732 0.31939135852267558 0 -0.46625021185001803 0.30380681263807602 0 -0.47551717359816043 0.30301602212345602 0 -0.47224737878043732 0.31939135852267558 0 -0.47551717359816043 0.30301602212345602 0 -0.48583489694974541 0.30845327583860088 0 -0.46827174088950307 0.29409138505043392 0 -0.46625021185001803 0.30380681263807602 0 -0.47551717359816043 0.30301602212345602 0 -0.46827174088950307 0.29409138505043392 0 -0.46497857578083068 0.28298829925053381 0 -0.4769183937012712 0.29196404103452073 0 -0.4769183937012712 0.29196404103452073 0 -0.48757792524538679 0.2814999319082685 0 -0.48583489694974541 0.30845327583860088 0 -0.46827174088950307 0.29409138505043392 0 -0.47551717359816043 0.30301602212345602 0 -0.4769183937012712 0.29196404103452073 0 -0.46497857578083068 0.28298829925053381 0 -0.47783287987075052 0.28169384510791978 0 -0.4769183937012712 0.29196404103452073 0 -0.47783287987075052 0.28169384510791978 0 -0.4769183937012712 0.29196404103452073 0 -0.48757792524538679 0.2814999319082685 0 -0.5 0.29041063335547701 0 -0.48757792524538679 0.2814999319082685 0 -0.48583489694974541 0.30845327583860088 0 -0.48757792524538679 0.2814999319082685 0 -0.48583489694974541 0.30845327583860088 0 -0.5 0.31656524504453032 0 -0.5 0.29041063335547701 0 -0.48583489694974541 0.30845327583860088 0 -0.5 0.23810140997737081 0 -0.5 0.26425602166642381 0 -0.48932095354102823 0.25454658797793611 0 -0.48757792524538679 0.2814999319082685 0 -0.48932095354102823 0.25454658797793611 0 -0.48366697684514259 0.26703881783025729 0 -0.48757792524538679 0.2814999319082685 0 -0.5 0.26425602166642381 0 -0.48932095354102823 0.25454658797793611 0 -0.48757792524538679 0.2814999319082685 0 -0.48932095354102823 0.25454658797793611 0 -0.5 0.29041063335547701 0 -0.48757792524538679 0.2814999319082685 0 -0.5 0.26425602166642381 0 -0.46497857578083068 0.28298829925053381 0 -0.48185662475551339 0.27032310823835648 0 -0.46497857578083068 0.28298829925053381 0 -0.47783287987075052 0.28169384510791978 0 -0.48185662475551339 0.27032310823835648 0 -0.48366697684514259 0.26703881783025729 0 -0.45893043448094739 0.2699305570534084 0 -0.48757792524538679 0.2814999319082685 0 -0.48366697684514259 0.26703881783025729 0 -0.48185662475551339 0.27032310823835648 0 -0.48366697684514259 0.26703881783025729 0 -0.48185662475551339 0.27032310823835648 0 -0.47235815296560851 0.27257019559313889 0 -0.46497857578083068 0.28298829925053381 0 -0.48185662475551339 0.27032310823835648 0 -0.47235815296560851 0.27257019559313889 0 -0.48366697684514259 0.26703881783025729 0 -0.46959483388743167 0.25994315597580908 0 -0.45893043448094739 0.2699305570534084 0 -0.48366697684514259 0.26703881783025729 0 -0.47235815296560851 0.27257019559313889 0 -0.45893043448094739 0.2699305570534084 0 -0.47783287987075052 0.28169384510791978 0 -0.48757792524538679 0.2814999319082685 0 -0.48185662475551339 0.27032310823835648 0 -0.48932095354102823 0.25454658797793611 0 -0.48366697684514259 0.26703881783025729 0 -0.47792533453874358 0.25606878273296479 0 -0.48366697684514259 0.26703881783025729 0 -0.46959483388743167 0.25994315597580908 0 -0.47792533453874358 0.25606878273296479 0 -0.47864167104372218 0.246590621409366 0 -0.48932095354102823 0.25454658797793611 0 -0.47792533453874358 0.25606878273296479 0 -0.47864167104372218 0.246590621409366 0 -0.47792533453874358 0.25606878273296479 0 -0.46938038244821267 0.25133041049185839 0 -0.46959483388743167 0.25994315597580908 0 -0.47792533453874358 0.25606878273296479 0 -0.46938038244821267 0.25133041049185839 0 -0.46959483388743167 0.25994315597580908 0 -0.46938038244821267 0.25133041049185839 0 -0.45807104112411212 0.25534721177055669 0 -0.46959483388743167 0.25994315597580908 0 -0.45807104112411212 0.25534721177055669 0 -0.45893043448094739 0.2699305570534084 0 -0.45807104112411212 0.25534721177055669 0 -0.45893043448094739 0.2699305570534084 0 -0.44442574262614493 0.25832327296872359 0 -0.45395006383388498 0.28587005882998617 0 -0.46497857578083068 0.28298829925053381 0 -0.45893043448094739 0.2699305570534084 0 -0.45395006383388498 0.28587005882998617 0 -0.45893043448094739 0.2699305570534084 0 -0.44702735364695217 0.27675533545947301 0 -0.46497857578083068 0.28298829925053381 0 -0.47235815296560851 0.27257019559313889 0 -0.45893043448094739 0.2699305570534084 0 -0.45893043448094739 0.2699305570534084 0 -0.43419389211675241 0.27282229627655952 0 -0.45893043448094739 0.2699305570534084 0 -0.44442574262614493 0.25832327296872359 0 -0.43419389211675241 0.27282229627655952 0 -0.45893043448094739 0.2699305570534084 0 -0.44702735364695217 0.27675533545947301 0 -0.43419389211675241 0.27282229627655952 0 -0.44702735364695217 0.27675533545947301 0 -0.43419389211675241 0.27282229627655952 0 -0.43274811138672559 0.28469846643612018 0 -0.45046339488490522 0.249057113070103 0 -0.45807104112411212 0.25534721177055669 0 -0.44442574262614493 0.25832327296872359 0 -0.44062222049055039 0.24203477259657111 0 -0.44442574262614493 0.25832327296872359 0 -0.42503978512155383 0.25887440404814072 0 -0.44062222049055039 0.24203477259657111 0 -0.42503978512155383 0.25887440404814072 0 -0.44442574262614493 0.25832327296872359 0 -0.42503978512155383 0.25887440404814072 0 -0.43419389211675241 0.27282229627655952 0 -0.42503978512155383 0.25887440404814072 0 -0.40945734975255721 0.27571403549971041 0 -0.40585136056822319 0.25674789398696107 0 -0.4198454647722451 0.23985190764030939 0 -0.42503978512155383 0.25887440404814072 0 -0.40585136056822319 0.25674789398696107 0 -0.40945734975255721 0.27571403549971041 0 -0.43419389211675241 0.27282229627655952 0 -0.42503978512155383 0.25887440404814072 0 -0.40945734975255721 0.27571403549971041 0 -0.42503978512155383 0.25887440404814072 0 -0.40945734975255721 0.27571403549971041 0 -0.43419389211675241 0.27282229627655952 0 -0.40945734975255721 0.27571403549971041 0 -0.43419389211675241 0.27282229627655952 0 -0.4229835889384117 0.28415291652507912 0 -0.43419389211675241 0.27282229627655952 0 -0.43274811138672559 0.28469846643612018 0 -0.4229835889384117 0.28415291652507912 0 -0.43274811138672559 0.28469846643612018 0 -0.43422108619098299 0.29621681389521232 0 -0.42519236151645012 0.29288975242762622 0 -0.43274811138672559 0.28469846643612018 0 -0.42519236151645012 0.29288975242762622 0 -0.4229835889384117 0.28415291652507912 0 -0.42141481873501418 0.31567829233095179 0 -0.43422108619098299 0.29621681389521232 0 -0.42141481873501418 0.31567829233095179 0 -0.43422108619098299 0.29621681389521232 0 -0.42237726971740519 0.30236741203524931 0 -0.44444415583193408 0.29216055381020578 0 -0.43422108619098299 0.29621681389521232 0 -0.43122247783146522 0.30831868127488848 0 -0.42141481873501418 0.31567829233095179 0 -0.43422108619098299 0.29621681389521232 0 -0.43122247783146522 0.30831868127488848 0 -0.43422108619098299 0.29621681389521232 0 -0.42519236151645012 0.29288975242762622 0 -0.42237726971740519 0.30236741203524931 0 -0.42141481873501418 0.31567829233095179 0 -0.43122247783146522 0.30831868127488848 0 -0.42237726971740519 0.30236741203524931 0 -0.41647318301620623 0.31168328686166002 0 -0.40812109447663159 0.30329838776079099 0 -0.42141481873501418 0.31567829233095179 0 -0.42237726971740519 0.30236741203524931 0 -0.41647318301620623 0.31168328686166002 0 -0.42237726971740519 0.30236741203524931 0 -0.40812109447663159 0.30329838776079099 0 -0.41256551749876041 0.29129965580367562 0 -0.40826549608127172 0.31275764886218971 0 -0.41647318301620623 0.31168328686166002 0 -0.40812109447663159 0.30329838776079099 0 -0.40945734975255721 0.27571403549971041 0 -0.4229835889384117 0.28415291652507912 0 -0.41256551749876041 0.29129965580367562 0 -0.42519236151645012 0.29288975242762622 0 -0.4229835889384117 0.28415291652507912 0 -0.41256551749876041 0.29129965580367562 0 -0.42519236151645012 0.29288975242762622 0 -0.42237726971740519 0.30236741203524931 0 -0.41256551749876041 0.29129965580367562 0 -0.40945734975255721 0.27571403549971041 0 -0.39180528154043992 0.29479027846244049 0 -0.39350738277932218 0.27757861076756318 0 -0.40945734975255721 0.27571403549971041 0 -0.39180528154043992 0.29479027846244049 0 -0.40812109447663159 0.30329838776079099 0 -0.41256551749876041 0.29129965580367562 0 -0.39180528154043992 0.29479027846244049 0 -0.40945734975255721 0.27571403549971041 0 -0.41256551749876041 0.29129965580367562 0 -0.39180528154043992 0.29479027846244049 0 -0.38613629988198012 0.31665983269396758 0 -0.39830358576524327 0.31266849694114901 0 -0.39180528154043992 0.29479027846244049 0 -0.39830358576524327 0.31266849694114901 0 -0.40812109447663159 0.30329838776079099 0 -0.39180528154043992 0.29479027846244049 0 -0.39830358576524327 0.31266849694114901 0 -0.40826549608127172 0.31275764886218971 0 -0.40812109447663159 0.30329838776079099 0 -0.39180528154043992 0.29479027846244049 0 -0.37819889022761238 0.29924868842846319 0 -0.37415321332832258 0.31386652142517069 0 -0.38613629988198012 0.31665983269396758 0 -0.39180528154043992 0.29479027846244049 0 -0.37415321332832258 0.31386652142517069 0 -0.39180528154043992 0.29479027846244049 0 -0.37415321332832258 0.31386652142517069 0 -0.39180528154043992 0.29479027846244049 0 -0.37819889022761238 0.29924868842846319 0 -0.37870614451813112 0.28175948497688769 0 -0.39180528154043992 0.29479027846244049 0 -0.37870614451813112 0.28175948497688769 0 -0.39350738277932218 0.27757861076756318 0 -0.37870614451813112 0.28175948497688769 0 -0.37647038179830861 0.26645711442365799 0 -0.39350738277932218 0.27757861076756318 0 -0.37647038179830861 0.26645711442365799 0 -0.39336972403141229 0.26369738761855421 0 -0.39350738277932218 0.27757861076756318 0 -0.38790582398472923 0.24962922847932231 0 -0.37647038179830861 0.26645711442365799 0 -0.39336972403141229 0.26369738761855421 0 -0.38790582398472923 0.24962922847932231 0 -0.37647038179830861 0.26645711442365799 0 -0.36318679658289171 0.25196182354824148 0 -0.40945734975255721 0.27571403549971041 0 -0.40585136056822319 0.25674789398696107 0 -0.39336972403141229 0.26369738761855421 0 -0.38790582398472923 0.24962922847932231 0 -0.40585136056822319 0.25674789398696107 0 -0.39336972403141229 0.26369738761855421 0 -0.40945734975255721 0.27571403549971041 0 -0.39336972403141229 0.26369738761855421 0 -0.39350738277932218 0.27757861076756318 0 -0.40945734975255721 0.27571403549971041 0 -0.39350738277932218 0.27757861076756318 0 -0.35583614606747688 0.27501819518035592 0 -0.36318679658289171 0.25196182354824148 0 -0.33952374355129727 0.25899057541505788 0 -0.37647038179830861 0.26645711442365799 0 -0.35583614606747688 0.27501819518035592 0 -0.36318679658289171 0.25196182354824148 0 -0.37870614451813112 0.28175948497688769 0 -0.37647038179830861 0.26645711442365799 0 -0.35583614606747688 0.27501819518035592 0 -0.37819889022761238 0.29924868842846319 0 -0.37870614451813112 0.28175948497688769 0 -0.36775571630023218 0.2927315942663431 0 -0.37870614451813112 0.28175948497688769 0 -0.35583614606747688 0.27501819518035592 0 -0.36775571630023218 0.2927315942663431 0 -0.37819889022761238 0.29924868842846319 0 -0.36899777432263853 0.30469822459034263 0 -0.37415321332832258 0.31386652142517069 0 -0.36899777432263853 0.30469822459034263 0 -0.36272901898995358 0.31473918551029578 0 -0.37415321332832258 0.31386652142517069 0 -0.37819889022761238 0.29924868842846319 0 -0.36775571630023218 0.2927315942663431 0 -0.36899777432263853 0.30469822459034263 0 -0.36775571630023218 0.2927315942663431 0 -0.36899777432263853 0.30469822459034263 0 -0.35931620367806588 0.30475084950198522 0 -0.36775571630023218 0.2927315942663431 0 -0.35931620367806588 0.30475084950198522 0 -0.35261706249820868 0.29381533636168528 0 -0.36899777432263853 0.30469822459034263 0 -0.35931620367806588 0.30475084950198522 0 -0.36272901898995358 0.31473918551029578 0 -0.35931620367806588 0.30475084950198522 0 -0.35261706249820868 0.29381533636168528 0 -0.34344143829887858 0.30736403781452232 0 -0.35931620367806588 0.30475084950198522 0 -0.34344143829887858 0.30736403781452232 0 -0.35467675850453528 0.31743756764607989 0 -0.35931620367806588 0.30475084950198522 0 -0.35467675850453528 0.31743756764607989 0 -0.36272901898995358 0.31473918551029578 0 -0.35583614606747688 0.27501819518035592 0 -0.36775571630023218 0.2927315942663431 0 -0.35261706249820868 0.29381533636168528 0 -0.35583614606747688 0.27501819518035592 0 -0.35261706249820868 0.29381533636168528 0 -0.33673580814638959 0.28921200504521999 0 -0.35261706249820868 0.29381533636168528 0 -0.33673580814638959 0.28921200504521999 0 -0.34344143829887858 0.30736403781452232 0 -0.33673580814638959 0.28921200504521999 0 -0.32075162894010661 0.28280614760534989 0 -0.33379142081270979 0.2734424933293601 0 -0.34344143829887858 0.30736403781452232 0 -0.31699951866320542 0.30755322334125379 0 -0.34344143829887858 0.30736403781452232 0 -0.31699951866320542 0.30755322334125379 0 -0.33459812393413729 0.32207732583041709 0 -0.33673580814638959 0.28921200504521999 0 -0.34344143829887858 0.30736403781452232 0 -0.31699951866320542 0.30755322334125379 0 -0.33673580814638959 0.28921200504521999 0 -0.31699951866320542 0.30755322334125379 0 -0.32075162894010661 0.28280614760534989 0 -0.31699951866320542 0.30755322334125379 0 -0.32075162894010661 0.28280614760534989 0 -0.30493521127791462 0.28695781074044469 0 -0.32075162894010661 0.28280614760534989 0 -0.31931282352829687 0.26617321261290411 0 -0.33379142081270979 0.2734424933293601 0 -0.32075162894010661 0.28280614760534989 0 -0.31931282352829687 0.26617321261290411 0 -0.30493521127791462 0.28695781074044469 0 -0.35583614606747688 0.27501819518035592 0 -0.33673580814638959 0.28921200504521999 0 -0.33379142081270979 0.2734424933293601 0 -0.35583614606747688 0.27501819518035592 0 -0.33379142081270979 0.2734424933293601 0 -0.33952374355129727 0.25899057541505788 0 -0.31931282352829687 0.26617321261290411 0 -0.33379142081270979 0.2734424933293601 0 -0.33952374355129727 0.25899057541505788 0 -0.32200613725511351 0.24850726385495631 0 -0.31931282352829687 0.26617321261290411 0 -0.33952374355129727 0.25899057541505788 0 -0.32200613725511351 0.24850726385495631 0 -0.31931282352829687 0.26617321261290411 0 -0.30640548876467488 0.25787073169030861 0 -0.31931282352829687 0.26617321261290411 0 -0.30640548876467488 0.25787073169030861 0 -0.3010630097917536 0.27273037638764702 0 -0.31931282352829687 0.26617321261290411 0 -0.3010630097917536 0.27273037638764702 0 -0.30493521127791462 0.28695781074044469 0 -0.31931282352829687 0.26617321261290411 0 -0.30493521127791462 0.28695781074044469 0 -0.3010630097917536 0.27273037638764702 0 -0.29309283898050847 0.28048055459605348 0 -0.30493521127791462 0.28695781074044469 0 -0.3010630097917536 0.27273037638764702 0 -0.29309283898050847 0.28048055459605348 0 -0.28156868640737281 0.27216957229852412 0 -0.30640548876467488 0.25787073169030861 0 -0.3010630097917536 0.27273037638764702 0 -0.28156868640737281 0.27216957229852412 0 -0.30640548876467488 0.25787073169030861 0 -0.28156868640737281 0.27216957229852412 0 -0.28729818335365731 0.26780124082781631 0 -0.28156868640737281 0.27216957229852412 0 -0.28729818335365731 0.26780124082781631 0 -0.27880962639343299 0.26078065685839158 0 -0.29309283898050847 0.28048055459605348 0 -0.28156868640737281 0.27216957229852412 0 -0.28401529333418091 0.28255904946725641 0 -0.30640548876467488 0.25787073169030861 0 -0.28156868640737281 0.27216957229852412 0 -0.29125564533142001 0.24067530578368901 0 -0.30640548876467488 0.25787073169030861 0 -0.28729818335365731 0.26780124082781631 0 -0.29125564533142001 0.24067530578368901 0 -0.28729818335365731 0.26780124082781631 0 -0.27880962639343299 0.26078065685839158 0 -0.29125564533142001 0.24067530578368901 0 -0.28729818335365731 0.26780124082781631 0 -0.29125564533142001 0.24067530578368901 0 -0.26892213733164849 0.25365425058065472 0 -0.27880962639343299 0.26078065685839158 0 -0.26892213733164849 0.25365425058065472 0 -0.27880962639343299 0.26078065685839158 0 -0.26500347954306669 0.26960291480127369 0 -0.28156868640737281 0.27216957229852412 0 -0.25673188405007052 0.28646841290673969 0 -0.28156868640737281 0.27216957229852412 0 -0.26500347954306669 0.26960291480127369 0 -0.25673188405007052 0.28646841290673969 0 -0.28156868640737281 0.27216957229852412 0 -0.27880962639343299 0.26078065685839158 0 -0.26500347954306669 0.26960291480127369 0 -0.28156868640737281 0.27216957229852412 0 -0.27479408276187339 0.28687287199942368 0 -0.28401529333418091 0.28255904946725641 0 -0.26500347954306669 0.26960291480127369 0 -0.25265925142613249 0.26128234508680298 0 -0.25673188405007052 0.28646841290673969 0 -0.26892213733164849 0.25365425058065472 0 -0.26500347954306669 0.26960291480127369 0 -0.25265925142613249 0.26128234508680298 0 -0.25621817608628389 0.2460965770837312 0 -0.26892213733164849 0.25365425058065472 0 -0.25265925142613249 0.26128234508680298 0 -0.25505401324638421 0.30366623925853881 0 -0.26661761067819428 0.2958317928062858 0 -0.26721257633701828 0.30790943684761429 0 -0.25505401324638421 0.30366623925853881 0 -0.26721257633701828 0.30790943684761429 0 -0.25901197930261888 0.31383205914145501 0 -0.26721257633701828 0.30790943684761429 0 -0.25901197930261888 0.31383205914145501 0 -0.26528599585519008 0.31471464054907522 0 -0.25505401324638421 0.30366623925853881 0 -0.25901197930261888 0.31383205914145501 0 -0.24885494741763489 0.31718848033418301 0 -0.25505401324638421 0.30366623925853881 0 -0.25673188405007052 0.28646841290673969 0 -0.26661761067819428 0.2958317928062858 0 -0.26661761067819428 0.2958317928062858 0 -0.27573637841232751 0.29432500902679382 0 -0.27326763327687947 0.30016750757533939 0 -0.28156868640737281 0.27216957229852412 0 -0.25673188405007052 0.28646841290673969 0 -0.27479408276187339 0.28687287199942368 0 -0.26661761067819428 0.2958317928062858 0 -0.27479408276187339 0.28687287199942368 0 -0.27573637841232751 0.29432500902679382 0 -0.25673188405007052 0.28646841290673969 0 -0.26661761067819428 0.2958317928062858 0 -0.27479408276187339 0.28687287199942368 0 -0.27479408276187339 0.28687287199942368 0 -0.28401529333418091 0.28255904946725641 0 -0.28313816676434478 0.29069510378855717 0 -0.27479408276187339 0.28687287199942368 0 -0.27573637841232751 0.29432500902679382 0 -0.28313816676434478 0.29069510378855717 0 -0.27573637841232751 0.29432500902679382 0 -0.28086439858034518 0.29805776896436298 0 -0.28313816676434478 0.29069510378855717 0 -0.28086439858034518 0.29805776896436298 0 -0.27753065875984329 0.30327410754998058 0 -0.28274061889410179 0.30278083970340541 0 -0.27753065875984329 0.30327410754998058 0 -0.27514776209796898 0.30785266251660498 0 -0.28274061889410179 0.30278083970340541 0 -0.27753065875984329 0.30327410754998058 0 -0.27326763327687947 0.30016750757533939 0 -0.27348155140824082 0.30658246875079598 0 -0.28086439858034518 0.29805776896436298 0 -0.27753065875984329 0.30327410754998058 0 -0.27326763327687947 0.30016750757533939 0 -0.27573637841232751 0.29432500902679382 0 -0.28086439858034518 0.29805776896436298 0 -0.27326763327687947 0.30016750757533939 0 -0.26661761067819428 0.2958317928062858 0 -0.27326763327687947 0.30016750757533939 0 -0.26721257633701828 0.30790943684761429 0 -0.26721257633701828 0.30790943684761429 0 -0.27514776209796898 0.30785266251660498 0 -0.27123720609067609 0.3158529302113221 0 -0.26721257633701828 0.30790943684761429 0 -0.27348155140824082 0.30658246875079598 0 -0.27514776209796898 0.30785266251660498 0 -0.26721257633701828 0.30790943684761429 0 -0.27514776209796898 0.30785266251660498 0 -0.27326763327687947 0.30016750757533939 0 -0.26721257633701828 0.30790943684761429 0 -0.27348155140824082 0.30658246875079598 0 -0.27514776209796898 0.30785266251660498 0 -0.2851872012256097 0.31550597615259851 0 -0.27753065875984329 0.30327410754998058 0 -0.27348155140824082 0.30658246875079598 0 -0.27514776209796898 0.30785266251660498 0 -0.27348155140824082 0.30658246875079598 0 -0.27514776209796898 0.30785266251660498 0 -0.27514776209796898 0.30785266251660498 0 -0.2905575990275322 0.30774240886798532 0 -0.27514776209796898 0.30785266251660498 0 -0.2905575990275322 0.30774240886798532 0 -0.2851872012256097 0.31550597615259851 0 -0.2896026760048197 0.2969772506180926 0 -0.2905575990275322 0.30774240886798532 0 -0.30493521127791462 0.28695781074044469 0 -0.27514776209796898 0.30785266251660498 0 -0.28274061889410179 0.30278083970340541 0 -0.2905575990275322 0.30774240886798532 0 -0.2905575990275322 0.30774240886798532 0 -0.2851872012256097 0.31550597615259851 0 -0.28274061889410179 0.30278083970340541 0 -0.2896026760048197 0.2969772506180926 0 -0.2905575990275322 0.30774240886798532 0 -0.28086439858034518 0.29805776896436298 0 -0.28274061889410179 0.30278083970340541 0 -0.2896026760048197 0.2969772506180926 0 -0.28401529333418091 0.28255904946725641 0 -0.28313816676434478 0.29069510378855717 0 -0.29095683727235372 0.28753395384208091 0 -0.28086439858034518 0.29805776896436298 0 -0.2896026760048197 0.2969772506180926 0 -0.28313816676434478 0.29069510378855717 0 -0.2896026760048197 0.2969772506180926 0 -0.28313816676434478 0.29069510378855717 0 -0.29095683727235372 0.28753395384208091 0 -0.2896026760048197 0.2969772506180926 0 -0.29095683727235372 0.28753395384208091 0 -0.30493521127791462 0.28695781074044469 0 -0.29309283898050847 0.28048055459605348 0 -0.29095683727235372 0.28753395384208091 0 -0.30493521127791462 0.28695781074044469 0 -0.29309283898050847 0.28048055459605348 0 -0.28401529333418091 0.28255904946725641 0 -0.29095683727235372 0.28753395384208091 0 -0.31699951866320542 0.30755322334125379 0 -0.2905575990275322 0.30774240886798532 0 -0.30563014257680821 0.31779627416788381 0 -0.31699951866320542 0.30755322334125379 0 -0.2905575990275322 0.30774240886798532 0 -0.2905575990275322 0.30774240886798532 0 -0.30493521127791462 0.28695781074044469 0 -0.31699951866320542 0.30755322334125379 0 -0.2905575990275322 0.30774240886798532 0 -0.30493521127791462 0.28695781074044469 0 -0.30538608464820588 0.33090408634228141 0 -0.28942706780696309 0.31873813168532672 0 -0.30563014257680821 0.31779627416788381 0 -0.30538608464820588 0.33090408634228141 0 -0.31811651498789978 0.32488887006413791 0 -0.30563014257680821 0.31779627416788381 0 -0.30538608464820588 0.33090408634228141 0 -0.2937791937433501 0.31637108240395312 0 -0.30538608464820588 0.33090408634228141 0 -0.3017933608705089 0.344447887165377 0 -0.32134510148944728 0.34307004099923799 0 -0.30538608464820588 0.33090408634228141 0 -0.29093013722955491 0.33661105704622479 0 -0.3017933608705089 0.344447887165377 0 -0.30538608464820588 0.33090408634228141 0 -0.29093013722955491 0.33661105704622479 0 -0.2885751077852815 0.32830696870384862 0 -0.29093013722955491 0.33661105704622479 0 -0.28224162025157051 0.34582573333151501 0 -0.3017933608705089 0.344447887165377 0 -0.2885751077852815 0.32830696870384862 0 -0.28146834572906437 0.33465123959114113 0 -0.2790455690922089 0.3243844570517187 0 -0.29093013722955491 0.33661105704622479 0 -0.2885751077852815 0.32830696870384862 0 -0.28146834572906437 0.33465123959114113 0 -0.29093013722955491 0.33661105704622479 0 -0.28146834572906437 0.33465123959114113 0 -0.28224162025157051 0.34582573333151501 0 -0.30538608464820588 0.33090408634228141 0 -0.2885751077852815 0.32830696870384862 0 -0.28942706780696309 0.31873813168532672 0 -0.30538608464820588 0.33090408634228141 0 -0.28942706780696309 0.31873813168532672 0 -0.2937791937433501 0.31637108240395312 0 -0.28942706780696309 0.31873813168532672 0 -0.2937791937433501 0.31637108240395312 0 -0.2851872012256097 0.31550597615259851 0 -0.2905575990275322 0.30774240886798532 0 -0.30563014257680821 0.31779627416788381 0 -0.2937791937433501 0.31637108240395312 0 -0.2905575990275322 0.30774240886798532 0 -0.2937791937433501 0.31637108240395312 0 -0.2851872012256097 0.31550597615259851 0 -0.28942706780696309 0.31873813168532672 0 -0.2937791937433501 0.31637108240395312 0 -0.2885751077852815 0.32830696870384862 0 -0.28942706780696309 0.31873813168532672 0 -0.2790455690922089 0.3243844570517187 0 -0.28942706780696309 0.31873813168532672 0 -0.2790455690922089 0.3243844570517187 0 -0.2851872012256097 0.31550597615259851 0 -0.2790455690922089 0.3243844570517187 0 -0.28942706780696309 0.31873813168532672 0 -0.2851872012256097 0.31550597615259851 0 -0.2790455690922089 0.3243844570517187 0 -0.28942706780696309 0.31873813168532672 0 -0.2851872012256097 0.31550597615259851 0 -0.27514776209796898 0.30785266251660498 0 -0.2851872012256097 0.31550597615259851 0 -0.27699557949655113 0.31645322234696882 0 -0.2851872012256097 0.31550597615259851 0 -0.27699557949655113 0.31645322234696882 0 -0.2790455690922089 0.3243844570517187 0 -0.27514776209796898 0.30785266251660498 0 -0.27699557949655113 0.31645322234696882 0 -0.27123720609067609 0.3158529302113221 0 -0.27001263578126711 0.32263717043347712 0 -0.2790455690922089 0.3243844570517187 0 -0.25910260253645218 0.33523110656146687 0 -0.26721257633701828 0.30790943684761429 0 -0.27123720609067609 0.3158529302113221 0 -0.26528599585519008 0.31471464054907522 0 -0.27699557949655113 0.31645322234696882 0 -0.27123720609067609 0.3158529302113221 0 -0.27001263578126711 0.32263717043347712 0 -0.27123720609067609 0.3158529302113221 0 -0.26528599585519008 0.31471464054907522 0 -0.26368222169044719 0.32126413599590953 0 -0.27123720609067609 0.3158529302113221 0 -0.27001263578126711 0.32263717043347712 0 -0.26368222169044719 0.32126413599590953 0 -0.27699557949655113 0.31645322234696882 0 -0.27001263578126711 0.32263717043347712 0 -0.2790455690922089 0.3243844570517187 0 -0.2790455690922089 0.3243844570517187 0 -0.25910260253645218 0.33523110656146687 0 -0.2790455690922089 0.3243844570517187 0 -0.26824012707650141 0.34000504592112352 0 -0.28146834572906437 0.33465123959114113 0 -0.2790455690922089 0.3243844570517187 0 -0.26824012707650141 0.34000504592112352 0 -0.2790455690922089 0.3243844570517187 0 -0.26824012707650141 0.34000504592112352 0 -0.25910260253645218 0.33523110656146687 0 -0.28146834572906437 0.33465123959114113 0 -0.26824012707650141 0.34000504592112352 0 -0.28224162025157051 0.34582573333151501 0 -0.25910260253645218 0.33523110656146687 0 -0.25407523553642281 0.3497448278934856 0 -0.23915963598069589 0.34607775607121571 0 -0.25910260253645218 0.33523110656146687 0 -0.25407523553642281 0.3497448278934856 0 -0.26309588156361569 0.34576168367824162 0 -0.26824012707650141 0.34000504592112352 0 -0.25910260253645218 0.33523110656146687 0 -0.26309588156361569 0.34576168367824162 0 -0.25910260253645218 0.33523110656146687 0 -0.25451497659773847 0.32559442806853028 0 -0.24843663428782739 0.33758714710907461 0 -0.25451497659773847 0.32559442806853028 0 -0.25901197930261888 0.31383205914145501 0 -0.24885494741763489 0.31718848033418301 0 -0.25451497659773847 0.32559442806853028 0 -0.25901197930261888 0.31383205914145501 0 -0.26368222169044719 0.32126413599590953 0 -0.25901197930261888 0.31383205914145501 0 -0.26528599585519008 0.31471464054907522 0 -0.26368222169044719 0.32126413599590953 0 -0.27001263578126711 0.32263717043347712 0 -0.25910260253645218 0.33523110656146687 0 -0.26368222169044719 0.32126413599590953 0 -0.25910260253645218 0.33523110656146687 0 -0.25451497659773847 0.32559442806853028 0 -0.26368222169044719 0.32126413599590953 0 -0.26470209097228098 0.37140351159401941 0 -0.25562758441007077 0.36194187249828802 0 -0.266880351992417 0.3582272519812631 0 -0.26470209097228098 0.37140351159401941 0 -0.25213085833087667 0.37355178257669552 0 -0.25562758441007077 0.36194187249828802 0 -0.25213085833087667 0.37355178257669552 0 -0.25562758441007077 0.36194187249828802 0 -0.24329038266145239 0.36134909741814653 0 -0.25562758441007077 0.36194187249828802 0 -0.25407523553642281 0.3497448278934856 0 -0.24329038266145239 0.36134909741814653 0 -0.25407523553642281 0.3497448278934856 0 -0.26309588156361569 0.34576168367824162 0 -0.266880351992417 0.3582272519812631 0 -0.25562758441007077 0.36194187249828802 0 -0.25407523553642281 0.3497448278934856 0 -0.266880351992417 0.3582272519812631 0 -0.266880351992417 0.3582272519812631 0 -0.27640009279511962 0.35155878343443242 0 -0.28837447244510311 0.36628710188532532 0 -0.26309588156361569 0.34576168367824162 0 -0.266880351992417 0.3582272519812631 0 -0.27640009279511962 0.35155878343443242 0 -0.26824012707650141 0.34000504592112352 0 -0.26309588156361569 0.34576168367824162 0 -0.27640009279511962 0.35155878343443242 0 -0.26824012707650141 0.34000504592112352 0 -0.27640009279511962 0.35155878343443242 0 -0.28224162025157051 0.34582573333151501 0 -0.266880351992417 0.3582272519812631 0 -0.28837447244510311 0.36628710188532532 0 -0.266880351992417 0.3582272519812631 0 -0.28837447244510311 0.36628710188532532 0 -0.27747916353329311 0.37529003384729942 0 -0.26470209097228098 0.37140351159401941 0 -0.266880351992417 0.3582272519812631 0 -0.27747916353329311 0.37529003384729942 0 -0.28837447244510311 0.36628710188532532 0 -0.28714059247178902 0.37543321948423419 0 -0.27747916353329311 0.37529003384729942 0 -0.28837447244510311 0.36628710188532532 0 -0.28956810344150979 0.35324588380912608 0 -0.30292150033679799 0.36018321991941088 0 -0.28837447244510311 0.36628710188532532 0 -0.29874239202075642 0.37528196759933868 0 -0.28714059247178902 0.37543321948423419 0 -0.28224162025157051 0.34582573333151501 0 -0.3017933608705089 0.344447887165377 0 -0.28224162025157051 0.34582573333151501 0 -0.28956810344150979 0.35324588380912608 0 -0.3017933608705089 0.344447887165377 0 -0.27640009279511962 0.35155878343443242 0 -0.28224162025157051 0.34582573333151501 0 -0.28956810344150979 0.35324588380912608 0 -0.27640009279511962 0.35155878343443242 0 -0.28837447244510311 0.36628710188532532 0 -0.28956810344150979 0.35324588380912608 0 -0.3017933608705089 0.344447887165377 0 -0.31193410579265052 0.3536039280541286 0 -0.30292150033679799 0.36018321991941088 0 -0.28956810344150979 0.35324588380912608 0 -0.3017933608705089 0.344447887165377 0 -0.30292150033679799 0.36018321991941088 0 -0.3017933608705089 0.344447887165377 0 -0.32134510148944728 0.34307004099923799 0 -0.3017933608705089 0.344447887165377 0 -0.31193410579265052 0.3536039280541286 0 -0.32134510148944728 0.34307004099923799 0 -0.31193410579265052 0.3536039280541286 0 -0.30292150033679799 0.36018321991941088 0 -0.31340485972314069 0.36375751913665871 0 -0.28837447244510311 0.36628710188532532 0 -0.30292150033679799 0.36018321991941088 0 -0.30986859289778912 0.37434695178938759 0 -0.28837447244510311 0.36628710188532532 0 -0.30986859289778912 0.37434695178938759 0 -0.28837447244510311 0.36628710188532532 0 -0.30986859289778912 0.37434695178938759 0 -0.29874239202075642 0.37528196759933868 0 -0.30292150033679799 0.36018321991941088 0 -0.30986859289778912 0.37434695178938759 0 -0.31340485972314069 0.36375751913665871 0 -0.30986859289778912 0.37434695178938759 0 -0.31340485972314069 0.36375751913665871 0 -0.32167824364597858 0.36970754211250728 0 -0.31340485972314069 0.36375751913665871 0 -0.32243327870136801 0.35950699838777223 0 -0.32167824364597858 0.36970754211250728 0 -0.32243327870136801 0.35950699838777223 0 -0.32167824364597858 0.36970754211250728 0 -0.33132177355711989 0.36851943955526861 0 -0.32167824364597858 0.36970754211250728 0 -0.33132177355711989 0.36851943955526861 0 -0.33136271335047512 0.38240680169344993 0 -0.32243327870136801 0.35950699838777223 0 -0.33132177355711989 0.36851943955526861 0 -0.33989838930305449 0.35721367281084643 0 -0.33132177355711989 0.36851943955526861 0 -0.34304766554360439 0.37232322735168022 0 -0.33136271335047512 0.38240680169344993 0 -0.33132177355711989 0.36851943955526861 0 -0.34304766554360439 0.37232322735168022 0 -0.33989838930305449 0.35721367281084643 0 -0.33989838930305449 0.35721367281084643 0 -0.32134510148944728 0.34307004099923799 0 -0.33989838930305449 0.35721367281084643 0 -0.32134510148944728 0.34307004099923799 0 -0.3500233487104954 0.34104903357308669 0 -0.32243327870136801 0.35950699838777223 0 -0.33989838930305449 0.35721367281084643 0 -0.32134510148944728 0.34307004099923799 0 -0.31193410579265052 0.3536039280541286 0 -0.32243327870136801 0.35950699838777223 0 -0.32134510148944728 0.34307004099923799 0 -0.31193410579265052 0.3536039280541286 0 -0.31340485972314069 0.36375751913665871 0 -0.32243327870136801 0.35950699838777223 0 -0.30538608464820588 0.33090408634228141 0 -0.32134510148944728 0.34307004099923799 0 -0.30538608464820588 0.33090408634228141 0 -0.32134510148944728 0.34307004099923799 0 -0.31811651498789978 0.32488887006413791 0 -0.32134510148944728 0.34307004099923799 0 -0.31811651498789978 0.32488887006413791 0 -0.33459812393413729 0.32207732583041709 0 -0.31699951866320542 0.30755322334125379 0 -0.30563014257680821 0.31779627416788381 0 -0.31811651498789978 0.32488887006413791 0 -0.31699951866320542 0.30755322334125379 0 -0.31811651498789978 0.32488887006413791 0 -0.33459812393413729 0.32207732583041709 0 -0.32134510148944728 0.34307004099923799 0 -0.34342889555096417 0.33131534648734451 0 -0.3500233487104954 0.34104903357308669 0 -0.32134510148944728 0.34307004099923799 0 -0.33459812393413729 0.32207732583041709 0 -0.34342889555096417 0.33131534648734451 0 -0.32134510148944728 0.34307004099923799 0 -0.3500233487104954 0.34104903357308669 0 -0.3500233487104954 0.34104903357308669 0 -0.35650114511620551 0.33294276438790088 0 -0.36794029410566942 0.33226259727897972 0 -0.34342889555096417 0.33131534648734451 0 -0.3500233487104954 0.34104903357308669 0 -0.35650114511620551 0.33294276438790088 0 -0.33459812393413729 0.32207732583041709 0 -0.34342889555096417 0.33131534648734451 0 -0.35467675850453528 0.31743756764607989 0 -0.34344143829887858 0.30736403781452232 0 -0.33459812393413729 0.32207732583041709 0 -0.35467675850453528 0.31743756764607989 0 -0.35650114511620551 0.33294276438790088 0 -0.35467675850453528 0.31743756764607989 0 -0.36272901898995358 0.31473918551029578 0 -0.34342889555096417 0.33131534648734451 0 -0.35650114511620551 0.33294276438790088 0 -0.35467675850453528 0.31743756764607989 0 -0.35650114511620551 0.33294276438790088 0 -0.36272901898995358 0.31473918551029578 0 -0.37415321332832258 0.31386652142517069 0 -0.35650114511620551 0.33294276438790088 0 -0.37415321332832258 0.31386652142517069 0 -0.35650114511620551 0.33294276438790088 0 -0.37442838800096029 0.32044424157556423 0 -0.37415321332832258 0.31386652142517069 0 -0.37816355277066899 0.32985684687273281 0 -0.37442838800096029 0.32044424157556423 0 -0.36794029410566942 0.33226259727897972 0 -0.3787015959315434 0.33902802614693439 0 -0.3500233487104954 0.34104903357308669 0 -0.36794029410566942 0.33226259727897972 0 -0.35650114511620551 0.33294276438790088 0 -0.37442838800096029 0.32044424157556423 0 -0.36794029410566942 0.33226259727897972 0 -0.3787015959315434 0.33902802614693439 0 -0.3500233487104954 0.34104903357308669 0 -0.3787015959315434 0.33902802614693439 0 -0.37816355277066899 0.32985684687273281 0 -0.36794029410566942 0.33226259727897972 0 -0.3787015959315434 0.33902802614693439 0 -0.3500233487104954 0.34104903357308669 0 -0.36501658974902518 0.35367198233662939 0 -0.37823932191431281 0.35548757599615399 0 -0.3787015959315434 0.33902802614693439 0 -0.36501658974902518 0.35367198233662939 0 -0.37823932191431281 0.35548757599615399 0 -0.36501658974902518 0.35367198233662939 0 -0.37024808467873749 0.36543132639488701 0 -0.36501658974902518 0.35367198233662939 0 -0.37024808467873749 0.36543132639488701 0 -0.35845167711666143 0.37135730462245548 0 -0.37949655700884349 0.37153259571527891 0 -0.37024808467873749 0.36543132639488701 0 -0.36758280318953013 0.37627165255961892 0 -0.37024808467873749 0.36543132639488701 0 -0.35845167711666143 0.37135730462245548 0 -0.36758280318953013 0.37627165255961892 0 -0.36501658974902518 0.35367198233662939 0 -0.35845167711666143 0.37135730462245548 0 -0.35334750121980912 0.35582299833575448 0 -0.34304766554360439 0.37232322735168022 0 -0.33989838930305449 0.35721367281084643 0 -0.35845167711666143 0.37135730462245548 0 -0.33989838930305449 0.35721367281084643 0 -0.35845167711666143 0.37135730462245548 0 -0.35334750121980912 0.35582299833575448 0 -0.33989838930305449 0.35721367281084643 0 -0.35845167711666143 0.37135730462245548 0 -0.33989838930305449 0.35721367281084643 0 -0.3500233487104954 0.34104903357308669 0 -0.35334750121980912 0.35582299833575448 0 -0.3500233487104954 0.34104903357308669 0 -0.36501658974902518 0.35367198233662939 0 -0.35334750121980912 0.35582299833575448 0 -0.35285683380316007 0.39046665159751448 0 -0.36027192889352422 0.40897543894708011 0 -0.34270265381785459 0.40768080501023862 0 -0.34304766554360439 0.37232322735168022 0 -0.35845167711666143 0.37135730462245548 0 -0.35285683380316007 0.39046665159751448 0 -0.37686086334024771 0.38257038446795849 0 -0.35285683380316007 0.39046665159751448 0 -0.37686086334024771 0.38257038446795849 0 -0.35285683380316007 0.39046665159751448 0 -0.36758280318953013 0.37627165255961892 0 -0.35845167711666143 0.37135730462245548 0 -0.35285683380316007 0.39046665159751448 0 -0.36758280318953013 0.37627165255961892 0 -0.37686086334024771 0.38257038446795849 0 -0.37949655700884349 0.37153259571527891 0 -0.36758280318953013 0.37627165255961892 0 -0.37769092578324193 0.39977892163450779 0 -0.35285683380316007 0.39046665159751448 0 -0.37769092578324193 0.39977892163450779 0 -0.37686086334024771 0.38257038446795849 0 -0.35285683380316007 0.39046665159751448 0 -0.37769092578324193 0.39977892163450779 0 -0.35285683380316007 0.39046665159751448 0 -0.36027192889352422 0.40897543894708011 0 -0.37875820238401509 0.42613984176471847 0 -0.37769092578324193 0.39977892163450779 0 -0.36027192889352422 0.40897543894708011 0 -0.37875820238401509 0.42613984176471847 0 -0.36027192889352422 0.40897543894708011 0 -0.36048507512927641 0.42545129427310208 0 -0.37875820238401509 0.42613984176471847 0 -0.36048507512927641 0.42545129427310208 0 -0.35499138700470761 0.44318849185793469 0 -0.37875820238401509 0.42613984176471847 0 -0.35499138700470761 0.44318849185793469 0 -0.34691622899781399 0.42161541908905831 0 -0.33223168701086447 0.43660936806356893 0 -0.35499138700470761 0.44318849185793469 0 -0.36048507512927641 0.42545129427310208 0 -0.34691622899781399 0.42161541908905831 0 -0.35499138700470761 0.44318849185793469 0 -0.36027192889352422 0.40897543894708011 0 -0.34691622899781399 0.42161541908905831 0 -0.34270265381785459 0.40768080501023862 0 -0.36027192889352422 0.40897543894708011 0 -0.36048507512927641 0.42545129427310208 0 -0.34691622899781399 0.42161541908905831 0 -0.34270265381785459 0.40768080501023862 0 -0.32841174735063311 0.41773478988879181 0 -0.32505653004414181 0.39961172552874852 0 -0.34691622899781399 0.42161541908905831 0 -0.34270265381785459 0.40768080501023862 0 -0.32841174735063311 0.41773478988879181 0 -0.34691622899781399 0.42161541908905831 0 -0.32841174735063311 0.41773478988879181 0 -0.33223168701086447 0.43660936806356893 0 -0.32841174735063311 0.41773478988879181 0 -0.33223168701086447 0.43660936806356893 0 -0.31148998866141242 0.43181261152586448 0 -0.32841174735063311 0.41773478988879181 0 -0.31441363705571701 0.41408607272300291 0 -0.32505653004414181 0.39961172552874852 0 -0.32841174735063311 0.41773478988879181 0 -0.31441363705571701 0.41408607272300291 0 -0.31148998866141242 0.43181261152586448 0 -0.32505653004414181 0.39961172552874852 0 -0.31219235154091651 0.39185403334122892 0 -0.30619500853749271 0.39725637532293351 0 -0.32505653004414181 0.39961172552874852 0 -0.31778050989885959 0.38527433798844479 0 -0.31219235154091651 0.39185403334122892 0 -0.35285683380316007 0.39046665159751448 0 -0.32505653004414181 0.39961172552874852 0 -0.33136271335047512 0.38240680169344993 0 -0.35285683380316007 0.39046665159751448 0 -0.34270265381785459 0.40768080501023862 0 -0.32505653004414181 0.39961172552874852 0 -0.35285683380316007 0.39046665159751448 0 -0.32505653004414181 0.39961172552874852 0 -0.35285683380316007 0.39046665159751448 0 -0.33136271335047512 0.38240680169344993 0 -0.34304766554360439 0.37232322735168022 0 -0.35285683380316007 0.39046665159751448 0 -0.33136271335047512 0.38240680169344993 0 -0.30986859289778912 0.37434695178938759 0 -0.32167824364597858 0.36970754211250728 0 -0.33136271335047512 0.38240680169344993 0 -0.30986859289778912 0.37434695178938759 0 -0.33136271335047512 0.38240680169344993 0 -0.32505653004414181 0.39961172552874852 0 -0.33136271335047512 0.38240680169344993 0 -0.31778050989885959 0.38527433798844479 0 -0.30986859289778912 0.37434695178938759 0 -0.33136271335047512 0.38240680169344993 0 -0.31778050989885959 0.38527433798844479 0 -0.30986859289778912 0.37434695178938759 0 -0.31778050989885959 0.38527433798844479 0 -0.30574515252343709 0.38648905476423068 0 -0.30986859289778912 0.37434695178938759 0 -0.30574515252343709 0.38648905476423068 0 -0.29874239202075642 0.37528196759933868 0 -0.30574515252343709 0.38648905476423068 0 -0.29874239202075642 0.37528196759933868 0 -0.29146244090030071 0.40289140707507309 0 -0.31778050989885959 0.38527433798844479 0 -0.30574515252343709 0.38648905476423068 0 -0.31219235154091651 0.39185403334122892 0 -0.32505653004414181 0.39961172552874852 0 -0.30619500853749271 0.39725637532293351 0 -0.29725622628512233 0.40875679945997928 0 -0.32505653004414181 0.39961172552874852 0 -0.29725622628512233 0.40875679945997928 0 -0.30574515252343709 0.38648905476423068 0 -0.30619500853749271 0.39725637532293351 0 -0.29146244090030071 0.40289140707507309 0 -0.30574515252343709 0.38648905476423068 0 -0.31219235154091651 0.39185403334122892 0 -0.30619500853749271 0.39725637532293351 0 -0.30619500853749271 0.39725637532293351 0 -0.29146244090030071 0.40289140707507309 0 -0.29725622628512233 0.40875679945997928 0 -0.29146244090030071 0.40289140707507309 0 -0.2882496590958894 0.39023794275143442 0 -0.278827461574497 0.39790462172635238 0 -0.28396634188800352 0.38487377460497352 0 -0.2882496590958894 0.39023794275143442 0 -0.278827461574497 0.39790462172635238 0 -0.29146244090030071 0.40289140707507309 0 -0.278827461574497 0.39790462172635238 0 -0.27940045790464241 0.41220012044695847 0 -0.29874239202075642 0.37528196759933868 0 -0.29146244090030071 0.40289140707507309 0 -0.29874239202075642 0.37528196759933868 0 -0.29146244090030071 0.40289140707507309 0 -0.2882496590958894 0.39023794275143442 0 -0.29874239202075642 0.37528196759933868 0 -0.28396634188800352 0.38487377460497352 0 -0.28714059247178902 0.37543321948423419 0 -0.29874239202075642 0.37528196759933868 0 -0.28396634188800352 0.38487377460497352 0 -0.2882496590958894 0.39023794275143442 0 -0.28396634188800352 0.38487377460497352 0 -0.28714059247178902 0.37543321948423419 0 -0.27747916353329311 0.37529003384729942 0 -0.28396634188800352 0.38487377460497352 0 -0.27747916353329311 0.37529003384729942 0 -0.26775424033426293 0.38456849691175748 0 -0.28396634188800352 0.38487377460497352 0 -0.26775424033426293 0.38456849691175748 0 -0.278827461574497 0.39790462172635238 0 -0.26470209097228098 0.37140351159401941 0 -0.27747916353329311 0.37529003384729942 0 -0.26775424033426293 0.38456849691175748 0 -0.278827461574497 0.39790462172635238 0 -0.26298604578065232 0.3973558675440883 0 -0.2677584473194361 0.40899541659639099 0 -0.26775424033426293 0.38456849691175748 0 -0.278827461574497 0.39790462172635238 0 -0.26298604578065232 0.3973558675440883 0 -0.26298604578065232 0.3973558675440883 0 -0.25152819264859128 0.38883491631829081 0 -0.2490618870264745 0.40647588616764979 0 -0.26298604578065232 0.3973558675440883 0 -0.2677584473194361 0.40899541659639099 0 -0.2490618870264745 0.40647588616764979 0 -0.25213085833087667 0.37355178257669552 0 -0.26775424033426293 0.38456849691175748 0 -0.25152819264859128 0.38883491631829081 0 -0.26775424033426293 0.38456849691175748 0 -0.26298604578065232 0.3973558675440883 0 -0.25152819264859128 0.38883491631829081 0 -0.26470209097228098 0.37140351159401941 0 -0.25213085833087667 0.37355178257669552 0 -0.26775424033426293 0.38456849691175748 0 -0.2572482915111563 0.42152384209731297 0 -0.26330490497154813 0.43976041958731371 0 -0.24092688658692171 0.43286849171069308 0 -0.2572482915111563 0.42152384209731297 0 -0.27163392734069919 0.42205675226444578 0 -0.26330490497154813 0.43976041958731371 0 -0.2572482915111563 0.42152384209731297 0 -0.2677584473194361 0.40899541659639099 0 -0.2490618870264745 0.40647588616764979 0 -0.2572482915111563 0.42152384209731297 0 -0.2677584473194361 0.40899541659639099 0 -0.27163392734069919 0.42205675226444578 0 -0.27940045790464241 0.41220012044695847 0 -0.27163392734069919 0.42205675226444578 0 -0.28418248977984512 0.43050084655080739 0 -0.2677584473194361 0.40899541659639099 0 -0.27940045790464241 0.41220012044695847 0 -0.27163392734069919 0.42205675226444578 0 -0.278827461574497 0.39790462172635238 0 -0.2677584473194361 0.40899541659639099 0 -0.27940045790464241 0.41220012044695847 0 -0.27163392734069919 0.42205675226444578 0 -0.28418248977984512 0.43050084655080739 0 -0.26330490497154813 0.43976041958731371 0 -0.28418248977984512 0.43050084655080739 0 -0.29943060469912958 0.42576946359573847 0 -0.28981068171355151 0.44369098771903792 0 -0.29146244090030071 0.40289140707507309 0 -0.28418248977984512 0.43050084655080739 0 -0.29146244090030071 0.40289140707507309 0 -0.27940045790464241 0.41220012044695847 0 -0.28418248977984512 0.43050084655080739 0 -0.28418248977984512 0.43050084655080739 0 -0.29725622628512233 0.40875679945997928 0 -0.29943060469912958 0.42576946359573847 0 -0.29146244090030071 0.40289140707507309 0 -0.28418248977984512 0.43050084655080739 0 -0.29725622628512233 0.40875679945997928 0 -0.31441363705571701 0.41408607272300291 0 -0.32505653004414181 0.39961172552874852 0 -0.29725622628512233 0.40875679945997928 0 -0.31441363705571701 0.41408607272300291 0 -0.29725622628512233 0.40875679945997928 0 -0.29943060469912958 0.42576946359573847 0 -0.31441363705571701 0.41408607272300291 0 -0.29943060469912958 0.42576946359573847 0 -0.31148998866141242 0.43181261152586448 0 -0.29943060469912958 0.42576946359573847 0 -0.31148998866141242 0.43181261152586448 0 -0.28981068171355151 0.44369098771903792 0 -0.31148998866141242 0.43181261152586448 0 -0.30120616623050861 0.45239726712555162 0 -0.31718999816658727 0.45065056632578487 0 -0.31148998866141242 0.43181261152586448 0 -0.30120616623050861 0.45239726712555162 0 -0.31148998866141242 0.43181261152586448 0 -0.30120616623050861 0.45239726712555162 0 -0.28981068171355151 0.44369098771903792 0 -0.30120616623050861 0.45239726712555162 0 -0.29092234379960469 0.47298192272523881 0 -0.30745775624609217 0.47728579204436761 0 -0.30120616623050861 0.45239726712555162 0 -0.30745775624609217 0.47728579204436761 0 -0.31718999816658727 0.45065056632578487 0 -0.2852957606144535 0.45730244818253718 0 -0.28186649269177161 0.46567885888970018 0 -0.29092234379960469 0.47298192272523881 0 -0.30120616623050861 0.45239726712555162 0 -0.29092234379960469 0.47298192272523881 0 -0.30120616623050861 0.45239726712555162 0 -0.2852957606144535 0.45730244818253718 0 -0.29092234379960469 0.47298192272523881 0 -0.2852957606144535 0.45730244818253718 0 -0.28186649269177161 0.46567885888970018 0 -0.27690253865938408 0.45811028602654041 0 -0.28418248977984512 0.43050084655080739 0 -0.28981068171355151 0.44369098771903792 0 -0.27690253865938408 0.45811028602654041 0 -0.30120616623050861 0.45239726712555162 0 -0.2852957606144535 0.45730244818253718 0 -0.28981068171355151 0.44369098771903792 0 -0.2852957606144535 0.45730244818253718 0 -0.28981068171355151 0.44369098771903792 0 -0.27690253865938408 0.45811028602654041 0 -0.28418248977984512 0.43050084655080739 0 -0.27690253865938408 0.45811028602654041 0 -0.28418248977984512 0.43050084655080739 0 -0.27690253865938408 0.45811028602654041 0 -0.26330490497154813 0.43976041958731371 0 -0.2852957606144535 0.45730244818253718 0 -0.27690253865938408 0.45811028602654041 0 -0.28186649269177161 0.46567885888970018 0 -0.27690253865938408 0.45811028602654041 0 -0.27835780074514338 0.47366975871288508 0 -0.27690253865938408 0.45811028602654041 0 -0.25345677561811758 0.46036691342989022 0 -0.27690253865938408 0.45811028602654041 0 -0.25345677561811758 0.46036691342989022 0 -0.26590293397843329 0.47057525233348851 0 -0.25345677561811758 0.46036691342989022 0 -0.25315469521642581 0.4750486889203015 0 -0.26590293397843329 0.47057525233348851 0 -0.25345677561811758 0.46036691342989022 0 -0.26330490497154813 0.43976041958731371 0 -0.24129970279445639 0.44943490890582899 0 -0.27690253865938408 0.45811028602654041 0 -0.25345677561811758 0.46036691342989022 0 -0.26330490497154813 0.43976041958731371 0 -0.26169037092037989 0.4910190989046625 0 -0.25397816739109252 0.5 0 -0.27113802145370669 0.49283981386083792 0 -0.26169037092037989 0.4910190989046625 0 -0.25474868654415728 0.48692894813519849 0 -0.26689660829256312 0.48430763362261348 0 -0.26169037092037989 0.4910190989046625 0 -0.25397816739109252 0.5 0 -0.25474868654415728 0.48692894813519849 0 -0.25315469521642581 0.4750486889203015 0 -0.26689660829256312 0.48430763362261348 0 -0.25315469521642581 0.4750486889203015 0 -0.26689660829256312 0.48430763362261348 0 -0.26590293397843329 0.47057525233348851 0 -0.25474868654415728 0.48692894813519849 0 -0.25315469521642581 0.4750486889203015 0 -0.26689660829256312 0.48430763362261348 0 -0.27690253865938408 0.45811028602654041 0 -0.26590293397843329 0.47057525233348851 0 -0.26946370716205509 0.4860372782758946 0 -0.27690253865938408 0.45811028602654041 0 -0.26946370716205509 0.4860372782758946 0 -0.27690253865938408 0.45811028602654041 0 -0.27835780074514338 0.47366975871288508 0 -0.26946370716205509 0.4860372782758946 0 -0.26689660829256312 0.48430763362261348 0 -0.26590293397843329 0.47057525233348851 0 -0.26946370716205509 0.4860372782758946 0 -0.28186649269177161 0.46567885888970018 0 -0.27835780074514338 0.47366975871288508 0 -0.28298297564177088 0.4743823417855309 0 -0.27835780074514338 0.47366975871288508 0 -0.2798907507987049 0.48286402398659151 0 -0.28298297564177088 0.4743823417855309 0 -0.27835780074514338 0.47366975871288508 0 -0.2798907507987049 0.48286402398659151 0 -0.26946370716205509 0.4860372782758946 0 -0.26946370716205509 0.4860372782758946 0 -0.28063852136870049 0.49356657832492562 0 -0.26946370716205509 0.4860372782758946 0 -0.27113802145370669 0.49283981386083792 0 -0.28063852136870049 0.49356657832492562 0 -0.2798907507987049 0.48286402398659151 0 -0.26946370716205509 0.4860372782758946 0 -0.28063852136870049 0.49356657832492562 0 -0.25397816739109252 0.5 0 -0.27113802145370669 0.49283981386083792 0 -0.27742446875513049 0.50000000000000155 0 -0.26689660829256312 0.48430763362261348 0 -0.26946370716205509 0.4860372782758946 0 -0.27113802145370669 0.49283981386083792 0 -0.26169037092037989 0.4910190989046625 0 -0.26689660829256312 0.48430763362261348 0 -0.27113802145370669 0.49283981386083792 0 -0.26689660829256312 0.48430763362261348 0 -0.26946370716205509 0.4860372782758946 0 -0.27113802145370669 0.49283981386083792 0 -0.28063852136870049 0.49356657832492562 0 -0.27742446875513049 0.50000000000000155 0 -0.28063852136870049 0.49356657832492562 0 -0.27742446875513049 0.50000000000000155 0 -0.28063852136870049 0.49356657832492562 0 -0.27742446875513049 0.50000000000000155 0 -0.29018685806186229 0.50000000000000122 0 -0.28063852136870049 0.49356657832492562 0 -0.29018685806186229 0.50000000000000122 0 -0.29092234379960469 0.47298192272523881 0 -0.28063852136870049 0.49356657832492562 0 -0.29018685806186229 0.50000000000000122 0 -0.29018685806186229 0.50000000000000122 0 -0.29092234379960469 0.47298192272523881 0 -0.30745775624609217 0.47728579204436761 0 -0.28063852136870049 0.49356657832492562 0 -0.29092234379960469 0.47298192272523881 0 -0.2798907507987049 0.48286402398659151 0 -0.28063852136870049 0.49356657832492562 0 -0.29092234379960469 0.47298192272523881 0 -0.28186649269177161 0.46567885888970018 0 -0.28298297564177088 0.4743823417855309 0 -0.29092234379960469 0.47298192272523881 0 -0.2798907507987049 0.48286402398659151 0 -0.28298297564177088 0.4743823417855309 0 -0.29092234379960469 0.47298192272523881 0 -0.29018685806186229 0.50000000000000122 0 -0.30745775624609217 0.47728579204436761 0 -0.3640375775585698 0.5 0 -0.30745775624609217 0.47728579204436761 0 -0.33122457162539992 0.46023714195115112 0 -0.3640375775585698 0.5 0 -0.30745775624609217 0.47728579204436761 0 -0.33122457162539992 0.46023714195115112 0 -0.30745775624609217 0.47728579204436761 0 -0.31718999816658727 0.45065056632578487 0 -0.33122457162539992 0.46023714195115112 0 -0.33223168701086447 0.43660936806356893 0 -0.31148998866141242 0.43181261152586448 0 -0.31718999816658727 0.45065056632578487 0 -0.33223168701086447 0.43660936806356893 0 -0.31718999816658727 0.45065056632578487 0 -0.33122457162539992 0.46023714195115112 0 -0.33122457162539992 0.46023714195115112 0 -0.35499138700470761 0.44318849185793469 0 -0.33223168701086447 0.43660936806356893 0 -0.33122457162539992 0.46023714195115112 0 -0.35499138700470761 0.44318849185793469 0 -0.33122457162539992 0.46023714195115112 0 -0.35376164566254242 0.46494380824906301 0 -0.35499138700470761 0.44318849185793469 0 -0.38249991962136642 0.44345487931465249 0 -0.35499138700470761 0.44318849185793469 0 -0.37103467036260362 0.45695891695805302 0 -0.38249991962136642 0.44345487931465249 0 -0.37875820238401509 0.42613984176471847 0 -0.35499138700470761 0.44318849185793469 0 -0.35376164566254242 0.46494380824906301 0 -0.35499138700470761 0.44318849185793469 0 -0.37103467036260362 0.45695891695805302 0 -0.35376164566254242 0.46494380824906301 0 -0.37103467036260362 0.45695891695805302 0 -0.36943712044780219 0.47475959506207249 0 -0.33122457162539992 0.46023714195115112 0 -0.35376164566254242 0.46494380824906301 0 -0.3640375775585698 0.5 0 -0.38891458820749281 0.47713565504117422 0 -0.36943712044780219 0.47475959506207249 0 -0.3640375775585698 0.5 0 -0.35376164566254242 0.46494380824906301 0 -0.36943712044780219 0.47475959506207249 0 -0.3640375775585698 0.5 0 -0.1410608215807003 0.47118489318428192 0 -0.1506389915883973 0.47451242435581331 0 -0.15779819732271971 0.4695739402503486 0 -0.1410608215807003 0.47118489318428192 0 -0.15779819732271971 0.4695739402503486 0 -0.1455325599989582 0.47665965757352818 0 -0.14983465253105441 0.48099067897208148 0 -0.1405957742956809 0.47995063378193648 0 -0.14983465253105441 0.48099067897208148 0 -0.14427471349546869 0.48965289008050411 0 -0.1405957742956809 0.47995063378193648 0 -0.1455325599989582 0.47665965757352818 0 -0.1410608215807003 0.47118489318428192 0 -0.1506389915883973 0.47451242435581331 0 -0.1455325599989582 0.47665965757352818 0 -0.1410608215807003 0.47118489318428192 0 -0.1405957742956809 0.47995063378193648 0 -0.1506389915883973 0.47451242435581331 0 -0.15682389603308189 0.47748605108520858 0 -0.15779819732271971 0.4695739402503486 0 -0.1506389915883973 0.47451242435581331 0 -0.14983465253105441 0.48099067897208148 0 -0.15682389603308189 0.47748605108520858 0 -0.1455325599989582 0.47665965757352818 0 -0.1506389915883973 0.47451242435581331 0 -0.14983465253105441 0.48099067897208148 0 -0.14983465253105441 0.48099067897208148 0 -0.1558122254133027 0.48316327461493752 0 -0.15682389603308189 0.47748605108520858 0 -0.14983465253105441 0.48099067897208148 0 -0.1558122254133027 0.48316327461493752 0 -0.15140604362779489 0.486968875654338 0 -0.1558122254133027 0.48316327461493752 0 -0.15140604362779489 0.486968875654338 0 -0.15545271364459581 0.49281799385228547 0 -0.14983465253105441 0.48099067897208148 0 -0.15140604362779489 0.486968875654338 0 -0.14427471349546869 0.48965289008050411 0 -0.15140604362779489 0.486968875654338 0 -0.15545271364459581 0.49281799385228547 0 -0.14427471349546869 0.48965289008050411 0 -0.15453849507163009 0.5 0 -0.14427471349546869 0.48965289008050411 0 -0.12543772684428189 0.5 0 -0.15453849507163009 0.5 0 -0.15545271364459581 0.49281799385228547 0 -0.14427471349546869 0.48965289008050411 0 -0.14427471349546869 0.48965289008050411 0 -0.12543772684428189 0.5 0 -0.13178312884530541 0.48627570230508688 0 -0.14427471349546869 0.48965289008050411 0 -0.13178312884530541 0.48627570230508688 0 -0.1405957742956809 0.47995063378193648 0 -0.13178312884530541 0.48627570230508688 0 -0.1317912103042716 0.47600940211286807 0 -0.11642361318749669 0.48420448820259387 0 -0.1317912103042716 0.47600940211286807 0 -0.14083201439797821 0.46516349611765162 0 -0.12052644250191399 0.4682622397032008 0 -0.13178312884530541 0.48627570230508688 0 -0.1405957742956809 0.47995063378193648 0 -0.1317912103042716 0.47600940211286807 0 -0.1410608215807003 0.47118489318428192 0 -0.1405957742956809 0.47995063378193648 0 -0.1317912103042716 0.47600940211286807 0 -0.1410608215807003 0.47118489318428192 0 -0.1317912103042716 0.47600940211286807 0 -0.14083201439797821 0.46516349611765162 0 -0.12618187852634369 0.45882241462805679 0 -0.14083201439797821 0.46516349611765162 0 -0.12052644250191399 0.4682622397032008 0 -0.14083201439797821 0.46516349611765162 0 -0.12052644250191399 0.4682622397032008 0 -0.12618187852634369 0.45882241462805679 0 -0.13621980461969219 0.45775649261309698 0 -0.13482926781972801 0.45201676164804122 0 -0.13621980461969219 0.45775649261309698 0 -0.13482926781972801 0.45201676164804122 0 -0.1430360577347192 0.45502329805863873 0 -0.13621980461969219 0.45775649261309698 0 -0.14083201439797821 0.46516349611765162 0 -0.1430360577347192 0.45502329805863873 0 -0.12618187852634369 0.45882241462805679 0 -0.13621980461969219 0.45775649261309698 0 -0.14083201439797821 0.46516349611765162 0 -0.12618187852634369 0.45882241462805679 0 -0.13482926781972801 0.45201676164804122 0 -0.1248743097581413 0.44162978393037222 0 -0.13482926781972801 0.45201676164804122 0 -0.13973201497409549 0.44099892737807922 0 -0.1415241139788854 0.4488412036993919 0 -0.13482926781972801 0.45201676164804122 0 -0.1415241139788854 0.4488412036993919 0 -0.1430360577347192 0.45502329805863873 0 -0.13973201497409549 0.44099892737807922 0 -0.13491063247587859 0.43073185275000708 0 -0.1248743097581413 0.44162978393037222 0 -0.13482926781972801 0.45201676164804122 0 -0.13973201497409549 0.44099892737807922 0 -0.1248743097581413 0.44162978393037222 0 -0.13973201497409549 0.44099892737807922 0 -0.14849911538699881 0.44732582771280882 0 -0.14949031039727409 0.43903968606904947 0 -0.14849911538699881 0.44732582771280882 0 -0.1430360577347192 0.45502329805863873 0 -0.15230793746503779 0.45507497120342549 0 -0.13973201497409549 0.44099892737807922 0 -0.1415241139788854 0.4488412036993919 0 -0.14849911538699881 0.44732582771280882 0 -0.1415241139788854 0.4488412036993919 0 -0.14849911538699881 0.44732582771280882 0 -0.1430360577347192 0.45502329805863873 0 -0.14849911538699881 0.44732582771280882 0 -0.15230793746503779 0.45507497120342549 0 -0.15767924869329919 0.44641741059368378 0 -0.14949031039727409 0.43903968606904947 0 -0.15767924869329919 0.44641741059368378 0 -0.15912083936695831 0.4347249498771325 0 -0.14849911538699881 0.44732582771280882 0 -0.14949031039727409 0.43903968606904947 0 -0.15767924869329919 0.44641741059368378 0 -0.14083201439797821 0.46516349611765162 0 -0.16113758629404229 0.46206475253210239 0 -0.15779819732271971 0.4695739402503486 0 -0.1410608215807003 0.47118489318428192 0 -0.14083201439797821 0.46516349611765162 0 -0.15779819732271971 0.4695739402503486 0 -0.14083201439797821 0.46516349611765162 0 -0.16113758629404229 0.46206475253210239 0 -0.14083201439797821 0.46516349611765162 0 -0.15230793746503779 0.45507497120342549 0 -0.16113758629404229 0.46206475253210239 0 -0.14083201439797821 0.46516349611765162 0 -0.1430360577347192 0.45502329805863873 0 -0.15230793746503779 0.45507497120342549 0 -0.16113758629404229 0.46206475253210239 0 -0.16940388650370539 0.44815354093755089 0 -0.18144315819010631 0.45896600894655282 0 -0.16113758629404229 0.46206475253210239 0 -0.18144315819010631 0.45896600894655282 0 -0.16113758629404229 0.46206475253210239 0 -0.17453557306473899 0.46796298731641428 0 -0.15779819732271971 0.4695739402503486 0 -0.15230793746503779 0.45507497120342549 0 -0.16113758629404229 0.46206475253210239 0 -0.16013216473902109 0.45292766881669072 0 -0.16113758629404229 0.46206475253210239 0 -0.16013216473902109 0.45292766881669072 0 -0.16940388650370539 0.44815354093755089 0 -0.15767924869329919 0.44641741059368378 0 -0.16940388650370539 0.44815354093755089 0 -0.15912083936695831 0.4347249498771325 0 -0.15230793746503779 0.45507497120342549 0 -0.16013216473902109 0.45292766881669072 0 -0.15767924869329919 0.44641741059368378 0 -0.16013216473902109 0.45292766881669072 0 -0.15767924869329919 0.44641741059368378 0 -0.16940388650370539 0.44815354093755089 0 -0.1829590266345629 0.45699162349075462 0 -0.18255950863604661 0.43173185523385532 0 -0.1829590266345629 0.45699162349075462 0 -0.19557533522393281 0.44055915781337712 0 -0.18255950863604661 0.43173185523385532 0 -0.16940388650370539 0.44815354093755089 0 -0.1829590266345629 0.45699162349075462 0 -0.18255950863604661 0.43173185523385532 0 -0.16113758629404229 0.46206475253210239 0 -0.17453557306473899 0.46796298731641428 0 -0.18144315819010631 0.45896600894655282 0 -0.17453557306473899 0.46796298731641428 0 -0.18144315819010631 0.45896600894655282 0 -0.17453557306473899 0.46796298731641428 0 -0.18311948649431831 0.46713679563994498 0 -0.16940388650370539 0.44815354093755089 0 -0.18144315819010631 0.45896600894655282 0 -0.1829590266345629 0.45699162349075462 0 -0.18144315819010631 0.45896600894655282 0 -0.1829590266345629 0.45699162349075462 0 -0.18144315819010631 0.45896600894655282 0 -0.1829865290739871 0.45873048193697258 0 -0.1829590266345629 0.45699162349075462 0 -0.18144315819010631 0.45896600894655282 0 -0.1829865290739871 0.45873048193697258 0 -0.1829865290739871 0.45873048193697258 0 -0.1829590266345629 0.45699162349075462 0 -0.17453557306473899 0.46796298731641428 0 -0.18144315819010631 0.45896600894655282 0 -0.18311948649431831 0.46713679563994498 0 -0.1829865290739871 0.45873048193697258 0 -0.18311948649431831 0.46713679563994498 0 -0.18144315819010631 0.45896600894655282 0 -0.1829865290739871 0.45873048193697258 0 -0.18311948649431831 0.46713679563994498 0 -0.18311948649431831 0.46713679563994498 0 -0.18337937489664821 0.48356839781997168 0 -0.19511197543601369 0.47606725323690458 0 -0.18311948649431831 0.46713679563994498 0 -0.18337937489664821 0.48356839781997168 0 -0.18311948649431831 0.46713679563994498 0 -0.18337937489664821 0.48356839781997168 0 -0.17485937494801759 0.47808814193434568 0 -0.17453557306473899 0.46796298731641428 0 -0.18311948649431831 0.46713679563994498 0 -0.17485937494801759 0.47808814193434568 0 -0.17453557306473899 0.46796298731641428 0 -0.15779819732271971 0.4695739402503486 0 -0.17453557306473899 0.46796298731641428 0 -0.16499414335466689 0.48039049058434952 0 -0.17453557306473899 0.46796298731641428 0 -0.16499414335466689 0.48039049058434952 0 -0.15779819732271971 0.4695739402503486 0 -0.17453557306473899 0.46796298731641428 0 -0.17485937494801759 0.47808814193434568 0 -0.16499414335466689 0.48039049058434952 0 -0.17485937494801759 0.47808814193434568 0 -0.16499414335466689 0.48039049058434952 0 -0.1699453859209171 0.49288017845899518 0 -0.1558122254133027 0.48316327461493752 0 -0.16499414335466689 0.48039049058434952 0 -0.15682389603308189 0.47748605108520858 0 -0.16499414335466689 0.48039049058434952 0 -0.15682389603308189 0.47748605108520858 0 -0.15779819732271971 0.4695739402503486 0 -0.15453849507163009 0.5 0 -0.1699453859209171 0.49288017845899518 0 -0.18363926329897839 0.49999999999999828 0 -0.15453849507163009 0.5 0 -0.15545271364459581 0.49281799385228547 0 -0.1699453859209171 0.49288017845899518 0 -0.15545271364459581 0.49281799385228547 0 -0.16499414335466689 0.48039049058434952 0 -0.1699453859209171 0.49288017845899518 0 -0.15545271364459581 0.49281799385228547 0 -0.16499414335466689 0.48039049058434952 0 -0.1558122254133027 0.48316327461493752 0 -0.15545271364459581 0.49281799385228547 0 -0.16499414335466689 0.48039049058434952 0 -0.18337937489664821 0.48356839781997168 0 -0.18363926329897839 0.49999999999999828 0 -0.18337937489664821 0.48356839781997168 0 -0.1699453859209171 0.49288017845899518 0 -0.18363926329897839 0.49999999999999828 0 -0.18337937489664821 0.48356839781997168 0 -0.17485937494801759 0.47808814193434568 0 -0.1699453859209171 0.49288017845899518 0 -0.18337937489664821 0.48356839781997168 0 -0.18363926329897839 0.49999999999999828 0 -0.19848883175809501 0.48685236178056529 0 -0.18363926329897839 0.49999999999999828 0 -0.19848883175809501 0.48685236178056529 0 -0.20708556466301639 0.5 0 -0.18311948649431831 0.46713679563994498 0 -0.19511197543601369 0.47606725323690458 0 -0.20656524953558469 0.46488016823659339 0 -0.18337937489664821 0.48356839781997168 0 -0.19848883175809501 0.48685236178056529 0 -0.19511197543601369 0.47606725323690458 0 -0.19848883175809501 0.48685236178056529 0 -0.19511197543601369 0.47606725323690458 0 -0.206747867840962 0.47700509082497228 0 -0.19511197543601369 0.47606725323690458 0 -0.206747867840962 0.47700509082497228 0 -0.20656524953558469 0.46488016823659339 0 -0.19848883175809501 0.48685236178056529 0 -0.206747867840962 0.47700509082497228 0 -0.21585796601610141 0.48648558657266339 0 -0.206747867840962 0.47700509082497228 0 -0.21852396914967101 0.47285401242330122 0 -0.20656524953558469 0.46488016823659339 0 -0.206747867840962 0.47700509082497228 0 -0.21852396914967101 0.47285401242330122 0 -0.21585796601610141 0.48648558657266339 0 -0.20708556466301639 0.5 0 -0.21585796601610141 0.48648558657266339 0 -0.23053186602705439 0.5 0 -0.19848883175809501 0.48685236178056529 0 -0.20708556466301639 0.5 0 -0.21585796601610141 0.48648558657266339 0 -0.21585796601610141 0.48648558657266339 0 -0.23053186602705439 0.5 0 -0.2373192826940049 0.48342253064983348 0 -0.21852396914967101 0.47285401242330122 0 -0.2373192826940049 0.48342253064983348 0 -0.23001101257685119 0.46262354083324181 0 -0.21852396914967101 0.47285401242330122 0 -0.21585796601610141 0.48648558657266339 0 -0.2373192826940049 0.48342253064983348 0 -0.25474868654415728 0.48692894813519849 0 -0.25315469521642581 0.4750486889203015 0 -0.2373192826940049 0.48342253064983348 0 -0.25315469521642581 0.4750486889203015 0 -0.2373192826940049 0.48342253064983348 0 -0.23001101257685119 0.46262354083324181 0 -0.25397816739109252 0.5 0 -0.23053186602705439 0.5 0 -0.2373192826940049 0.48342253064983348 0 -0.25397816739109252 0.5 0 -0.25474868654415728 0.48692894813519849 0 -0.2373192826940049 0.48342253064983348 0 -0.26330490497154813 0.43976041958731371 0 -0.24129970279445639 0.44943490890582899 0 -0.24092688658692171 0.43286849171069308 0 -0.24129970279445639 0.44943490890582899 0 -0.2242493546558077 0.44235471361969553 0 -0.24092688658692171 0.43286849171069308 0 -0.25345677561811758 0.46036691342989022 0 -0.23001101257685119 0.46262354083324181 0 -0.25345677561811758 0.46036691342989022 0 -0.24129970279445639 0.44943490890582899 0 -0.23001101257685119 0.46262354083324181 0 -0.25345677561811758 0.46036691342989022 0 -0.25315469521642581 0.4750486889203015 0 -0.23001101257685119 0.46262354083324181 0 -0.24129970279445639 0.44943490890582899 0 -0.23001101257685119 0.46262354083324181 0 -0.2242493546558077 0.44235471361969553 0 -0.23001101257685119 0.46262354083324181 0 -0.2242493546558077 0.44235471361969553 0 -0.2144914677851314 0.45380351874251162 0 -0.2242493546558077 0.44235471361969553 0 -0.20880164963731279 0.443380440886459 0 -0.2144914677851314 0.45380351874251162 0 -0.20880164963731279 0.443380440886459 0 -0.2144914677851314 0.45380351874251162 0 -0.20415969833182021 0.45549933815243238 0 -0.23001101257685119 0.46262354083324181 0 -0.2144914677851314 0.45380351874251162 0 -0.20656524953558469 0.46488016823659339 0 -0.21852396914967101 0.47285401242330122 0 -0.23001101257685119 0.46262354083324181 0 -0.20656524953558469 0.46488016823659339 0 -0.23001101257685119 0.46262354083324181 0 -0.20656524953558469 0.46488016823659339 0 -0.2144914677851314 0.45380351874251162 0 -0.20415969833182021 0.45549933815243238 0 -0.20656524953558469 0.46488016823659339 0 -0.1829865290739871 0.45873048193697258 0 -0.1829590266345629 0.45699162349075462 0 -0.20415969833182021 0.45549933815243238 0 -0.1829865290739871 0.45873048193697258 0 -0.20415969833182021 0.45549933815243238 0 -0.18311948649431831 0.46713679563994498 0 -0.20415969833182021 0.45549933815243238 0 -0.20656524953558469 0.46488016823659339 0 -0.1829865290739871 0.45873048193697258 0 -0.18311948649431831 0.46713679563994498 0 -0.20415969833182021 0.45549933815243238 0 -0.18311948649431831 0.46713679563994498 0 -0.20656524953558469 0.46488016823659339 0 -0.1829590266345629 0.45699162349075462 0 -0.19557533522393281 0.44055915781337712 0 -0.1829590266345629 0.45699162349075462 0 -0.20415969833182021 0.45549933815243238 0 -0.19557533522393281 0.44055915781337712 0 -0.20880164963731279 0.443380440886459 0 -0.20415969833182021 0.45549933815243238 0 -0.19557533522393281 0.44055915781337712 0 -0.19557533522393281 0.44055915781337712 0 -0.20819164381331129 0.42412669213600601 0 -0.19557533522393281 0.44055915781337712 0 -0.19413142888046839 0.4217351031076268 0 -0.18255950863604661 0.43173185523385532 0 -0.19557533522393281 0.44055915781337712 0 -0.19413142888046839 0.4217351031076268 0 -0.20819164381331129 0.42412669213600601 0 -0.19413142888046839 0.4217351031076268 0 -0.20819164381331129 0.42412669213600601 0 -0.2021706660915297 0.40578572337793972 0 -0.19413142888046839 0.4217351031076268 0 -0.2021706660915297 0.40578572337793972 0 -0.18215999063752189 0.40647208697695608 0 -0.20819164381331129 0.42412669213600601 0 -0.22405449890785839 0.40643558214578251 0 -0.2021706660915297 0.40578572337793972 0 -0.20880164963731279 0.443380440886459 0 -0.19557533522393281 0.44055915781337712 0 -0.20819164381331129 0.42412669213600601 0 -0.2242493546558077 0.44235471361969553 0 -0.20880164963731279 0.443380440886459 0 -0.20819164381331129 0.42412669213600601 0 -0.2242493546558077 0.44235471361969553 0 -0.20819164381331129 0.42412669213600601 0 -0.22600929792909111 0.42518400498706249 0 -0.2242493546558077 0.44235471361969553 0 -0.22600929792909111 0.42518400498706249 0 -0.24092688658692171 0.43286849171069308 0 -0.20819164381331129 0.42412669213600601 0 -0.22600929792909111 0.42518400498706249 0 -0.22405449890785839 0.40643558214578251 0 -0.22600929792909111 0.42518400498706249 0 -0.22405449890785839 0.40643558214578251 0 -0.2382988550227183 0.41778448946306668 0 -0.2572482915111563 0.42152384209731297 0 -0.2382988550227183 0.41778448946306668 0 -0.2490618870264745 0.40647588616764979 0 -0.22405449890785839 0.40643558214578251 0 -0.2382988550227183 0.41778448946306668 0 -0.2490618870264745 0.40647588616764979 0 -0.2572482915111563 0.42152384209731297 0 -0.2382988550227183 0.41778448946306668 0 -0.24092688658692171 0.43286849171069308 0 -0.22600929792909111 0.42518400498706249 0 -0.2382988550227183 0.41778448946306668 0 -0.24092688658692171 0.43286849171069308 0 -0.24000210142933509 0.37809552861286783 0 -0.23801773827758249 0.39392053259368742 0 -0.22567210936962789 0.38582584627882549 0 -0.25152819264859128 0.38883491631829081 0 -0.24000210142933509 0.37809552861286783 0 -0.23801773827758249 0.39392053259368742 0 -0.25213085833087667 0.37355178257669552 0 -0.25152819264859128 0.38883491631829081 0 -0.24000210142933509 0.37809552861286783 0 -0.25152819264859128 0.38883491631829081 0 -0.2490618870264745 0.40647588616764979 0 -0.23801773827758249 0.39392053259368742 0 -0.22405449890785839 0.40643558214578251 0 -0.2490618870264745 0.40647588616764979 0 -0.23801773827758249 0.39392053259368742 0 -0.22405449890785839 0.40643558214578251 0 -0.22567210936962789 0.38582584627882549 0 -0.2099895612515065 0.38861519238670661 0 -0.22405449890785839 0.40643558214578251 0 -0.23801773827758249 0.39392053259368742 0 -0.22567210936962789 0.38582584627882549 0 -0.22567210936962789 0.38582584627882549 0 -0.21752164111765379 0.37637519474985792 0 -0.23054114355980421 0.3681661286558337 0 -0.24000210142933509 0.37809552861286783 0 -0.22567210936962789 0.38582584627882549 0 -0.23054114355980421 0.3681661286558337 0 -0.22567210936962789 0.38582584627882549 0 -0.21752164111765379 0.37637519474985792 0 -0.2099895612515065 0.38861519238670661 0 -0.21752164111765379 0.37637519474985792 0 -0.2099895612515065 0.38861519238670661 0 -0.20825127389149589 0.37038948781896619 0 -0.2099895612515065 0.38861519238670661 0 -0.1956253707180633 0.37355818799515828 0 -0.20825127389149589 0.37038948781896619 0 -0.22405449890785839 0.40643558214578251 0 -0.2099895612515065 0.38861519238670661 0 -0.2021706660915297 0.40578572337793972 0 -0.2021706660915297 0.40578572337793972 0 -0.19434121226752371 0.39112870189136351 0 -0.18215999063752189 0.40647208697695608 0 -0.2099895612515065 0.38861519238670661 0 -0.2021706660915297 0.40578572337793972 0 -0.19434121226752371 0.39112870189136351 0 -0.2099895612515065 0.38861519238670661 0 -0.19434121226752371 0.39112870189136351 0 -0.1956253707180633 0.37355818799515828 0 -0.19434121226752371 0.39112870189136351 0 -0.18176047263899719 0.38121231872005679 0 -0.1956253707180633 0.37355818799515828 0 -0.18176047263899719 0.38121231872005679 0 -0.16585623702428451 0.39107516703040651 0 -0.16689278400863089 0.37048631692620287 0 -0.16585623702428451 0.39107516703040651 0 -0.1532541744773912 0.375434017343177 0 -0.15169756500005979 0.38990146883471011 0 -0.16585623702428451 0.39107516703040651 0 -0.1532541744773912 0.375434017343177 0 -0.16689278400863089 0.37048631692620287 0 -0.16585623702428451 0.39107516703040651 0 -0.1665369108918931 0.40914444316194981 0 -0.1556916669008335 0.40278409093046019 0 -0.16585623702428451 0.39107516703040651 0 -0.18215999063752189 0.40647208697695608 0 -0.1665369108918931 0.40914444316194981 0 -0.16585623702428451 0.39107516703040651 0 -0.15169756500005979 0.38990146883471011 0 -0.1556916669008335 0.40278409093046019 0 -0.18176047263899719 0.38121231872005679 0 -0.16585623702428451 0.39107516703040651 0 -0.18215999063752189 0.40647208697695608 0 -0.18176047263899719 0.38121231872005679 0 -0.18215999063752189 0.40647208697695608 0 -0.19434121226752371 0.39112870189136351 0 -0.18176047263899719 0.38121231872005679 0 -0.18215999063752189 0.40647208697695608 0 -0.18215999063752189 0.40647208697695608 0 -0.18255950863604661 0.43173185523385532 0 -0.18215999063752189 0.40647208697695608 0 -0.16958367679162159 0.42493542776846188 0 -0.1665369108918931 0.40914444316194981 0 -0.19413142888046839 0.4217351031076268 0 -0.18215999063752189 0.40647208697695608 0 -0.18255950863604661 0.43173185523385532 0 -0.18215999063752189 0.40647208697695608 0 -0.18255950863604661 0.43173185523385532 0 -0.16958367679162159 0.42493542776846188 0 -0.16940388650370539 0.44815354093755089 0 -0.18255950863604661 0.43173185523385532 0 -0.16958367679162159 0.42493542776846188 0 -0.16940388650370539 0.44815354093755089 0 -0.16958367679162159 0.42493542776846188 0 -0.15912083936695831 0.4347249498771325 0 -0.16958367679162159 0.42493542776846188 0 -0.15912083936695831 0.4347249498771325 0 -0.15604886632200479 0.41831593774319042 0 -0.16958367679162159 0.42493542776846188 0 -0.1665369108918931 0.40914444316194981 0 -0.15604886632200479 0.41831593774319042 0 -0.1665369108918931 0.40914444316194981 0 -0.15604886632200479 0.41831593774319042 0 -0.1556916669008335 0.40278409093046019 0 -0.15604886632200479 0.41831593774319042 0 -0.14768726638806501 0.40958107086639878 0 -0.1556916669008335 0.40278409093046019 0 -0.15604886632200479 0.41831593774319042 0 -0.1455440964649429 0.41771164433310332 0 -0.14575226394851429 0.42876386523653243 0 -0.15604886632200479 0.41831593774319042 0 -0.1455440964649429 0.41771164433310332 0 -0.14768726638806501 0.40958107086639878 0 -0.1455440964649429 0.41771164433310332 0 -0.14768726638806501 0.40958107086639878 0 -0.13820848934052041 0.41088683445876423 0 -0.15912083936695831 0.4347249498771325 0 -0.15604886632200479 0.41831593774319042 0 -0.14575226394851429 0.42876386523653243 0 -0.14949031039727409 0.43903968606904947 0 -0.15912083936695831 0.4347249498771325 0 -0.14575226394851429 0.42876386523653243 0 -0.1455440964649429 0.41771164433310332 0 -0.14575226394851429 0.42876386523653243 0 -0.13557398954387551 0.42076075412316039 0 -0.13973201497409549 0.44099892737807922 0 -0.14949031039727409 0.43903968606904947 0 -0.14575226394851429 0.42876386523653243 0 -0.13491063247587859 0.43073185275000708 0 -0.1242188050129694 0.42501783294758849 0 -0.1248743097581413 0.44162978393037222 0 -0.13973201497409549 0.44099892737807922 0 -0.14575226394851429 0.42876386523653243 0 -0.13491063247587859 0.43073185275000708 0 -0.14575226394851429 0.42876386523653243 0 -0.13491063247587859 0.43073185275000708 0 -0.13557398954387551 0.42076075412316039 0 -0.13491063247587859 0.43073185275000708 0 -0.13557398954387551 0.42076075412316039 0 -0.1242188050129694 0.42501783294758849 0 -0.13820848934052041 0.41088683445876423 0 -0.13557398954387551 0.42076075412316039 0 -0.12623023605756489 0.41143854881348008 0 -0.1455440964649429 0.41771164433310332 0 -0.13820848934052041 0.41088683445876423 0 -0.13557398954387551 0.42076075412316039 0 -0.13557398954387551 0.42076075412316039 0 -0.12623023605756489 0.41143854881348008 0 -0.1242188050129694 0.42501783294758849 0 -0.13820848934052041 0.41088683445876423 0 -0.12623023605756489 0.41143854881348008 0 -0.13398515235888339 0.40371564514020769 0 -0.12997925716256209 0.39431640422262348 0 -0.14074253368576661 0.38200722200303072 0 -0.1429432129120235 0.39820684686647628 0 -0.12623023605756489 0.41143854881348008 0 -0.13398515235888339 0.40371564514020769 0 -0.12997925716256209 0.39431640422262348 0 -0.13398515235888339 0.40371564514020769 0 -0.12997925716256209 0.39431640422262348 0 -0.1429432129120235 0.39820684686647628 0 -0.13820848934052041 0.41088683445876423 0 -0.13398515235888339 0.40371564514020769 0 -0.1429432129120235 0.39820684686647628 0 -0.12997925716256209 0.39431640422262348 0 -0.14074253368576661 0.38200722200303072 0 -0.12523428666698541 0.37069662222368049 0 -0.12997925716256209 0.39431640422262348 0 -0.12523428666698541 0.37069662222368049 0 -0.12103247972044499 0.39311621374447298 0 -0.14074253368576661 0.38200722200303072 0 -0.15169756500005979 0.38990146883471011 0 -0.1429432129120235 0.39820684686647628 0 -0.14074253368576661 0.38200722200303072 0 -0.1532541744773912 0.375434017343177 0 -0.15169756500005979 0.38990146883471011 0 -0.15169756500005979 0.38990146883471011 0 -0.1556916669008335 0.40278409093046019 0 -0.1429432129120235 0.39820684686647628 0 -0.14768726638806501 0.40958107086639878 0 -0.1556916669008335 0.40278409093046019 0 -0.1429432129120235 0.39820684686647628 0 -0.14768726638806501 0.40958107086639878 0 -0.13820848934052041 0.41088683445876423 0 -0.1429432129120235 0.39820684686647628 0 -0.14407255521749979 0.34403263722221961 0 -0.15504053286571459 0.3545366000593369 0 -0.14129669608781389 0.36249735492572199 0 -0.14407255521749979 0.34403263722221961 0 -0.15504053286571459 0.3545366000593369 0 -0.1549481930100888 0.34056708499864929 0 -0.14074253368576661 0.38200722200303072 0 -0.1532541744773912 0.375434017343177 0 -0.14129669608781389 0.36249735492572199 0 -0.1532541744773912 0.375434017343177 0 -0.15504053286571459 0.3545366000593369 0 -0.14129669608781389 0.36249735492572199 0 -0.14129669608781389 0.36249735492572199 0 -0.12523428666698541 0.37069662222368049 0 -0.1294360936135257 0.3482770307028879 0 -0.12523428666698541 0.37069662222368049 0 -0.1294360936135257 0.3482770307028879 0 -0.14074253368576661 0.38200722200303072 0 -0.14129669608781389 0.36249735492572199 0 -0.12523428666698541 0.37069662222368049 0 -0.14407255521749979 0.34403263722221961 0 -0.14129669608781389 0.36249735492572199 0 -0.1294360936135257 0.3482770307028879 0 -0.1294360936135257 0.3482770307028879 0 -0.13363790056006589 0.32585743918209531 0 -0.14407255521749979 0.34403263722221961 0 -0.1294360936135257 0.3482770307028879 0 -0.13363790056006589 0.32585743918209531 0 -0.1294360936135257 0.3482770307028879 0 -0.13363790056006589 0.32585743918209531 0 -0.1154499742120704 0.34086754873962172 0 -0.12722248981549561 0.3181430308760943 0 -0.13363790056006589 0.32585743918209531 0 -0.1360408951285694 0.3130357752318072 0 -0.12722248981549561 0.3181430308760943 0 -0.1360408951285694 0.3130357752318072 0 -0.12136448477009221 0.30951812845445109 0 -0.12722248981549561 0.3181430308760943 0 -0.13363790056006589 0.32585743918209531 0 -0.12142985306419619 0.32461006626398298 0 -0.13363790056006589 0.32585743918209531 0 -0.12142985306419619 0.32461006626398298 0 -0.13363790056006589 0.32585743918209531 0 -0.1360408951285694 0.3130357752318072 0 -0.14290423209994971 0.32095809222069871 0 -0.13363790056006589 0.32585743918209531 0 -0.1360408951285694 0.3130357752318072 0 -0.14290423209994971 0.32095809222069871 0 -0.1532404752523272 0.32269894785805692 0 -0.1464174014568787 0.29836992735667278 0 -0.13363790056006589 0.32585743918209531 0 -0.14290423209994971 0.32095809222069871 0 -0.15729966860100811 0.32827511069417059 0 -0.13363790056006589 0.32585743918209531 0 -0.15729966860100811 0.32827511069417059 0 -0.14290423209994971 0.32095809222069871 0 -0.1532404752523272 0.32269894785805692 0 -0.15729966860100811 0.32827511069417059 0 -0.1532404752523272 0.32269894785805692 0 -0.15943794807189979 0.31595908059817063 0 -0.1547819877644892 0.3091453549012102 0 -0.14407255521749979 0.34403263722221961 0 -0.13363790056006589 0.32585743918209531 0 -0.14748957934716561 0.33468306802428371 0 -0.13363790056006589 0.32585743918209531 0 -0.14748957934716561 0.33468306802428371 0 -0.15729966860100811 0.32827511069417059 0 -0.14748957934716561 0.33468306802428371 0 -0.1549481930100888 0.34056708499864929 0 -0.15729966860100811 0.32827511069417059 0 -0.14407255521749979 0.34403263722221961 0 -0.14748957934716561 0.33468306802428371 0 -0.1549481930100888 0.34056708499864929 0 -0.15729966860100811 0.32827511069417059 0 -0.18096143664194889 0.33069278220625808 0 -0.1549481930100888 0.34056708499864929 0 -0.15729966860100811 0.32827511069417059 0 -0.16781010436956259 0.34240718275037813 0 -0.15729966860100811 0.32827511069417059 0 -0.16781010436956259 0.34240718275037813 0 -0.18096143664194889 0.33069278220625808 0 -0.15729966860100811 0.32827511069417059 0 -0.17028988351433311 0.32233995817617028 0 -0.18096143664194889 0.33069278220625808 0 -0.15943794807189979 0.31595908059817063 0 -0.16495134068588049 0.31685297469802859 0 -0.1638395481514221 0.30983277085387728 0 -0.1532404752523272 0.32269894785805692 0 -0.15943794807189979 0.31595908059817063 0 -0.16037638850537991 0.32126535467967993 0 -0.15943794807189979 0.31595908059817063 0 -0.16037638850537991 0.32126535467967993 0 -0.16495134068588049 0.31685297469802859 0 -0.15729966860100811 0.32827511069417059 0 -0.16037638850537991 0.32126535467967993 0 -0.17028988351433311 0.32233995817617028 0 -0.1532404752523272 0.32269894785805692 0 -0.15729966860100811 0.32827511069417059 0 -0.16037638850537991 0.32126535467967993 0 -0.16495134068588049 0.31685297469802859 0 -0.17285953122972289 0.31090601179704258 0 -0.1638395481514221 0.30983277085387728 0 -0.17028988351433311 0.32233995817617028 0 -0.16495134068588049 0.31685297469802859 0 -0.17285953122972289 0.31090601179704258 0 -0.16037638850537991 0.32126535467967993 0 -0.17028988351433311 0.32233995817617028 0 -0.16495134068588049 0.31685297469802859 0 -0.18077272512400111 0.31876138179813301 0 -0.17285953122972289 0.31090601179704258 0 -0.17028988351433311 0.32233995817617028 0 -0.18077272512400111 0.31876138179813301 0 -0.17285953122972289 0.31090601179704258 0 -0.17028988351433311 0.32233995817617028 0 -0.18077272512400111 0.31876138179813301 0 -0.18096143664194889 0.33069278220625808 0 -0.18077272512400111 0.31876138179813301 0 -0.19386790912735871 0.33176087567547108 0 -0.18077272512400111 0.31876138179813301 0 -0.18096143664194889 0.33069278220625808 0 -0.18077272512400111 0.31876138179813301 0 -0.18096143664194889 0.33069278220625808 0 -0.19386790912735871 0.33176087567547108 0 -0.18096143664194889 0.33069278220625808 0 -0.1813609546404725 0.35595255046315749 0 -0.18096143664194889 0.33069278220625808 0 -0.1813609546404725 0.35595255046315749 0 -0.19258948339875709 0.33633707034479371 0 -0.16781010436956259 0.34240718275037813 0 -0.18096143664194889 0.33069278220625808 0 -0.1813609546404725 0.35595255046315749 0 -0.18096143664194889 0.33069278220625808 0 -0.19386790912735871 0.33176087567547108 0 -0.15504053286571459 0.3545366000593369 0 -0.16781010436956259 0.34240718275037813 0 -0.1813609546404725 0.35595255046315749 0 -0.15504053286571459 0.3545366000593369 0 -0.1549481930100888 0.34056708499864929 0 -0.16781010436956259 0.34240718275037813 0 -0.1532541744773912 0.375434017343177 0 -0.15504053286571459 0.3545366000593369 0 -0.16689278400863089 0.37048631692620287 0 -0.15504053286571459 0.3545366000593369 0 -0.1813609546404725 0.35595255046315749 0 -0.16689278400863089 0.37048631692620287 0 -0.18176047263899719 0.38121231872005679 0 -0.1813609546404725 0.35595255046315749 0 -0.18176047263899719 0.38121231872005679 0 -0.1813609546404725 0.35595255046315749 0 -0.1956253707180633 0.37355818799515828 0 -0.18176047263899719 0.38121231872005679 0 -0.1813609546404725 0.35595255046315749 0 -0.16689278400863089 0.37048631692620287 0 -0.1813609546404725 0.35595255046315749 0 -0.1956253707180633 0.37355818799515828 0 -0.2000380028121157 0.35856944723279938 0 -0.1956253707180633 0.37355818799515828 0 -0.2000380028121157 0.35856944723279938 0 -0.20825127389149589 0.37038948781896619 0 -0.1813609546404725 0.35595255046315749 0 -0.1951678646333711 0.34883535218340811 0 -0.19258948339875709 0.33633707034479371 0 -0.1813609546404725 0.35595255046315749 0 -0.1951678646333711 0.34883535218340811 0 -0.2000380028121157 0.35856944723279938 0 -0.1951678646333711 0.34883535218340811 0 -0.2000380028121157 0.35856944723279938 0 -0.20668301768213909 0.34448234069288158 0 -0.20668301768213909 0.34448234069288158 0 -0.2120127789660084 0.36084248239747968 0 -0.21921666942493959 0.3569244055809645 0 -0.2000380028121157 0.35856944723279938 0 -0.20668301768213909 0.34448234069288158 0 -0.2120127789660084 0.36084248239747968 0 -0.2120127789660084 0.36084248239747968 0 -0.21921666942493959 0.3569244055809645 0 -0.20668301768213909 0.34448234069288158 0 -0.21921666942493959 0.3569244055809645 0 -0.22158808080033929 0.34557455345049992 0 -0.20668301768213909 0.34448234069288158 0 -0.21921666942493959 0.3569244055809645 0 -0.2000380028121157 0.35856944723279938 0 -0.20825127389149589 0.37038948781896619 0 -0.2120127789660084 0.36084248239747968 0 -0.2120127789660084 0.36084248239747968 0 -0.2199937556016836 0.36693485901855288 0 -0.21921666942493959 0.3569244055809645 0 -0.20825127389149589 0.37038948781896619 0 -0.2120127789660084 0.36084248239747968 0 -0.2199937556016836 0.36693485901855288 0 -0.21752164111765379 0.37637519474985792 0 -0.20825127389149589 0.37038948781896619 0 -0.2199937556016836 0.36693485901855288 0 -0.21752164111765379 0.37637519474985792 0 -0.23054114355980421 0.3681661286558337 0 -0.2199937556016836 0.36693485901855288 0 -0.23054114355980421 0.3681661286558337 0 -0.21921666942493959 0.3569244055809645 0 -0.23305195790672301 0.35812934693154008 0 -0.23054114355980421 0.3681661286558337 0 -0.2199937556016836 0.36693485901855288 0 -0.21921666942493959 0.3569244055809645 0 -0.23054114355980421 0.3681661286558337 0 -0.21921666942493959 0.3569244055809645 0 -0.21921666942493959 0.3569244055809645 0 -0.22158808080033929 0.34557455345049992 0 -0.23915963598069589 0.34607775607121571 0 -0.21921666942493959 0.3569244055809645 0 -0.23915963598069589 0.34607775607121571 0 -0.21921666942493959 0.3569244055809645 0 -0.23305195790672301 0.35812934693154008 0 -0.23915963598069589 0.34607775607121571 0 -0.23305195790672301 0.35812934693154008 0 -0.23915963598069589 0.34607775607121571 0 -0.24329038266145239 0.36134909741814653 0 -0.25407523553642281 0.3497448278934856 0 -0.23915963598069589 0.34607775607121571 0 -0.24329038266145239 0.36134909741814653 0 -0.25213085833087667 0.37355178257669552 0 -0.24000210142933509 0.37809552861286783 0 -0.24329038266145239 0.36134909741814653 0 -0.24000210142933509 0.37809552861286783 0 -0.23054114355980421 0.3681661286558337 0 -0.24329038266145239 0.36134909741814653 0 -0.23054114355980421 0.3681661286558337 0 -0.23305195790672301 0.35812934693154008 0 -0.24329038266145239 0.36134909741814653 0 -0.23582541811145999 0.32679902143390172 0 -0.24885494741763489 0.31718848033418301 0 -0.23189508169276829 0.30076725351495531 0 -0.23582541811145999 0.32679902143390172 0 -0.24885494741763489 0.31718848033418301 0 -0.24633099797708269 0.32737693631841108 0 -0.25451497659773847 0.32559442806853028 0 -0.24885494741763489 0.31718848033418301 0 -0.24633099797708269 0.32737693631841108 0 -0.24843663428782739 0.33758714710907461 0 -0.22129300011358269 0.33481371145693772 0 -0.25451497659773847 0.32559442806853028 0 -0.24633099797708269 0.32737693631841108 0 -0.24843663428782739 0.33758714710907461 0 -0.25910260253645218 0.33523110656146687 0 -0.23915963598069589 0.34607775607121571 0 -0.23582541811145999 0.32679902143390172 0 -0.24633099797708269 0.32737693631841108 0 -0.24843663428782739 0.33758714710907461 0 -0.25910260253645218 0.33523110656146687 0 -0.23915963598069589 0.34607775607121571 0 -0.24843663428782739 0.33758714710907461 0 -0.23582541811145999 0.32679902143390172 0 -0.24843663428782739 0.33758714710907461 0 -0.22129300011358269 0.33481371145693772 0 -0.23915963598069589 0.34607775607121571 0 -0.24843663428782739 0.33758714710907461 0 -0.22129300011358269 0.33481371145693772 0 -0.22158808080033929 0.34557455345049992 0 -0.23915963598069589 0.34607775607121571 0 -0.22129300011358269 0.33481371145693772 0 -0.23582541811145999 0.32679902143390172 0 -0.21954464392232159 0.31820766509236142 0 -0.23189508169276829 0.30076725351495531 0 -0.23582541811145999 0.32679902143390172 0 -0.22129300011358269 0.33481371145693772 0 -0.21954464392232159 0.31820766509236142 0 -0.21954464392232159 0.31820766509236142 0 -0.20492818889453221 0.32276220977772679 0 -0.20060783596013981 0.3076349397264902 0 -0.22129300011358269 0.33481371145693772 0 -0.21954464392232159 0.31820766509236142 0 -0.20492818889453221 0.32276220977772679 0 -0.22129300011358269 0.33481371145693772 0 -0.20492818889453221 0.32276220977772679 0 -0.19386790912735871 0.33176087567547108 0 -0.22129300011358269 0.33481371145693772 0 -0.19386790912735871 0.33176087567547108 0 -0.20668301768213909 0.34448234069288158 0 -0.22129300011358269 0.33481371145693772 0 -0.19386790912735871 0.33176087567547108 0 -0.20668301768213909 0.34448234069288158 0 -0.22158808080033929 0.34557455345049992 0 -0.22129300011358269 0.33481371145693772 0 -0.20668301768213909 0.34448234069288158 0 -0.19386790912735871 0.33176087567547108 0 -0.19258948339875709 0.33633707034479371 0 -0.20668301768213909 0.34448234069288158 0 -0.19386790912735871 0.33176087567547108 0 -0.1951678646333711 0.34883535218340811 0 -0.20668301768213909 0.34448234069288158 0 -0.19258948339875709 0.33633707034479371 0 -0.18096143664194889 0.33069278220625808 0 -0.19386790912735871 0.33176087567547108 0 -0.19258948339875709 0.33633707034479371 0 -0.19386790912735871 0.33176087567547108 0 -0.19258948339875709 0.33633707034479371 0 -0.18077272512400111 0.31876138179813301 0 -0.19386790912735871 0.33176087567547108 0 -0.20060783596013981 0.3076349397264902 0 -0.20492818889453221 0.32276220977772679 0 -0.19386790912735871 0.33176087567547108 0 -0.20060783596013981 0.3076349397264902 0 -0.19386790912735871 0.33176087567547108 0 -0.20060783596013981 0.3076349397264902 0 -0.20060783596013981 0.3076349397264902 0 -0.20734776279292019 0.28350900377750898 0 -0.23189508169276829 0.30076725351495531 0 -0.21954464392232159 0.31820766509236142 0 -0.20060783596013981 0.3076349397264902 0 -0.23189508169276829 0.30076725351495531 0 -0.20060783596013981 0.3076349397264902 0 -0.20734776279292019 0.28350900377750898 0 -0.18034630435624241 0.29180066960649809 0 -0.20734776279292019 0.28350900377750898 0 -0.19375927737912041 0.2730469699042487 0 -0.18034630435624241 0.29180066960649809 0 -0.20060783596013981 0.3076349397264902 0 -0.20734776279292019 0.28350900377750898 0 -0.20734776279292019 0.28350900377750898 0 -0.23189508169276829 0.30076725351495531 0 -0.22396762922540969 0.27514125130055722 0 -0.23189508169276829 0.30076725351495531 0 -0.2378434694439332 0.28391349183279069 0 -0.22396762922540969 0.27514125130055722 0 -0.25673188405007052 0.28646841290673969 0 -0.23189508169276829 0.30076725351495531 0 -0.2378434694439332 0.28391349183279069 0 -0.25673188405007052 0.28646841290673969 0 -0.23189508169276829 0.30076725351495531 0 -0.25505401324638421 0.30366623925853881 0 -0.25673188405007052 0.28646841290673969 0 -0.23189508169276829 0.30076725351495531 0 -0.25505401324638421 0.30366623925853881 0 -0.24885494741763489 0.31718848033418301 0 -0.23189508169276829 0.30076725351495531 0 -0.25265925142613249 0.26128234508680298 0 -0.23885305679183191 0.2684477152547543 0 -0.23951274761537589 0.2474853768326048 0 -0.23885305679183191 0.2684477152547543 0 -0.22811192938500721 0.25829645972706228 0 -0.23951274761537589 0.2474853768326048 0 -0.25621817608628389 0.2460965770837312 0 -0.25265925142613249 0.26128234508680298 0 -0.23951274761537589 0.2474853768326048 0 -0.25673188405007052 0.28646841290673969 0 -0.2378434694439332 0.28391349183279069 0 -0.23885305679183191 0.2684477152547543 0 -0.25265925142613249 0.26128234508680298 0 -0.25673188405007052 0.28646841290673969 0 -0.23885305679183191 0.2684477152547543 0 -0.23885305679183191 0.2684477152547543 0 -0.22396762922540969 0.27514125130055722 0 -0.22811192938500721 0.25829645972706228 0 -0.2378434694439332 0.28391349183279069 0 -0.23885305679183191 0.2684477152547543 0 -0.22396762922540969 0.27514125130055722 0 -0.22811192938500721 0.25829645972706228 0 -0.22371849106378741 0.2462845034026982 0 -0.23951274761537589 0.2474853768326048 0 -0.22396762922540969 0.27514125130055722 0 -0.22811192938500721 0.25829645972706228 0 -0.21408768962570049 0.25938306782852782 0 -0.22811192938500721 0.25829645972706228 0 -0.21408768962570049 0.25938306782852782 0 -0.22371849106378741 0.2462845034026982 0 -0.21408768962570049 0.25938306782852782 0 -0.19928355658839081 0.25766712263582692 0 -0.2066863838603582 0.24242880758937649 0 -0.21408768962570049 0.25938306782852782 0 -0.20163280817849061 0.26608937016207479 0 -0.19928355658839081 0.25766712263582692 0 -0.20734776279292019 0.28350900377750898 0 -0.21408768962570049 0.25938306782852782 0 -0.20734776279292019 0.28350900377750898 0 -0.22396762922540969 0.27514125130055722 0 -0.21408768962570049 0.25938306782852782 0 -0.20734776279292019 0.28350900377750898 0 -0.21408768962570049 0.25938306782852782 0 -0.20163280817849061 0.26608937016207479 0 -0.20734776279292019 0.28350900377750898 0 -0.20163280817849061 0.26608937016207479 0 -0.19375927737912041 0.2730469699042487 0 -0.20163280817849061 0.26608937016207479 0 -0.19375927737912041 0.2730469699042487 0 -0.19160269433399771 0.26436194023610149 0 -0.19375927737912041 0.2730469699042487 0 -0.19160269433399771 0.26436194023610149 0 -0.17991988358848049 0.26483995741486333 0 -0.19928355658839081 0.25766712263582692 0 -0.18259587964237009 0.2606558300825601 0 -0.2066863838603582 0.24242880758937649 0 -0.18259587964237009 0.2606558300825601 0 -0.19333963139412971 0.24385714112684301 0 -0.19928355658839081 0.25766712263582692 0 -0.19160269433399771 0.26436194023610149 0 -0.18259587964237009 0.2606558300825601 0 -0.18259587964237009 0.2606558300825601 0 -0.2066863838603582 0.24242880758937649 0 -0.20163280817849061 0.26608937016207479 0 -0.19928355658839081 0.25766712263582692 0 -0.19160269433399771 0.26436194023610149 0 -0.17991988358848049 0.26483995741486333 0 -0.17951502337729761 0.2392424245160312 0 -0.17991988358848049 0.26483995741486333 0 -0.17042143569771079 0.26099360542817968 0 -0.17951502337729761 0.2392424245160312 0 -0.18259587964237009 0.2606558300825601 0 -0.17991988358848049 0.26483995741486333 0 -0.17951502337729761 0.2392424245160312 0 -0.19160269433399771 0.26436194023610149 0 -0.18259587964237009 0.2606558300825601 0 -0.17991988358848049 0.26483995741486333 0 -0.18259587964237009 0.2606558300825601 0 -0.17991988358848049 0.26483995741486333 0 -0.17991988358848049 0.26483995741486333 0 -0.17042143569771079 0.26099360542817968 0 -0.17716480609589361 0.26914773470870201 0 -0.17042143569771079 0.26099360542817968 0 -0.1627301728603629 0.26968240911070368 0 -0.1532221513837192 0.25419418888983192 0 -0.17042143569771079 0.26099360542817968 0 -0.1532221513837192 0.25419418888983192 0 -0.17951502337729761 0.2392424245160312 0 -0.1627301728603629 0.26968240911070368 0 -0.1620479085915319 0.28265904931380531 0 -0.15271877240598841 0.27446820953958367 0 -0.17042143569771079 0.26099360542817968 0 -0.1627301728603629 0.26968240911070368 0 -0.1699765768805111 0.26885491792894611 0 -0.1627301728603629 0.26968240911070368 0 -0.1699765768805111 0.26885491792894611 0 -0.16860704672851359 0.27535934789532951 0 -0.1627301728603629 0.26968240911070368 0 -0.16860704672851359 0.27535934789532951 0 -0.1620479085915319 0.28265904931380531 0 -0.16860704672851359 0.27535934789532951 0 -0.17077339862397739 0.28423195702734899 0 -0.1620479085915319 0.28265904931380531 0 -0.17991988358848049 0.26483995741486333 0 -0.18034630435624241 0.29180066960649809 0 -0.17991988358848049 0.26483995741486333 0 -0.17716480609589361 0.26914773470870201 0 -0.18034630435624241 0.29180066960649809 0 -0.16860704672851359 0.27535934789532951 0 -0.17716480609589361 0.26914773470870201 0 -0.17077339862397739 0.28423195702734899 0 -0.19375927737912041 0.2730469699042487 0 -0.17991988358848049 0.26483995741486333 0 -0.18034630435624241 0.29180066960649809 0 -0.17042143569771079 0.26099360542817968 0 -0.1699765768805111 0.26885491792894611 0 -0.17716480609589361 0.26914773470870201 0 -0.1699765768805111 0.26885491792894611 0 -0.16860704672851359 0.27535934789532951 0 -0.17716480609589361 0.26914773470870201 0 -0.17991988358848049 0.26483995741486333 0 -0.17716480609589361 0.26914773470870201 0 -0.17716480609589361 0.26914773470870201 0 -0.18034630435624241 0.29180066960649809 0 -0.17077339862397739 0.28423195702734899 0 -0.18034630435624241 0.29180066960649809 0 -0.16501618616712291 0.29775164083812761 0 -0.17077339862397739 0.28423195702734899 0 -0.18077272512400111 0.31876138179813301 0 -0.18034630435624241 0.29180066960649809 0 -0.18077272512400111 0.31876138179813301 0 -0.18034630435624241 0.29180066960649809 0 -0.17285953122972289 0.31090601179704258 0 -0.18034630435624241 0.29180066960649809 0 -0.17285953122972289 0.31090601179704258 0 -0.16501618616712291 0.29775164083812761 0 -0.18077272512400111 0.31876138179813301 0 -0.20060783596013981 0.3076349397264902 0 -0.18034630435624241 0.29180066960649809 0 -0.16501618616712291 0.29775164083812761 0 -0.15329008091572741 0.28945008379417048 0 -0.1547819877644892 0.3091453549012102 0 -0.17285953122972289 0.31090601179704258 0 -0.16501618616712291 0.29775164083812761 0 -0.1638395481514221 0.30983277085387728 0 -0.16501618616712291 0.29775164083812761 0 -0.1638395481514221 0.30983277085387728 0 -0.1547819877644892 0.3091453549012102 0 -0.15943794807189979 0.31595908059817063 0 -0.1638395481514221 0.30983277085387728 0 -0.1547819877644892 0.3091453549012102 0 -0.16501618616712291 0.29775164083812761 0 -0.17077339862397739 0.28423195702734899 0 -0.1620479085915319 0.28265904931380531 0 -0.16501618616712291 0.29775164083812761 0 -0.1620479085915319 0.28265904931380531 0 -0.15329008091572741 0.28945008379417048 0 -0.1464174014568787 0.29836992735667278 0 -0.13959432766143021 0.2740409068552887 0 -0.1620479085915319 0.28265904931380531 0 -0.15329008091572741 0.28945008379417048 0 -0.15271877240598841 0.27446820953958367 0 -0.15329008091572741 0.28945008379417048 0 -0.1464174014568787 0.29836992735667278 0 -0.13959432766143021 0.2740409068552887 0 -0.15329008091572741 0.28945008379417048 0 -0.1464174014568787 0.29836992735667278 0 -0.1547819877644892 0.3091453549012102 0 -0.1532404752523272 0.32269894785805692 0 -0.1464174014568787 0.29836992735667278 0 -0.1360408951285694 0.3130357752318072 0 -0.14290423209994971 0.32095809222069871 0 -0.1464174014568787 0.29836992735667278 0 -0.1532404752523272 0.32269894785805692 0 -0.1464174014568787 0.29836992735667278 0 -0.1547819877644892 0.3091453549012102 0 -0.1360408951285694 0.3130357752318072 0 -0.1264253840414637 0.29528772621663357 0 -0.12136448477009221 0.30951812845445109 0 -0.1360408951285694 0.3130357752318072 0 -0.1464174014568787 0.29836992735667278 0 -0.1264253840414637 0.29528772621663357 0 -0.1464174014568787 0.29836992735667278 0 -0.1264253840414637 0.29528772621663357 0 -0.13959432766143021 0.2740409068552887 0 -0.1264253840414637 0.29528772621663357 0 -0.13959432766143021 0.2740409068552887 0 -0.1185373796182298 0.27837978510360878 0 -0.13959432766143021 0.2740409068552887 0 -0.1327712538659816 0.24971188635390451 0 -0.13959432766143021 0.2740409068552887 0 -0.116744543106582 0.25728181003509248 0 -0.1327712538659816 0.24971188635390451 0 -0.13959432766143021 0.2740409068552887 0 -0.1532221513837192 0.25419418888983192 0 -0.1327712538659816 0.24971188635390451 0 -0.1627301728603629 0.26968240911070368 0 -0.1532221513837192 0.25419418888983192 0 -0.15271877240598841 0.27446820953958367 0 -0.13959432766143021 0.2740409068552887 0 -0.1532221513837192 0.25419418888983192 0 -0.15271877240598841 0.27446820953958367 0 -0.15329008091572741 0.28945008379417048 0 -0.13959432766143021 0.2740409068552887 0 -0.15271877240598841 0.27446820953958367 0 -0.1061606963602142 0.26761343855331338 0 -0.1001789302111205 0.27974269320078388 0 -0.1185373796182298 0.27837978510360878 0 -0.1061606963602142 0.26761343855331338 0 -0.1001789302111205 0.27974269320078388 0 -0.092613028744971265 0.26767711662392979 0 -0.1061606963602142 0.26761343855331338 0 -0.10005120432924321 0.25626016583208688 0 -0.116744543106582 0.25728181003509248 0 -0.1061606963602142 0.26761343855331338 0 -0.10005120432924321 0.25626016583208688 0 -0.092613028744971265 0.26767711662392979 0 -0.10005120432924321 0.25626016583208688 0 -0.116744543106582 0.25728181003509248 0 -0.1045487088169635 0.24438495162540061 0 -0.13959432766143021 0.2740409068552887 0 -0.116744543106582 0.25728181003509248 0 -0.1185373796182298 0.27837978510360878 0 -0.1061606963602142 0.26761343855331338 0 -0.116744543106582 0.25728181003509248 0 -0.1185373796182298 0.27837978510360878 0 -0.1264253840414637 0.29528772621663357 0 -0.1127724140037699 0.30190213115774378 0 -0.1091517300735869 0.29135078386346752 0 -0.1264253840414637 0.29528772621663357 0 -0.1185373796182298 0.27837978510360878 0 -0.1091517300735869 0.29135078386346752 0 -0.1264253840414637 0.29528772621663357 0 -0.12136448477009221 0.30951812845445109 0 -0.1127724140037699 0.30190213115774378 0 -0.12136448477009221 0.30951812845445109 0 -0.1127724140037699 0.30190213115774378 0 -0.1061991548417472 0.31213959050036899 0 -0.1127724140037699 0.30190213115774378 0 -0.1061991548417472 0.31213959050036899 0 -0.1005146973405663 0.30141191014932889 0 -0.1127724140037699 0.30190213115774378 0 -0.1005146973405663 0.30141191014932889 0 -0.1091517300735869 0.29135078386346752 0 -0.1005146973405663 0.30141191014932889 0 -0.094430836728355921 0.29177030977787999 0 -0.089068024122243669 0.30112896568664949 0 -0.1061991548417472 0.31213959050036899 0 -0.1005146973405663 0.30141191014932889 0 -0.090928135519314904 0.31087631578889069 0 -0.1001789302111205 0.27974269320078388 0 -0.1185373796182298 0.27837978510360878 0 -0.1091517300735869 0.29135078386346752 0 -0.1005146973405663 0.30141191014932889 0 -0.1091517300735869 0.29135078386346752 0 -0.094430836728355921 0.29177030977787999 0 -0.1001789302111205 0.27974269320078388 0 -0.1091517300735869 0.29135078386346752 0 -0.094430836728355921 0.29177030977787999 0 -0.1001789302111205 0.27974269320078388 0 -0.094430836728355921 0.29177030977787999 0 -0.086145563619835275 0.2816538088019015 0 -0.094430836728355921 0.29177030977787999 0 -0.086145563619835275 0.2816538088019015 0 -0.081526075002782958 0.29533369696514911 0 -0.094430836728355921 0.29177030977787999 0 -0.081526075002782958 0.29533369696514911 0 -0.089068024122243669 0.30112896568664949 0 -0.086145563619835275 0.2816538088019015 0 -0.081526075002782958 0.29533369696514911 0 -0.070830210313899522 0.29195808219782299 0 -0.090928135519314904 0.31087631578889069 0 -0.079482369404140468 0.30560554845979909 0 -0.074915307566508993 0.31649039264194578 0 -0.090928135519314904 0.31087631578889069 0 -0.089068024122243669 0.30112896568664949 0 -0.079482369404140468 0.30560554845979909 0 -0.1005146973405663 0.30141191014932889 0 -0.090928135519314904 0.31087631578889069 0 -0.089068024122243669 0.30112896568664949 0 -0.081526075002782958 0.29533369696514911 0 -0.089068024122243669 0.30112896568664949 0 -0.079482369404140468 0.30560554845979909 0 -0.054647974243728172 0.30430181459310768 0 -0.074915307566508993 0.31649039264194578 0 -0.079482369404140468 0.30560554845979909 0 -0.068661557073843291 0.3005821027458685 0 -0.074915307566508993 0.31649039264194578 0 -0.068661557073843291 0.3005821027458685 0 -0.054647974243728172 0.30430181459310768 0 -0.074915307566508993 0.31649039264194578 0 -0.081526075002782958 0.29533369696514911 0 -0.079482369404140468 0.30560554845979909 0 -0.068661557073843291 0.3005821027458685 0 -0.070830210313899522 0.29195808219782299 0 -0.067453711470644842 0.27023673344429472 0 -0.052574645638654917 0.28480468584225688 0 -0.081526075002782958 0.29533369696514911 0 -0.068661557073843291 0.3005821027458685 0 -0.070830210313899522 0.29195808219782299 0 -0.068661557073843291 0.3005821027458685 0 -0.070830210313899522 0.29195808219782299 0 -0.068661557073843291 0.3005821027458685 0 -0.070830210313899522 0.29195808219782299 0 -0.059610011597539182 0.29372125904316332 0 -0.086145563619835275 0.2816538088019015 0 -0.070830210313899522 0.29195808219782299 0 -0.077256670317037021 0.26667642926106078 0 -0.070830210313899522 0.29195808219782299 0 -0.067453711470644842 0.27023673344429472 0 -0.070830210313899522 0.29195808219782299 0 -0.077256670317037021 0.26667642926106078 0 -0.070830210313899522 0.29195808219782299 0 -0.067453711470644842 0.27023673344429472 0 -0.077256670317037021 0.26667642926106078 0 -0.086145563619835275 0.2816538088019015 0 -0.077256670317037021 0.26667642926106078 0 -0.092613028744971265 0.26767711662392979 0 -0.1001789302111205 0.27974269320078388 0 -0.086145563619835275 0.2816538088019015 0 -0.092613028744971265 0.26767711662392979 0 -0.077256670317037021 0.26667642926106078 0 -0.086302411784292182 0.25447467192259482 0 -0.083666647235009842 0.24139059785004849 0 -0.077256670317037021 0.26667642926106078 0 -0.083666647235009842 0.24139059785004849 0 -0.10005120432924321 0.25626016583208688 0 -0.086302411784292182 0.25447467192259482 0 -0.094679029848152713 0.24609146959404629 0 -0.10005120432924321 0.25626016583208688 0 -0.092613028744971265 0.26767711662392979 0 -0.086302411784292182 0.25447467192259482 0 -0.077256670317037021 0.26667642926106078 0 -0.092613028744971265 0.26767711662392979 0 -0.086302411784292182 0.25447467192259482 0 -0.077256670317037021 0.26667642926106078 0 -0.064077212627390134 0.24851538469076631 0 -0.083666647235009842 0.24139059785004849 0 -0.067453711470644842 0.27023673344429472 0 -0.077256670317037021 0.26667642926106078 0 -0.064077212627390134 0.24851538469076631 0 -0.067453711470644842 0.27023673344429472 0 -0.064077212627390134 0.24851538469076631 0 -0.067453711470644842 0.27023673344429472 0 -0.04634179854296408 0.26632715615711849 0 -0.064077212627390134 0.24851538469076631 0 -0.04634179854296408 0.26632715615711849 0 -0.064077212627390134 0.24851538469076631 0 -0.046578861792199937 0.24361118962503389 0 -0.067453711470644842 0.27023673344429472 0 -0.04634179854296408 0.26632715615711849 0 -0.052574645638654917 0.28480468584225688 0 -0.04634179854296408 0.26632715615711849 0 -0.034380640920947357 0.29211323654426968 0 -0.052574645638654917 0.28480468584225688 0 -0.04634179854296408 0.26632715615711849 0 -0.022607631921228569 0.27169805167723737 0 -0.034380640920947357 0.29211323654426968 0 -0.04634179854296408 0.26632715615711849 0 -0.03068766995985707 0.25286978792993342 0 -0.022607631921228569 0.27169805167723737 0 -0.04634179854296408 0.26632715615711849 0 -0.03068766995985707 0.25286978792993342 0 -0.046578861792199937 0.24361118962503389 0 -0.03068766995985707 0.25286978792993342 0 -0.022607631921228569 0.27169805167723737 0 -0.0098044441781452579 0.25473951632571468 0 -0.022607631921228569 0.27169805167723737 0 -0.015153941911089409 0.29208252597919021 0 3.3590645499582607e-05 0.27236849017123349 0 -0.022607631921228569 0.27169805167723737 0 -0.0098044441781452579 0.25473951632571468 0 3.3590645499582607e-05 0.27236849017123349 0 -0.0098044441781452579 0.25473951632571468 0 0.0073806355134042019 0.25529449578482938 0 3.3590645499582607e-05 0.27236849017123349 0 -0.0088759444352828343 0.31092800175718183 0 -0.015153941911089409 0.29208252597919021 0 0.0083336089875100904 0.29343585490586271 0 -0.015153941911089409 0.29208252597919021 0 0.0083336089875100904 0.29343585490586271 0 3.3590645499582607e-05 0.27236849017123349 0 -0.022607631921228569 0.27169805167723737 0 -0.015153941911089409 0.29208252597919021 0 -0.034380640920947357 0.29211323654426968 0 -0.0088759444352828343 0.31092800175718183 0 -0.015153941911089409 0.29208252597919021 0 -0.03508050583840458 0.3127012881250415 0 -0.015153941911089409 0.29208252597919021 0 -0.034380640920947357 0.29211323654426968 0 -0.03508050583840458 0.3127012881250415 0 -0.034380640920947357 0.29211323654426968 0 -0.054647974243728172 0.30430181459310768 0 -0.034380640920947357 0.29211323654426968 0 -0.054647974243728172 0.30430181459310768 0 -0.03508050583840458 0.3127012881250415 0 -0.034380640920947357 0.29211323654426968 0 -0.052574645638654917 0.28480468584225688 0 -0.054647974243728172 0.30430181459310768 0 -0.052574645638654917 0.28480468584225688 0 -0.059610011597539182 0.29372125904316332 0 -0.054647974243728172 0.30430181459310768 0 -0.070830210313899522 0.29195808219782299 0 -0.052574645638654917 0.28480468584225688 0 -0.059610011597539182 0.29372125904316332 0 -0.068661557073843291 0.3005821027458685 0 -0.059610011597539182 0.29372125904316332 0 -0.054647974243728172 0.30430181459310768 0 -0.058679851530075752 0.32054224196392622 0 -0.045885169747561752 0.33132665820789581 0 -0.073191842414501496 0.33174208285196288 0 -0.054647974243728172 0.30430181459310768 0 -0.058679851530075752 0.32054224196392622 0 -0.03508050583840458 0.3127012881250415 0 -0.045885169747561752 0.33132665820789581 0 -0.067541502003893042 0.3482616942848048 0 -0.073191842414501496 0.33174208285196288 0 -0.045885169747561752 0.33132665820789581 0 -0.073191842414501496 0.33174208285196288 0 -0.045885169747561752 0.33132665820789581 0 -0.018578497080621779 0.33091123356382868 0 -0.045885169747561752 0.33132665820789581 0 -0.03508050583840458 0.3127012881250415 0 -0.018578497080621779 0.33091123356382868 0 -0.058679851530075752 0.32054224196392622 0 -0.045885169747561752 0.33132665820789581 0 -0.03508050583840458 0.3127012881250415 0 -0.0088759444352828343 0.31092800175718183 0 -0.03508050583840458 0.3127012881250415 0 -0.018578497080621779 0.33091123356382868 0 -0.018578497080621779 0.33091123356382868 0 -0.0050552824635438226 0.34569829691311771 0 -0.02749858990914332 0.35301881799134821 0 -0.045885169747561752 0.33132665820789581 0 -0.018578497080621779 0.33091123356382868 0 -0.02749858990914332 0.35301881799134821 0 -0.018578497080621779 0.33091123356382868 0 -0.0050552824635438226 0.34569829691311771 0 0.0064742168078369342 0.3347740657525386 0 -0.018578497080621779 0.33091123356382868 0 0.0087281755863181168 0.33049580891976171 0 -0.018578497080621779 0.33091123356382868 0 0.0064742168078369342 0.3347740657525386 0 0.0087281755863181168 0.33049580891976171 0 -0.018578497080621779 0.33091123356382868 0 -0.003280447873963227 0.32161399115684158 0 0.0087281755863181168 0.33049580891976171 0 -0.0088759444352828343 0.31092800175718183 0 -0.018578497080621779 0.33091123356382868 0 -0.003280447873963227 0.32161399115684158 0 -0.0088759444352828343 0.31092800175718183 0 -0.003280447873963227 0.32161399115684158 0 0.0056044744337335906 0.31412092038659428 0 -0.0052616759920083916 0.36132776784546622 0 -0.0045342830833226501 0.3863935686212247 0 -0.0052616759920083916 0.36132776784546622 0 -0.024169526760701381 0.37267007813580277 0 -0.0045342830833226501 0.3863935686212247 0 -0.0052616759920083916 0.36132776784546622 0 -0.0045342830833226501 0.3863935686212247 0 0.0079023355216259559 0.37348921158265391 0 -0.0052616759920083916 0.36132776784546622 0 -0.0050552824635438226 0.34569829691311771 0 0.0061318462344260851 0.35417601161121459 0 -0.0052616759920083916 0.36132776784546622 0 -0.0050552824635438226 0.34569829691311771 0 -0.02749858990914332 0.35301881799134821 0 -0.02749858990914332 0.35301881799134821 0 -0.024169526760701381 0.37267007813580277 0 -0.04149310004589906 0.37124785083274592 0 -0.0052616759920083916 0.36132776784546622 0 -0.02749858990914332 0.35301881799134821 0 -0.024169526760701381 0.37267007813580277 0 -0.02749858990914332 0.35301881799134821 0 -0.04149310004589906 0.37124785083274592 0 -0.051818441616049399 0.35735321764765782 0 -0.045885169747561752 0.33132665820789581 0 -0.02749858990914332 0.35301881799134821 0 -0.051818441616049399 0.35735321764765782 0 -0.045885169747561752 0.33132665820789581 0 -0.051818441616049399 0.35735321764765782 0 -0.067541502003893042 0.3482616942848048 0 -0.04149310004589906 0.37124785083274592 0 -0.051818441616049399 0.35735321764765782 0 -0.056875823715872062 0.37631267096962301 0 -0.051818441616049399 0.35735321764765782 0 -0.069616273344600341 0.3650636543096733 0 -0.056875823715872062 0.37631267096962301 0 -0.069616273344600341 0.3650636543096733 0 -0.085055645225370236 0.37193713089684588 0 -0.071788917171084016 0.3809272333041443 0 -0.069616273344600341 0.3650636543096733 0 -0.071788917171084016 0.3809272333041443 0 -0.056875823715872062 0.37631267096962301 0 -0.069616273344600341 0.3650636543096733 0 -0.085055645225370236 0.37193713089684588 0 -0.084100884505446297 0.3554636863979832 0 -0.085055645225370236 0.37193713089684588 0 -0.084100884505446297 0.3554636863979832 0 -0.1008292236537022 0.36036332390371462 0 -0.084100884505446297 0.3554636863979832 0 -0.067541502003893042 0.3482616942848048 0 -0.085709514220790303 0.34113927750747819 0 -0.084100884505446297 0.3554636863979832 0 -0.085709514220790303 0.34113927750747819 0 -0.099722393067727538 0.34687368244968458 0 -0.069616273344600341 0.3650636543096733 0 -0.084100884505446297 0.3554636863979832 0 -0.067541502003893042 0.3482616942848048 0 -0.051818441616049399 0.35735321764765782 0 -0.069616273344600341 0.3650636543096733 0 -0.067541502003893042 0.3482616942848048 0 -0.067541502003893042 0.3482616942848048 0 -0.073191842414501496 0.33174208285196288 0 -0.085709514220790303 0.34113927750747819 0 -0.058679851530075752 0.32054224196392622 0 -0.073191842414501496 0.33174208285196288 0 -0.074915307566508993 0.31649039264194578 0 -0.054647974243728172 0.30430181459310768 0 -0.058679851530075752 0.32054224196392622 0 -0.074915307566508993 0.31649039264194578 0 -0.073191842414501496 0.33174208285196288 0 -0.074915307566508993 0.31649039264194578 0 -0.095182640889289766 0.32867897069078372 0 -0.090928135519314904 0.31087631578889069 0 -0.074915307566508993 0.31649039264194578 0 -0.095182640889289766 0.32867897069078372 0 -0.074915307566508993 0.31649039264194578 0 -0.095182640889289766 0.32867897069078372 0 -0.073191842414501496 0.33174208285196288 0 -0.085709514220790303 0.34113927750747819 0 -0.095182640889289766 0.32867897069078372 0 -0.085709514220790303 0.34113927750747819 0 -0.095182640889289766 0.32867897069078372 0 -0.099722393067727538 0.34687368244968458 0 -0.095182640889289766 0.32867897069078372 0 -0.1154499742120704 0.34086754873962172 0 -0.095182640889289766 0.32867897069078372 0 -0.1098512680755149 0.32470257897991811 0 -0.1154499742120704 0.34086754873962172 0 -0.095182640889289766 0.32867897069078372 0 -0.1154499742120704 0.34086754873962172 0 -0.099722393067727538 0.34687368244968458 0 -0.1061991548417472 0.31213959050036899 0 -0.090928135519314904 0.31087631578889069 0 -0.095182640889289766 0.32867897069078372 0 -0.1061991548417472 0.31213959050036899 0 -0.095182640889289766 0.32867897069078372 0 -0.1098512680755149 0.32470257897991811 0 -0.1061991548417472 0.31213959050036899 0 -0.115330384384618 0.31728312261503783 0 -0.1098512680755149 0.32470257897991811 0 -0.12136448477009221 0.30951812845445109 0 -0.1061991548417472 0.31213959050036899 0 -0.115330384384618 0.31728312261503783 0 -0.115330384384618 0.31728312261503783 0 -0.1098512680755149 0.32470257897991811 0 -0.12142985306419619 0.32461006626398298 0 -0.12722248981549561 0.3181430308760943 0 -0.115330384384618 0.31728312261503783 0 -0.12142985306419619 0.32461006626398298 0 -0.12722248981549561 0.3181430308760943 0 -0.12136448477009221 0.30951812845445109 0 -0.115330384384618 0.31728312261503783 0 -0.1098512680755149 0.32470257897991811 0 -0.12142985306419619 0.32461006626398298 0 -0.1154499742120704 0.34086754873962172 0 -0.13363790056006589 0.32585743918209531 0 -0.12142985306419619 0.32461006626398298 0 -0.1154499742120704 0.34086754873962172 0 -0.12523428666698541 0.37069662222368049 0 -0.1294360936135257 0.3482770307028879 0 -0.1154159689866658 0.35521970897278921 0 -0.1154499742120704 0.34086754873962172 0 -0.1154159689866658 0.35521970897278921 0 -0.099722393067727538 0.34687368244968458 0 -0.1294360936135257 0.3482770307028879 0 -0.1154499742120704 0.34086754873962172 0 -0.1154159689866658 0.35521970897278921 0 -0.12523428666698541 0.37069662222368049 0 -0.1154159689866658 0.35521970897278921 0 -0.11117961403065831 0.36839673047223442 0 -0.12523428666698541 0.37069662222368049 0 -0.11117961403065831 0.36839673047223442 0 -0.1123930043347208 0.38073562172137532 0 -0.11117961403065831 0.36839673047223442 0 -0.1008292236537022 0.36036332390371462 0 -0.09970079949094271 0.37763208900548878 0 -0.1154159689866658 0.35521970897278921 0 -0.11117961403065831 0.36839673047223442 0 -0.1008292236537022 0.36036332390371462 0 -0.085055645225370236 0.37193713089684588 0 -0.1008292236537022 0.36036332390371462 0 -0.09970079949094271 0.37763208900548878 0 -0.084100884505446297 0.3554636863979832 0 -0.1008292236537022 0.36036332390371462 0 -0.099722393067727538 0.34687368244968458 0 -0.1154159689866658 0.35521970897278921 0 -0.1008292236537022 0.36036332390371462 0 -0.099722393067727538 0.34687368244968458 0 -0.1036554482544351 0.39516830989393792 0 -0.1102807352191843 0.41378788895710661 0 -0.09259379641793411 0.40948313349934218 0 -0.1036554482544351 0.39516830989393792 0 -0.09970079949094271 0.37763208900548878 0 -0.1123930043347208 0.38073562172137532 0 -0.1036554482544351 0.39516830989393792 0 -0.09970079949094271 0.37763208900548878 0 -0.084297773186445962 0.39217279846007119 0 -0.11117961403065831 0.36839673047223442 0 -0.09970079949094271 0.37763208900548878 0 -0.1123930043347208 0.38073562172137532 0 -0.12523428666698541 0.37069662222368049 0 -0.1123930043347208 0.38073562172137532 0 -0.12103247972044499 0.39311621374447298 0 -0.1036554482544351 0.39516830989393792 0 -0.1123930043347208 0.38073562172137532 0 -0.12103247972044499 0.39311621374447298 0 -0.12523428666698541 0.37069662222368049 0 -0.12103247972044499 0.39311621374447298 0 -0.1036554482544351 0.39516830989393792 0 -0.12103247972044499 0.39311621374447298 0 -0.1102807352191843 0.41378788895710661 0 -0.12997925716256209 0.39431640422262348 0 -0.1102807352191843 0.41378788895710661 0 -0.12997925716256209 0.39431640422262348 0 -0.12103247972044499 0.39311621374447298 0 -0.1102807352191843 0.41378788895710661 0 -0.12623023605756489 0.41143854881348008 0 -0.1102807352191843 0.41378788895710661 0 -0.1242188050129694 0.42501783294758849 0 -0.12623023605756489 0.41143854881348008 0 -0.12997925716256209 0.39431640422262348 0 -0.1102807352191843 0.41378788895710661 0 -0.1102807352191843 0.41378788895710661 0 -0.1104760497445479 0.43296770510105842 0 -0.1242188050129694 0.42501783294758849 0 -0.1104760497445479 0.43296770510105842 0 -0.1242188050129694 0.42501783294758849 0 -0.1248743097581413 0.44162978393037222 0 -0.1102807352191843 0.41378788895710661 0 -0.090582213275806372 0.43325937369158968 0 -0.1102807352191843 0.41378788895710661 0 -0.1104760497445479 0.43296770510105842 0 -0.090582213275806372 0.43325937369158968 0 -0.1102807352191843 0.41378788895710661 0 -0.09259379641793411 0.40948313349934218 0 -0.090582213275806372 0.43325937369158968 0 -0.09259379641793411 0.40948313349934218 0 -0.090582213275806372 0.43325937369158968 0 -0.074152812153798875 0.41302729649400538 0 -0.090582213275806372 0.43325937369158968 0 -0.066022972602334681 0.42956105407568013 0 -0.074152812153798875 0.41302729649400538 0 -0.066022972602334681 0.42956105407568013 0 -0.074152812153798875 0.41302729649400538 0 -0.049329429094603867 0.41198700835812702 0 -0.074152812153798875 0.41302729649400538 0 -0.063154715464804681 0.39516467689365731 0 -0.084297773186445962 0.39217279846007119 0 -0.09259379641793411 0.40948313349934218 0 -0.074152812153798875 0.41302729649400538 0 -0.084297773186445962 0.39217279846007119 0 -0.1036554482544351 0.39516830989393792 0 -0.09259379641793411 0.40948313349934218 0 -0.084297773186445962 0.39217279846007119 0 -0.085055645225370236 0.37193713089684588 0 -0.09970079949094271 0.37763208900548878 0 -0.084297773186445962 0.39217279846007119 0 -0.085055645225370236 0.37193713089684588 0 -0.084297773186445962 0.39217279846007119 0 -0.071788917171084016 0.3809272333041443 0 -0.063154715464804681 0.39516467689365731 0 -0.084297773186445962 0.39217279846007119 0 -0.071788917171084016 0.3809272333041443 0 -0.063154715464804681 0.39516467689365731 0 -0.071788917171084016 0.3809272333041443 0 -0.056875823715872062 0.37631267096962301 0 -0.04149310004589906 0.37124785083274592 0 -0.056875823715872062 0.37631267096962301 0 -0.04338349465279491 0.38811939282985902 0 -0.063154715464804681 0.39516467689365731 0 -0.056875823715872062 0.37631267096962301 0 -0.04338349465279491 0.38811939282985902 0 -0.063154715464804681 0.39516467689365731 0 -0.04338349465279491 0.38811939282985902 0 -0.049329429094603867 0.41198700835812702 0 -0.04338349465279491 0.38811939282985902 0 -0.024844401122877391 0.39948633252540261 0 -0.049329429094603867 0.41198700835812702 0 -0.024169526760701381 0.37267007813580277 0 -0.04149310004589906 0.37124785083274592 0 -0.04338349465279491 0.38811939282985902 0 -0.024169526760701381 0.37267007813580277 0 -0.04338349465279491 0.38811939282985902 0 -0.024844401122877391 0.39948633252540261 0 -0.024169526760701381 0.37267007813580277 0 -0.024844401122877391 0.39948633252540261 0 -0.0045342830833226501 0.3863935686212247 0 -0.024844401122877391 0.39948633252540261 0 -0.0045342830833226501 0.3863935686212247 0 -0.0038092142255275289 0.41137928311071797 0 -0.0045342830833226501 0.3863935686212247 0 -0.0038092142255275289 0.41137928311071797 0 -0.024169526760701381 0.37267007813580277 0 -0.0045342830833226501 0.3863935686212247 0 -0.0030841453677343121 0.43636499760021141 0 -0.0038092142255275289 0.41137928311071797 0 -0.026324668085478481 0.42779129271708288 0 -0.0030841453677343121 0.43636499760021141 0 -0.0038092142255275289 0.41137928311071797 0 -0.024844401122877391 0.39948633252540261 0 -0.0038092142255275289 0.41137928311071797 0 -0.026324668085478481 0.42779129271708288 0 -0.026324668085478481 0.42779129271708288 0 -0.049329429094603867 0.41198700835812702 0 -0.049413859365407042 0.43472239834070731 0 -0.024844401122877391 0.39948633252540261 0 -0.026324668085478481 0.42779129271708288 0 -0.049329429094603867 0.41198700835812702 0 -0.074152812153798875 0.41302729649400538 0 -0.063154715464804681 0.39516467689365731 0 -0.049329429094603867 0.41198700835812702 0 -0.066022972602334681 0.42956105407568013 0 -0.049329429094603867 0.41198700835812702 0 -0.049413859365407042 0.43472239834070731 0 -0.066022972602334681 0.42956105407568013 0 -0.049413859365407042 0.43472239834070731 0 -0.0708836913324285 0.45273085842607269 0 -0.0393713920190637 0.45112048084748302 0 -0.052402143273794041 0.47435943831340011 0 -0.0708836913324285 0.45273085842607269 0 -0.049413859365407042 0.43472239834070731 0 -0.0393713920190637 0.45112048084748302 0 -0.0708836913324285 0.45273085842607269 0 -0.0393713920190637 0.45112048084748302 0 -0.02876560419008364 0.47203163756026523 0 -0.052402143273794041 0.47435943831340011 0 -0.026324668085478481 0.42779129271708288 0 -0.049413859365407042 0.43472239834070731 0 -0.0393713920190637 0.45112048084748302 0 -0.0030841453677343121 0.43636499760021141 0 -0.026324668085478481 0.42779129271708288 0 -0.01888650882967766 0.45329231687868837 0 -0.026324668085478481 0.42779129271708288 0 -0.0393713920190637 0.45112048084748302 0 -0.01888650882967766 0.45329231687868837 0 -0.0393713920190637 0.45112048084748302 0 -0.01888650882967766 0.45329231687868837 0 -0.02876560419008364 0.47203163756026523 0 -0.01888650882967766 0.45329231687868837 0 -0.01341416680576474 0.47109478045738301 0 -0.02876560419008364 0.47203163756026523 0 -0.01888650882967766 0.45329231687868837 0 -0.002359076509941094 0.46135071208970457 0 -0.01341416680576474 0.47109478045738301 0 -0.0030841453677343121 0.43636499760021141 0 -0.01888650882967766 0.45329231687868837 0 -0.002359076509941094 0.46135071208970457 0 -0.0030841453677343121 0.43636499760021141 0 -0.002359076509941094 0.46135071208970457 0 -0.0090346539348886701 0.5 0 -0.0016340076521478781 0.48633642657919801 0 -0.017460482120078509 0.48648722646036041 0 -0.0016340076521478781 0.48633642657919801 0 -0.01341416680576474 0.47109478045738301 0 -0.017460482120078509 0.48648722646036041 0 -0.002359076509941094 0.46135071208970457 0 -0.0016340076521478781 0.48633642657919801 0 -0.01341416680576474 0.47109478045738301 0 -0.002359076509941094 0.46135071208970457 0 -0.0016340076521478781 0.48633642657919801 0 -0.002359076509941094 0.46135071208970457 0 -0.0016340076521478781 0.48633642657919801 0 0.0036787250480955699 0.47408322248379448 0 -0.01341416680576474 0.47109478045738301 0 -0.02876560419008364 0.47203163756026523 0 -0.017460482120078509 0.48648722646036041 0 -0.02876560419008364 0.47203163756026523 0 -0.017460482120078509 0.48648722646036041 0 -0.038135422162237087 0.5 0 -0.0090346539348886701 0.5 0 -0.017460482120078509 0.48648722646036041 0 -0.038135422162237087 0.5 0 -0.02876560419008364 0.47203163756026523 0 -0.038135422162237087 0.5 0 -0.052402143273794041 0.47435943831340011 0 -0.038135422162237087 0.5 0 -0.052402143273794041 0.47435943831340011 0 -0.067236190389585393 0.5 0 -0.052402143273794041 0.47435943831340011 0 -0.067236190389585393 0.5 0 -0.073349005429332273 0.47921852398434828 0 -0.067236190389585393 0.5 0 -0.073349005429332273 0.47921852398434828 0 -0.096336958616933588 0.5 0 -0.073349005429332273 0.47921852398434828 0 -0.096336958616933588 0.5 0 -0.093805091172543903 0.47224368257650851 0 -0.052402143273794041 0.47435943831340011 0 -0.073349005429332273 0.47921852398434828 0 -0.0708836913324285 0.45273085842607269 0 -0.0708836913324285 0.45273085842607269 0 -0.1043361340672995 0.45358667135048331 0 -0.093805091172543903 0.47224368257650851 0 -0.090582213275806372 0.43325937369158968 0 -0.0708836913324285 0.45273085842607269 0 -0.1043361340672995 0.45358667135048331 0 -0.090582213275806372 0.43325937369158968 0 -0.066022972602334681 0.42956105407568013 0 -0.0708836913324285 0.45273085842607269 0 -0.090582213275806372 0.43325937369158968 0 -0.0708836913324285 0.45273085842607269 0 -0.073349005429332273 0.47921852398434828 0 -0.0708836913324285 0.45273085842607269 0 -0.093805091172543903 0.47224368257650851 0 -0.1043361340672995 0.45358667135048331 0 -0.12052644250191399 0.4682622397032008 0 -0.093805091172543903 0.47224368257650851 0 -0.1104760497445479 0.43296770510105842 0 -0.090582213275806372 0.43325937369158968 0 -0.1043361340672995 0.45358667135048331 0 -0.12618187852634369 0.45882241462805679 0 -0.1043361340672995 0.45358667135048331 0 -0.1248743097581413 0.44162978393037222 0 -0.1104760497445479 0.43296770510105842 0 -0.1043361340672995 0.45358667135048331 0 -0.1248743097581413 0.44162978393037222 0 -0.12618187852634369 0.45882241462805679 0 -0.1043361340672995 0.45358667135048331 0 -0.12052644250191399 0.4682622397032008 0 -0.1317912103042716 0.47600940211286807 0 -0.12052644250191399 0.4682622397032008 0 -0.11642361318749669 0.48420448820259387 0 -0.12052644250191399 0.4682622397032008 0 -0.11642361318749669 0.48420448820259387 0 -0.093805091172543903 0.47224368257650851 0 -0.12543772684428189 0.5 0 -0.11642361318749669 0.48420448820259387 0 -0.096336958616933588 0.5 0 -0.12543772684428189 0.5 0 -0.13178312884530541 0.48627570230508688 0 -0.11642361318749669 0.48420448820259387 0 -0.11642361318749669 0.48420448820259387 0 -0.096336958616933588 0.5 0 -0.093805091172543903 0.47224368257650851 0 -0.1693268494853358 0.079538523923443544 0 -0.16945340910355561 0.089496265134995978 0 -0.1618062267740645 0.07958177760614682 0 -0.16945340910355561 0.089496265134995978 0 -0.1618062267740645 0.07958177760614682 0 -0.1616157516695074 0.095139316102685473 0 -0.1618062267740645 0.07958177760614682 0 -0.1616157516695074 0.095139316102685473 0 -0.14767322655010931 0.084806545451415583 0 -0.1618062267740645 0.07958177760614682 0 -0.16640070467345031 0.07104807823334372 0 -0.15517576509654349 0.068304766057398533 0 -0.16640070467345031 0.07104807823334372 0 -0.15517576509654349 0.068304766057398533 0 -0.16451238623864939 0.061110077383343737 0 -0.16640070467345031 0.07104807823334372 0 -0.17354141001077031 0.063798093567348918 0 -0.16451238623864939 0.061110077383343737 0 -0.17157411485926041 0.074087910936242465 0 -0.16640070467345031 0.07104807823334372 0 -0.17354141001077031 0.063798093567348918 0 -0.1693268494853358 0.079538523923443544 0 -0.17157411485926041 0.074087910936242465 0 -0.16640070467345031 0.07104807823334372 0 -0.1693268494853358 0.079538523923443544 0 -0.1618062267740645 0.07958177760614682 0 -0.16640070467345031 0.07104807823334372 0 -0.17354141001077031 0.063798093567348918 0 -0.17702749526748529 0.081966948020833708 0 -0.17656426821359539 0.052679136019797047 0 -0.18185637422210199 0.067243003367259677 0 -0.17702749526748529 0.081966948020833708 0 -0.17656426821359539 0.052679136019797047 0 -0.17702749526748529 0.081966948020833708 0 -0.17656426821359539 0.052679136019797047 0 -0.17157411485926041 0.074087910936242465 0 -0.17354141001077031 0.063798093567348918 0 -0.17702749526748529 0.081966948020833708 0 -0.18185637422210199 0.067243003367259677 0 -0.1853153676200878 0.058850167416455039 0 -0.18892740292417859 0.064703221589215376 0 -0.18185637422210199 0.067243003367259677 0 -0.19050021368002351 0.072419239531055349 0 -0.18892740292417859 0.064703221589215376 0 -0.18185637422210199 0.067243003367259677 0 -0.18141962227324601 0.075216957450553817 0 -0.17702749526748529 0.081966948020833708 0 -0.18185637422210199 0.067243003367259677 0 -0.18141962227324601 0.075216957450553817 0 -0.19050021368002351 0.072419239531055349 0 -0.18141962227324601 0.075216957450553817 0 -0.1867192510276118 0.077748512173410014 0 -0.19050021368002351 0.072419239531055349 0 -0.18141962227324601 0.075216957450553817 0 -0.1867192510276118 0.077748512173410014 0 -0.1819129998543452 0.079414551687582866 0 -0.18248563084903771 0.082725789105533951 0 -0.17702749526748529 0.081966948020833708 0 -0.17749072232138041 0.1112547600218704 0 -0.1867192510276118 0.077748512173410014 0 -0.18248563084903771 0.082725789105533951 0 -0.1819129998543452 0.079414551687582866 0 -0.18141962227324601 0.075216957450553817 0 -0.1819129998543452 0.079414551687582866 0 -0.17702749526748529 0.081966948020833708 0 -0.18248563084903771 0.082725789105533951 0 -0.1819129998543452 0.079414551687582866 0 -0.17702749526748529 0.081966948020833708 0 -0.1693268494853358 0.079538523923443544 0 -0.16945340910355561 0.089496265134995978 0 -0.17702749526748529 0.081966948020833708 0 -0.1693268494853358 0.079538523923443544 0 -0.17157411485926041 0.074087910936242465 0 -0.17702749526748529 0.081966948020833708 0 -0.17702749526748529 0.081966948020833708 0 -0.17749072232138041 0.1112547600218704 0 -0.16945340910355561 0.089496265134995978 0 -0.17702749526748529 0.081966948020833708 0 -0.17749072232138041 0.1112547600218704 0 -0.17749072232138041 0.1112547600218704 0 -0.1951643137470572 0.093770439387570487 0 -0.18248563084903771 0.082725789105533951 0 -0.17749072232138041 0.1112547600218704 0 -0.1951643137470572 0.093770439387570487 0 -0.17749072232138041 0.1112547600218704 0 -0.19150979458678249 0.1243728737611647 0 -0.17789558253256721 0.1368522929207025 0 -0.17749072232138041 0.1112547600218704 0 -0.17789558253256721 0.1368522929207025 0 -0.17749072232138041 0.1112547600218704 0 -0.16113979031376621 0.12743058591966341 0 -0.17749072232138041 0.1112547600218704 0 -0.15084139672814201 0.110160429760413 0 -0.16113979031376621 0.12743058591966341 0 -0.17749072232138041 0.1112547600218704 0 -0.1616157516695074 0.095139316102685473 0 -0.15084139672814201 0.110160429760413 0 -0.16945340910355561 0.089496265134995978 0 -0.17749072232138041 0.1112547600218704 0 -0.1616157516695074 0.095139316102685473 0 -0.1616157516695074 0.095139316102685473 0 -0.15084139672814201 0.110160429760413 0 -0.14767322655010931 0.084806545451415583 0 -0.15084139672814201 0.110160429760413 0 -0.1348328660863515 0.097215266237156234 0 -0.14767322655010931 0.084806545451415583 0 -0.15084139672814201 0.110160429760413 0 -0.13137241316615089 0.11357835761918721 0 -0.14300315410871919 0.1253406317882016 0 -0.15084139672814201 0.110160429760413 0 -0.16113979031376621 0.12743058591966341 0 -0.14300315410871919 0.1253406317882016 0 -0.13137241316615089 0.11357835761918721 0 -0.14300315410871919 0.1253406317882016 0 -0.12687331202938101 0.13192737382428379 0 -0.13137241316615089 0.11357835761918721 0 -0.1348328660863515 0.097215266237156234 0 -0.1198812247159142 0.095002477965890675 0 -0.15084139672814201 0.110160429760413 0 -0.13137241316615089 0.11357835761918721 0 -0.1348328660863515 0.097215266237156234 0 -0.1348328660863515 0.097215266237156234 0 -0.12533951967512769 0.078274991835817334 0 -0.1198812247159142 0.095002477965890675 0 -0.1348328660863515 0.097215266237156234 0 -0.12533951967512769 0.078274991835817334 0 -0.14767322655010931 0.084806545451415583 0 -0.1618062267740645 0.07958177760614682 0 -0.14767322655010931 0.084806545451415583 0 -0.15517576509654349 0.068304766057398533 0 -0.14767322655010931 0.084806545451415583 0 -0.15517576509654349 0.068304766057398533 0 -0.14001017723872511 0.063978020277280875 0 -0.12533951967512769 0.078274991835817334 0 -0.14767322655010931 0.084806545451415583 0 -0.14001017723872511 0.063978020277280875 0 -0.12533951967512769 0.078274991835817334 0 -0.14001017723872511 0.063978020277280875 0 -0.1248745965026067 0.059896082918310993 0 -0.14001017723872511 0.063978020277280875 0 -0.13626681081840961 0.042829268155062397 0 -0.1248745965026067 0.059896082918310993 0 -0.13626681081840961 0.042829268155062397 0 -0.1339340902388827 0.022300844741854581 0 -0.1180188049733784 0.030804183747700629 0 -0.13626681081840961 0.042829268155062397 0 -0.1339340902388827 0.022300844741854581 0 -0.15968783393996419 0.037567277286728401 0 -0.13626681081840961 0.042829268155062397 0 -0.15351002702878311 0.053877414325468623 0 -0.15968783393996419 0.037567277286728401 0 -0.13626681081840961 0.042829268155062397 0 -0.15968783393996419 0.037567277286728401 0 -0.14001017723872511 0.063978020277280875 0 -0.13626681081840961 0.042829268155062397 0 -0.15351002702878311 0.053877414325468623 0 -0.15517576509654349 0.068304766057398533 0 -0.14001017723872511 0.063978020277280875 0 -0.15351002702878311 0.053877414325468623 0 -0.12735709500343681 0.004015926865657337 0 -0.15177498865293759 0.016606981474429749 0 -0.12735709500343681 0.004015926865657337 0 -0.1339340902388827 0.022300844741854581 0 -0.15177498865293759 0.016606981474429749 0 -0.12735709500343681 0.004015926865657337 0 -0.1339340902388827 0.022300844741854581 0 -0.11835839359799651 0.016938700943610479 0 -0.1339340902388827 0.022300844741854581 0 -0.15177498865293759 0.016606981474429749 0 -0.15968783393996419 0.037567277286728401 0 -0.1339340902388827 0.022300844741854581 0 -0.15968783393996419 0.037567277286728401 0 -0.12735709500343681 0.004015926865657337 0 -0.15177498865293759 0.016606981474429749 0 -0.14801408494475049 0.0031182785745780331 0 -0.15177498865293759 0.016606981474429749 0 -0.14801408494475049 0.0031182785745780331 0 -0.1619193683370386 0.0066468078375689294 0 -0.15773416148281841 -0.0035868741371463562 0 -0.14801408494475049 0.0031182785745780331 0 -0.1619193683370386 0.0066468078375689294 0 -0.15177498865293759 0.016606981474429749 0 -0.1619193683370386 0.0066468078375689294 0 -0.16760309597538539 0.015861310899326669 0 -0.16716832075785379 -0.0032078365625175 0 -0.1619193683370386 0.0066468078375689294 0 -0.17584419881677341 0.0071523107965592754 0 -0.1619193683370386 0.0066468078375689294 0 -0.16760309597538539 0.015861310899326669 0 -0.17584419881677341 0.0071523107965592754 0 -0.15177498865293759 0.016606981474429749 0 -0.17619288230243149 0.029198036083215671 0 -0.15177498865293759 0.016606981474429749 0 -0.17619288230243149 0.029198036083215671 0 -0.15968783393996419 0.037567277286728401 0 -0.15177498865293759 0.016606981474429749 0 -0.16760309597538539 0.015861310899326669 0 -0.17619288230243149 0.029198036083215671 0 -0.17619288230243149 0.029198036083215671 0 -0.1852069371874478 0.015311100034367831 0 -0.17584419881677341 0.0071523107965592754 0 -0.17619288230243149 0.029198036083215671 0 -0.17584419881677341 0.0071523107965592754 0 -0.16760309597538539 0.015861310899326669 0 -0.17619288230243149 0.029198036083215671 0 -0.17584419881677341 0.0071523107965592754 0 -0.17619288230243149 0.029198036083215671 0 -0.19572946351785711 0.039272048382664133 0 -0.19029700863621521 0.024089069561314659 0 -0.17619288230243149 0.029198036083215671 0 -0.1852069371874478 0.015311100034367831 0 -0.19029700863621521 0.024089069561314659 0 -0.1852069371874478 0.015311100034367831 0 -0.18717715497560061 0.0062623078557712403 0 -0.17584419881677341 0.0071523107965592754 0 -0.18154179604087481 -0.0036104187285780349 0 -0.18717715497560061 0.0062623078557712403 0 -0.17584419881677341 0.0071523107965592754 0 -0.15351002702878311 0.053877414325468623 0 -0.1659033968134131 0.050269055427132232 0 -0.15968783393996419 0.037567277286728401 0 -0.1659033968134131 0.050269055427132232 0 -0.16451238623864939 0.061110077383343737 0 -0.17656426821359539 0.052679136019797047 0 -0.17354141001077031 0.063798093567348918 0 -0.16451238623864939 0.061110077383343737 0 -0.17656426821359539 0.052679136019797047 0 -0.16451238623864939 0.061110077383343737 0 -0.17656426821359539 0.052679136019797047 0 -0.15351002702878311 0.053877414325468623 0 -0.1659033968134131 0.050269055427132232 0 -0.16451238623864939 0.061110077383343737 0 -0.15517576509654349 0.068304766057398533 0 -0.15351002702878311 0.053877414325468623 0 -0.16451238623864939 0.061110077383343737 0 -0.15968783393996419 0.037567277286728401 0 -0.1762663423330757 0.033842591165095401 0 -0.1659033968134131 0.050269055427132232 0 -0.15968783393996419 0.037567277286728401 0 -0.1764827173319595 0.047523031967639129 0 -0.17619288230243149 0.029198036083215671 0 -0.15968783393996419 0.037567277286728401 0 -0.1762663423330757 0.033842591165095401 0 -0.15968783393996419 0.037567277286728401 0 -0.1764827173319595 0.047523031967639129 0 -0.15968783393996419 0.037567277286728401 0 -0.1762663423330757 0.033842591165095401 0 -0.1764827173319595 0.047523031967639129 0 -0.17619288230243149 0.029198036083215671 0 -0.19572946351785711 0.039272048382664133 0 -0.181281627628781 0.040827380692469641 0 -0.18051660755046151 0.049914261515807259 0 -0.1764827173319595 0.047523031967639129 0 -0.17619288230243149 0.029198036083215671 0 -0.1762663423330757 0.033842591165095401 0 -0.19572946351785711 0.039272048382664133 0 -0.1762663423330757 0.033842591165095401 0 -0.181281627628781 0.040827380692469641 0 -0.19572946351785711 0.039272048382664133 0 -0.1762663423330757 0.033842591165095401 0 -0.181281627628781 0.040827380692469641 0 -0.1764827173319595 0.047523031967639129 0 -0.1762663423330757 0.033842591165095401 0 -0.1764827173319595 0.047523031967639129 0 -0.17619288230243149 0.029198036083215671 0 -0.1762663423330757 0.033842591165095401 0 -0.181281627628781 0.040827380692469641 0 -0.18051660755046151 0.049914261515807259 0 -0.19572946351785711 0.039272048382664133 0 -0.18051660755046151 0.049914261515807259 0 -0.17656426821359539 0.052679136019797047 0 -0.1853153676200878 0.058850167416455039 0 -0.18051660755046151 0.049914261515807259 0 -0.1764827173319595 0.047523031967639129 0 -0.1764827173319595 0.047523031967639129 0 -0.17656426821359539 0.052679136019797047 0 -0.1659033968134131 0.050269055427132232 0 -0.1764827173319595 0.047523031967639129 0 -0.17656426821359539 0.052679136019797047 0 -0.18051660755046151 0.049914261515807259 0 -0.1764827173319595 0.047523031967639129 0 -0.17656426821359539 0.052679136019797047 0 -0.18051660755046151 0.049914261515807259 0 -0.17656426821359539 0.052679136019797047 0 -0.18185637422210199 0.067243003367259677 0 -0.17656426821359539 0.052679136019797047 0 -0.1853153676200878 0.058850167416455039 0 -0.1853153676200878 0.058850167416455039 0 -0.19803765617450109 0.060300476042091433 0 -0.18892740292417859 0.064703221589215376 0 -0.18051660755046151 0.049914261515807259 0 -0.19803765617450109 0.060300476042091433 0 -0.1977866825790292 0.05007637869738242 0 -0.18051660755046151 0.049914261515807259 0 -0.1853153676200878 0.058850167416455039 0 -0.19803765617450109 0.060300476042091433 0 -0.18051660755046151 0.049914261515807259 0 -0.19803765617450109 0.060300476042091433 0 -0.19803765617450109 0.060300476042091433 0 -0.1977866825790292 0.05007637869738242 0 -0.2066297839190599 0.054855205218219752 0 -0.18051660755046151 0.049914261515807259 0 -0.1977866825790292 0.05007637869738242 0 -0.19572946351785711 0.039272048382664133 0 -0.18051660755046151 0.049914261515807259 0 -0.19572946351785711 0.039272048382664133 0 -0.19572946351785711 0.039272048382664133 0 -0.2098237389609823 0.029412342647955388 0 -0.1977866825790292 0.05007637869738242 0 -0.19572946351785711 0.039272048382664133 0 -0.2073344650466164 0.045256152092875389 0 -0.19572946351785711 0.039272048382664133 0 -0.2073344650466164 0.045256152092875389 0 -0.2073344650466164 0.045256152092875389 0 -0.21702036639386221 0.038769314305699548 0 -0.2098237389609823 0.029412342647955388 0 -0.19572946351785711 0.039272048382664133 0 -0.2073344650466164 0.045256152092875389 0 -0.2098237389609823 0.029412342647955388 0 -0.21702036639386221 0.038769314305699548 0 -0.2098237389609823 0.029412342647955388 0 -0.2284051488343061 0.035137669629428533 0 -0.2073344650466164 0.045256152092875389 0 -0.21702036639386221 0.038769314305699548 0 -0.22251811273354419 0.045271092852538893 0 -0.2073344650466164 0.045256152092875389 0 -0.21769334509658461 0.055951218203848879 0 -0.22251811273354419 0.045271092852538893 0 -0.21769334509658461 0.055951218203848879 0 -0.20947987249717179 0.060448397508133619 0 -0.2066297839190599 0.054855205218219752 0 -0.21769334509658461 0.055951218203848879 0 -0.20947987249717179 0.060448397508133619 0 -0.2155587047985415 0.070686690568374386 0 -0.19803765617450109 0.060300476042091433 0 -0.20947987249717179 0.060448397508133619 0 -0.2066297839190599 0.054855205218219752 0 -0.1977866825790292 0.05007637869738242 0 -0.2073344650466164 0.045256152092875389 0 -0.2066297839190599 0.054855205218219752 0 -0.2073344650466164 0.045256152092875389 0 -0.21769334509658461 0.055951218203848879 0 -0.2066297839190599 0.054855205218219752 0 -0.1989264366345522 -0.0080023544535597537 0 -0.1965234412062255 0.0098537758749781944 0 -0.20713549204565579 6.5395444916274768e-05 0 -0.19066530249761049 -0.0041303576494283751 0 -0.18717715497560061 0.0062623078557712403 0 -0.1965234412062255 0.0098537758749781944 0 -0.1852069371874478 0.015311100034367831 0 -0.18717715497560061 0.0062623078557712403 0 -0.1965234412062255 0.0098537758749781944 0 -0.1965234412062255 0.0098537758749781944 0 -0.20113962024173071 0.02227838771243261 0 -0.2107847094499361 0.011405203725301251 0 -0.19572946351785711 0.039272048382664133 0 -0.20113962024173071 0.02227838771243261 0 -0.2098237389609823 0.029412342647955388 0 -0.19572946351785711 0.039272048382664133 0 -0.20113962024173071 0.02227838771243261 0 -0.19029700863621521 0.024089069561314659 0 -0.1965234412062255 0.0098537758749781944 0 -0.20113962024173071 0.02227838771243261 0 -0.19029700863621521 0.024089069561314659 0 -0.1852069371874478 0.015311100034367831 0 -0.1965234412062255 0.0098537758749781944 0 -0.19029700863621521 0.024089069561314659 0 -0.2098237389609823 0.029412342647955388 0 -0.2107847094499361 0.011405203725301251 0 -0.22391801440410891 0.019552636913248388 0 -0.20113962024173071 0.02227838771243261 0 -0.2098237389609823 0.029412342647955388 0 -0.2107847094499361 0.011405203725301251 0 -0.2098237389609823 0.029412342647955388 0 -0.22391801440410891 0.019552636913248388 0 -0.21702438745170211 -0.0043907958627755336 0 -0.2107847094499361 0.011405203725301251 0 -0.20713549204565579 6.5395444916274768e-05 0 -0.21702438745170211 -0.0043907958627755336 0 -0.2107847094499361 0.011405203725301251 0 -0.22391801440410891 0.019552636913248388 0 -0.1965234412062255 0.0098537758749781944 0 -0.2107847094499361 0.011405203725301251 0 -0.20713549204565579 6.5395444916274768e-05 0 -0.22867745033346079 0.0038692188645070222 0 -0.22391801440410891 0.019552636913248388 0 -0.2344599051246074 0.012178015861532989 0 -0.21702438745170211 -0.0043907958627755336 0 -0.22391801440410891 0.019552636913248388 0 -0.21702438745170211 -0.0043907958627755336 0 -0.22867745033346079 0.0038692188645070222 0 -0.22391801440410891 0.019552636913248388 0 -0.22391801440410891 0.019552636913248388 0 -0.2403792472176362 0.02548084658656756 0 -0.2344599051246074 0.012178015861532989 0 -0.2098237389609823 0.029412342647955388 0 -0.22391801440410891 0.019552636913248388 0 -0.2284051488343061 0.035137669629428533 0 -0.22391801440410891 0.019552636913248388 0 -0.2403792472176362 0.02548084658656756 0 -0.2284051488343061 0.035137669629428533 0 -0.22391801440410891 0.019552636913248388 0 -0.2344599051246074 0.012178015861532989 0 -0.22391801440410891 0.019552636913248388 0 -0.2284051488343061 0.035137669629428533 0 -0.2522816967992324 0.037264740289820159 0 -0.25157722050270093 0.012682655753942951 0 -0.2403792472176362 0.02548084658656756 0 -0.25157722050270093 0.012682655753942951 0 -0.2403792472176362 0.02548084658656756 0 -0.2344599051246074 0.012178015861532989 0 -0.25267499080189931 -0.0034516002120552492 0 -0.25157722050270093 0.012682655753942951 0 -0.2401015516947359 0.00075261550232862703 0 -0.25157722050270093 0.012682655753942951 0 -0.2344599051246074 0.012178015861532989 0 -0.2401015516947359 0.00075261550232862703 0 -0.22867745033346079 0.0038692188645070222 0 -0.2344599051246074 0.012178015861532989 0 -0.2401015516947359 0.00075261550232862703 0 -0.21769334509658461 0.055951218203848879 0 -0.23255980098598539 0.056775429521547523 0 -0.2155587047985415 0.070686690568374386 0 -0.23289228326450309 0.050722702345608793 0 -0.22641588552015429 0.052180110730886013 0 -0.22251811273354419 0.045271092852538893 0 -0.23289228326450309 0.050722702345608793 0 -0.23255980098598539 0.056775429521547523 0 -0.22641588552015429 0.052180110730886013 0 -0.21769334509658461 0.055951218203848879 0 -0.23255980098598539 0.056775429521547523 0 -0.22641588552015429 0.052180110730886013 0 -0.21769334509658461 0.055951218203848879 0 -0.22641588552015429 0.052180110730886013 0 -0.22251811273354419 0.045271092852538893 0 -0.21702036639386221 0.038769314305699548 0 -0.22251811273354419 0.045271092852538893 0 -0.2284051488343061 0.035137669629428533 0 -0.23289228326450309 0.050722702345608793 0 -0.22251811273354419 0.045271092852538893 0 -0.2284051488343061 0.035137669629428533 0 -0.23289228326450309 0.050722702345608793 0 -0.2284051488343061 0.035137669629428533 0 -0.2522816967992324 0.037264740289820159 0 -0.2403792472176362 0.02548084658656756 0 -0.2284051488343061 0.035137669629428533 0 -0.2522816967992324 0.037264740289820159 0 -0.23289228326450309 0.050722702345608793 0 -0.2284051488343061 0.035137669629428533 0 -0.2522816967992324 0.037264740289820159 0 -0.23289228326450309 0.050722702345608793 0 -0.23255980098598539 0.056775429521547523 0 -0.2522816967992324 0.037264740289820159 0 -0.23255980098598539 0.056775429521547523 0 -0.2522816967992324 0.037264740289820159 0 -0.23255980098598539 0.056775429521547523 0 -0.24906194248509719 0.058488871325365822 0 -0.23255980098598539 0.056775429521547523 0 -0.24906194248509719 0.058488871325365822 0 -0.23770452364983391 0.071010308971772351 0 -0.26257114212692878 0.06573449919026883 0 -0.24906194248509719 0.058488871325365822 0 -0.23770452364983391 0.071010308971772351 0 -0.25261226255175379 0.080423606239198905 0 -0.23770452364983391 0.071010308971772351 0 -0.23158356521460469 0.085326977986282804 0 -0.25261226255175379 0.080423606239198905 0 -0.23158356521460469 0.085326977986282804 0 -0.24377998071086901 0.096378574065869249 0 -0.23158356521460469 0.085326977986282804 0 -0.21283790517273879 0.076286118753275345 0 -0.22135706029896429 0.097751395037259853 0 -0.23158356521460469 0.085326977986282804 0 -0.22135706029896429 0.097751395037259853 0 -0.24377998071086901 0.096378574065869249 0 -0.23255980098598539 0.056775429521547523 0 -0.21283790517273879 0.076286118753275345 0 -0.23770452364983391 0.071010308971772351 0 -0.23158356521460469 0.085326977986282804 0 -0.21283790517273879 0.076286118753275345 0 -0.23255980098598539 0.056775429521547523 0 -0.23770452364983391 0.071010308971772351 0 -0.21283790517273879 0.076286118753275345 0 -0.23255980098598539 0.056775429521547523 0 -0.21283790517273879 0.076286118753275345 0 -0.2155587047985415 0.070686690568374386 0 -0.23770452364983391 0.071010308971772351 0 -0.21283790517273879 0.076286118753275345 0 -0.19803765617450109 0.060300476042091433 0 -0.20947987249717179 0.060448397508133619 0 -0.2155587047985415 0.070686690568374386 0 -0.19803765617450109 0.060300476042091433 0 -0.20333782300263301 0.070680183335342567 0 -0.2155587047985415 0.070686690568374386 0 -0.19803765617450109 0.060300476042091433 0 -0.2155587047985415 0.070686690568374386 0 -0.21283790517273879 0.076286118753275345 0 -0.19766176801088831 0.079505953929404904 0 -0.20333782300263301 0.070680183335342567 0 -0.21283790517273879 0.076286118753275345 0 -0.19766176801088831 0.079505953929404904 0 -0.20333782300263301 0.070680183335342567 0 -0.21283790517273879 0.076286118753275345 0 -0.2155587047985415 0.070686690568374386 0 -0.21283790517273879 0.076286118753275345 0 -0.1951643137470572 0.093770439387570487 0 -0.22135706029896429 0.097751395037259853 0 -0.21283790517273879 0.076286118753275345 0 -0.1951643137470572 0.093770439387570487 0 -0.21283790517273879 0.076286118753275345 0 -0.19766176801088831 0.079505953929404904 0 -0.1951643137470572 0.093770439387570487 0 -0.18248563084903771 0.082725789105533951 0 -0.19766176801088831 0.079505953929404904 0 -0.1951643137470572 0.093770439387570487 0 -0.1867192510276118 0.077748512173410014 0 -0.18248563084903771 0.082725789105533951 0 -0.19766176801088831 0.079505953929404904 0 -0.18248563084903771 0.082725789105533951 0 -0.19766176801088831 0.079505953929404904 0 -0.1867192510276118 0.077748512173410014 0 -0.19766176801088831 0.079505953929404904 0 -0.19050021368002351 0.072419239531055349 0 -0.19803765617450109 0.060300476042091433 0 -0.19050021368002351 0.072419239531055349 0 -0.18892740292417859 0.064703221589215376 0 -0.19803765617450109 0.060300476042091433 0 -0.20333782300263301 0.070680183335342567 0 -0.19050021368002351 0.072419239531055349 0 -0.20333782300263301 0.070680183335342567 0 -0.19766176801088831 0.079505953929404904 0 -0.19050021368002351 0.072419239531055349 0 -0.17749072232138041 0.1112547600218704 0 -0.19150979458678249 0.1243728737611647 0 -0.1951643137470572 0.093770439387570487 0 -0.19150979458678249 0.1243728737611647 0 -0.1951643137470572 0.093770439387570487 0 -0.20994497012605751 0.11823125198409511 0 -0.1951643137470572 0.093770439387570487 0 -0.20994497012605751 0.11823125198409511 0 -0.22135706029896429 0.097751395037259853 0 -0.20994497012605751 0.11823125198409511 0 -0.2348316268224595 0.11651500804646669 0 -0.2235388627286797 0.12965651036182041 0 -0.20994497012605751 0.11823125198409511 0 -0.22135706029896429 0.097751395037259853 0 -0.2348316268224595 0.11651500804646669 0 -0.22135706029896429 0.097751395037259853 0 -0.24377998071086901 0.096378574065869249 0 -0.2348316268224595 0.11651500804646669 0 -0.25136603029008331 0.1103208693098497 0 -0.24377998071086901 0.096378574065869249 0 -0.2348316268224595 0.11651500804646669 0 -0.25922316449870308 0.12628093809151891 0 -0.25136603029008331 0.1103208693098497 0 -0.2348316268224595 0.11651500804646669 0 -0.25922316449870308 0.12628093809151891 0 -0.2348316268224595 0.11651500804646669 0 -0.2369615480924761 0.1404602413506009 0 -0.2369615480924761 0.1404602413506009 0 -0.2235388627286797 0.12965651036182041 0 -0.2124173058737257 0.14341954006611901 0 -0.2348316268224595 0.11651500804646669 0 -0.2369615480924761 0.1404602413506009 0 -0.2235388627286797 0.12965651036182041 0 -0.2369615480924761 0.1404602413506009 0 -0.22679867445049531 0.16064067306310431 0 -0.2124173058737257 0.14341954006611901 0 -0.2369615480924761 0.1404602413506009 0 -0.247018622616726 0.15992587597476091 0 -0.22679867445049531 0.16064067306310431 0 -0.25846103874104392 0.14702121199507179 0 -0.2369615480924761 0.1404602413506009 0 -0.247018622616726 0.15992587597476091 0 -0.247018622616726 0.15992587597476091 0 -0.23359887481107691 0.1809086922627815 0 -0.247018622616726 0.15992587597476091 0 -0.23359887481107691 0.1809086922627815 0 -0.22679867445049531 0.16064067306310431 0 -0.26439180367967152 0.18225540552070321 0 -0.247018622616726 0.15992587597476091 0 -0.23359887481107691 0.1809086922627815 0 -0.23359887481107691 0.1809086922627815 0 -0.20517995294037331 0.17379218369948349 0 -0.2201791270054278 0.2018915085508021 0 -0.23359887481107691 0.1809086922627815 0 -0.22679867445049531 0.16064067306310431 0 -0.20517995294037331 0.17379218369948349 0 -0.22679867445049531 0.16064067306310431 0 -0.20517995294037331 0.17379218369948349 0 -0.2124173058737257 0.14341954006611901 0 -0.20517995294037331 0.17379218369948349 0 -0.19274338499996449 0.14807478539393409 0 -0.17830044274374979 0.16244982581953471 0 -0.19150979458678249 0.1243728737611647 0 -0.19274338499996449 0.14807478539393409 0 -0.2124173058737257 0.14341954006611901 0 -0.20994497012605751 0.11823125198409511 0 -0.2235388627286797 0.12965651036182041 0 -0.2124173058737257 0.14341954006611901 0 -0.19150979458678249 0.1243728737611647 0 -0.20994497012605751 0.11823125198409511 0 -0.2124173058737257 0.14341954006611901 0 -0.20517995294037331 0.17379218369948349 0 -0.19274338499996449 0.14807478539393409 0 -0.2124173058737257 0.14341954006611901 0 -0.22371849106378741 0.2462845034026982 0 -0.23019370483249479 0.22382880503591951 0 -0.2066863838603582 0.24242880758937649 0 -0.22371849106378741 0.2462845034026982 0 -0.23951274761537589 0.2474853768326048 0 -0.23019370483249479 0.22382880503591951 0 -0.25272375818517617 0.22994970808158929 0 -0.25621817608628389 0.2460965770837312 0 -0.23951274761537589 0.2474853768326048 0 -0.25370102580463139 0.2052288024824625 0 -0.25272375818517617 0.22994970808158929 0 -0.23019370483249479 0.22382880503591951 0 -0.25272375818517617 0.22994970808158929 0 -0.23951274761537589 0.2474853768326048 0 -0.23019370483249479 0.22382880503591951 0 -0.25370102580463139 0.2052288024824625 0 -0.23359887481107691 0.1809086922627815 0 -0.2201791270054278 0.2018915085508021 0 -0.25370102580463139 0.2052288024824625 0 -0.23019370483249479 0.22382880503591951 0 -0.2201791270054278 0.2018915085508021 0 -0.23019370483249479 0.22382880503591951 0 -0.2201791270054278 0.2018915085508021 0 -0.20675937919977869 0.22287432483882261 0 -0.25370102580463139 0.2052288024824625 0 -0.23019370483249479 0.22382880503591951 0 -0.23359887481107691 0.1809086922627815 0 -0.2201791270054278 0.2018915085508021 0 -0.20517995294037331 0.17379218369948349 0 -0.2201791270054278 0.2018915085508021 0 -0.19686056424972551 0.20437535499954981 0 -0.20517995294037331 0.17379218369948349 0 -0.19686056424972551 0.20437535499954981 0 -0.17870530295493239 0.18804735871836689 0 -0.19686056424972551 0.20437535499954981 0 -0.20675937919977869 0.22287432483882261 0 -0.19122946023172571 0.22600186257262461 0 -0.19686056424972551 0.20437535499954981 0 -0.19122946023172571 0.22600186257262461 0 -0.179110163166115 0.21364489161719899 0 -0.2201791270054278 0.2018915085508021 0 -0.19686056424972551 0.20437535499954981 0 -0.20675937919977869 0.22287432483882261 0 -0.2201791270054278 0.2018915085508021 0 -0.20675937919977869 0.22287432483882261 0 -0.23019370483249479 0.22382880503591951 0 -0.2066863838603582 0.24242880758937649 0 -0.23019370483249479 0.22382880503591951 0 -0.20675937919977869 0.22287432483882261 0 -0.2066863838603582 0.24242880758937649 0 -0.20675937919977869 0.22287432483882261 0 -0.19333963139412971 0.24385714112684301 0 -0.20675937919977869 0.22287432483882261 0 -0.19122946023172571 0.22600186257262461 0 -0.19333963139412971 0.24385714112684301 0 -0.19122946023172571 0.22600186257262461 0 -0.19333963139412971 0.24385714112684301 0 -0.17951502337729761 0.2392424245160312 0 -0.20675937919977869 0.22287432483882261 0 -0.19333963139412971 0.24385714112684301 0 -0.2066863838603582 0.24242880758937649 0 -0.18259587964237009 0.2606558300825601 0 -0.19333963139412971 0.24385714112684301 0 -0.2066863838603582 0.24242880758937649 0 -0.21408768962570049 0.25938306782852782 0 -0.22371849106378741 0.2462845034026982 0 -0.2066863838603582 0.24242880758937649 0 -0.1532221513837192 0.25419418888983192 0 -0.17951502337729761 0.2392424245160312 0 -0.15110003921584569 0.22881829817408891 0 -0.18259587964237009 0.2606558300825601 0 -0.19333963139412971 0.24385714112684301 0 -0.17951502337729761 0.2392424245160312 0 -0.17951502337729761 0.2392424245160312 0 -0.1619547442009632 0.2162214427956837 0 -0.179110163166115 0.21364489161719899 0 -0.19122946023172571 0.22600186257262461 0 -0.17951502337729761 0.2392424245160312 0 -0.179110163166115 0.21364489161719899 0 -0.17951502337729761 0.2392424245160312 0 -0.179110163166115 0.21364489161719899 0 -0.17951502337729761 0.2392424245160312 0 -0.1619547442009632 0.2162214427956837 0 -0.15110003921584569 0.22881829817408891 0 -0.1619547442009632 0.2162214427956837 0 -0.179110163166115 0.21364489161719899 0 -0.17870530295493239 0.18804735871836689 0 -0.19686056424972551 0.20437535499954981 0 -0.179110163166115 0.21364489161719899 0 -0.17870530295493239 0.18804735871836689 0 -0.179110163166115 0.21364489161719899 0 -0.17870530295493239 0.18804735871836689 0 -0.1619547442009632 0.2162214427956837 0 -0.17870530295493239 0.18804735871836689 0 -0.15775407484820861 0.18727827749961631 0 -0.14804225966403101 0.20585853828705919 0 -0.15775407484820861 0.18727827749961631 0 -0.13876353146598761 0.18223131465273959 0 -0.1619547442009632 0.2162214427956837 0 -0.14804225966403101 0.20585853828705919 0 -0.15775407484820861 0.18727827749961631 0 -0.13876353146598761 0.18223131465273959 0 -0.1245765098090509 0.17966052017845999 0 -0.1190175871807343 0.20067046473278771 0 -0.14804225966403101 0.20585853828705919 0 -0.13876353146598761 0.18223131465273959 0 -0.1190175871807343 0.20067046473278771 0 -0.14804225966403101 0.20585853828705919 0 -0.13479108425045189 0.2189379304695287 0 -0.1190175871807343 0.20067046473278771 0 -0.13479108425045189 0.2189379304695287 0 -0.12594818007053379 0.2253828658525201 0 -0.1190175871807343 0.20067046473278771 0 -0.1619547442009632 0.2162214427956837 0 -0.14804225966403101 0.20585853828705919 0 -0.15110003921584569 0.22881829817408891 0 -0.14804225966403101 0.20585853828705919 0 -0.15110003921584569 0.22881829817408891 0 -0.13479108425045189 0.2189379304695287 0 -0.15110003921584569 0.22881829817408891 0 -0.13479108425045189 0.2189379304695287 0 -0.1378537507735782 0.22769286600650679 0 -0.15110003921584569 0.22881829817408891 0 -0.1378537507735782 0.22769286600650679 0 -0.13827307027013019 0.2362506378269415 0 -0.13479108425045189 0.2189379304695287 0 -0.12594818007053379 0.2253828658525201 0 -0.1378537507735782 0.22769286600650679 0 -0.12594818007053379 0.2253828658525201 0 -0.1378537507735782 0.22769286600650679 0 -0.13827307027013019 0.2362506378269415 0 -0.12594818007053379 0.2253828658525201 0 -0.13827307027013019 0.2362506378269415 0 -0.1327712538659816 0.24971188635390451 0 -0.12594818007053379 0.2253828658525201 0 -0.1327712538659816 0.24971188635390451 0 -0.1532221513837192 0.25419418888983192 0 -0.15110003921584569 0.22881829817408891 0 -0.13827307027013019 0.2362506378269415 0 -0.1532221513837192 0.25419418888983192 0 -0.13827307027013019 0.2362506378269415 0 -0.1327712538659816 0.24971188635390451 0 -0.16317411874061041 0.14897554401654969 0 -0.16113979031376621 0.12743058591966341 0 -0.1447888583061562 0.1436064118174607 0 -0.16317411874061041 0.14897554401654969 0 -0.16113979031376621 0.12743058591966341 0 -0.17789558253256721 0.1368522929207025 0 -0.17749072232138041 0.1112547600218704 0 -0.16113979031376621 0.12743058591966341 0 -0.17789558253256721 0.1368522929207025 0 -0.19150979458678249 0.1243728737611647 0 -0.19274338499996449 0.14807478539393409 0 -0.17789558253256721 0.1368522929207025 0 -0.16317411874061041 0.14897554401654969 0 -0.17789558253256721 0.1368522929207025 0 -0.17830044274374979 0.16244982581953471 0 -0.17789558253256721 0.1368522929207025 0 -0.17830044274374979 0.16244982581953471 0 -0.19274338499996449 0.14807478539393409 0 -0.17789558253256721 0.1368522929207025 0 -0.17830044274374979 0.16244982581953471 0 -0.20517995294037331 0.17379218369948349 0 -0.17870530295493239 0.18804735871836689 0 -0.17830044274374979 0.16244982581953471 0 -0.17870530295493239 0.18804735871836689 0 -0.17830044274374979 0.16244982581953471 0 -0.17870530295493239 0.18804735871836689 0 -0.17830044274374979 0.16244982581953471 0 -0.15775407484820861 0.18727827749961631 0 -0.17830044274374979 0.16244982581953471 0 -0.15775407484820861 0.18727827749961631 0 -0.15245232938168229 0.1648839185887534 0 -0.16317411874061041 0.14897554401654969 0 -0.17830044274374979 0.16244982581953471 0 -0.15245232938168229 0.1648839185887534 0 -0.15775407484820861 0.18727827749961631 0 -0.15245232938168229 0.1648839185887534 0 -0.13876353146598761 0.18223131465273959 0 -0.13876353146598761 0.18223131465273959 0 -0.12843792629854631 0.15978223771525801 0 -0.1245765098090509 0.17966052017845999 0 -0.15245232938168229 0.1648839185887534 0 -0.13876353146598761 0.18223131465273959 0 -0.12843792629854631 0.15978223771525801 0 -0.12843792629854631 0.15978223771525801 0 -0.1447888583061562 0.1436064118174607 0 -0.12843792629854631 0.15978223771525801 0 -0.1447888583061562 0.1436064118174607 0 -0.1204435081575875 0.14623213693654391 0 -0.16317411874061041 0.14897554401654969 0 -0.15245232938168229 0.1648839185887534 0 -0.1447888583061562 0.1436064118174607 0 -0.15245232938168229 0.1648839185887534 0 -0.12843792629854631 0.15978223771525801 0 -0.1447888583061562 0.1436064118174607 0 -0.16113979031376621 0.12743058591966341 0 -0.1447888583061562 0.1436064118174607 0 -0.14300315410871919 0.1253406317882016 0 -0.16113979031376621 0.12743058591966341 0 -0.1447888583061562 0.1436064118174607 0 -0.1447888583061562 0.1436064118174607 0 -0.12687331202938101 0.13192737382428379 0 -0.1204435081575875 0.14623213693654391 0 -0.1447888583061562 0.1436064118174607 0 -0.14300315410871919 0.1253406317882016 0 -0.12687331202938101 0.13192737382428379 0 -0.12687331202938101 0.13192737382428379 0 -0.1130049083687871 0.13722853083192951 0 -0.10667563132183119 0.1260080396076822 0 -0.12687331202938101 0.13192737382428379 0 -0.1130049083687871 0.13722853083192951 0 -0.1204435081575875 0.14623213693654391 0 -0.10667563132183119 0.1260080396076822 0 -0.081978849477511453 0.1384377215961772 0 -0.096577670607123245 0.1239972751083621 0 -0.10667563132183119 0.1260080396076822 0 -0.1008242758955458 0.1385116675773613 0 -0.081978849477511453 0.1384377215961772 0 -0.10667563132183119 0.1260080396076822 0 -0.081978849477511453 0.1384377215961772 0 -0.1130049083687871 0.13722853083192951 0 -0.10667563132183119 0.1260080396076822 0 -0.1008242758955458 0.1385116675773613 0 -0.1130049083687871 0.13722853083192951 0 -0.1008242758955458 0.1385116675773613 0 -0.1078791741402548 0.14587794917826699 0 -0.094422293866394627 0.1556947047027778 0 -0.094582816169344081 0.14500609667275041 0 -0.1078791741402548 0.14587794917826699 0 -0.1008242758955458 0.1385116675773613 0 -0.094582816169344081 0.14500609667275041 0 -0.1078791741402548 0.14587794917826699 0 -0.12843792629854631 0.15978223771525801 0 -0.1204435081575875 0.14623213693654391 0 -0.1073217141416921 0.15896651377475199 0 -0.1078791741402548 0.14587794917826699 0 -0.1204435081575875 0.14623213693654391 0 -0.1073217141416921 0.15896651377475199 0 -0.1130049083687871 0.13722853083192951 0 -0.1078791741402548 0.14587794917826699 0 -0.1204435081575875 0.14623213693654391 0 -0.12843792629854631 0.15978223771525801 0 -0.1245765098090509 0.17966052017845999 0 -0.1120869942909358 0.17595806361305491 0 -0.1120869942909358 0.17595806361305491 0 -0.1073217141416921 0.15896651377475199 0 -0.12843792629854631 0.15978223771525801 0 -0.1120869942909358 0.17595806361305491 0 -0.12843792629854631 0.15978223771525801 0 -0.1120869942909358 0.17595806361305491 0 -0.1073217141416921 0.15896651377475199 0 -0.1245765098090509 0.17966052017845999 0 -0.1120869942909358 0.17595806361305491 0 -0.1190175871807343 0.20067046473278771 0 -0.1120869942909358 0.17595806361305491 0 -0.1020860412129876 0.1687304780430319 0 -0.095149617161195271 0.19271405424946009 0 -0.1020860412129876 0.1687304780430319 0 -0.095149617161195271 0.19271405424946009 0 -0.1120869942909358 0.17595806361305491 0 -0.095149617161195271 0.19271405424946009 0 -0.1020860412129876 0.1687304780430319 0 -0.093279947424905002 0.17994671451597891 0 -0.095149617161195271 0.19271405424946009 0 -0.1020860412129876 0.1687304780430319 0 -0.089956478385260899 0.16811851343374709 0 -0.093279947424905002 0.17994671451597891 0 -0.094422293866394627 0.1556947047027778 0 -0.1078791741402548 0.14587794917826699 0 -0.1020860412129876 0.1687304780430319 0 -0.1078791741402548 0.14587794917826699 0 -0.1073217141416921 0.15896651377475199 0 -0.1020860412129876 0.1687304780430319 0 -0.1120869942909358 0.17595806361305491 0 -0.1073217141416921 0.15896651377475199 0 -0.1020860412129876 0.1687304780430319 0 -0.1078791741402548 0.14587794917826699 0 -0.1020860412129876 0.1687304780430319 0 -0.094422293866394627 0.1556947047027778 0 -0.1020860412129876 0.1687304780430319 0 -0.089956478385260899 0.16811851343374709 0 -0.094422293866394627 0.1556947047027778 0 -0.089956478385260899 0.16811851343374709 0 -0.084742563178951485 0.15922574422532609 0 -0.089956478385260899 0.16811851343374709 0 -0.080023232193096983 0.1657260639694961 0 -0.084742563178951485 0.15922574422532609 0 -0.089956478385260899 0.16811851343374709 0 -0.080023232193096983 0.1657260639694961 0 -0.081293191825158789 0.17801619480298669 0 -0.080023232193096983 0.1657260639694961 0 -0.084742563178951485 0.15922574422532609 0 -0.074930767296401246 0.15918989644816289 0 -0.081293191825158789 0.17801619480298669 0 -0.095149617161195271 0.19271405424946009 0 -0.073474196407973841 0.19079473501472519 0 -0.081293191825158789 0.17801619480298669 0 -0.095149617161195271 0.19271405424946009 0 -0.093279947424905002 0.17994671451597891 0 -0.081293191825158789 0.17801619480298669 0 -0.095149617161195271 0.19271405424946009 0 -0.089956478385260899 0.16811851343374709 0 -0.093279947424905002 0.17994671451597891 0 -0.081293191825158789 0.17801619480298669 0 -0.064604308801312821 0.18244611143699499 0 -0.069549912031587807 0.17131438064227461 0 -0.073474196407973841 0.19079473501472519 0 -0.081293191825158789 0.17801619480298669 0 -0.069549912031587807 0.17131438064227461 0 -0.073474196407973841 0.19079473501472519 0 -0.069549912031587807 0.17131438064227461 0 -0.073474196407973841 0.19079473501472519 0 -0.064604308801312821 0.18244611143699499 0 -0.069549912031587807 0.17131438064227461 0 -0.062041409668937363 0.1723934095439342 0 -0.084742563178951485 0.15922574422532609 0 -0.074930767296401246 0.15918989644816289 0 -0.074588176879671189 0.15080810715310269 0 -0.080023232193096983 0.1657260639694961 0 -0.074930767296401246 0.15918989644816289 0 -0.06743676648912228 0.16331833535651319 0 -0.081293191825158789 0.17801619480298669 0 -0.069549912031587807 0.17131438064227461 0 -0.06743676648912228 0.16331833535651319 0 -0.080023232193096983 0.1657260639694961 0 -0.081293191825158789 0.17801619480298669 0 -0.06743676648912228 0.16331833535651319 0 -0.081293191825158789 0.17801619480298669 0 -0.06743676648912228 0.16331833535651319 0 -0.069549912031587807 0.17131438064227461 0 -0.062031688412593149 0.16441565219234799 0 -0.062041409668937363 0.1723934095439342 0 -0.069549912031587807 0.17131438064227461 0 -0.06743676648912228 0.16331833535651319 0 -0.062031688412593149 0.16441565219234799 0 -0.06743676648912228 0.16331833535651319 0 -0.06725389334219653 0.15771987894696021 0 -0.062031688412593149 0.16441565219234799 0 -0.074930767296401246 0.15918989644816289 0 -0.06743676648912228 0.16331833535651319 0 -0.06725389334219653 0.15771987894696021 0 -0.081978849477511453 0.1384377215961772 0 -0.05728206763319247 0.1508674035846734 0 -0.06725389334219653 0.15771987894696021 0 -0.074588176879671189 0.15080810715310269 0 -0.05728206763319247 0.1508674035846734 0 -0.074588176879671189 0.15080810715310269 0 -0.081978849477511453 0.1384377215961772 0 -0.05728206763319247 0.1508674035846734 0 -0.081978849477511453 0.1384377215961772 0 -0.06070043620975589 0.134524720015781 0 -0.05728206763319247 0.1508674035846734 0 -0.074930767296401246 0.15918989644816289 0 -0.06725389334219653 0.15771987894696021 0 -0.074588176879671189 0.15080810715310269 0 -0.071786582042575819 0.1280585334591178 0 -0.081978849477511453 0.1384377215961772 0 -0.08034823769671974 0.121089655777625 0 -0.071786582042575819 0.1280585334591178 0 -0.081978849477511453 0.1384377215961772 0 -0.06070043620975589 0.134524720015781 0 -0.071786582042575819 0.1280585334591178 0 -0.06070043620975589 0.134524720015781 0 -0.06411880478631618 0.11818203644688791 0 -0.081978849477511453 0.1384377215961772 0 -0.08034823769671974 0.121089655777625 0 -0.096577670607123245 0.1239972751083621 0 -0.1008242758955458 0.1385116675773613 0 -0.094582816169344081 0.14500609667275041 0 -0.081978849477511453 0.1384377215961772 0 -0.094582816169344081 0.14500609667275041 0 -0.081978849477511453 0.1384377215961772 0 -0.0854808471676783 0.14892295327365951 0 -0.094422293866394627 0.1556947047027778 0 -0.084742563178951485 0.15922574422532609 0 -0.0854808471676783 0.14892295327365951 0 -0.094422293866394627 0.1556947047027778 0 -0.094582816169344081 0.14500609667275041 0 -0.0854808471676783 0.14892295327365951 0 -0.084742563178951485 0.15922574422532609 0 -0.074588176879671189 0.15080810715310269 0 -0.0854808471676783 0.14892295327365951 0 -0.074588176879671189 0.15080810715310269 0 -0.081978849477511453 0.1384377215961772 0 -0.0854808471676783 0.14892295327365951 0 -0.1045487088169635 0.24438495162540061 0 -0.11455994162881621 0.23631135170566109 0 -0.098826177075254387 0.23394696074010041 0 -0.10005120432924321 0.25626016583208688 0 -0.094679029848152713 0.24609146959404629 0 -0.1045487088169635 0.24438495162540061 0 -0.094679029848152713 0.24609146959404629 0 -0.1045487088169635 0.24438495162540061 0 -0.098826177075254387 0.23394696074010041 0 -0.116744543106582 0.25728181003509248 0 -0.1045487088169635 0.24438495162540061 0 -0.11455994162881621 0.23631135170566109 0 -0.116744543106582 0.25728181003509248 0 -0.1327712538659816 0.24971188635390451 0 -0.11455994162881621 0.23631135170566109 0 -0.12594818007053379 0.2253828658525201 0 -0.1327712538659816 0.24971188635390451 0 -0.11455994162881621 0.23631135170566109 0 -0.11455994162881621 0.23631135170566109 0 -0.1144435087069731 0.2232582902708152 0 -0.1063794885369051 0.22193246116811141 0 -0.12594818007053379 0.2253828658525201 0 -0.1144435087069731 0.2232582902708152 0 -0.1108864245916369 0.20940648235696879 0 -0.12594818007053379 0.2253828658525201 0 -0.11455994162881621 0.23631135170566109 0 -0.1144435087069731 0.2232582902708152 0 -0.11455994162881621 0.23631135170566109 0 -0.1063794885369051 0.22193246116811141 0 -0.098826177075254387 0.23394696074010041 0 -0.1063794885369051 0.22193246116811141 0 -0.098826177075254387 0.23394696074010041 0 -0.089950704149474564 0.21660149084549701 0 -0.1063794885369051 0.22193246116811141 0 -0.089950704149474564 0.21660149084549701 0 -0.10053720550511509 0.21148400771379949 0 -0.095149617161195271 0.19271405424946009 0 -0.089950704149474564 0.21660149084549701 0 -0.1063794885369051 0.22193246116811141 0 -0.10053720550511509 0.21148400771379949 0 -0.089950704149474564 0.21660149084549701 0 -0.10053720550511509 0.21148400771379949 0 -0.1108864245916369 0.20940648235696879 0 -0.095149617161195271 0.19271405424946009 0 -0.1063794885369051 0.22193246116811141 0 -0.10053720550511509 0.21148400771379949 0 -0.1108864245916369 0.20940648235696879 0 -0.12594818007053379 0.2253828658525201 0 -0.1190175871807343 0.20067046473278771 0 -0.12594818007053379 0.2253828658525201 0 -0.1108864245916369 0.20940648235696879 0 -0.1190175871807343 0.20067046473278771 0 -0.12594818007053379 0.2253828658525201 0 -0.1108864245916369 0.20940648235696879 0 -0.1144435087069731 0.2232582902708152 0 -0.1063794885369051 0.22193246116811141 0 -0.1108864245916369 0.20940648235696879 0 -0.1120869942909358 0.17595806361305491 0 -0.1190175871807343 0.20067046473278771 0 -0.1108864245916369 0.20940648235696879 0 -0.1190175871807343 0.20067046473278771 0 -0.10682171669235439 0.1942096232944058 0 -0.1120869942909358 0.17595806361305491 0 -0.1190175871807343 0.20067046473278771 0 -0.10682171669235439 0.1942096232944058 0 -0.1108864245916369 0.20940648235696879 0 -0.095149617161195271 0.19271405424946009 0 -0.1108864245916369 0.20940648235696879 0 -0.10682171669235439 0.1942096232944058 0 -0.095149617161195271 0.19271405424946009 0 -0.1120869942909358 0.17595806361305491 0 -0.10682171669235439 0.1942096232944058 0 -0.095149617161195271 0.19271405424946009 0 -0.095149617161195271 0.19271405424946009 0 -0.077398480784349299 0.2102750893871779 0 -0.095149617161195271 0.19271405424946009 0 -0.073474196407973841 0.19079473501472519 0 -0.077398480784349299 0.2102750893871779 0 -0.095149617161195271 0.19271405424946009 0 -0.077398480784349299 0.2102750893871779 0 -0.087241526055590657 0.20514135106535239 0 -0.073474196407973841 0.19079473501472519 0 -0.077398480784349299 0.2102750893871779 0 -0.073474196407973841 0.19079473501472519 0 -0.077398480784349299 0.2102750893871779 0 -0.068984895145132993 0.20348567813270921 0 -0.064604308801312821 0.18244611143699499 0 -0.073474196407973841 0.19079473501472519 0 -0.062951628171730722 0.19451437844324071 0 -0.073474196407973841 0.19079473501472519 0 -0.062951628171730722 0.19451437844324071 0 -0.068984895145132993 0.20348567813270921 0 -0.062951628171730722 0.19451437844324071 0 -0.068984895145132993 0.20348567813270921 0 -0.057478398324341332 0.20606456403591589 0 -0.068984895145132993 0.20348567813270921 0 -0.075683327299925024 0.21197187487555791 0 -0.057478398324341332 0.20606456403591589 0 -0.075683327299925024 0.21197187487555791 0 -0.060700713784132942 0.2267940359372384 0 -0.057478398324341332 0.20606456403591589 0 -0.075683327299925024 0.21197187487555791 0 -0.057478398324341332 0.20606456403591589 0 -0.077398480784349299 0.2102750893871779 0 -0.068984895145132993 0.20348567813270921 0 -0.075683327299925024 0.21197187487555791 0 -0.075683327299925024 0.21197187487555791 0 -0.077884159070199604 0.2126860219832131 0 -0.060700713784132942 0.2267940359372384 0 -0.075683327299925024 0.21197187487555791 0 -0.077884159070199604 0.2126860219832131 0 -0.077398480784349299 0.2102750893871779 0 -0.075683327299925024 0.21197187487555791 0 -0.077884159070199604 0.2126860219832131 0 -0.077398480784349299 0.2102750893871779 0 -0.077884159070199604 0.2126860219832131 0 -0.077398480784349299 0.2102750893871779 0 -0.075683327299925024 0.21197187487555791 0 -0.077884159070199604 0.2126860219832131 0 -0.089950704149474564 0.21660149084549701 0 -0.077884159070199604 0.2126860219832131 0 -0.087241526055590657 0.20514135106535239 0 -0.089950704149474564 0.21660149084549701 0 -0.095149617161195271 0.19271405424946009 0 -0.087241526055590657 0.20514135106535239 0 -0.089950704149474564 0.21660149084549701 0 -0.095149617161195271 0.19271405424946009 0 -0.089950704149474564 0.21660149084549701 0 -0.077398480784349299 0.2102750893871779 0 -0.077884159070199604 0.2126860219832131 0 -0.087241526055590657 0.20514135106535239 0 -0.077884159070199604 0.2126860219832131 0 -0.083666647235009842 0.24139059785004849 0 -0.089950704149474564 0.21660149084549701 0 -0.083666647235009842 0.24139059785004849 0 -0.077884159070199604 0.2126860219832131 0 -0.089950704149474564 0.21660149084549701 0 -0.083666647235009842 0.24139059785004849 0 -0.098826177075254387 0.23394696074010041 0 -0.089950704149474564 0.21660149084549701 0 -0.083666647235009842 0.24139059785004849 0 -0.077884159070199604 0.2126860219832131 0 -0.083666647235009842 0.24139059785004849 0 -0.060700713784132942 0.2267940359372384 0 -0.075683327299925024 0.21197187487555791 0 -0.060700713784132942 0.2267940359372384 0 -0.064077212627390134 0.24851538469076631 0 -0.083666647235009842 0.24139059785004849 0 -0.060700713784132942 0.2267940359372384 0 -0.086302411784292182 0.25447467192259482 0 -0.083666647235009842 0.24139059785004849 0 -0.094679029848152713 0.24609146959404629 0 -0.098826177075254387 0.23394696074010041 0 -0.083666647235009842 0.24139059785004849 0 -0.086302411784292182 0.25447467192259482 0 -0.094679029848152713 0.24609146959404629 0 -0.083666647235009842 0.24139059785004849 0 -0.03068766995985707 0.25286978792993342 0 -0.034335222642673788 0.23481172099035691 0 -0.046578861792199937 0.24361118962503389 0 -0.034335222642673788 0.23481172099035691 0 -0.046578861792199937 0.24361118962503389 0 -0.045510089746351297 0.2289623102588538 0 -0.064077212627390134 0.24851538469076631 0 -0.046578861792199937 0.24361118962503389 0 -0.055802081643016588 0.23164020743468811 0 -0.064077212627390134 0.24851538469076631 0 -0.055802081643016588 0.23164020743468811 0 -0.060700713784132942 0.2267940359372384 0 -0.064077212627390134 0.24851538469076631 0 -0.060700713784132942 0.2267940359372384 0 -0.046578861792199937 0.24361118962503389 0 -0.055802081643016588 0.23164020743468811 0 -0.045510089746351297 0.2289623102588538 0 -0.055802081643016588 0.23164020743468811 0 -0.053252725762674542 0.2222055350902031 0 -0.045510089746351297 0.2289623102588538 0 -0.055802081643016588 0.23164020743468811 0 -0.060700713784132942 0.2267940359372384 0 -0.053252725762674542 0.2222055350902031 0 -0.055802081643016588 0.23164020743468811 0 -0.060700713784132942 0.2267940359372384 0 -0.053252725762674542 0.2222055350902031 0 -0.045510089746351297 0.2289623102588538 0 -0.046772345315528908 0.21756655778431969 0 -0.045510089746351297 0.2289623102588538 0 -0.036443083940353373 0.22210497005765251 0 -0.046772345315528908 0.21756655778431969 0 -0.034335222642673788 0.23481172099035691 0 -0.045510089746351297 0.2289623102588538 0 -0.036443083940353373 0.22210497005765251 0 -0.034335222642673788 0.23481172099035691 0 -0.036443083940353373 0.22210497005765251 0 -0.024866254401544021 0.22078734426404351 0 -0.036443083940353373 0.22210497005765251 0 -0.046772345315528908 0.21756655778431969 0 -0.031637039445344017 0.19767931081015269 0 -0.046772345315528908 0.21756655778431969 0 -0.057478398324341332 0.20606456403591589 0 -0.031637039445344017 0.19767931081015269 0 -0.060700713784132942 0.2267940359372384 0 -0.053252725762674542 0.2222055350902031 0 -0.057478398324341332 0.20606456403591589 0 -0.060700713784132942 0.2267940359372384 0 -0.057478398324341332 0.20606456403591589 0 -0.053252725762674542 0.2222055350902031 0 -0.046772345315528908 0.21756655778431969 0 -0.057478398324341332 0.20606456403591589 0 -0.062951628171730722 0.19451437844324071 0 -0.057478398324341332 0.20606456403591589 0 -0.054948738746262903 0.1897910154656581 0 -0.057478398324341332 0.20606456403591589 0 -0.054948738746262903 0.1897910154656581 0 -0.031637039445344017 0.19767931081015269 0 -0.057478398324341332 0.20606456403591589 0 -0.054948738746262903 0.1897910154656581 0 -0.054948738746262903 0.1897910154656581 0 -0.031637039445344017 0.19767931081015269 0 -0.039999697082172873 0.18418677263352329 0 -0.057478398324341332 0.20606456403591589 0 -0.031637039445344017 0.19767931081015269 0 -0.031637039445344017 0.19767931081015269 0 -0.0057956805663459468 0.1892940575843915 0 -0.031637039445344017 0.19767931081015269 0 -0.0057956805663459468 0.1892940575843915 0 -0.024775833668462071 0.17590936267321361 0 -0.031637039445344017 0.19767931081015269 0 -0.0057956805663459468 0.1892940575843915 0 -0.01019634689217482 0.20814994011246479 0 -0.0057956805663459468 0.1892940575843915 0 -0.01019634689217482 0.20814994011246479 0 0.0090806704795409685 0.20996839310177981 0 -0.01019634689217482 0.20814994011246479 0 0.00014186162909880781 0.2338185852574263 0 0.0090806704795409685 0.20996839310177981 0 -0.036443083940353373 0.22210497005765251 0 -0.031637039445344017 0.19767931081015269 0 -0.024866254401544021 0.22078734426404351 0 -0.031637039445344017 0.19767931081015269 0 -0.01019634689217482 0.20814994011246479 0 -0.024866254401544021 0.22078734426404351 0 -0.034335222642673788 0.23481172099035691 0 -0.024866254401544021 0.22078734426404351 0 -0.01991034591062427 0.239405390953495 0 -0.024866254401544021 0.22078734426404351 0 0.00014186162909880781 0.2338185852574263 0 -0.024866254401544021 0.22078734426404351 0 -0.01991034591062427 0.239405390953495 0 0.00014186162909880781 0.2338185852574263 0 -0.01019634689217482 0.20814994011246479 0 -0.024866254401544021 0.22078734426404351 0 0.00014186162909880781 0.2338185852574263 0 -0.0098044441781452579 0.25473951632571468 0 0.00014186162909880781 0.2338185852574263 0 0.0073806355134042019 0.25529449578482938 0 -0.0098044441781452579 0.25473951632571468 0 -0.01991034591062427 0.239405390953495 0 0.00014186162909880781 0.2338185852574263 0 -0.03068766995985707 0.25286978792993342 0 -0.034335222642673788 0.23481172099035691 0 -0.01991034591062427 0.239405390953495 0 -0.03068766995985707 0.25286978792993342 0 -0.0098044441781452579 0.25473951632571468 0 -0.01991034591062427 0.239405390953495 0 -0.045513089216113363 0.1481501368583191 0 -0.039963318838929777 0.1583549670989208 0 -0.028048700007850699 0.14601834090005769 0 -0.045513089216113363 0.1481501368583191 0 -0.037584816749385713 0.12707105787504261 0 -0.028048700007850699 0.14601834090005769 0 -0.037584816749385713 0.12707105787504261 0 -0.028048700007850699 0.14601834090005769 0 -0.045513089216113363 0.1481501368583191 0 -0.037584816749385713 0.12707105787504261 0 -0.045513089216113363 0.1481501368583191 0 -0.037584816749385713 0.12707105787504261 0 -0.049753839012929922 0.13582205838018921 0 -0.037584816749385713 0.12707105787504261 0 -0.049753839012929922 0.13582205838018921 0 -0.051208231868337763 0.1260313133231428 0 -0.049753839012929922 0.13582205838018921 0 -0.06070043620975589 0.134524720015781 0 -0.052276118599972977 0.1457036522838337 0 -0.051208231868337763 0.1260313133231428 0 -0.06070043620975589 0.134524720015781 0 -0.06411880478631618 0.11818203644688791 0 -0.06070043620975589 0.134524720015781 0 -0.06411880478631618 0.11818203644688791 0 -0.049753839012929922 0.13582205838018921 0 -0.051208231868337763 0.1260313133231428 0 -0.06070043620975589 0.134524720015781 0 -0.06070043620975589 0.134524720015781 0 -0.052276118599972977 0.1457036522838337 0 -0.05728206763319247 0.1508674035846734 0 -0.06070043620975589 0.134524720015781 0 -0.05728206763319247 0.1508674035846734 0 -0.045513089216113363 0.1481501368583191 0 -0.049753839012929922 0.13582205838018921 0 -0.052276118599972977 0.1457036522838337 0 -0.045513089216113363 0.1481501368583191 0 -0.052276118599972977 0.1457036522838337 0 -0.053440893212920608 0.15280063427064891 0 -0.052276118599972977 0.1457036522838337 0 -0.053440893212920608 0.15280063427064891 0 -0.05728206763319247 0.1508674035846734 0 -0.053440893212920608 0.15280063427064891 0 -0.05728206763319247 0.1508674035846734 0 -0.05728206763319247 0.1508674035846734 0 -0.062031688412593149 0.16441565219234799 0 -0.053441361682841117 0.16922921584159559 0 -0.053440893212920608 0.15280063427064891 0 -0.05728206763319247 0.1508674035846734 0 -0.053441361682841117 0.16922921584159559 0 -0.045513089216113363 0.1481501368583191 0 -0.053440893212920608 0.15280063427064891 0 -0.053441361682841117 0.16922921584159559 0 -0.045513089216113363 0.1481501368583191 0 -0.053441361682841117 0.16922921584159559 0 -0.05728206763319247 0.1508674035846734 0 -0.053441361682841117 0.16922921584159559 0 -0.06725389334219653 0.15771987894696021 0 -0.05728206763319247 0.1508674035846734 0 -0.062031688412593149 0.16441565219234799 0 -0.062031688412593149 0.16441565219234799 0 -0.053441361682841117 0.16922921584159559 0 -0.062041409668937363 0.1723934095439342 0 -0.053441361682841117 0.16922921584159559 0 -0.047633738945979477 0.17108968717192211 0 -0.039963318838929777 0.1583549670989208 0 -0.052991971448818453 0.17137768000779441 0 -0.053441361682841117 0.16922921584159559 0 -0.047633738945979477 0.17108968717192211 0 -0.052991971448818453 0.17137768000779441 0 -0.053441361682841117 0.16922921584159559 0 -0.054948738746262903 0.1897910154656581 0 -0.052419079168185397 0.17351746689540021 0 -0.046888846475854867 0.17837904804597579 0 -0.062951628171730722 0.19451437844324071 0 -0.054948738746262903 0.1897910154656581 0 -0.052419079168185397 0.17351746689540021 0 -0.062951628171730722 0.19451437844324071 0 -0.052991971448818453 0.17137768000779441 0 -0.052419079168185397 0.17351746689540021 0 -0.064604308801312821 0.18244611143699499 0 -0.062951628171730722 0.19451437844324071 0 -0.053441361682841117 0.16922921584159559 0 -0.062951628171730722 0.19451437844324071 0 -0.052991971448818453 0.17137768000779441 0 -0.053441361682841117 0.16922921584159559 0 -0.054948738746262903 0.1897910154656581 0 -0.052419079168185397 0.17351746689540021 0 -0.062951628171730722 0.19451437844324071 0 -0.053441361682841117 0.16922921584159559 0 -0.064604308801312821 0.18244611143699499 0 -0.053441361682841117 0.16922921584159559 0 -0.062041409668937363 0.1723934095439342 0 -0.052991971448818453 0.17137768000779441 0 -0.047633738945979477 0.17108968717192211 0 -0.052419079168185397 0.17351746689540021 0 -0.047633738945979477 0.17108968717192211 0 -0.052419079168185397 0.17351746689540021 0 -0.046888846475854867 0.17837904804597579 0 -0.054948738746262903 0.1897910154656581 0 -0.046888846475854867 0.17837904804597579 0 -0.039999697082172873 0.18418677263352329 0 -0.031637039445344017 0.19767931081015269 0 -0.039999697082172873 0.18418677263352329 0 -0.024775833668462071 0.17590936267321361 0 -0.046888846475854867 0.17837904804597579 0 -0.039999697082172873 0.18418677263352329 0 -0.039442978436673673 0.17331029806337539 0 -0.047633738945979477 0.17108968717192211 0 -0.046888846475854867 0.17837904804597579 0 -0.039442978436673673 0.17331029806337539 0 -0.039442978436673673 0.17331029806337539 0 -0.032139483942643897 0.16694135859911591 0 -0.024775833668462071 0.17590936267321361 0 -0.039999697082172873 0.18418677263352329 0 -0.039442978436673673 0.17331029806337539 0 -0.024775833668462071 0.17590936267321361 0 -0.045513089216113363 0.1481501368583191 0 -0.053441361682841117 0.16922921584159559 0 -0.039963318838929777 0.1583549670989208 0 -0.039963318838929777 0.1583549670989208 0 -0.032139483942643897 0.16694135859911591 0 -0.02343924065842673 0.15869802647678349 0 -0.047633738945979477 0.17108968717192211 0 -0.039442978436673673 0.17331029806337539 0 -0.039963318838929777 0.1583549670989208 0 -0.039442978436673673 0.17331029806337539 0 -0.039963318838929777 0.1583549670989208 0 -0.032139483942643897 0.16694135859911591 0 -0.032139483942643897 0.16694135859911591 0 -0.02343924065842673 0.15869802647678349 0 -0.024775833668462071 0.17590936267321361 0 -0.02343924065842673 0.15869802647678349 0 -0.024775833668462071 0.17590936267321361 0 -0.0048034666842798916 0.1614245706846468 0 -0.0057956805663459468 0.1892940575843915 0 -0.024775833668462071 0.17590936267321361 0 -0.0048034666842798916 0.1614245706846468 0 -0.0048034666842798916 0.1614245706846468 0 -0.01090464080839405 0.14353955890474629 0 0.011098566836083609 0.13484946890849181 0 -0.02343924065842673 0.15869802647678349 0 -0.0048034666842798916 0.1614245706846468 0 -0.01090464080839405 0.14353955890474629 0 -0.039963318838929777 0.1583549670989208 0 -0.02343924065842673 0.15869802647678349 0 -0.028048700007850699 0.14601834090005769 0 -0.02343924065842673 0.15869802647678349 0 -0.01090464080839405 0.14353955890474629 0 -0.028048700007850699 0.14601834090005769 0 -0.037584816749385713 0.12707105787504261 0 -0.0187932077553963 0.1304023687453105 0 -0.02482114599867602 0.1199028763409456 0 -0.01090464080839405 0.14353955890474629 0 -0.028048700007850699 0.14601834090005769 0 -0.0187932077553963 0.1304023687453105 0 -0.037584816749385713 0.12707105787504261 0 -0.028048700007850699 0.14601834090005769 0 -0.0187932077553963 0.1304023687453105 0 -0.0064436606074630637 0.13109611639504981 0 -0.007175360702145514 0.1155930690216506 0 0.011098566836083609 0.13484946890849181 0 -0.01090464080839405 0.14353955890474629 0 -0.0064436606074630637 0.13109611639504981 0 0.011098566836083609 0.13484946890849181 0 -0.0187932077553963 0.1304023687453105 0 -0.0064436606074630637 0.13109611639504981 0 -0.007175360702145514 0.1155930690216506 0 -0.01090464080839405 0.14353955890474629 0 -0.0187932077553963 0.1304023687453105 0 -0.0064436606074630637 0.13109611639504981 0 -0.007175360702145514 0.1155930690216506 0 -0.0040088977147468936 0.097024336429998151 0 -0.013655752966245171 0.094180689311720855 0 -0.007175360702145514 0.1155930690216506 0 -0.0040088977147468936 0.097024336429998151 0 0.0025937760044158291 0.1064596481343341 0 -0.007175360702145514 0.1155930690216506 0 -0.013655752966245171 0.094180689311720855 0 -0.02544928824037461 0.096336669134809427 0 -0.029459919491476121 0.1011230655410132 0 -0.021580178673492881 0.1105609364200745 0 -0.037915498494119543 0.10215930426450601 0 -0.007175360702145514 0.1155930690216506 0 -0.02544928824037461 0.096336669134809427 0 -0.007175360702145514 0.1155930690216506 0 -0.02544928824037461 0.096336669134809427 0 -0.0241566231860777 0.1021061234229471 0 -0.02544928824037461 0.096336669134809427 0 -0.029459919491476121 0.1011230655410132 0 -0.035034026511796899 0.0954599165668297 0 -0.02544928824037461 0.096336669134809427 0 -0.029459919491476121 0.1011230655410132 0 -0.0241566231860777 0.1021061234229471 0 -0.02544928824037461 0.096336669134809427 0 -0.0241566231860777 0.1021061234229471 0 -0.029459919491476121 0.1011230655410132 0 -0.0241566231860777 0.1021061234229471 0 -0.021580178673492881 0.1105609364200745 0 -0.02482114599867602 0.1199028763409456 0 -0.021580178673492881 0.1105609364200745 0 -0.032585978911933711 0.11378053360982859 0 -0.007175360702145514 0.1155930690216506 0 -0.0241566231860777 0.1021061234229471 0 -0.021580178673492881 0.1105609364200745 0 -0.0187932077553963 0.1304023687453105 0 -0.007175360702145514 0.1155930690216506 0 -0.02482114599867602 0.1199028763409456 0 -0.007175360702145514 0.1155930690216506 0 -0.02482114599867602 0.1199028763409456 0 -0.021580178673492881 0.1105609364200745 0 -0.01109578586274463 0.07592966442077155 0 -0.01963881101933795 0.057650575484614511 0 -0.0089029190745683329 0.062319161291970238 0 -0.0031702267477386531 0.067180855403790804 0 -0.01109578586274463 0.07592966442077155 0 0.0065236609159091173 0.071671444604676282 0 -0.0031702267477386531 0.067180855403790804 0 -0.0089029190745683329 0.062319161291970238 0 0.00079413703044923156 0.058803151297745167 0 -0.0031702267477386531 0.067180855403790804 0 -0.01109578586274463 0.07592966442077155 0 -0.0089029190745683329 0.062319161291970238 0 -0.0040088977147468936 0.097024336429998151 0 -0.01109578586274463 0.07592966442077155 0 0.011643404763696401 0.092949868607662828 0 -0.0040088977147468936 0.097024336429998151 0 -0.013655752966245171 0.094180689311720855 0 -0.01109578586274463 0.07592966442077155 0 -0.013655752966245171 0.094180689311720855 0 -0.01109578586274463 0.07592966442077155 0 -0.02054943231121421 0.086019707551374502 0 -0.02544928824037461 0.096336669134809427 0 -0.02054943231121421 0.086019707551374502 0 -0.029642132364781061 0.077623064684345475 0 -0.02544928824037461 0.096336669134809427 0 -0.029642132364781061 0.077623064684345475 0 -0.036673455980692451 0.084509049595857907 0 -0.01109578586274463 0.07592966442077155 0 -0.02054943231121421 0.086019707551374502 0 -0.029642132364781061 0.077623064684345475 0 -0.02544928824037461 0.096336669134809427 0 -0.029642132364781061 0.077623064684345475 0 -0.013655752966245171 0.094180689311720855 0 -0.02544928824037461 0.096336669134809427 0 -0.02054943231121421 0.086019707551374502 0 -0.02544928824037461 0.096336669134809427 0 -0.036673455980692451 0.084509049595857907 0 -0.01109578586274463 0.07592966442077155 0 -0.033834976489186493 0.058909460233881362 0 -0.01109578586274463 0.07592966442077155 0 -0.029642132364781061 0.077623064684345475 0 -0.033834976489186493 0.058909460233881362 0 -0.01109578586274463 0.07592966442077155 0 -0.033834976489186493 0.058909460233881362 0 -0.01963881101933795 0.057650575484614511 0 -0.029642132364781061 0.077623064684345475 0 -0.033834976489186493 0.058909460233881362 0 -0.029642132364781061 0.077623064684345475 0 -0.036732086871232597 0.066761861307427367 0 -0.033834976489186493 0.058909460233881362 0 -0.042969512877196837 0.063698159366550891 0 -0.036732086871232597 0.066761861307427367 0 -0.038306240480512441 0.072768089837317376 0 -0.042969512877196837 0.063698159366550891 0 -0.038306240480512441 0.072768089837317376 0 -0.046136221960229658 0.070392563092827029 0 -0.042969512877196837 0.063698159366550891 0 -0.036732086871232597 0.066761861307427367 0 -0.038907572144486188 0.060810532415041758 0 -0.029642132364781061 0.077623064684345475 0 -0.036732086871232597 0.066761861307427367 0 -0.038306240480512441 0.072768089837317376 0 -0.038306240480512441 0.072768089837317376 0 -0.046136221960229658 0.070392563092827029 0 -0.043586306971417507 0.077534071189344175 0 -0.038306240480512441 0.072768089837317376 0 -0.043586306971417507 0.077534071189344175 0 -0.036673455980692451 0.084509049595857907 0 -0.043586306971417507 0.077534071189344175 0 -0.036673455980692451 0.084509049595857907 0 -0.046978765451358998 0.084182386091036676 0 -0.029642132364781061 0.077623064684345475 0 -0.038306240480512441 0.072768089837317376 0 -0.036673455980692451 0.084509049595857907 0 -0.02544928824037461 0.096336669134809427 0 -0.036673455980692451 0.084509049595857907 0 -0.035034026511796899 0.0954599165668297 0 -0.036673455980692451 0.084509049595857907 0 -0.044089979176562301 0.093675305350012283 0 -0.035034026511796899 0.0954599165668297 0 -0.036673455980692451 0.084509049595857907 0 -0.044089979176562301 0.093675305350012283 0 -0.046978765451358998 0.084182386091036676 0 -0.044089979176562301 0.093675305350012283 0 -0.057144835734191893 0.088207312209507505 0 -0.046978765451358998 0.084182386091036676 0 -0.057144835734191893 0.088207312209507505 0 -0.046978765451358998 0.084182386091036676 0 -0.053399249393930842 0.076986192110461482 0 -0.043586306971417507 0.077534071189344175 0 -0.046978765451358998 0.084182386091036676 0 -0.053399249393930842 0.076986192110461482 0 -0.053399249393930842 0.076986192110461482 0 -0.070406408885084593 0.061857930521202607 0 -0.059815066152941319 0.061788281472960463 0 -0.057144835734191893 0.088207312209507505 0 -0.053399249393930842 0.076986192110461482 0 -0.070406408885084593 0.061857930521202607 0 -0.046136221960229658 0.070392563092827029 0 -0.043586306971417507 0.077534071189344175 0 -0.053399249393930842 0.076986192110461482 0 -0.046136221960229658 0.070392563092827029 0 -0.053399249393930842 0.076986192110461482 0 -0.05257832837313995 0.068950164376806455 0 -0.053399249393930842 0.076986192110461482 0 -0.05257832837313995 0.068950164376806455 0 -0.059815066152941319 0.061788281472960463 0 -0.05257832837313995 0.068950164376806455 0 -0.052166049838275927 0.062310195238599278 0 -0.059815066152941319 0.061788281472960463 0 -0.046136221960229658 0.070392563092827029 0 -0.05257832837313995 0.068950164376806455 0 -0.052166049838275927 0.062310195238599278 0 -0.042969512877196837 0.063698159366550891 0 -0.046136221960229658 0.070392563092827029 0 -0.052166049838275927 0.062310195238599278 0 -0.021580178673492881 0.1105609364200745 0 -0.043883262583300407 0.11455669389781301 0 -0.021580178673492881 0.1105609364200745 0 -0.043883262583300407 0.11455669389781301 0 -0.032585978911933711 0.11378053360982859 0 -0.037584816749385713 0.12707105787504261 0 -0.051208231868337763 0.1260313133231428 0 -0.043883262583300407 0.11455669389781301 0 -0.037584816749385713 0.12707105787504261 0 -0.043883262583300407 0.11455669389781301 0 -0.037584816749385713 0.12707105787504261 0 -0.032585978911933711 0.11378053360982859 0 -0.037584816749385713 0.12707105787504261 0 -0.043883262583300407 0.11455669389781301 0 -0.032585978911933711 0.11378053360982859 0 -0.037584816749385713 0.12707105787504261 0 -0.02482114599867602 0.1199028763409456 0 -0.032585978911933711 0.11378053360982859 0 -0.021580178673492881 0.1105609364200745 0 -0.043883262583300407 0.11455669389781301 0 -0.037915498494119543 0.10215930426450601 0 -0.044089979176562301 0.093675305350012283 0 -0.043883262583300407 0.11455669389781301 0 -0.037915498494119543 0.10215930426450601 0 -0.044089979176562301 0.093675305350012283 0 -0.037915498494119543 0.10215930426450601 0 -0.035034026511796899 0.0954599165668297 0 -0.029459919491476121 0.1011230655410132 0 -0.037915498494119543 0.10215930426450601 0 -0.035034026511796899 0.0954599165668297 0 -0.044089979176562301 0.093675305350012283 0 -0.057144835734191893 0.088207312209507505 0 -0.043883262583300407 0.11455669389781301 0 -0.057144835734191893 0.088207312209507505 0 -0.043883262583300407 0.11455669389781301 0 -0.057144835734191893 0.088207312209507505 0 -0.043883262583300407 0.11455669389781301 0 -0.056175626513735713 0.104231459755559 0 -0.056175626513735713 0.104231459755559 0 -0.061770267295803899 0.1005995653590098 0 -0.06411880478631618 0.11818203644688791 0 -0.057144835734191893 0.088207312209507505 0 -0.056175626513735713 0.104231459755559 0 -0.061770267295803899 0.1005995653590098 0 -0.043883262583300407 0.11455669389781301 0 -0.06411880478631618 0.11818203644688791 0 -0.051208231868337763 0.1260313133231428 0 -0.043883262583300407 0.11455669389781301 0 -0.06411880478631618 0.11818203644688791 0 -0.043883262583300407 0.11455669389781301 0 -0.056175626513735713 0.104231459755559 0 -0.06411880478631618 0.11818203644688791 0 -0.071786582042575819 0.1280585334591178 0 -0.06411880478631618 0.11818203644688791 0 -0.08034823769671974 0.121089655777625 0 -0.06411880478631618 0.11818203644688791 0 -0.08034823769671974 0.121089655777625 0 -0.075381325115152609 0.106019298300689 0 -0.06411880478631618 0.11818203644688791 0 -0.08034823769671974 0.121089655777625 0 -0.08034823769671974 0.121089655777625 0 -0.096577670607123245 0.1239972751083621 0 -0.08034823769671974 0.121089655777625 0 -0.092569001324263961 0.1124699312803344 0 -0.096577670607123245 0.1239972751083621 0 -0.08034823769671974 0.121089655777625 0 -0.083967771981719092 0.1102844810624737 0 -0.092569001324263961 0.1124699312803344 0 -0.08034823769671974 0.121089655777625 0 -0.083967771981719092 0.1102844810624737 0 -0.075381325115152609 0.106019298300689 0 -0.087572523790740042 0.10155903889124659 0 -0.082071947835387321 0.094412947715560025 0 -0.09233625647768956 0.091651488650119919 0 -0.083967771981719092 0.1102844810624737 0 -0.092569001324263961 0.1124699312803344 0 -0.087572523790740042 0.10155903889124659 0 -0.083967771981719092 0.1102844810624737 0 -0.087572523790740042 0.10155903889124659 0 -0.075381325115152609 0.106019298300689 0 -0.087572523790740042 0.10155903889124659 0 -0.082071947835387321 0.094412947715560025 0 -0.075381325115152609 0.106019298300689 0 -0.06411880478631618 0.11818203644688791 0 -0.06964180214897181 0.091777453024084701 0 -0.082071947835387321 0.094412947715560025 0 -0.075381325115152609 0.106019298300689 0 -0.06964180214897181 0.091777453024084701 0 -0.06411880478631618 0.11818203644688791 0 -0.075381325115152609 0.106019298300689 0 -0.06964180214897181 0.091777453024084701 0 -0.061770267295803899 0.1005995653590098 0 -0.06411880478631618 0.11818203644688791 0 -0.06964180214897181 0.091777453024084701 0 -0.057144835734191893 0.088207312209507505 0 -0.061770267295803899 0.1005995653590098 0 -0.06964180214897181 0.091777453024084701 0 -0.06964180214897181 0.091777453024084701 0 -0.075164799511626648 0.065372869601281192 0 -0.057144835734191893 0.088207312209507505 0 -0.06964180214897181 0.091777453024084701 0 -0.068089461569968729 0.076803891339018993 0 -0.06964180214897181 0.091777453024084701 0 -0.068089461569968729 0.076803891339018993 0 -0.075164799511626648 0.065372869601281192 0 -0.057144835734191893 0.088207312209507505 0 -0.068089461569968729 0.076803891339018993 0 -0.070406408885084593 0.061857930521202607 0 -0.06964180214897181 0.091777453024084701 0 -0.075164799511626648 0.065372869601281192 0 -0.08073347634316104 0.073575546631144614 0 -0.057144835734191893 0.088207312209507505 0 -0.070406408885084593 0.061857930521202607 0 -0.068089461569968729 0.076803891339018993 0 -0.075164799511626648 0.065372869601281192 0 -0.070406408885084593 0.061857930521202607 0 -0.089923560922876636 0.068178037636278263 0 -0.08578586832533959 0.082170087930996366 0 -0.103675070998617 0.083967309240415983 0 -0.08073347634316104 0.073575546631144614 0 -0.089923560922876636 0.068178037636278263 0 -0.083186879645449088 0.059889597987781727 0 -0.075164799511626648 0.065372869601281192 0 -0.08073347634316104 0.073575546631144614 0 -0.083186879645449088 0.059889597987781727 0 -0.08073347634316104 0.073575546631144614 0 -0.089923560922876636 0.068178037636278263 0 -0.08578586832533959 0.082170087930996366 0 -0.06964180214897181 0.091777453024084701 0 -0.08073347634316104 0.073575546631144614 0 -0.08578586832533959 0.082170087930996366 0 -0.082071947835387321 0.094412947715560025 0 -0.06964180214897181 0.091777453024084701 0 -0.08578586832533959 0.082170087930996366 0 -0.082071947835387321 0.094412947715560025 0 -0.08578586832533959 0.082170087930996366 0 -0.09233625647768956 0.091651488650119919 0 -0.09233625647768956 0.091651488650119919 0 -0.103675070998617 0.083967309240415983 0 -0.10429444750695741 0.1014886749251958 0 -0.08578586832533959 0.082170087930996366 0 -0.09233625647768956 0.091651488650119919 0 -0.103675070998617 0.083967309240415983 0 -0.103675070998617 0.083967309240415983 0 -0.1198812247159142 0.095002477965890675 0 -0.10429444750695741 0.1014886749251958 0 -0.089923560922876636 0.068178037636278263 0 -0.103675070998617 0.083967309240415983 0 -0.10785209906359081 0.065371441260914459 0 -0.12533951967512769 0.078274991835817334 0 -0.103675070998617 0.083967309240415983 0 -0.10785209906359081 0.065371441260914459 0 -0.12533951967512769 0.078274991835817334 0 -0.10785209906359081 0.065371441260914459 0 -0.1248745965026067 0.059896082918310993 0 -0.12533951967512769 0.078274991835817334 0 -0.103675070998617 0.083967309240415983 0 -0.1198812247159142 0.095002477965890675 0 -0.13137241316615089 0.11357835761918721 0 -0.1198812247159142 0.095002477965890675 0 -0.10429444750695741 0.1014886749251958 0 -0.13137241316615089 0.11357835761918721 0 -0.12687331202938101 0.13192737382428379 0 -0.10667563132183119 0.1260080396076822 0 -0.13137241316615089 0.11357835761918721 0 -0.10667563132183119 0.1260080396076822 0 -0.1062978327852654 0.11550845570815239 0 -0.13137241316615089 0.11357835761918721 0 -0.1062978327852654 0.11550845570815239 0 -0.10429444750695741 0.1014886749251958 0 -0.13137241316615089 0.11357835761918721 0 -0.10667563132183119 0.1260080396076822 0 -0.10667563132183119 0.1260080396076822 0 -0.1062978327852654 0.11550845570815239 0 -0.096577670607123245 0.1239972751083621 0 -0.092569001324263961 0.1124699312803344 0 -0.1062978327852654 0.11550845570815239 0 -0.096577670607123245 0.1239972751083621 0 -0.092569001324263961 0.1124699312803344 0 -0.1062978327852654 0.11550845570815239 0 -0.10429444750695741 0.1014886749251958 0 -0.092569001324263961 0.1124699312803344 0 -0.087572523790740042 0.10155903889124659 0 -0.10429444750695741 0.1014886749251958 0 -0.087572523790740042 0.10155903889124659 0 -0.09233625647768956 0.091651488650119919 0 -0.10429444750695741 0.1014886749251958 0 -0.10370969952600501 0.019997694726909911 0 -0.098524362227562057 0.035744340183224317 0 -0.08645931971955316 0.02325136753113614 0 -0.10370969952600501 0.019997694726909911 0 -0.08645931971955316 0.02325136753113614 0 -0.091682611010439896 0.0063963380850077774 0 -0.10370969952600501 0.019997694726909911 0 -0.1180188049733784 0.030804183747700629 0 -0.098524362227562057 0.035744340183224317 0 -0.10370969952600501 0.019997694726909911 0 -0.10877227824827949 0.0075748546359299482 0 -0.091682611010439896 0.0063963380850077774 0 -0.1029392013539359 -0.0085751277431150782 0 -0.10877227824827949 0.0075748546359299482 0 -0.091682611010439896 0.0063963380850077774 0 -0.10370969952600501 0.019997694726909911 0 -0.10877227824827949 0.0075748546359299482 0 -0.11835839359799651 0.016938700943610479 0 -0.1029392013539359 -0.0085751277431150782 0 -0.12735709500343681 0.004015926865657337 0 -0.10877227824827949 0.0075748546359299482 0 -0.12735709500343681 0.004015926865657337 0 -0.10877227824827949 0.0075748546359299482 0 -0.11835839359799651 0.016938700943610479 0 -0.1339340902388827 0.022300844741854581 0 -0.11835839359799651 0.016938700943610479 0 -0.1180188049733784 0.030804183747700629 0 -0.10370969952600501 0.019997694726909911 0 -0.11835839359799651 0.016938700943610479 0 -0.1180188049733784 0.030804183747700629 0 -0.1180188049733784 0.030804183747700629 0 -0.1128457876968547 0.048091259023394652 0 -0.098524362227562057 0.035744340183224317 0 -0.13626681081840961 0.042829268155062397 0 -0.1128457876968547 0.048091259023394652 0 -0.13626681081840961 0.042829268155062397 0 -0.1180188049733784 0.030804183747700629 0 -0.1128457876968547 0.048091259023394652 0 -0.13626681081840961 0.042829268155062397 0 -0.1128457876968547 0.048091259023394652 0 -0.1248745965026067 0.059896082918310993 0 -0.10785209906359081 0.065371441260914459 0 -0.1128457876968547 0.048091259023394652 0 -0.1248745965026067 0.059896082918310993 0 -0.1128457876968547 0.048091259023394652 0 -0.089424764575299687 0.053353249891726941 0 -0.089923560922876636 0.068178037636278263 0 -0.10785209906359081 0.065371441260914459 0 -0.089424764575299687 0.053353249891726941 0 -0.10785209906359081 0.065371441260914459 0 -0.1128457876968547 0.048091259023394652 0 -0.089424764575299687 0.053353249891726941 0 -0.1128457876968547 0.048091259023394652 0 -0.098524362227562057 0.035744340183224317 0 -0.089424764575299687 0.053353249891726941 0 -0.098524362227562057 0.035744340183224317 0 -0.080687796874281473 0.038968286178477703 0 -0.08645931971955316 0.02325136753113614 0 -0.098524362227562057 0.035744340183224317 0 -0.080687796874281473 0.038968286178477703 0 -0.089424764575299687 0.053353249891726941 0 -0.080687796874281473 0.038968286178477703 0 -0.089424764575299687 0.053353249891726941 0 -0.083186879645449088 0.059889597987781727 0 -0.075164799511626648 0.065372869601281192 0 -0.080687796874281473 0.038968286178477703 0 -0.083186879645449088 0.059889597987781727 0 -0.089923560922876636 0.068178037636278263 0 -0.089424764575299687 0.053353249891726941 0 -0.083186879645449088 0.059889597987781727 0 -0.075164799511626648 0.065372869601281192 0 -0.080687796874281473 0.038968286178477703 0 -0.071303082845968715 0.053347503409362687 0 -0.075164799511626648 0.065372869601281192 0 -0.080687796874281473 0.038968286178477703 0 -0.075164799511626648 0.065372869601281192 0 -0.070406408885084593 0.061857930521202607 0 -0.071303082845968715 0.053347503409362687 0 -0.071303082845968715 0.053347503409362687 0 -0.064856269609628314 0.055117702274744398 0 -0.065400139349222536 0.045420728471107522 0 -0.070406408885084593 0.061857930521202607 0 -0.071303082845968715 0.053347503409362687 0 -0.064856269609628314 0.055117702274744398 0 -0.070406408885084593 0.061857930521202607 0 -0.064856269609628314 0.055117702274744398 0 -0.059815066152941319 0.061788281472960463 0 -0.080687796874281473 0.038968286178477703 0 -0.065400139349222536 0.045420728471107522 0 -0.063264057366842208 0.031259222641012697 0 -0.080687796874281473 0.038968286178477703 0 -0.063264057366842208 0.031259222641012697 0 -0.073460039823911166 0.024685388153665749 0 -0.080687796874281473 0.038968286178477703 0 -0.071303082845968715 0.053347503409362687 0 -0.065400139349222536 0.045420728471107522 0 -0.063264057366842208 0.031259222641012697 0 -0.073460039823911166 0.024685388153665749 0 -0.061440697951084179 0.017621877449499421 0 -0.073460039823911166 0.024685388153665749 0 -0.076769634387976737 0.01135693610240161 0 -0.061440697951084179 0.017621877449499421 0 -0.080687796874281473 0.038968286178477703 0 -0.073460039823911166 0.024685388153665749 0 -0.08645931971955316 0.02325136753113614 0 -0.073460039823911166 0.024685388153665749 0 -0.08645931971955316 0.02325136753113614 0 -0.076769634387976737 0.01135693610240161 0 -0.08645931971955316 0.02325136753113614 0 -0.091682611010439896 0.0063963380850077774 0 -0.076769634387976737 0.01135693610240161 0 -0.091682611010439896 0.0063963380850077774 0 -0.078933949510919491 0.00072378658541613432 0 -0.076769634387976737 0.01135693610240161 0 -0.086097875964997059 -0.0058870606910941042 0 -0.091682611010439896 0.0063963380850077774 0 -0.078933949510919491 0.00072378658541613432 0 -0.078933949510919491 0.00072378658541613432 0 -0.076769634387976737 0.01135693610240161 0 -0.068462160169621672 0.0025537029525893409 0 -0.068462160169621672 0.0025537029525893409 0 -0.057836245250817257 0.0062936453779614283 0 -0.061440697951084179 0.017621877449499421 0 -0.076769634387976737 0.01135693610240161 0 -0.068462160169621672 0.0025537029525893409 0 -0.061440697951084179 0.017621877449499421 0 -0.057836245250817257 0.0062936453779614283 0 -0.061440697951084179 0.017621877449499421 0 -0.042678209040760022 0.019440128409622049 0 -0.057836245250817257 0.0062936453779614283 0 -0.042678209040760022 0.019440128409622049 0 -0.044352522143416888 0.0050416822031405977 0 -0.063264057366842208 0.031259222641012697 0 -0.042678209040760022 0.019440128409622049 0 -0.05195897498334151 0.039592758420259042 0 -0.063264057366842208 0.031259222641012697 0 -0.061440697951084179 0.017621877449499421 0 -0.042678209040760022 0.019440128409622049 0 -0.042678209040760022 0.019440128409622049 0 -0.038256592764973757 0.039174794321751791 0 -0.042678209040760022 0.019440128409622049 0 -0.038256592764973757 0.039174794321751791 0 -0.027511467414372541 0.03001296694831072 0 -0.042678209040760022 0.019440128409622049 0 -0.028180513839983729 0.018098474401369 0 -0.027511467414372541 0.03001296694831072 0 -0.042678209040760022 0.019440128409622049 0 -0.032770024037711037 0.0084985419153508525 0 -0.028180513839983729 0.018098474401369 0 -0.032770024037711037 0.0084985419153508525 0 -0.03614709390981162 0.0015378833132510439 0 -0.044352522143416888 0.0050416822031405977 0 -0.029539197120254941 -0.00051038393964639519 0 -0.032770024037711037 0.0084985419153508525 0 -0.03614709390981162 0.0015378833132510439 0 -0.042678209040760022 0.019440128409622049 0 -0.032770024037711037 0.0084985419153508525 0 -0.044352522143416888 0.0050416822031405977 0 -0.042969512877196837 0.063698159366550891 0 -0.047980875447113908 0.056604040506729722 0 -0.052166049838275927 0.062310195238599278 0 -0.047980875447113908 0.056604040506729722 0 -0.052166049838275927 0.062310195238599278 0 -0.055804220694704088 0.051985500715961808 0 -0.064856269609628314 0.055117702274744398 0 -0.059815066152941319 0.061788281472960463 0 -0.055804220694704088 0.051985500715961808 0 -0.052166049838275927 0.062310195238599278 0 -0.059815066152941319 0.061788281472960463 0 -0.055804220694704088 0.051985500715961808 0 -0.064856269609628314 0.055117702274744398 0 -0.065400139349222536 0.045420728471107522 0 -0.055804220694704088 0.051985500715961808 0 -0.047980875447113908 0.056604040506729722 0 -0.055804220694704088 0.051985500715961808 0 -0.046350630683546529 0.050276175962098407 0 -0.055804220694704088 0.051985500715961808 0 -0.05195897498334151 0.039592758420259042 0 -0.046350630683546529 0.050276175962098407 0 -0.065400139349222536 0.045420728471107522 0 -0.055804220694704088 0.051985500715961808 0 -0.05195897498334151 0.039592758420259042 0 -0.065400139349222536 0.045420728471107522 0 -0.063264057366842208 0.031259222641012697 0 -0.05195897498334151 0.039592758420259042 0 -0.042678209040760022 0.019440128409622049 0 -0.05195897498334151 0.039592758420259042 0 -0.038256592764973757 0.039174794321751791 0 -0.05195897498334151 0.039592758420259042 0 -0.038256592764973757 0.039174794321751791 0 -0.046350630683546529 0.050276175962098407 0 -0.038256592764973757 0.039174794321751791 0 -0.033834976489186493 0.058909460233881362 0 -0.038256592764973757 0.039174794321751791 0 -0.038513274033404883 0.055407770980391423 0 -0.033834976489186493 0.058909460233881362 0 -0.038256592764973757 0.039174794321751791 0 -0.046350630683546529 0.050276175962098407 0 -0.038513274033404883 0.055407770980391423 0 -0.038256592764973757 0.039174794321751791 0 -0.033834976489186493 0.058909460233881362 0 -0.02879531395286377 0.050132256585483953 0 -0.046350630683546529 0.050276175962098407 0 -0.038513274033404883 0.055407770980391423 0 -0.042914570065583427 0.057802329486214707 0 -0.036732086871232597 0.066761861307427367 0 -0.033834976489186493 0.058909460233881362 0 -0.038907572144486188 0.060810532415041758 0 -0.038513274033404883 0.055407770980391423 0 -0.033834976489186493 0.058909460233881362 0 -0.038513274033404883 0.055407770980391423 0 -0.033834976489186493 0.058909460233881362 0 -0.038907572144486188 0.060810532415041758 0 -0.042969512877196837 0.063698159366550891 0 -0.038907572144486188 0.060810532415041758 0 -0.042914570065583427 0.057802329486214707 0 -0.038513274033404883 0.055407770980391423 0 -0.038907572144486188 0.060810532415041758 0 -0.042914570065583427 0.057802329486214707 0 -0.047980875447113908 0.056604040506729722 0 -0.046350630683546529 0.050276175962098407 0 -0.042914570065583427 0.057802329486214707 0 -0.042969512877196837 0.063698159366550891 0 -0.047980875447113908 0.056604040506729722 0 -0.042914570065583427 0.057802329486214707 0 -0.033834976489186493 0.058909460233881362 0 -0.01963881101933795 0.057650575484614511 0 -0.02879531395286377 0.050132256585483953 0 -0.01963881101933795 0.057650575484614511 0 -0.02879531395286377 0.050132256585483953 0 -0.02345087553795689 0.044794196301688183 0 -0.01963881101933795 0.057650575484614511 0 -0.02345087553795689 0.044794196301688183 0 -0.012175026131353321 0.050402421608982242 0 -0.02345087553795689 0.044794196301688183 0 -0.014695186475719159 0.0359408453649432 0 -0.012175026131353321 0.050402421608982242 0 -0.038256592764973757 0.039174794321751791 0 -0.02879531395286377 0.050132256585483953 0 -0.02345087553795689 0.044794196301688183 0 -0.038256592764973757 0.039174794321751791 0 -0.02345087553795689 0.044794196301688183 0 -0.027511467414372541 0.03001296694831072 0 -0.02345087553795689 0.044794196301688183 0 -0.014695186475719159 0.0359408453649432 0 -0.027511467414372541 0.03001296694831072 0 -0.014695186475719159 0.0359408453649432 0 -0.0023331541944977092 0.045311556235899067 0 0.00074240361007229996 0.028778475488121531 0 -0.014695186475719159 0.0359408453649432 0 -0.0023331541944977092 0.045311556235899067 0 -0.012175026131353321 0.050402421608982242 0 -0.0023331541944977092 0.045311556235899067 0 -0.012175026131353321 0.050402421608982242 0 0.00079413703044923156 0.058803151297745167 0 -0.012175026131353321 0.050402421608982242 0 -0.0089029190745683329 0.062319161291970238 0 0.00079413703044923156 0.058803151297745167 0 -0.01963881101933795 0.057650575484614511 0 -0.012175026131353321 0.050402421608982242 0 -0.0089029190745683329 0.062319161291970238 0 -0.021996997598287969 0.010981086364913869 0 -0.02112675760807068 0.0030512678310729521 0 -0.0083058662928979787 0.012079608812324741 0 -0.021996997598287969 0.010981086364913869 0 -0.01661374249992489 0.02103319015209278 0 -0.0083058662928979787 0.012079608812324741 0 -0.021996997598287969 0.010981086364913869 0 -0.02112675760807068 0.0030512678310729521 0 -0.02631380729169577 0.0053104208567875946 0 -0.029539197120254941 -0.00051038393964639519 0 -0.02112675760807068 0.0030512678310729521 0 -0.02631380729169577 0.0053104208567875946 0 -0.029539197120254941 -0.00051038393964639519 0 -0.032770024037711037 0.0084985419153508525 0 -0.02631380729169577 0.0053104208567875946 0 -0.032770024037711037 0.0084985419153508525 0 -0.021996997598287969 0.010981086364913869 0 -0.02631380729169577 0.0053104208567875946 0 -0.032770024037711037 0.0084985419153508525 0 -0.021996997598287969 0.010981086364913869 0 -0.028180513839983729 0.018098474401369 0 -0.028180513839983729 0.018098474401369 0 -0.027511467414372541 0.03001296694831072 0 -0.01661374249992489 0.02103319015209278 0 -0.014695186475719159 0.0359408453649432 0 -0.027511467414372541 0.03001296694831072 0 -0.01661374249992489 0.02103319015209278 0 -0.021996997598287969 0.010981086364913869 0 -0.028180513839983729 0.018098474401369 0 -0.01661374249992489 0.02103319015209278 0 -0.01661374249992489 0.02103319015209278 0 0.00074240361007229996 0.028778475488121531 0 -0.0083058662928979787 0.012079608812324741 0 0.0060294939382754481 0.01286563290641534 0 0.00074240361007229996 0.028778475488121531 0 -0.014695186475719159 0.0359408453649432 0 -0.01661374249992489 0.02103319015209278 0 0.00074240361007229996 0.028778475488121531 0 -0.0083058662928979787 0.012079608812324741 0 0.00074240361007229996 0.028778475488121531 0 -0.01661374249992489 0.02103319015209278 0 -0.0083058662928979787 0.012079608812324741 0 0.00074240361007229996 0.028778475488121531 0 -0.0072764121498596901 -0.0036325873431357339 0 -0.0083058662928979787 0.012079608812324741 0 0.0012074066645448821 -0.00065723147797176382 0 -0.0072764121498596901 -0.0036325873431357339 0 -0.013607688627124061 -0.00178224205395049 0 -0.0083058662928979787 0.012079608812324741 0 -0.017354136195868258 -0.0046192578634720229 0 -0.0083058662928979787 0.012079608812324741 0 -0.017354136195868258 -0.0046192578634720229 0 -0.013607688627124061 -0.00178224205395049 0 -0.0083058662928979787 0.012079608812324741 0 -0.0083058662928979787 0.012079608812324741 0 0.0060294939382754481 0.01286563290641534 0 0.0012074066645448821 -0.00065723147797176382 0 -0.017354136195868258 -0.0046192578634720229 0 -0.02112675760807068 0.0030512678310729521 0 -0.0083058662928979787 0.012079608812324741 0 0.0060294939382754481 0.01286563290641534 0 0.0012074066645448821 -0.00065723147797176382 0 0.01265631079038235 -0.01012693536007268 0 0.0060294939382754481 0.01286563290641534 0 0.020311547060899309 0.014329649790385431 0 0.01265631079038235 -0.01012693536007268 0 0.00074240361007229996 0.028778475488121531 0 0.015746539320639769 0.024046632949657649 0 0.022626785018342459 0.038544513255683338 0 0.0060294939382754481 0.01286563290641534 0 0.00074240361007229996 0.028778475488121531 0 0.015746539320639769 0.024046632949657649 0 0.0060294939382754481 0.01286563290641534 0 0.015746539320639769 0.024046632949657649 0 0.020311547060899309 0.014329649790385431 0 0.015746539320639769 0.024046632949657649 0 0.029022466975609298 0.02571489330768258 0 0.020311547060899309 0.014329649790385431 0 0.015746539320639769 0.024046632949657649 0 0.029022466975609298 0.02571489330768258 0 0.022626785018342459 0.038544513255683338 0 0.020311547060899309 0.014329649790385431 0 0.034885408484197772 0.0062912350017927032 0 0.01265631079038235 -0.01012693536007268 0 0.029022466975609298 0.02571489330768258 0 0.020311547060899309 0.014329649790385431 0 0.034885408484197772 0.0062912350017927032 0 0.00079413703044923156 0.058803151297745167 0 0.01366790099406239 0.052632887419703241 0 0.0065236609159091173 0.071671444604676282 0 -0.0023331541944977092 0.045311556235899067 0 0.00079413703044923156 0.058803151297745167 0 0.01366790099406239 0.052632887419703241 0 0.00074240361007229996 0.028778475488121531 0 0.01366790099406239 0.052632887419703241 0 0.022626785018342459 0.038544513255683338 0 0.00074240361007229996 0.028778475488121531 0 0.022626785018342459 0.038544513255683338 0 -0.0023331541944977092 0.045311556235899067 0 0.00074240361007229996 0.028778475488121531 0 0.01366790099406239 0.052632887419703241 0 0.00074240361007229996 0.028778475488121531 0 0.01366790099406239 0.052632887419703241 0 0.029022466975609298 0.02571489330768258 0 0.022626785018342459 0.038544513255683338 0 0.037630953216902623 0.033668105561091018 0 0.01366790099406239 0.052632887419703241 0 0.022626785018342459 0.038544513255683338 0 0.025434983742737761 0.055249644843112657 0 0.022626785018342459 0.038544513255683338 0 0.025434983742737761 0.055249644843112657 0 0.034616451435572633 0.051242168749322393 0 0.025434983742737761 0.055249644843112657 0 0.034062632092931817 0.061255223706808547 0 0.02703491536905472 0.067401080742933134 0 0.01366790099406239 0.052632887419703241 0 0.025434983742737761 0.055249644843112657 0 0.02703491536905472 0.067401080742933134 0 0.034616451435572633 0.051242168749322393 0 0.044511166426612833 0.04831055102324476 0 0.060132464308973767 0.062986029428160187 0 0.034616451435572633 0.051242168749322393 0 0.060132464308973767 0.062986029428160187 0 0.044258496001147778 0.063884183083345675 0 0.034062632092931817 0.061255223706808547 0 0.034616451435572633 0.051242168749322393 0 0.044258496001147778 0.063884183083345675 0 0.025434983742737761 0.055249644843112657 0 0.034062632092931817 0.061255223706808547 0 0.034616451435572633 0.051242168749322393 0 0.022626785018342459 0.038544513255683338 0 0.044511166426612833 0.04831055102324476 0 0.022626785018342459 0.038544513255683338 0 0.034616451435572633 0.051242168749322393 0 0.044511166426612833 0.04831055102324476 0 0.022626785018342459 0.038544513255683338 0 0.044511166426612833 0.04831055102324476 0 0.037630953216902623 0.033668105561091018 0 0.044511166426612833 0.04831055102324476 0 0.037630953216902623 0.033668105561091018 0 0.0484135161167236 0.034205204957136963 0 0.0484135161167236 0.034205204957136963 0 0.060669767880595721 0.038134724015348051 0 0.0518117103670514 0.042737821036878322 0 0.0484135161167236 0.034205204957136963 0 0.060669767880595721 0.038134724015348051 0 0.057623658326613529 0.02352368721002385 0 0.060669767880595721 0.038134724015348051 0 0.0518117103670514 0.042737821036878322 0 0.059559274975242667 0.047504887075434543 0 0.044511166426612833 0.04831055102324476 0 0.0518117103670514 0.042737821036878322 0 0.059559274975242667 0.047504887075434543 0 0.044511166426612833 0.04831055102324476 0 0.0484135161167236 0.034205204957136963 0 0.0518117103670514 0.042737821036878322 0 0.044511166426612833 0.04831055102324476 0 0.066395547834883203 0.05807658879080619 0 0.060132464308973767 0.062986029428160187 0 0.034616451435572633 0.051242168749322393 0 0.060132464308973767 0.062986029428160187 0 0.044511166426612833 0.04831055102324476 0 0.066395547834883203 0.05807658879080619 0 0.044511166426612833 0.04831055102324476 0 0.059559274975242667 0.047504887075434543 0 0.066395547834883203 0.05807658879080619 0 0.034885408484197772 0.0062912350017927032 0 0.052968053050369737 0.0090809173488315582 0 0.042517259973231587 -0.011683923625132649 0 0.034885408484197772 0.0062912350017927032 0 0.043580831547224863 0.021565365261707499 0 0.052968053050369737 0.0090809173488315582 0 0.029022466975609298 0.02571489330768258 0 0.034885408484197772 0.0062912350017927032 0 0.043580831547224863 0.021565365261707499 0 0.029022466975609298 0.02571489330768258 0 0.037630953216902623 0.033668105561091018 0 0.043580831547224863 0.021565365261707499 0 0.037630953216902623 0.033668105561091018 0 0.0484135161167236 0.034205204957136963 0 0.043580831547224863 0.021565365261707499 0 0.057623658326613529 0.02352368721002385 0 0.052968053050369737 0.0090809173488315582 0 0.071708216805815503 0.016768608491387289 0 0.043580831547224863 0.021565365261707499 0 0.057623658326613529 0.02352368721002385 0 0.052968053050369737 0.0090809173488315582 0 0.0484135161167236 0.034205204957136963 0 0.043580831547224863 0.021565365261707499 0 0.057623658326613529 0.02352368721002385 0 0.052968053050369737 0.0090809173488315582 0 0.071708216805815503 0.016768608491387289 0 0.067492943165135169 -0.0019794682467893379 0 0.083930998993742512 0.0059737405228527038 0 0.071708216805815503 0.016768608491387289 0 0.067492943165135169 -0.0019794682467893379 0 0.083930998993742512 0.0059737405228527038 0 0.098495163759696414 0.0029673617968291321 0 0.094917995650245529 0.021722354499223519 0 0.083930998993742512 0.0059737405228527038 0 0.071708216805815503 0.016768608491387289 0 0.094917995650245529 0.021722354499223519 0 0.071708216805815503 0.016768608491387289 0 0.07449934060461412 0.03258063005354956 0 0.094917995650245529 0.021722354499223519 0 0.07449934060461412 0.03258063005354956 0 0.087237150257314613 0.037926204838731957 0 0.094917995650245529 0.021722354499223519 0 0.057623658326613529 0.02352368721002385 0 0.071708216805815503 0.016768608491387289 0 0.07449934060461412 0.03258063005354956 0 0.060669767880595721 0.038134724015348051 0 0.057623658326613529 0.02352368721002385 0 0.07449934060461412 0.03258063005354956 0 0.060669767880595721 0.038134724015348051 0 0.069155187538762042 0.045022305850501279 0 0.07449934060461412 0.03258063005354956 0 0.060669767880595721 0.038134724015348051 0 0.059559274975242667 0.047504887075434543 0 0.069155187538762042 0.045022305850501279 0 0.069155187538762042 0.045022305850501279 0 0.07449934060461412 0.03258063005354956 0 0.079692196512252927 0.044953406994506007 0 0.059559274975242667 0.047504887075434543 0 0.069155187538762042 0.045022305850501279 0 0.067326156772233525 0.050603546620565112 0 0.059559274975242667 0.047504887075434543 0 0.066395547834883203 0.05807658879080619 0 0.067326156772233525 0.050603546620565112 0 0.066395547834883203 0.05807658879080619 0 0.067326156772233525 0.050603546620565112 0 0.074194616740046182 0.051810404765518438 0 0.069155187538762042 0.045022305850501279 0 0.067326156772233525 0.050603546620565112 0 0.074194616740046182 0.051810404765518438 0 0.069155187538762042 0.045022305850501279 0 0.074194616740046182 0.051810404765518438 0 0.079692196512252927 0.044953406994506007 0 0.066395547834883203 0.05807658879080619 0 0.074194616740046182 0.051810404765518438 0 0.080343143758095259 0.058335218209008277 0 0.066395547834883203 0.05807658879080619 0 0.080343143758095259 0.058335218209008277 0 0.08827992924315356 0.067842626558367619 0 0.080343143758095259 0.058335218209008277 0 0.083306510346727383 0.05351440315152866 0 0.090416084875221875 0.058235299142909973 0 0.074194616740046182 0.051810404765518438 0 0.083306510346727383 0.05351440315152866 0 0.079692196512252927 0.044953406994506007 0 0.083306510346727383 0.05351440315152866 0 0.089760373586053266 0.048866493307206167 0 0.079692196512252927 0.044953406994506007 0 0.074194616740046182 0.051810404765518438 0 0.080343143758095259 0.058335218209008277 0 0.083306510346727383 0.05351440315152866 0 0.083306510346727383 0.05351440315152866 0 0.089760373586053266 0.048866493307206167 0 0.090416084875221875 0.058235299142909973 0 0.089760373586053266 0.048866493307206167 0 0.090416084875221875 0.058235299142909973 0 0.099395501669828634 0.055681054702382278 0 0.080343143758095259 0.058335218209008277 0 0.090416084875221875 0.058235299142909973 0 0.08827992924315356 0.067842626558367619 0 0.087237150257314613 0.037926204838731957 0 0.098930039005792711 0.04227996871225087 0 0.094917995650245529 0.021722354499223519 0 0.07449934060461412 0.03258063005354956 0 0.079692196512252927 0.044953406994506007 0 0.087237150257314613 0.037926204838731957 0 0.089760373586053266 0.048866493307206167 0 0.079692196512252927 0.044953406994506007 0 0.087237150257314613 0.037926204838731957 0 0.089760373586053266 0.048866493307206167 0 0.087237150257314613 0.037926204838731957 0 0.098930039005792711 0.04227996871225087 0 0.10894092886672049 0.033503019923715648 0 0.098930039005792711 0.04227996871225087 0 0.11550376979223601 0.054551475820320147 0 0.10894092886672049 0.033503019923715648 0 0.098930039005792711 0.04227996871225087 0 0.094917995650245529 0.021722354499223519 0 0.098930039005792711 0.04227996871225087 0 0.099395501669828634 0.055681054702382278 0 0.11550376979223601 0.054551475820320147 0 0.099395501669828634 0.055681054702382278 0 0.11550376979223601 0.054551475820320147 0 0.10561354398445311 0.069921878226714862 0 0.090416084875221875 0.058235299142909973 0 0.099395501669828634 0.055681054702382278 0 0.095618088847860577 0.065038419849084594 0 0.089760373586053266 0.048866493307206167 0 0.098930039005792711 0.04227996871225087 0 0.099395501669828634 0.055681054702382278 0 0.10894092886672049 0.033503019923715648 0 0.11961069471150609 0.02296590295220987 0 0.12977361784467401 0.039215218793308727 0 0.10894092886672049 0.033503019923715648 0 0.11550376979223601 0.054551475820320147 0 0.12977361784467401 0.039215218793308727 0 0.11961069471150609 0.02296590295220987 0 0.1158546052028349 0.0064685721448778594 0 0.094917995650245529 0.021722354499223519 0 0.11961069471150609 0.02296590295220987 0 0.1158546052028349 0.0064685721448778594 0 0.13894824890776639 0.02136224913872127 0 0.1158546052028349 0.0064685721448778594 0 0.098495163759696414 0.0029673617968291321 0 0.094917995650245529 0.021722354499223519 0 0.10894092886672049 0.033503019923715648 0 0.11961069471150609 0.02296590295220987 0 0.094917995650245529 0.021722354499223519 0 0.097728221435088053 0.099184528615223033 0 0.110275064223293 0.10236359857942121 0 0.11116449005577619 0.086473750785835857 0 0.099894961061174667 0.1104201015940532 0 0.11150799601301251 0.1117412241471519 0 0.110275064223293 0.10236359857942121 0 0.097728221435088053 0.099184528615223033 0 0.099894961061174667 0.1104201015940532 0 0.110275064223293 0.10236359857942121 0 0.097728221435088053 0.099184528615223033 0 0.099894961061174667 0.1104201015940532 0 0.084925795867796111 0.1103515185161017 0 0.099894961061174667 0.1104201015940532 0 0.096984900528893664 0.1212489081817222 0 0.084925795867796111 0.1103515185161017 0 0.099894961061174667 0.1104201015940532 0 0.096984900528893664 0.1212489081817222 0 0.10712684862241641 0.1210429748963526 0 0.096984900528893664 0.1212489081817222 0 0.10712684862241641 0.1210429748963526 0 0.10589272808503949 0.13156516273042271 0 0.099894961061174667 0.1104201015940532 0 0.10712684862241641 0.1210429748963526 0 0.11150799601301251 0.1117412241471519 0 0.10712684862241641 0.1210429748963526 0 0.11150799601301251 0.1117412241471519 0 0.1187293914863337 0.1182846474287873 0 0.11150799601301251 0.1117412241471519 0 0.1187293914863337 0.1182846474287873 0 0.1197878353292403 0.1092484053650479 0 0.10712684862241641 0.1210429748963526 0 0.1187293914863337 0.1182846474287873 0 0.114987521205969 0.1268010028982309 0 0.1187293914863337 0.1182846474287873 0 0.12813823657366311 0.12049833089676459 0 0.12624189261331301 0.1140678077034443 0 0.1187293914863337 0.1182846474287873 0 0.12212988809696081 0.1249307776834532 0 0.12813823657366311 0.12049833089676459 0 0.1187293914863337 0.1182846474287873 0 0.12212988809696081 0.1249307776834532 0 0.114987521205969 0.1268010028982309 0 0.1187293914863337 0.1182846474287873 0 0.1197878353292403 0.1092484053650479 0 0.12624189261331301 0.1140678077034443 0 0.1216961693062274 0.1020981758197984 0 0.110275064223293 0.10236359857942121 0 0.11116449005577619 0.086473750785835857 0 0.1197878353292403 0.1092484053650479 0 0.1216961693062274 0.1020981758197984 0 0.1302764983332621 0.10693497851168419 0 0.1216961693062274 0.1020981758197984 0 0.11116449005577619 0.086473750785835857 0 0.13668050292917741 0.098217611464673699 0 0.1197878353292403 0.1092484053650479 0 0.1216961693062274 0.1020981758197984 0 0.110275064223293 0.10236359857942121 0 0.11150799601301251 0.1117412241471519 0 0.1197878353292403 0.1092484053650479 0 0.110275064223293 0.10236359857942121 0 0.11116449005577619 0.086473750785835857 0 0.1207366242219714 0.074251990558816788 0 0.1300820653953097 0.084166932106396392 0 0.11116449005577619 0.086473750785835857 0 0.13668050292917741 0.098217611464673699 0 0.11116449005577619 0.086473750785835857 0 0.1207366242219714 0.074251990558816788 0 0.10561354398445311 0.069921878226714862 0 0.11550376979223601 0.054551475820320147 0 0.1207366242219714 0.074251990558816788 0 0.13255022158949201 0.068763676371196639 0 0.11550376979223601 0.054551475820320147 0 0.1207366242219714 0.074251990558816788 0 0.10561354398445311 0.069921878226714862 0 0.11116449005577619 0.086473750785835857 0 0.10561354398445311 0.069921878226714862 0 0.085648477182374977 0.074729890106998029 0 0.10561354398445311 0.069921878226714862 0 0.095618088847860577 0.065038419849084594 0 0.085648477182374977 0.074729890106998029 0 0.099395501669828634 0.055681054702382278 0 0.10561354398445311 0.069921878226714862 0 0.095618088847860577 0.065038419849084594 0 0.11116449005577619 0.086473750785835857 0 0.085648477182374977 0.074729890106998029 0 0.11116449005577619 0.086473750785835857 0 0.090808031879269946 0.087622927320568048 0 0.085648477182374977 0.074729890106998029 0 0.097728221435088053 0.099184528615223033 0 0.11116449005577619 0.086473750785835857 0 0.090808031879269946 0.087622927320568048 0 0.097728221435088053 0.099184528615223033 0 0.090808031879269946 0.087622927320568048 0 0.080235742217082393 0.093435287859391092 0 0.090808031879269946 0.087622927320568048 0 0.078675001300488379 0.083882301042573534 0 0.085648477182374977 0.074729890106998029 0 0.090808031879269946 0.087622927320568048 0 0.078675001300488379 0.083882301042573534 0 0.080235742217082393 0.093435287859391092 0 0.066395547834883203 0.05807658879080619 0 0.08827992924315356 0.067842626558367619 0 0.085648477182374977 0.074729890106998029 0 0.095618088847860577 0.065038419849084594 0 0.08827992924315356 0.067842626558367619 0 0.085648477182374977 0.074729890106998029 0 0.090416084875221875 0.058235299142909973 0 0.095618088847860577 0.065038419849084594 0 0.08827992924315356 0.067842626558367619 0 0.066395547834883203 0.05807658879080619 0 0.085648477182374977 0.074729890106998029 0 0.060132464308973767 0.062986029428160187 0 0.066395547834883203 0.05807658879080619 0 0.08827992924315356 0.067842626558367619 0 0.085648477182374977 0.074729890106998029 0 0.068637102026180674 0.07792917868559901 0 0.060132464308973767 0.062986029428160187 0 0.085648477182374977 0.074729890106998029 0 0.060132464308973767 0.062986029428160187 0 0.078675001300488379 0.083882301042573534 0 0.085648477182374977 0.074729890106998029 0 0.068637102026180674 0.07792917868559901 0 0.080235742217082393 0.093435287859391092 0 0.069503799956795384 0.087722797055870286 0 0.068523875558259784 0.095111972458496966 0 0.078675001300488379 0.083882301042573534 0 0.080235742217082393 0.093435287859391092 0 0.069503799956795384 0.087722797055870286 0 0.078675001300488379 0.083882301042573534 0 0.068637102026180674 0.07792917868559901 0 0.069503799956795384 0.087722797055870286 0 0.068637102026180674 0.07792917868559901 0 0.069503799956795384 0.087722797055870286 0 0.060111091978902922 0.083782113849914977 0 0.069503799956795384 0.087722797055870286 0 0.06135777996986308 0.093915161513068182 0 0.060111091978902922 0.083782113849914977 0 0.069503799956795384 0.087722797055870286 0 0.068523875558259784 0.095111972458496966 0 0.06135777996986308 0.093915161513068182 0 0.068523875558259784 0.095111972458496966 0 0.071520258741129425 0.10189571548122769 0 0.062413973273008162 0.1018934272394761 0 0.068523875558259784 0.095111972458496966 0 0.062413973273008162 0.1018934272394761 0 0.06135777996986308 0.093915161513068182 0 0.071520258741129425 0.10189571548122769 0 0.072821304814728441 0.1108529925529516 0 0.063718101814298073 0.11016590081819259 0 0.071520258741129425 0.10189571548122769 0 0.063718101814298073 0.11016590081819259 0 0.062413973273008162 0.1018934272394761 0 0.071520258741129425 0.10189571548122769 0 0.084925795867796111 0.1103515185161017 0 0.072821304814728441 0.1108529925529516 0 0.080235742217082393 0.093435287859391092 0 0.068523875558259784 0.095111972458496966 0 0.071520258741129425 0.10189571548122769 0 0.097728221435088053 0.099184528615223033 0 0.080235742217082393 0.093435287859391092 0 0.084925795867796111 0.1103515185161017 0 0.080235742217082393 0.093435287859391092 0 0.071520258741129425 0.10189571548122769 0 0.084925795867796111 0.1103515185161017 0 0.084925795867796111 0.1103515185161017 0 0.074154959480044275 0.1204842858357125 0 0.087075880893963842 0.12621803440601359 0 0.096984900528893664 0.1212489081817222 0 0.084925795867796111 0.1103515185161017 0 0.087075880893963842 0.12621803440601359 0 0.084925795867796111 0.1103515185161017 0 0.074154959480044275 0.1204842858357125 0 0.072821304814728441 0.1108529925529516 0 0.074154959480044275 0.1204842858357125 0 0.072821304814728441 0.1108529925529516 0 0.063718101814298073 0.11016590081819259 0 0.074154959480044275 0.1204842858357125 0 0.063718101814298073 0.11016590081819259 0 0.060124536552058239 0.11864948812996751 0 0.074154959480044275 0.1204842858357125 0 0.060124536552058239 0.11864948812996751 0 0.061109117960118017 0.12720913792676911 0 0.060124536552058239 0.11864948812996751 0 0.052595679859244633 0.1236025024456274 0 0.054913207086597561 0.11271600588853189 0 0.060124536552058239 0.11864948812996751 0 0.052595679859244633 0.1236025024456274 0 0.061109117960118017 0.12720913792676911 0 0.052595679859244633 0.1236025024456274 0 0.054913207086597561 0.11271600588853189 0 0.046771683079868627 0.1089772416004138 0 0.063718101814298073 0.11016590081819259 0 0.060124536552058239 0.11864948812996751 0 0.054913207086597561 0.11271600588853189 0 0.063718101814298073 0.11016590081819259 0 0.062413973273008162 0.1018934272394761 0 0.053620768430252298 0.1031656988462608 0 0.063718101814298073 0.11016590081819259 0 0.054913207086597561 0.11271600588853189 0 0.053620768430252298 0.1031656988462608 0 0.06135777996986308 0.093915161513068182 0 0.053620768430252298 0.1031656988462608 0 0.051535176025136201 0.090416251810209708 0 0.062413973273008162 0.1018934272394761 0 0.06135777996986308 0.093915161513068182 0 0.053620768430252298 0.1031656988462608 0 0.053620768430252298 0.1031656988462608 0 0.042875633238578528 0.09739353282270094 0 0.051535176025136201 0.090416251810209708 0 0.053620768430252298 0.1031656988462608 0 0.046771683079868627 0.1089772416004138 0 0.042875633238578528 0.09739353282270094 0 0.054913207086597561 0.11271600588853189 0 0.053620768430252298 0.1031656988462608 0 0.046771683079868627 0.1089772416004138 0 0.046771683079868627 0.1089772416004138 0 0.042875633238578528 0.09739353282270094 0 0.034382595390138257 0.1099700727945534 0 0.042875633238578528 0.09739353282270094 0 0.034382595390138257 0.1099700727945534 0 0.030708755379597181 0.088685576768743155 0 0.034382595390138257 0.1099700727945534 0 0.030708755379597181 0.088685576768743155 0 0.052595679859244633 0.1236025024456274 0 0.046771683079868627 0.1089772416004138 0 0.034382595390138257 0.1099700727945534 0 0.034382595390138257 0.1099700727945534 0 0.02520709702204247 0.1232263280856261 0 0.037354296692750887 0.12718670835402709 0 0.052595679859244633 0.1236025024456274 0 0.034382595390138257 0.1099700727945534 0 0.037354296692750887 0.12718670835402709 0 0.034382595390138257 0.1099700727945534 0 0.037354296692750887 0.12718670835402709 0 0.052595679859244633 0.1236025024456274 0 0.034382595390138257 0.1099700727945534 0 0.060132464308973767 0.062986029428160187 0 0.051537231586459821 0.0703604747810012 0 0.044258496001147778 0.063884183083345675 0 0.051537231586459821 0.0703604747810012 0 0.045053238281461433 0.071665999821029613 0 0.044258496001147778 0.063884183083345675 0 0.060132464308973767 0.062986029428160187 0 0.058160070023191839 0.074213970699792686 0 0.051537231586459821 0.0703604747810012 0 0.068637102026180674 0.07792917868559901 0 0.060132464308973767 0.062986029428160187 0 0.058160070023191839 0.074213970699792686 0 0.051537231586459821 0.0703604747810012 0 0.049495561811348857 0.078896267932753172 0 0.045053238281461433 0.071665999821029613 0 0.058160070023191839 0.074213970699792686 0 0.051537231586459821 0.0703604747810012 0 0.049495561811348857 0.078896267932753172 0 0.049495561811348857 0.078896267932753172 0 0.051535176025136201 0.090416251810209708 0 0.041750220721871581 0.085344735896560275 0 0.049495561811348857 0.078896267932753172 0 0.060111091978902922 0.083782113849914977 0 0.051535176025136201 0.090416251810209708 0 0.068637102026180674 0.07792917868559901 0 0.058160070023191839 0.074213970699792686 0 0.060111091978902922 0.083782113849914977 0 0.058160070023191839 0.074213970699792686 0 0.049495561811348857 0.078896267932753172 0 0.060111091978902922 0.083782113849914977 0 0.06135777996986308 0.093915161513068182 0 0.060111091978902922 0.083782113849914977 0 0.051535176025136201 0.090416251810209708 0 0.042875633238578528 0.09739353282270094 0 0.051535176025136201 0.090416251810209708 0 0.041750220721871581 0.085344735896560275 0 0.042875633238578528 0.09739353282270094 0 0.041750220721871581 0.085344735896560275 0 0.030708755379597181 0.088685576768743155 0 0.041750220721871581 0.085344735896560275 0 0.037489048909448763 0.07466528487264068 0 0.030708755379597181 0.088685576768743155 0 0.049495561811348857 0.078896267932753172 0 0.041750220721871581 0.085344735896560275 0 0.037489048909448763 0.07466528487264068 0 0.037489048909448763 0.07466528487264068 0 0.02703491536905472 0.067401080742933134 0 0.030708755379597181 0.088685576768743155 0 0.049495561811348857 0.078896267932753172 0 0.045053238281461433 0.071665999821029613 0 0.037489048909448763 0.07466528487264068 0 0.045053238281461433 0.071665999821029613 0 0.037489048909448763 0.07466528487264068 0 0.037579666130808903 0.067774354445351542 0 0.034062632092931817 0.061255223706808547 0 0.037579666130808903 0.067774354445351542 0 0.02703491536905472 0.067401080742933134 0 0.037489048909448763 0.07466528487264068 0 0.037579666130808903 0.067774354445351542 0 0.02703491536905472 0.067401080742933134 0 0.034062632092931817 0.061255223706808547 0 0.037579666130808903 0.067774354445351542 0 0.044258496001147778 0.063884183083345675 0 0.045053238281461433 0.071665999821029613 0 0.037579666130808903 0.067774354445351542 0 0.044258496001147778 0.063884183083345675 0 0.02703491536905472 0.067401080742933134 0 0.030708755379597181 0.088685576768743155 0 0.01366790099406239 0.052632887419703241 0 0.026593398378051959 0.076487299351285121 0 0.01366790099406239 0.052632887419703241 0 0.02703491536905472 0.067401080742933134 0 0.026593398378051959 0.076487299351285121 0 0.02703491536905472 0.067401080742933134 0 0.026593398378051959 0.076487299351285121 0 0.030708755379597181 0.088685576768743155 0 0.01366790099406239 0.052632887419703241 0 0.026593398378051959 0.076487299351285121 0 0.01611389888654503 0.070322973248010373 0 0.026593398378051959 0.076487299351285121 0 0.01611389888654503 0.070322973248010373 0 0.01767063525815666 0.080500261616376856 0 0.01767063525815666 0.080500261616376856 0 0.030708755379597181 0.088685576768743155 0 0.011643404763696401 0.092949868607662828 0 0.026593398378051959 0.076487299351285121 0 0.01767063525815666 0.080500261616376856 0 0.030708755379597181 0.088685576768743155 0 0.01767063525815666 0.080500261616376856 0 0.011643404763696401 0.092949868607662828 0 0.0065236609159091173 0.071671444604676282 0 -0.01109578586274463 0.07592966442077155 0 0.011643404763696401 0.092949868607662828 0 0.0065236609159091173 0.071671444604676282 0 -0.01109578586274463 0.07592966442077155 0 0.011643404763696401 0.092949868607662828 0 0.01366790099406239 0.052632887419703241 0 0.01611389888654503 0.070322973248010373 0 0.0065236609159091173 0.071671444604676282 0 0.01611389888654503 0.070322973248010373 0 0.01767063525815666 0.080500261616376856 0 0.0065236609159091173 0.071671444604676282 0 -0.0031702267477386531 0.067180855403790804 0 0.00079413703044923156 0.058803151297745167 0 0.0065236609159091173 0.071671444604676282 0 0.034382595390138257 0.1099700727945534 0 0.02520709702204247 0.1232263280856261 0 0.01356063639681436 0.11371506303709419 0 0.02520709702204247 0.1232263280856261 0 0.01356063639681436 0.11371506303709419 0 0.011098566836083609 0.13484946890849181 0 0.034382595390138257 0.1099700727945534 0 0.011643404763696401 0.092949868607662828 0 0.01356063639681436 0.11371506303709419 0 0.034382595390138257 0.1099700727945534 0 0.011643404763696401 0.092949868607662828 0 0.034382595390138257 0.1099700727945534 0 0.030708755379597181 0.088685576768743155 0 0.011643404763696401 0.092949868607662828 0 -0.0040088977147468936 0.097024336429998151 0 0.011643404763696401 0.092949868607662828 0 0.0025937760044158291 0.1064596481343341 0 0.011643404763696401 0.092949868607662828 0 0.0025937760044158291 0.1064596481343341 0 0.01356063639681436 0.11371506303709419 0 -0.007175360702145514 0.1155930690216506 0 0.0025937760044158291 0.1064596481343341 0 0.01356063639681436 0.11371506303709419 0 -0.007175360702145514 0.1155930690216506 0 0.01356063639681436 0.11371506303709419 0 0.011098566836083609 0.13484946890849181 0 -0.007175360702145514 0.1155930690216506 0 0.011098566836083609 0.13484946890849181 0 0.02520709702204247 0.1232263280856261 0 0.011098566836083609 0.13484946890849181 0 0.028759663239593541 0.13617761485890201 0 0.02520709702204247 0.1232263280856261 0 0.028759663239593541 0.13617761485890201 0 0.037354296692750887 0.12718670835402709 0 0.011098566836083609 0.13484946890849181 0 0.029372494374312729 0.15410586879533311 0 0.013538337341477229 0.1636201682865295 0 0.011098566836083609 0.13484946890849181 0 0.028759663239593541 0.13617761485890201 0 0.029372494374312729 0.15410586879533311 0 0.011098566836083609 0.13484946890849181 0 0.029372494374312729 0.15410586879533311 0 -0.0048034666842798916 0.1614245706846468 0 0.011098566836083609 0.13484946890849181 0 0.013538337341477229 0.1636201682865295 0 -0.0057956805663459468 0.1892940575843915 0 -0.0048034666842798916 0.1614245706846468 0 0.013538337341477229 0.1636201682865295 0 -0.0057956805663459468 0.1892940575843915 0 0.013538337341477229 0.1636201682865295 0 0.020045678312652242 0.18090880435863019 0 -0.0057956805663459468 0.1892940575843915 0 0.020045678312652242 0.18090880435863019 0 0.029372494374312729 0.15410586879533311 0 0.013538337341477229 0.1636201682865295 0 0.020045678312652242 0.18090880435863019 0 0.029372494374312729 0.15410586879533311 0 0.045887037191650451 0.17252355113286891 0 0.04813315871709322 0.1541455757588851 0 0.029372494374312729 0.15410586879533311 0 0.020045678312652242 0.18090880435863019 0 0.045887037191650451 0.17252355113286891 0 0.020045678312652242 0.18090880435863019 0 0.045887037191650451 0.17252355113286891 0 0.020045678312652242 0.18090880435863019 0 0.045887037191650451 0.17252355113286891 0 0.041991232206495782 0.1919910870650737 0 0.045887037191650451 0.17252355113286891 0 0.060802696405823108 0.1787365445376432 0 0.041991232206495782 0.1919910870650737 0 0.045887037191650451 0.17252355113286891 0 0.071728396070648653 0.1641382979071076 0 0.045887037191650451 0.17252355113286891 0 0.060802696405823108 0.1787365445376432 0 0.071728396070648653 0.1641382979071076 0 0.045887037191650451 0.17252355113286891 0 0.059657673584757237 0.15824269734654939 0 0.04813315871709322 0.1541455757588851 0 0.045887037191650451 0.17252355113286891 0 0.059657673584757237 0.15824269734654939 0 0.071728396070648653 0.1641382979071076 0 0.059657673584757237 0.15824269734654939 0 0.04813315871709322 0.1541455757588851 0 0.060329678829100349 0.1474246815113264 0 0.04813315871709322 0.1541455757588851 0 0.050215372913412007 0.1458935282758238 0 0.060329678829100349 0.1474246815113264 0 0.050215372913412007 0.1458935282758238 0 0.060329678829100349 0.1474246815113264 0 0.052072656112092337 0.13760051191958289 0 0.050215372913412007 0.1458935282758238 0 0.052072656112092337 0.13760051191958289 0 0.040325997995362128 0.14440334391350099 0 0.060329678829100349 0.1474246815113264 0 0.062159468211553673 0.13737243366585769 0 0.052072656112092337 0.13760051191958289 0 0.062159468211553673 0.13737243366585769 0 0.054733357378362921 0.13083888414419281 0 0.052072656112092337 0.13760051191958289 0 0.052595679859244633 0.1236025024456274 0 0.054733357378362921 0.13083888414419281 0 0.061109117960118017 0.12720913792676911 0 0.062159468211553673 0.13737243366585769 0 0.054733357378362921 0.13083888414419281 0 0.061109117960118017 0.12720913792676911 0 0.052595679859244633 0.1236025024456274 0 0.054733357378362921 0.13083888414419281 0 0.046346625143134958 0.1312929959830558 0 0.054733357378362921 0.13083888414419281 0 0.052072656112092337 0.13760051191958289 0 0.046346625143134958 0.1312929959830558 0 0.037354296692750887 0.12718670835402709 0 0.040325997995362128 0.14440334391350099 0 0.046346625143134958 0.1312929959830558 0 0.037354296692750887 0.12718670835402709 0 0.040325997995362128 0.14440334391350099 0 0.028759663239593541 0.13617761485890201 0 0.037354296692750887 0.12718670835402709 0 0.040325997995362128 0.14440334391350099 0 0.052072656112092337 0.13760051191958289 0 0.046346625143134958 0.1312929959830558 0 0.040325997995362128 0.14440334391350099 0 0.052595679859244633 0.1236025024456274 0 0.046346625143134958 0.1312929959830558 0 0.037354296692750887 0.12718670835402709 0 0.028759663239593541 0.13617761485890201 0 0.029372494374312729 0.15410586879533311 0 0.040325997995362128 0.14440334391350099 0 0.029372494374312729 0.15410586879533311 0 0.04813315871709322 0.1541455757588851 0 0.040325997995362128 0.14440334391350099 0 0.04813315871709322 0.1541455757588851 0 0.050215372913412007 0.1458935282758238 0 0.040325997995362128 0.14440334391350099 0 0.025149977659741599 0.24684982625080901 0 0.00014186162909880781 0.2338185852574263 0 0.02177620002751179 0.22559840920251981 0 0.025149977659741599 0.24684982625080901 0 0.00014186162909880781 0.2338185852574263 0 0.025149977659741599 0.24684982625080901 0 0.00014186162909880781 0.2338185852574263 0 0.0073806355134042019 0.25529449578482938 0 0.00014186162909880781 0.2338185852574263 0 0.02177620002751179 0.22559840920251981 0 0.0090806704795409685 0.20996839310177981 0 0.025149977659741599 0.24684982625080901 0 0.02177620002751179 0.22559840920251981 0 0.039960986899899173 0.22780444499479169 0 0.02177620002751179 0.22559840920251981 0 0.0090806704795409685 0.20996839310177981 0 0.034547503469278373 0.20955079640779209 0 0.0090806704795409685 0.20996839310177981 0 0.02162293693503077 0.1981024475624624 0 0.034547503469278373 0.20955079640779209 0 -0.0057956805663459468 0.1892940575843915 0 0.0090806704795409685 0.20996839310177981 0 0.02162293693503077 0.1981024475624624 0 -0.0057956805663459468 0.1892940575843915 0 0.020045678312652242 0.18090880435863019 0 0.02162293693503077 0.1981024475624624 0 0.020045678312652242 0.18090880435863019 0 0.02162293693503077 0.1981024475624624 0 0.041991232206495782 0.1919910870650737 0 0.02162293693503077 0.1981024475624624 0 0.041991232206495782 0.1919910870650737 0 0.034547503469278373 0.20955079640779209 0 0.041991232206495782 0.1919910870650737 0 0.05849467095877426 0.1965416733816682 0 0.050764695011206777 0.20916964222725651 0 0.060802696405823108 0.1787365445376432 0 0.041991232206495782 0.1919910870650737 0 0.05849467095877426 0.1965416733816682 0 0.050764695011206777 0.20916964222725651 0 0.066981886553135278 0.20878848804672309 0 0.05849467095877426 0.1965416733816682 0 0.050764695011206777 0.20916964222725651 0 0.066981886553135278 0.20878848804672309 0 0.050764695011206777 0.20916964222725651 0 0.061514006406540499 0.23071042489022231 0 0.066981886553135278 0.20878848804672309 0 0.050764695011206777 0.20916964222725651 0 0.034547503469278373 0.20955079640779209 0 0.039960986899899173 0.22780444499479169 0 0.050764695011206777 0.20916964222725651 0 0.034547503469278373 0.20955079640779209 0 0.041991232206495782 0.1919910870650737 0 0.050764695011206777 0.20916964222725651 0 0.034547503469278373 0.20955079640779209 0 0.02177620002751179 0.22559840920251981 0 0.034547503469278373 0.20955079640779209 0 0.039960986899899173 0.22780444499479169 0 0.039960986899899173 0.22780444499479169 0 0.061514006406540499 0.23071042489022231 0 0.045472231705318063 0.24424317023843681 0 0.050764695011206777 0.20916964222725651 0 0.039960986899899173 0.22780444499479169 0 0.061514006406540499 0.23071042489022231 0 0.061514006406540499 0.23071042489022231 0 0.056046126259945157 0.25263236173372139 0 0.061514006406540499 0.23071042489022231 0 0.056046126259945157 0.25263236173372139 0 0.067905867336300579 0.25358800162702 0 0.061514006406540499 0.23071042489022231 0 0.045472231705318063 0.24424317023843681 0 0.056046126259945157 0.25263236173372139 0 0.025149977659741599 0.24684982625080901 0 0.039960986899899173 0.22780444499479169 0 0.045472231705318063 0.24424317023843681 0 0.092857250133516089 0.24175825718487831 0 0.078525547080241467 0.2465942846531784 0 0.093798877441032588 0.2579700649065903 0 0.092857250133516089 0.24175825718487831 0 0.078525547080241467 0.2465942846531784 0 0.081986142109724491 0.22560265144644431 0 0.061514006406540499 0.23071042489022231 0 0.078525547080241467 0.2465942846531784 0 0.067905867336300579 0.25358800162702 0 0.061514006406540499 0.23071042489022231 0 0.078525547080241467 0.2465942846531784 0 0.081986142109724491 0.22560265144644431 0 0.061514006406540499 0.23071042489022231 0 0.081986142109724491 0.22560265144644431 0 0.066981886553135278 0.20878848804672309 0 0.061514006406540499 0.23071042489022231 0 0.066981886553135278 0.20878848804672309 0 0.081986142109724491 0.22560265144644431 0 0.09236794217301933 0.20819183719001669 0 0.066981886553135278 0.20878848804672309 0 0.09236794217301933 0.20819183719001669 0 0.066981886553135278 0.20878848804672309 0 0.09236794217301933 0.20819183719001669 0 0.066981886553135278 0.20878848804672309 0 0.071445073857882777 0.19089458628000441 0 0.060802696405823108 0.1787365445376432 0 0.05849467095877426 0.1965416733816682 0 0.071445073857882777 0.19089458628000441 0 0.066981886553135278 0.20878848804672309 0 0.071445073857882777 0.19089458628000441 0 0.05849467095877426 0.1965416733816682 0 0.066981886553135278 0.20878848804672309 0 0.071445073857882777 0.19089458628000441 0 0.09236794217301933 0.20819183719001669 0 0.071445073857882777 0.19089458628000441 0 0.086464584236575506 0.1862285865309723 0 0.09236794217301933 0.20819183719001669 0 0.086464584236575506 0.1862285865309723 0 0.1023855527362314 0.18749689463882899 0 0.09236794217301933 0.20819183719001669 0 0.11775399779290339 0.20759518633331239 0 0.1023855527362314 0.18749689463882899 0 0.11775399779290339 0.20759518633331239 0 0.1023855527362314 0.18749689463882899 0 0.12550986450034471 0.186594373040398 0 0.09236794217301933 0.20819183719001669 0 0.11775399779290339 0.20759518633331239 0 0.09236794217301933 0.20819183719001669 0 0.11775399779290339 0.20759518633331239 0 0.10906069526472741 0.22998953009969161 0 0.092857250133516089 0.24175825718487831 0 0.081986142109724491 0.22560265144644431 0 0.10906069526472741 0.22998953009969161 0 0.081986142109724491 0.22560265144644431 0 0.09236794217301933 0.20819183719001669 0 0.10906069526472741 0.22998953009969161 0 0.11775399779290339 0.20759518633331239 0 0.10906069526472741 0.22998953009969161 0 0.1382648444377183 0.22719855966067881 0 0.10906069526472741 0.22998953009969161 0 0.12787711237058769 0.24521089126939841 0 0.1100607559553454 0.25396994184181759 0 0.092857250133516089 0.24175825718487831 0 0.10906069526472741 0.22998953009969161 0 0.1100607559553454 0.25396994184181759 0 0.081151633673542972 0.15313158297098389 0 0.083920606388658545 0.14050817004821939 0 0.0975697549496468 0.15575304468134629 0 0.081151633673542972 0.15313158297098389 0 0.083920606388658545 0.14050817004821939 0 0.071387777285217918 0.15212681924726251 0 0.074154959480044275 0.1204842858357125 0 0.087075880893963842 0.12621803440601359 0 0.083920606388658545 0.14050817004821939 0 0.087075880893963842 0.12621803440601359 0 0.083920606388658545 0.14050817004821939 0 0.097906888154765004 0.1362305538396491 0 0.062159468211553673 0.13737243366585769 0 0.061109117960118017 0.12720913792676911 0 0.083920606388658545 0.14050817004821939 0 0.074154959480044275 0.1204842858357125 0 0.061109117960118017 0.12720913792676911 0 0.083920606388658545 0.14050817004821939 0 0.061109117960118017 0.12720913792676911 0 0.083920606388658545 0.14050817004821939 0 0.062159468211553673 0.13737243366585769 0 0.083920606388658545 0.14050817004821939 0 0.069449382678632612 0.1443580261181665 0 0.060329678829100349 0.1474246815113264 0 0.062159468211553673 0.13737243366585769 0 0.069449382678632612 0.1443580261181665 0 0.060329678829100349 0.1474246815113264 0 0.069449382678632612 0.1443580261181665 0 0.071387777285217918 0.15212681924726251 0 0.083920606388658545 0.14050817004821939 0 0.069449382678632612 0.1443580261181665 0 0.071387777285217918 0.15212681924726251 0 0.059657673584757237 0.15824269734654939 0 0.060329678829100349 0.1474246815113264 0 0.071387777285217918 0.15212681924726251 0 0.059657673584757237 0.15824269734654939 0 0.071387777285217918 0.15212681924726251 0 0.071728396070648653 0.1641382979071076 0 0.081151633673542972 0.15313158297098389 0 0.071387777285217918 0.15212681924726251 0 0.071728396070648653 0.1641382979071076 0 0.071445073857882777 0.19089458628000441 0 0.075908261162629706 0.17300068451328551 0 0.086464584236575506 0.1862285865309723 0 0.060802696405823108 0.1787365445376432 0 0.071445073857882777 0.19089458628000441 0 0.075908261162629706 0.17300068451328551 0 0.071445073857882777 0.19089458628000441 0 0.075908261162629706 0.17300068451328551 0 0.060802696405823108 0.1787365445376432 0 0.071728396070648653 0.1641382979071076 0 0.075908261162629706 0.17300068451328551 0 0.086464584236575506 0.1862285865309723 0 0.090216091253114361 0.17155893003272579 0 0.1023855527362314 0.18749689463882899 0 0.075908261162629706 0.17300068451328551 0 0.086464584236575506 0.1862285865309723 0 0.090216091253114361 0.17155893003272579 0 0.081151633673542972 0.15313158297098389 0 0.071728396070648653 0.1641382979071076 0 0.0975697549496468 0.15575304468134629 0 0.071728396070648653 0.1641382979071076 0 0.090216091253114361 0.17155893003272579 0 0.0975697549496468 0.15575304468134629 0 0.071728396070648653 0.1641382979071076 0 0.075908261162629706 0.17300068451328551 0 0.090216091253114361 0.17155893003272579 0 0.071728396070648653 0.1641382979071076 0 0.0975697549496468 0.15575304468134629 0 0.090216091253114361 0.17155893003272579 0 0.1064810698159025 0.16893633516972181 0 0.0975697549496468 0.15575304468134629 0 0.1064810698159025 0.16893633516972181 0 0.1067320948171991 0.1538072021696697 0 0.0975697549496468 0.15575304468134629 0 0.090216091253114361 0.17155893003272579 0 0.1064810698159025 0.16893633516972181 0 0.1023855527362314 0.18749689463882899 0 0.1064810698159025 0.16893633516972181 0 0.12954358324573961 0.16710623429112001 0 0.12550986450034471 0.186594373040398 0 0.1064810698159025 0.16893633516972181 0 0.1023855527362314 0.18749689463882899 0 0.12550986450034471 0.186594373040398 0 0.1064810698159025 0.16893633516972181 0 0.1067320948171991 0.1538072021696697 0 0.12954358324573961 0.16710623429112001 0 0.1067320948171991 0.1538072021696697 0 0.1262856736452258 0.1537478882528979 0 0.12954358324573961 0.16710623429112001 0 0.1067320948171991 0.1538072021696697 0 0.12954358324573961 0.16710623429112001 0 0.1148569119608701 0.14824987142416859 0 0.1067320948171991 0.1538072021696697 0 0.1262856736452258 0.1537478882528979 0 0.118317888191051 0.14254191757659121 0 0.1148569119608701 0.14824987142416859 0 0.1262856736452258 0.1537478882528979 0 0.118317888191051 0.14254191757659121 0 0.12756241452120801 0.13893694775055651 0 0.1262856736452258 0.1537478882528979 0 0.1148569119608701 0.14824987142416859 0 0.1067320948171991 0.1538072021696697 0 0.1080919911900045 0.14290247769751591 0 0.118317888191051 0.14254191757659121 0 0.1148569119608701 0.14824987142416859 0 0.1080919911900045 0.14290247769751591 0 0.083920606388658545 0.14050817004821939 0 0.1067320948171991 0.1538072021696697 0 0.1067320948171991 0.1538072021696697 0 0.1080919911900045 0.14290247769751591 0 0.097906888154765004 0.1362305538396491 0 0.083920606388658545 0.14050817004821939 0 0.1067320948171991 0.1538072021696697 0 0.097906888154765004 0.1362305538396491 0 0.083920606388658545 0.14050817004821939 0 0.1067320948171991 0.1538072021696697 0 0.0975697549496468 0.15575304468134629 0 0.096984900528893664 0.1212489081817222 0 0.097906888154765004 0.1362305538396491 0 0.10589272808503949 0.13156516273042271 0 0.096984900528893664 0.1212489081817222 0 0.087075880893963842 0.12621803440601359 0 0.097906888154765004 0.1362305538396491 0 0.1080919911900045 0.14290247769751591 0 0.097906888154765004 0.1362305538396491 0 0.10589272808503949 0.13156516273042271 0 0.1080919911900045 0.14290247769751591 0 0.10589272808503949 0.13156516273042271 0 0.11327312463209829 0.13597294690712769 0 0.10712684862241641 0.1210429748963526 0 0.10589272808503949 0.13156516273042271 0 0.114987521205969 0.1268010028982309 0 0.10589272808503949 0.13156516273042271 0 0.114987521205969 0.1268010028982309 0 0.11327312463209829 0.13597294690712769 0 0.114987521205969 0.1268010028982309 0 0.11327312463209829 0.13597294690712769 0 0.1203000125167645 0.13336293759413789 0 0.118317888191051 0.14254191757659121 0 0.1080919911900045 0.14290247769751591 0 0.11327312463209829 0.13597294690712769 0 0.118317888191051 0.14254191757659121 0 0.1203000125167645 0.13336293759413789 0 0.12756241452120801 0.13893694775055651 0 0.118317888191051 0.14254191757659121 0 0.11327312463209829 0.13597294690712769 0 0.1203000125167645 0.13336293759413789 0 0.12212988809696081 0.1249307776834532 0 0.114987521205969 0.1268010028982309 0 0.1203000125167645 0.13336293759413789 0 0.12212988809696081 0.1249307776834532 0 0.1203000125167645 0.13336293759413789 0 0.12788127083107459 0.1291064789800366 0 0.12788127083107459 0.1291064789800366 0 0.13409394305489639 0.1257339851238449 0 0.12813823657366311 0.12049833089676459 0 0.12788127083107459 0.1291064789800366 0 0.13410827310584911 0.13282331674432049 0 0.13409394305489639 0.1257339851238449 0 0.12788127083107459 0.1291064789800366 0 0.12756241452120801 0.13893694775055651 0 0.13410827310584911 0.13282331674432049 0 0.1203000125167645 0.13336293759413789 0 0.12788127083107459 0.1291064789800366 0 0.12756241452120801 0.13893694775055651 0 0.13410827310584911 0.13282331674432049 0 0.14295710802469111 0.12768772724150559 0 0.13848136883728299 0.14203914735535511 0 0.12756241452120801 0.13893694775055651 0 0.13410827310584911 0.13282331674432049 0 0.13848136883728299 0.14203914735535511 0 0.13410827310584911 0.13282331674432049 0 0.13409394305489639 0.1257339851238449 0 0.14295710802469111 0.12768772724150559 0 0.14295710802469111 0.12768772724150559 0 0.15698787762036359 0.14007723406829989 0 0.15364605026385231 0.1227496740475859 0 0.14295710802469111 0.12768772724150559 0 0.13848136883728299 0.14203914735535511 0 0.15698787762036359 0.14007723406829989 0 0.13848136883728299 0.14203914735535511 0 0.1441447949138806 0.1573716891147208 0 0.15698787762036359 0.14007723406829989 0 0.1441447949138806 0.1573716891147208 0 0.1598153361361678 0.15982657838785511 0 0.15698787762036359 0.14007723406829989 0 0.13848136883728299 0.14203914735535511 0 0.1262856736452258 0.1537478882528979 0 0.1441447949138806 0.1573716891147208 0 0.12756241452120801 0.13893694775055651 0 0.13848136883728299 0.14203914735535511 0 0.1262856736452258 0.1537478882528979 0 0.1262856736452258 0.1537478882528979 0 0.12954358324573961 0.16710623429112001 0 0.1441447949138806 0.1573716891147208 0 0.12954358324573961 0.16710623429112001 0 0.12550986450034471 0.186594373040398 0 0.15375492999850379 0.1814330523327968 0 0.12954358324573961 0.16710623429112001 0 0.15375492999850379 0.1814330523327968 0 0.1441447949138806 0.1573716891147208 0 0.15375492999850379 0.1814330523327968 0 0.1441447949138806 0.1573716891147208 0 0.1598153361361678 0.15982657838785511 0 0.1598153361361678 0.15982657838785511 0 0.17205847002769489 0.1711246398383999 0 0.17247097746626519 0.1464629757798975 0 0.15375492999850379 0.1814330523327968 0 0.1598153361361678 0.15982657838785511 0 0.17205847002769489 0.1711246398383999 0 0.15375492999850379 0.1814330523327968 0 0.17205847002769489 0.1711246398383999 0 0.18411838942066619 0.18828130780555291 0 0.17205847002769489 0.1711246398383999 0 0.18411838942066619 0.18828130780555291 0 0.19050902449260759 0.164433536692701 0 0.17205847002769489 0.1711246398383999 0 0.17247097746626519 0.1464629757798975 0 0.19050902449260759 0.164433536692701 0 0.17247097746626519 0.1464629757798975 0 0.1903693880120208 0.14015559280000461 0 0.19050902449260759 0.164433536692701 0 0.17247097746626519 0.1464629757798975 0 0.18002451345814399 0.12716596121819479 0 0.1903693880120208 0.14015559280000461 0 0.17247097746626519 0.1464629757798975 0 0.18002451345814399 0.12716596121819479 0 0.16417220099380411 0.12505127510387981 0 0.15698787762036359 0.14007723406829989 0 0.16417220099380411 0.12505127510387981 0 0.15364605026385231 0.1227496740475859 0 0.17247097746626519 0.1464629757798975 0 0.15698787762036359 0.14007723406829989 0 0.16417220099380411 0.12505127510387981 0 0.1598153361361678 0.15982657838785511 0 0.17247097746626519 0.1464629757798975 0 0.15698787762036359 0.14007723406829989 0 0.14702044576598061 0.2478904659134552 0 0.1382648444377183 0.22719855966067881 0 0.15828943790025421 0.22969507774947781 0 0.14702044576598061 0.2478904659134552 0 0.12787711237058769 0.24521089126939841 0 0.1382648444377183 0.22719855966067881 0 0.10906069526472741 0.22998953009969161 0 0.12787711237058769 0.24521089126939841 0 0.1382648444377183 0.22719855966067881 0 0.1382648444377183 0.22719855966067881 0 0.14314005341278749 0.20699853547660821 0 0.15828943790025421 0.22969507774947781 0 0.14314005341278749 0.20699853547660821 0 0.16852610903267151 0.206401884619904 0 0.11775399779290339 0.20759518633331239 0 0.1382648444377183 0.22719855966067881 0 0.14314005341278749 0.20699853547660821 0 0.11775399779290339 0.20759518633331239 0 0.14314005341278749 0.20699853547660821 0 0.11775399779290339 0.20759518633331239 0 0.12550986450034471 0.186594373040398 0 0.14314005341278749 0.20699853547660821 0 0.15375492999850379 0.1814330523327968 0 0.14314005341278749 0.20699853547660821 0 0.16852610903267151 0.206401884619904 0 0.12550986450034471 0.186594373040398 0 0.15375492999850379 0.1814330523327968 0 0.14314005341278749 0.20699853547660821 0 0.15375492999850379 0.1814330523327968 0 0.18411838942066619 0.18828130780555291 0 0.16852610903267151 0.206401884619904 0 0.18411838942066619 0.18828130780555291 0 0.16852610903267151 0.206401884619904 0 0.1878214256448299 0.20672411698152671 0 0.16852610903267151 0.206401884619904 0 0.17766068788986381 0.23020170431202469 0 0.1878214256448299 0.20672411698152671 0 0.14314005341278749 0.20699853547660821 0 0.16852610903267151 0.206401884619904 0 0.15828943790025421 0.22969507774947781 0 0.16852610903267151 0.206401884619904 0 0.15828943790025421 0.22969507774947781 0 0.17766068788986381 0.23020170431202469 0 0.17766068788986381 0.23020170431202469 0 0.19353513124668931 0.22246748781277501 0 0.1878214256448299 0.20672411698152671 0 0.17766068788986381 0.23020170431202469 0 0.18692125413578081 0.24552837502103991 0 0.19379669244916639 0.23440003217329089 0 0.17766068788986381 0.23020170431202469 0 0.18692125413578081 0.24552837502103991 0 0.16774616909827719 0.2460930353984315 0 0.15828943790025421 0.22969507774947781 0 0.17766068788986381 0.23020170431202469 0 0.16774616909827719 0.2460930353984315 0 0.14702044576598061 0.2478904659134552 0 0.15828943790025421 0.22969507774947781 0 0.16774616909827719 0.2460930353984315 0 0.21557305570370441 0.24515722135805329 0 0.2029257889591993 0.24295866219667439 0 0.23007231546290949 0.2334513308517342 0 0.2029257889591993 0.24295866219667439 0 0.23007231546290949 0.2334513308517342 0 0.21557305570370441 0.24515722135805329 0 0.2029257889591993 0.24295866219667439 0 0.20107379594449931 0.25686311186437227 0 0.18692125413578081 0.24552837502103991 0 0.2029257889591993 0.24295866219667439 0 0.20107379594449931 0.25686311186437227 0 0.18692125413578081 0.24552837502103991 0 0.19379669244916639 0.23440003217329089 0 0.2029257889591993 0.24295866219667439 0 0.17766068788986381 0.23020170431202469 0 0.19379669244916639 0.23440003217329089 0 0.19353513124668931 0.22246748781277501 0 0.19379669244916639 0.23440003217329089 0 0.2029257889591993 0.24295866219667439 0 0.20920449219815451 0.22515354045629349 0 0.19379669244916639 0.23440003217329089 0 0.19353513124668931 0.22246748781277501 0 0.20920449219815451 0.22515354045629349 0 0.2029257889591993 0.24295866219667439 0 0.20920449219815451 0.22515354045629349 0 0.23007231546290949 0.2334513308517342 0 0.19353513124668931 0.22246748781277501 0 0.20920449219815451 0.22515354045629349 0 0.20732414099141369 0.20672295990195361 0 0.20920449219815451 0.22515354045629349 0 0.20732414099141369 0.20672295990195361 0 0.22783619495118521 0.20973527166224001 0 0.19353513124668931 0.22246748781277501 0 0.20732414099141369 0.20672295990195361 0 0.1878214256448299 0.20672411698152671 0 0.18411838942066619 0.18828130780555291 0 0.1878214256448299 0.20672411698152671 0 0.20343121377691101 0.18825927067945539 0 0.20732414099141369 0.20672295990195361 0 0.1878214256448299 0.20672411698152671 0 0.20343121377691101 0.18825927067945539 0 0.20732414099141369 0.20672295990195361 0 0.20343121377691101 0.18825927067945539 0 0.2219787971027708 0.18678942035429349 0 0.20732414099141369 0.20672295990195361 0 0.22783619495118521 0.20973527166224001 0 0.2219787971027708 0.18678942035429349 0 0.24528107816237801 0.1907036486386274 0 0.22783619495118521 0.20973527166224001 0 0.2219787971027708 0.18678942035429349 0 0.24528107816237801 0.1907036486386274 0 0.25242827713160498 0.21540237912569379 0 0.24528107816237801 0.1907036486386274 0 0.22783619495118521 0.20973527166224001 0 0.25242827713160498 0.21540237912569379 0 0.20920449219815451 0.22515354045629349 0 0.22783619495118521 0.20973527166224001 0 0.23007231546290949 0.2334513308517342 0 0.23007231546290949 0.2334513308517342 0 0.25242827713160498 0.21540237912569379 0 0.23007231546290949 0.2334513308517342 0 0.25511338863332461 0.22468137717712711 0 0.25242827713160498 0.21540237912569379 0 0.23007231546290949 0.2334513308517342 0 0.25511338863332461 0.22468137717712711 0 0.23007231546290949 0.2334513308517342 0 0.2457442494512444 0.24022391879071339 0 0.25511338863332461 0.22468137717712711 0 0.22783619495118521 0.20973527166224001 0 0.23007231546290949 0.2334513308517342 0 0.25242827713160498 0.21540237912569379 0 0.2457442494512444 0.24022391879071339 0 0.23628031136540401 0.25597328662156199 0 0.26221447651104962 0.2479993693513689 0 0.23007231546290949 0.2334513308517342 0 0.2457442494512444 0.24022391879071339 0 0.23628031136540401 0.25597328662156199 0 0.21557305570370441 0.24515722135805329 0 0.23007231546290949 0.2334513308517342 0 0.23628031136540401 0.25597328662156199 0 0.21557305570370441 0.24515722135805329 0 0.23007231546290949 0.2334513308517342 0 0.21023583046185859 0.14706018503428281 0 0.22521494488481819 0.12557893006429149 0 0.2001236667938262 0.1180422718546187 0 0.18002451345814399 0.12716596121819479 0 0.1903693880120208 0.14015559280000461 0 0.2001236667938262 0.1180422718546187 0 0.21023583046185859 0.14706018503428281 0 0.1903693880120208 0.14015559280000461 0 0.2001236667938262 0.1180422718546187 0 0.21023583046185859 0.14706018503428281 0 0.1903693880120208 0.14015559280000461 0 0.19050902449260759 0.164433536692701 0 0.18411838942066619 0.18828130780555291 0 0.20343121377691101 0.18825927067945539 0 0.19050902449260759 0.164433536692701 0 0.20343121377691101 0.18825927067945539 0 0.19050902449260759 0.164433536692701 0 0.20962662881846919 0.1707346457134423 0 0.20343121377691101 0.18825927067945539 0 0.20962662881846919 0.1707346457134423 0 0.2219787971027708 0.18678942035429349 0 0.21023583046185859 0.14706018503428281 0 0.20962662881846919 0.1707346457134423 0 0.2254160648188453 0.164078398330023 0 0.21023583046185859 0.14706018503428281 0 0.19050902449260759 0.164433536692701 0 0.20962662881846919 0.1707346457134423 0 0.20962662881846919 0.1707346457134423 0 0.2254160648188453 0.164078398330023 0 0.2219787971027708 0.18678942035429349 0 0.2254160648188453 0.164078398330023 0 0.2219787971027708 0.18678942035429349 0 0.23714843650665229 0.1758398884969993 0 0.24528107816237801 0.1907036486386274 0 0.2219787971027708 0.18678942035429349 0 0.23714843650665229 0.1758398884969993 0 0.24528107816237801 0.1907036486386274 0 0.23714843650665229 0.1758398884969993 0 0.25292738168467233 0.17649485219682931 0 0.2254160648188453 0.164078398330023 0 0.24653130607993951 0.16237692388552691 0 0.23688534306575301 0.1458043597726891 0 0.23714843650665229 0.1758398884969993 0 0.24653130607993951 0.16237692388552691 0 0.25292738168467233 0.17649485219682931 0 0.2254160648188453 0.164078398330023 0 0.23714843650665229 0.1758398884969993 0 0.24653130607993951 0.16237692388552691 0 0.24653130607993951 0.16237692388552691 0 0.2496536413094039 0.15044712256699261 0 0.23688534306575301 0.1458043597726891 0 0.2496536413094039 0.15044712256699261 0 0.23688534306575301 0.1458043597726891 0 0.25004344172447263 0.14019424959050239 0 0.21023583046185859 0.14706018503428281 0 0.2254160648188453 0.164078398330023 0 0.23688534306575301 0.1458043597726891 0 0.21023583046185859 0.14706018503428281 0 0.23688534306575301 0.1458043597726891 0 0.22521494488481819 0.12557893006429149 0 0.22521494488481819 0.12557893006429149 0 0.25030622297580962 0.13311558827396619 0 0.23688534306575301 0.1458043597726891 0 0.22521494488481819 0.12557893006429149 0 0.25030622297580962 0.13311558827396619 0 0.23688534306575301 0.1458043597726891 0 0.25004344172447263 0.14019424959050239 0 0.25030622297580962 0.13311558827396619 0 0.22521494488481819 0.12557893006429149 0 0.2369469616243938 0.1144798656387125 0 0.25030622297580962 0.13311558827396619 0 0.2369469616243938 0.1144798656387125 0 0.25094552198087999 0.11589449234768209 0 0.25030622297580962 0.13311558827396619 0 0.2369469616243938 0.1144798656387125 0 0.25158482098595109 0.098673396421397969 0 0.25094552198087999 0.11589449234768209 0 0.2369469616243938 0.1144798656387125 0 0.2308580048349978 0.09939168424622695 0 0.25158482098595109 0.098673396421397969 0 0.2308580048349978 0.09939168424622695 0 0.2177667053289645 0.10879872465146249 0 0.21723881235993189 0.092441087960636145 0 0.2369469616243938 0.1144798656387125 0 0.2308580048349978 0.09939168424622695 0 0.2177667053289645 0.10879872465146249 0 0.22521494488481819 0.12557893006429149 0 0.2369469616243938 0.1144798656387125 0 0.2177667053289645 0.10879872465146249 0 0.2177667053289645 0.10879872465146249 0 0.1970849337058638 0.1019164286603922 0 0.2001236667938262 0.1180422718546187 0 0.22521494488481819 0.12557893006429149 0 0.2177667053289645 0.10879872465146249 0 0.2001236667938262 0.1180422718546187 0 0.22521494488481819 0.12557893006429149 0 0.2001236667938262 0.1180422718546187 0 0.1970849337058638 0.1019164286603922 0 0.20420713705815571 0.090978010823124941 0 0.21723881235993189 0.092441087960636145 0 0.1970849337058638 0.1019164286603922 0 0.21723881235993189 0.092441087960636145 0 0.2177667053289645 0.10879872465146249 0 0.1970849337058638 0.1019164286603922 0 0.21723881235993189 0.092441087960636145 0 0.1970849337058638 0.1019164286603922 0 0.1916307843626972 0.08827444688259839 0 0.17503238870283441 0.11050561364494491 0 0.2001236667938262 0.1180422718546187 0 0.17503238870283441 0.11050561364494491 0 0.1970849337058638 0.1019164286603922 0 0.2001236667938262 0.1180422718546187 0 0.17503238870283441 0.11050561364494491 0 0.1916307843626972 0.08827444688259839 0 0.2082291800225603 0.066043280120252124 0 0.19067723801237901 0.065525043857756982 0 0.1916307843626972 0.08827444688259839 0 0.2082291800225603 0.066043280120252124 0 0.1916307843626972 0.08827444688259839 0 0.21087401780412959 0.081280079788873041 0 0.20420713705815571 0.090978010823124941 0 0.1970849337058638 0.1019164286603922 0 0.1916307843626972 0.08827444688259839 0 0.20420713705815571 0.090978010823124941 0 0.1916307843626972 0.08827444688259839 0 0.21087401780412959 0.081280079788873041 0 0.2082291800225603 0.066043280120252124 0 0.21087401780412959 0.081280079788873041 0 0.20420713705815571 0.090978010823124941 0 0.21723881235993189 0.092441087960636145 0 0.21087401780412959 0.081280079788873041 0 0.21723881235993189 0.092441087960636145 0 0.22613356481757629 0.0775902723280468 0 0.21087401780412959 0.081280079788873041 0 0.2082291800225603 0.066043280120252124 0 0.22613356481757629 0.0775902723280468 0 0.2082291800225603 0.066043280120252124 0 0.22613356481757629 0.0775902723280468 0 0.2082291800225603 0.066043280120252124 0 0.2259496113806885 0.070300708218039992 0 0.21450653174737461 0.057635669175196122 0 0.2259496113806885 0.070300708218039992 0 0.21450653174737461 0.057635669175196122 0 0.2082291800225603 0.066043280120252124 0 0.2259496113806885 0.070300708218039992 0 0.22613356481757629 0.0775902723280468 0 0.2259496113806885 0.070300708218039992 0 0.2248665156508784 0.061611733455129589 0 0.21450653174737461 0.057635669175196122 0 0.2259496113806885 0.070300708218039992 0 0.22613356481757629 0.0775902723280468 0 0.23739269101400209 0.082965747260884265 0 0.2259496113806885 0.070300708218039992 0 0.23739269101400209 0.082965747260884265 0 0.237967452106535 0.070105640596903412 0 0.2259496113806885 0.070300708218039992 0 0.23739269101400209 0.082965747260884265 0 0.2259496113806885 0.070300708218039992 0 0.2330718446673557 0.064441819436705627 0 0.2248665156508784 0.061611733455129589 0 0.2259496113806885 0.070300708218039992 0 0.2330718446673557 0.064441819436705627 0 0.237967452106535 0.070105640596903412 0 0.2308580048349978 0.09939168424622695 0 0.21723881235993189 0.092441087960636145 0 0.23739269101400209 0.082965747260884265 0 0.21723881235993189 0.092441087960636145 0 0.22613356481757629 0.0775902723280468 0 0.23739269101400209 0.082965747260884265 0 0.21723881235993189 0.092441087960636145 0 0.23739269101400209 0.082965747260884265 0 0.23739269101400209 0.082965747260884265 0 0.25158482098595109 0.098673396421397969 0 0.23739269101400209 0.082965747260884265 0 0.25243039498113262 0.075895774732197205 0 0.25158482098595109 0.098673396421397969 0 0.2308580048349978 0.09939168424622695 0 0.23739269101400209 0.082965747260884265 0 0.25158482098595109 0.098673396421397969 0 0.23739269101400209 0.082965747260884265 0 0.25243039498113262 0.075895774732197205 0 0.23934469018649959 0.064583282500140851 0 0.237967452106535 0.070105640596903412 0 0.24496427956833819 0.066036472520138348 0 0.2330718446673557 0.064441819436705627 0 0.23934469018649959 0.064583282500140851 0 0.2376257901407148 0.059976102198904507 0 0.2330718446673557 0.064441819436705627 0 0.23934469018649959 0.064583282500140851 0 0.237967452106535 0.070105640596903412 0 0.23739269101400209 0.082965747260884265 0 0.237967452106535 0.070105640596903412 0 0.24429048066179679 0.072622021298478806 0 0.24429048066179679 0.072622021298478806 0 0.24842415088314279 0.069033451464499671 0 0.25243039498113262 0.075895774732197205 0 0.23739269101400209 0.082965747260884265 0 0.24429048066179679 0.072622021298478806 0 0.25243039498113262 0.075895774732197205 0 0.24842415088314279 0.069033451464499671 0 0.24853219730195361 0.063845178725116872 0 0.25274476311700622 0.067427493409812952 0 0.237967452106535 0.070105640596903412 0 0.24429048066179679 0.072622021298478806 0 0.24496427956833819 0.066036472520138348 0 0.24429048066179679 0.072622021298478806 0 0.24842415088314279 0.069033451464499671 0 0.24496427956833819 0.066036472520138348 0 0.23934469018649959 0.064583282500140851 0 0.24496427956833819 0.066036472520138348 0 0.24309408444955441 0.062356377748052388 0 0.24496427956833819 0.066036472520138348 0 0.24602681454492631 0.062964227281045088 0 0.24309408444955441 0.062356377748052388 0 0.24496427956833819 0.066036472520138348 0 0.24602681454492631 0.062964227281045088 0 0.24853219730195361 0.063845178725116872 0 0.24842415088314279 0.069033451464499671 0 0.24496427956833819 0.066036472520138348 0 0.24853219730195361 0.063845178725116872 0 0.24751669685985911 0.059618880130872708 0 0.24309408444955441 0.062356377748052388 0 0.2376257901407148 0.059976102198904507 0 0.24751669685985911 0.059618880130872708 0 0.24426241142214139 0.049994713685017962 0 0.2310385276818335 0.053106641608170198 0 0.24751669685985911 0.059618880130872708 0 0.2376257901407148 0.059976102198904507 0 0.2310385276818335 0.053106641608170198 0 0.24751669685985911 0.059618880130872708 0 0.2310385276818335 0.053106641608170198 0 0.24853219730195361 0.063845178725116872 0 0.24751669685985911 0.059618880130872708 0 0.2530174900015254 0.0600809219264858 0 0.24602681454492631 0.062964227281045088 0 0.24853219730195361 0.063845178725116872 0 0.24751669685985911 0.059618880130872708 0 0.24602681454492631 0.062964227281045088 0 0.24751669685985911 0.059618880130872708 0 0.24309408444955441 0.062356377748052388 0 0.23934469018649959 0.064583282500140851 0 0.24309408444955441 0.062356377748052388 0 0.2376257901407148 0.059976102198904507 0 0.24426241142214139 0.049994713685017962 0 0.23928634064401511 0.040096757013566242 0 0.2310385276818335 0.053106641608170198 0 0.24751669685985911 0.059618880130872708 0 0.24426241142214139 0.049994713685017962 0 0.25102243244437311 0.053297338652025752 0 0.24426241142214139 0.049994713685017962 0 0.25174039047255609 0.044464402284776217 0 0.25102243244437311 0.053297338652025752 0 0.23928634064401511 0.040096757013566242 0 0.2320502206633881 0.021165953515508481 0 0.25044211127373811 0.032849993626191502 0 0.23928634064401511 0.040096757013566242 0 0.25044211127373811 0.032849993626191502 0 0.25174039047255609 0.044464402284776217 0 0.24426241142214139 0.049994713685017962 0 0.23928634064401511 0.040096757013566242 0 0.25174039047255609 0.044464402284776217 0 0.22618438235043381 0.038998837361733103 0 0.2320502206633881 0.021165953515508481 0 0.20963369093729961 0.03941564640516447 0 0.23928634064401511 0.040096757013566242 0 0.22618438235043381 0.038998837361733103 0 0.2320502206633881 0.021165953515508481 0 0.22618438235043381 0.038998837361733103 0 0.2310385276818335 0.053106641608170198 0 0.21456035850380811 0.046594403085467223 0 0.23928634064401511 0.040096757013566242 0 0.22618438235043381 0.038998837361733103 0 0.2310385276818335 0.053106641608170198 0 0.2310385276818335 0.053106641608170198 0 0.21456035850380811 0.046594403085467223 0 0.2248665156508784 0.061611733455129589 0 0.2310385276818335 0.053106641608170198 0 0.21456035850380811 0.046594403085467223 0 0.2248665156508784 0.061611733455129589 0 0.21456035850380811 0.046594403085467223 0 0.2330718446673557 0.064441819436705627 0 0.2248665156508784 0.061611733455129589 0 0.23150027442910881 0.059501590197602497 0 0.2248665156508784 0.061611733455129589 0 0.23150027442910881 0.059501590197602497 0 0.2310385276818335 0.053106641608170198 0 0.2330718446673557 0.064441819436705627 0 0.2376257901407148 0.059976102198904507 0 0.23150027442910881 0.059501590197602497 0 0.2376257901407148 0.059976102198904507 0 0.23150027442910881 0.059501590197602497 0 0.2310385276818335 0.053106641608170198 0 0.2320502206633881 0.021165953515508481 0 0.22999165343287109 0.0038227322559807589 0 0.25446675038947358 0.0029162606258486688 0 0.2320502206633881 0.021165953515508481 0 0.2600935707136679 0.019574361616358959 0 0.25446675038947358 0.0029162606258486688 0 0.22999165343287109 0.0038227322559807589 0 0.25446675038947358 0.0029162606258486688 0 0.24138147174972829 -0.0061427828714447699 0 0.2320502206633881 0.021165953515508481 0 0.25446675038947358 0.0029162606258486688 0 0.2320502206633881 0.021165953515508481 0 0.2600935707136679 0.019574361616358959 0 0.25044211127373811 0.032849993626191502 0 0.2320502206633881 0.021165953515508481 0 0.20963369093729961 0.03941564640516447 0 0.22999165343287109 0.0038227322559807589 0 0.21340461703840111 0.0096506044731711187 0 0.21351355446813719 -0.0021103410187178909 0 0.2320502206633881 0.021165953515508481 0 0.22999165343287109 0.0038227322559807589 0 0.21340461703840111 0.0096506044731711187 0 0.21340461703840111 0.0096506044731711187 0 0.1998105265397013 0.00335350757378736 0 0.21351355446813719 -0.0021103410187178909 0 0.21340461703840111 0.0096506044731711187 0 0.20371525389429951 0.01279949030761077 0 0.2082588668535221 0.02245160931237615 0 0.21340461703840111 0.0096506044731711187 0 0.20371525389429951 0.01279949030761077 0 0.1998105265397013 0.00335350757378736 0 0.2320502206633881 0.021165953515508481 0 0.2082588668535221 0.02245160931237615 0 0.20963369093729961 0.03941564640516447 0 0.2320502206633881 0.021165953515508481 0 0.21340461703840111 0.0096506044731711187 0 0.2082588668535221 0.02245160931237615 0 0.2082588668535221 0.02245160931237615 0 0.19338700514557339 0.015742239871108451 0 0.20963369093729961 0.03941564640516447 0 0.19338700514557339 0.015742239871108451 0 0.1989601287501698 0.040429129743079398 0 0.18048502430789731 0.01998114488410483 0 0.1989601287501698 0.040429129743079398 0 0.18048502430789731 0.01998114488410483 0 0.19338700514557339 0.015742239871108451 0 0.20963369093729961 0.03941564640516447 0 0.20371525389429951 0.01279949030761077 0 0.2082588668535221 0.02245160931237615 0 0.19338700514557339 0.015742239871108451 0 0.19338700514557339 0.015742239871108451 0 0.1998105265397013 0.00335350757378736 0 0.17714031935384769 -0.0079311666629475405 0 0.20371525389429951 0.01279949030761077 0 0.19338700514557339 0.015742239871108451 0 0.1998105265397013 0.00335350757378736 0 0.21450653174737461 0.057635669175196122 0 0.2029561920580818 0.044851916216142339 0 0.21450653174737461 0.057635669175196122 0 0.2029561920580818 0.044851916216142339 0 0.2021088015620611 0.053433964061651712 0 0.21450653174737461 0.057635669175196122 0 0.21456035850380811 0.046594403085467223 0 0.2029561920580818 0.044851916216142339 0 0.2082291800225603 0.066043280120252124 0 0.21450653174737461 0.057635669175196122 0 0.2021088015620611 0.053433964061651712 0 0.2248665156508784 0.061611733455129589 0 0.21450653174737461 0.057635669175196122 0 0.21456035850380811 0.046594403085467223 0 0.2082291800225603 0.066043280120252124 0 0.21450653174737461 0.057635669175196122 0 0.22618438235043381 0.038998837361733103 0 0.21456035850380811 0.046594403085467223 0 0.20963369093729961 0.03941564640516447 0 0.21456035850380811 0.046594403085467223 0 0.20963369093729961 0.03941564640516447 0 0.21456035850380811 0.046594403085467223 0 0.20530753189452691 0.042937648913457381 0 0.2029561920580818 0.044851916216142339 0 0.20963369093729961 0.03941564640516447 0 0.20530753189452691 0.042937648913457381 0 0.1989601287501698 0.040429129743079398 0 0.21456035850380811 0.046594403085467223 0 0.20530753189452691 0.042937648913457381 0 0.21456035850380811 0.046594403085467223 0 0.20963369093729961 0.03941564640516447 0 0.20530753189452691 0.042937648913457381 0 0.20963369093729961 0.03941564640516447 0 0.20530753189452691 0.042937648913457381 0 0.20530753189452691 0.042937648913457381 0 0.2029561920580818 0.044851916216142339 0 0.1989601287501698 0.040429129743079398 0 0.1774654858828027 0.031934360706524292 0 0.2029561920580818 0.044851916216142339 0 0.1989601287501698 0.040429129743079398 0 0.19971656766465989 0.047489351670260083 0 0.1989601287501698 0.040429129743079398 0 0.19133087755196571 0.045131483978966998 0 0.19971656766465989 0.047489351670260083 0 0.2029561920580818 0.044851916216142339 0 0.19971656766465989 0.047489351670260083 0 0.19338700514557339 0.015742239871108451 0 0.20963369093729961 0.03941564640516447 0 0.1989601287501698 0.040429129743079398 0 0.1989601287501698 0.040429129743079398 0 0.19133087755196571 0.045131483978966998 0 0.18298678422305309 0.040980100737508622 0 0.20530753189452691 0.042937648913457381 0 0.2029561920580818 0.044851916216142339 0 0.1989601287501698 0.040429129743079398 0 0.20530753189452691 0.042937648913457381 0 0.1989601287501698 0.040429129743079398 0 0.2029561920580818 0.044851916216142339 0 0.1989601287501698 0.040429129743079398 0 0.2082291800225603 0.066043280120252124 0 0.18513553631762919 0.051149603126408108 0 0.2021088015620611 0.053433964061651712 0 0.19971656766465989 0.047489351670260083 0 0.18513553631762919 0.051149603126408108 0 0.2082291800225603 0.066043280120252124 0 0.2021088015620611 0.053433964061651712 0 0.18513553631762919 0.051149603126408108 0 0.19067723801237901 0.065525043857756982 0 0.2082291800225603 0.066043280120252124 0 0.18513553631762919 0.051149603126408108 0 0.19133087755196571 0.045131483978966998 0 0.19971656766465989 0.047489351670260083 0 0.18513553631762919 0.051149603126408108 0 0.2029561920580818 0.044851916216142339 0 0.2021088015620611 0.053433964061651712 0 0.19971656766465989 0.047489351670260083 0 0.17734631865053521 0.060730067185729229 0 0.18513553631762919 0.051149603126408108 0 0.16725106424272049 0.052894846580172288 0 0.19067723801237901 0.065525043857756982 0 0.17734631865053521 0.060730067185729229 0 0.18513553631762919 0.051149603126408108 0 0.18298678422305309 0.040980100737508622 0 0.1774654858828027 0.031934360706524292 0 0.1620418926126978 0.036255926132564682 0 0.19133087755196571 0.045131483978966998 0 0.18513553631762919 0.051149603126408108 0 0.18298678422305309 0.040980100737508622 0 0.18513553631762919 0.051149603126408108 0 0.18298678422305309 0.040980100737508622 0 0.1620418926126978 0.036255926132564682 0 0.1989601287501698 0.040429129743079398 0 0.18298678422305309 0.040980100737508622 0 0.1774654858828027 0.031934360706524292 0 0.18513553631762919 0.051149603126408108 0 0.1620418926126978 0.036255926132564682 0 0.1620418926126978 0.036255926132564682 0 0.16725106424272049 0.052894846580172288 0 0.15541952745182569 0.04677658384696623 0 0.18513553631762919 0.051149603126408108 0 0.1620418926126978 0.036255926132564682 0 0.16725106424272049 0.052894846580172288 0 0.16725106424272049 0.052894846580172288 0 0.15507694825043991 0.057889849327421902 0 0.15541952745182569 0.04677658384696623 0 0.16725106424272049 0.052894846580172288 0 0.15507694825043991 0.057889849327421902 0 0.1653937448538241 0.067538194789913991 0 0.17734631865053521 0.060730067185729229 0 0.16725106424272049 0.052894846580172288 0 0.1653937448538241 0.067538194789913991 0 0.18048502430789731 0.01998114488410483 0 0.1657030786406338 0.0084270166623369204 0 0.17714031935384769 -0.0079311666629475405 0 0.19338700514557339 0.015742239871108451 0 0.17714031935384769 -0.0079311666629475405 0 0.19338700514557339 0.015742239871108451 0 0.18048502430789731 0.01998114488410483 0 0.17714031935384769 -0.0079311666629475405 0 0.1989601287501698 0.040429129743079398 0 0.1774654858828027 0.031934360706524292 0 0.18048502430789731 0.01998114488410483 0 0.1774654858828027 0.031934360706524292 0 0.18048502430789731 0.01998114488410483 0 0.16935520337559401 0.020657770454092759 0 0.1774654858828027 0.031934360706524292 0 0.15597084301543529 0.02343959166996953 0 0.1774654858828027 0.031934360706524292 0 0.1620418926126978 0.036255926132564682 0 0.15597084301543529 0.02343959166996953 0 0.1774654858828027 0.031934360706524292 0 0.16935520337559401 0.020657770454092759 0 0.15597084301543529 0.02343959166996953 0 0.16935520337559401 0.020657770454092759 0 0.1657030786406338 0.0084270166623369204 0 0.15597084301543529 0.02343959166996953 0 0.18048502430789731 0.01998114488410483 0 0.16935520337559401 0.020657770454092759 0 0.1657030786406338 0.0084270166623369204 0 0.1657030786406338 0.0084270166623369204 0 0.14883794818754281 0.01110572894874149 0 0.15480995508657039 -0.001084596553268768 0 0.1657030786406338 0.0084270166623369204 0 0.14883794818754281 0.01110572894874149 0 0.15597084301543529 0.02343959166996953 0 0.14883794818754281 0.01110572894874149 0 0.13464870039648349 0.00080453217212592717 0 0.15480995508657039 -0.001084596553268768 0 0.14883794818754281 0.01110572894874149 0 0.13894824890776639 0.02136224913872127 0 0.13464870039648349 0.00080453217212592717 0 0.1620418926126978 0.036255926132564682 0 0.13894824890776639 0.02136224913872127 0 0.14883794818754281 0.01110572894874149 0 0.15597084301543529 0.02343959166996953 0 0.13894824890776639 0.02136224913872127 0 0.1620418926126978 0.036255926132564682 0 0.15597084301543529 0.02343959166996953 0 0.13894824890776639 0.02136224913872127 0 0.11961069471150609 0.02296590295220987 0 0.13894824890776639 0.02136224913872127 0 0.12977361784467401 0.039215218793308727 0 0.1158546052028349 0.0064685721448778594 0 0.13894824890776639 0.02136224913872127 0 0.1158546052028349 0.0064685721448778594 0 0.13894824890776639 0.02136224913872127 0 0.13464870039648349 0.00080453217212592717 0 0.14278372382386809 0.048416123664777412 0 0.1428601767931531 0.062084067640591357 0 0.15507694825043991 0.057889849327421902 0 0.14278372382386809 0.048416123664777412 0 0.15507694825043991 0.057889849327421902 0 0.15541952745182569 0.04677658384696623 0 0.1620418926126978 0.036255926132564682 0 0.13894824890776639 0.02136224913872127 0 0.14579340212816641 0.038405220315267663 0 0.1620418926126978 0.036255926132564682 0 0.15541952745182569 0.04677658384696623 0 0.14579340212816641 0.038405220315267663 0 0.14278372382386809 0.048416123664777412 0 0.15541952745182569 0.04677658384696623 0 0.14579340212816641 0.038405220315267663 0 0.14278372382386809 0.048416123664777412 0 0.14579340212816641 0.038405220315267663 0 0.12977361784467401 0.039215218793308727 0 0.13894824890776639 0.02136224913872127 0 0.14579340212816641 0.038405220315267663 0 0.12977361784467401 0.039215218793308727 0 0.11550376979223601 0.054551475820320147 0 0.12977361784467401 0.039215218793308727 0 0.1326943019686847 0.054606112458038862 0 0.11550376979223601 0.054551475820320147 0 0.1326943019686847 0.054606112458038862 0 0.13255022158949201 0.068763676371196639 0 0.14278372382386809 0.048416123664777412 0 0.12977361784467401 0.039215218793308727 0 0.1326943019686847 0.054606112458038862 0 0.14278372382386809 0.048416123664777412 0 0.1428601767931531 0.062084067640591357 0 0.1326943019686847 0.054606112458038862 0 0.1428601767931531 0.062084067640591357 0 0.1326943019686847 0.054606112458038862 0 0.13255022158949201 0.068763676371196639 0 0.1207366242219714 0.074251990558816788 0 0.13255022158949201 0.068763676371196639 0 0.13578085374332971 0.077614708003019631 0 0.13255022158949201 0.068763676371196639 0 0.13578085374332971 0.077614708003019631 0 0.1430759120552613 0.073085192731263071 0 0.1428601767931531 0.062084067640591357 0 0.13255022158949201 0.068763676371196639 0 0.1430759120552613 0.073085192731263071 0 0.1428601767931531 0.062084067640591357 0 0.1430759120552613 0.073085192731263071 0 0.15260580868734391 0.069203578475014266 0 0.1430759120552613 0.073085192731263071 0 0.14969883640752091 0.076610515579137797 0 0.14563192422462459 0.083183778073064013 0 0.13578085374332971 0.077614708003019631 0 0.1430759120552613 0.073085192731263071 0 0.14563192422462459 0.083183778073064013 0 0.1430759120552613 0.073085192731263071 0 0.14969883640752091 0.076610515579137797 0 0.15260580868734391 0.069203578475014266 0 0.14969883640752091 0.076610515579137797 0 0.15260580868734391 0.069203578475014266 0 0.15677919641446331 0.080277826610221981 0 0.1428601767931531 0.062084067640591357 0 0.15507694825043991 0.057889849327421902 0 0.15260580868734391 0.069203578475014266 0 0.1506819444987289 0.088437751930635633 0 0.14868901735932749 0.09586058707093438 0 0.157853861938485 0.092527754269896317 0 0.1506819444987289 0.088437751930635633 0 0.15677919641446331 0.080277826610221981 0 0.157853861938485 0.092527754269896317 0 0.14969883640752091 0.076610515579137797 0 0.14563192422462459 0.083183778073064013 0 0.15677919641446331 0.080277826610221981 0 0.1506819444987289 0.088437751930635633 0 0.14563192422462459 0.083183778073064013 0 0.15677919641446331 0.080277826610221981 0 0.14563192422462459 0.083183778073064013 0 0.1444557225567443 0.090338813629061501 0 0.13888671887288589 0.088270852986767859 0 0.1506819444987289 0.088437751930635633 0 0.14563192422462459 0.083183778073064013 0 0.1444557225567443 0.090338813629061501 0 0.1444557225567443 0.090338813629061501 0 0.14209274384079601 0.094639397504520467 0 0.14868901735932749 0.09586058707093438 0 0.1506819444987289 0.088437751930635633 0 0.1444557225567443 0.090338813629061501 0 0.14868901735932749 0.09586058707093438 0 0.1444557225567443 0.090338813629061501 0 0.13888671887288589 0.088270852986767859 0 0.14209274384079601 0.094639397504520467 0 0.13888671887288589 0.088270852986767859 0 0.13668050292917741 0.098217611464673699 0 0.14209274384079601 0.094639397504520467 0 0.13888671887288589 0.088270852986767859 0 0.1300820653953097 0.084166932106396392 0 0.13668050292917741 0.098217611464673699 0 0.11116449005577619 0.086473750785835857 0 0.1300820653953097 0.084166932106396392 0 0.13668050292917741 0.098217611464673699 0 0.13578085374332971 0.077614708003019631 0 0.13888671887288589 0.088270852986767859 0 0.1300820653953097 0.084166932106396392 0 0.13578085374332971 0.077614708003019631 0 0.14563192422462459 0.083183778073064013 0 0.13888671887288589 0.088270852986767859 0 0.1207366242219714 0.074251990558816788 0 0.13578085374332971 0.077614708003019631 0 0.1300820653953097 0.084166932106396392 0 0.1216961693062274 0.1020981758197984 0 0.1302764983332621 0.10693497851168419 0 0.13668050292917741 0.098217611464673699 0 0.1302764983332621 0.10693497851168419 0 0.13758713408363871 0.1043360441680015 0 0.13668050292917741 0.098217611464673699 0 0.1302764983332621 0.10693497851168419 0 0.1360833458267342 0.1084620534226548 0 0.13758713408363871 0.1043360441680015 0 0.1360833458267342 0.1084620534226548 0 0.13758713408363871 0.1043360441680015 0 0.14314356584317489 0.10755645506983 0 0.13758713408363871 0.1043360441680015 0 0.13668050292917741 0.098217611464673699 0 0.14175175748584509 0.1005091223711649 0 0.13668050292917741 0.098217611464673699 0 0.14209274384079601 0.094639397504520467 0 0.14175175748584509 0.1005091223711649 0 0.12813823657366311 0.12049833089676459 0 0.13246275659848361 0.1130811342378658 0 0.13708322035591489 0.118794437000363 0 0.12212988809696081 0.1249307776834532 0 0.12788127083107459 0.1291064789800366 0 0.12813823657366311 0.12049833089676459 0 0.1197878353292403 0.1092484053650479 0 0.1302764983332621 0.10693497851168419 0 0.12624189261331301 0.1140678077034443 0 0.12813823657366311 0.12049833089676459 0 0.12624189261331301 0.1140678077034443 0 0.13246275659848361 0.1130811342378658 0 0.1302764983332621 0.10693497851168419 0 0.12624189261331301 0.1140678077034443 0 0.13246275659848361 0.1130811342378658 0 0.138866780176991 0.11235807520418389 0 0.13708322035591489 0.118794437000363 0 0.14572099158606311 0.1154247658161887 0 0.1360833458267342 0.1084620534226548 0 0.13246275659848361 0.1130811342378658 0 0.138866780176991 0.11235807520418389 0 0.1302764983332621 0.10693497851168419 0 0.1360833458267342 0.1084620534226548 0 0.13246275659848361 0.1130811342378658 0 0.1360833458267342 0.1084620534226548 0 0.138866780176991 0.11235807520418389 0 0.14314356584317489 0.10755645506983 0 0.13246275659848361 0.1130811342378658 0 0.138866780176991 0.11235807520418389 0 0.13708322035591489 0.118794437000363 0 0.13409394305489639 0.1257339851238449 0 0.14295710802469111 0.12768772724150559 0 0.13708322035591489 0.118794437000363 0 0.13409394305489639 0.1257339851238449 0 0.12813823657366311 0.12049833089676459 0 0.13708322035591489 0.118794437000363 0 0.14572099158606311 0.1154247658161887 0 0.15364605026385231 0.1227496740475859 0 0.15839207309433961 0.10550736800805539 0 0.14295710802469111 0.12768772724150559 0 0.13708322035591489 0.118794437000363 0 0.14572099158606311 0.1154247658161887 0 0.14295710802469111 0.12768772724150559 0 0.14572099158606311 0.1154247658161887 0 0.15364605026385231 0.1227496740475859 0 0.138866780176991 0.11235807520418389 0 0.14572099158606311 0.1154247658161887 0 0.14314356584317489 0.10755645506983 0 0.14572099158606311 0.1154247658161887 0 0.14314356584317489 0.10755645506983 0 0.15839207309433961 0.10550736800805539 0 0.14175175748584509 0.1005091223711649 0 0.15839207309433961 0.10550736800805539 0 0.14175175748584509 0.1005091223711649 0 0.14314356584317489 0.10755645506983 0 0.15839207309433961 0.10550736800805539 0 0.14175175748584509 0.1005091223711649 0 0.14868901735932749 0.09586058707093438 0 0.15839207309433961 0.10550736800805539 0 0.14209274384079601 0.094639397504520467 0 0.14175175748584509 0.1005091223711649 0 0.14868901735932749 0.09586058707093438 0 0.13758713408363871 0.1043360441680015 0 0.14175175748584509 0.1005091223711649 0 0.14314356584317489 0.10755645506983 0 0.14868901735932749 0.09586058707093438 0 0.15839207309433961 0.10550736800805539 0 0.157853861938485 0.092527754269896317 0 0.15839207309433961 0.10550736800805539 0 0.17503238870283441 0.11050561364494491 0 0.15839207309433961 0.10550736800805539 0 0.1705578526620479 0.095927182961129481 0 0.157853861938485 0.092527754269896317 0 0.15839207309433961 0.10550736800805539 0 0.1705578526620479 0.095927182961129481 0 0.17503238870283441 0.11050561364494491 0 0.16417220099380411 0.12505127510387981 0 0.15839207309433961 0.10550736800805539 0 0.17503238870283441 0.11050561364494491 0 0.16417220099380411 0.12505127510387981 0 0.15364605026385231 0.1227496740475859 0 0.15839207309433961 0.10550736800805539 0 0.16417220099380411 0.12505127510387981 0 0.17503238870283441 0.11050561364494491 0 0.18002451345814399 0.12716596121819479 0 0.16417220099380411 0.12505127510387981 0 0.17503238870283441 0.11050561364494491 0 0.18002451345814399 0.12716596121819479 0 0.2001236667938262 0.1180422718546187 0 0.17503238870283441 0.11050561364494491 0 0.1916307843626972 0.08827444688259839 0 0.1705578526620479 0.095927182961129481 0 0.17503238870283441 0.11050561364494491 0 0.1916307843626972 0.08827444688259839 0 0.17503238870283441 0.11050561364494491 0 0.1916307843626972 0.08827444688259839 0 0.17935943521264269 0.07135827912697662 0 0.16988015521188329 0.08282073200015258 0 0.1916307843626972 0.08827444688259839 0 0.1705578526620479 0.095927182961129481 0 0.16988015521188329 0.08282073200015258 0 0.19067723801237901 0.065525043857756982 0 0.1916307843626972 0.08827444688259839 0 0.17935943521264269 0.07135827912697662 0 0.19067723801237901 0.065525043857756982 0 0.17734631865053521 0.060730067185729229 0 0.17935943521264269 0.07135827912697662 0 0.17734631865053521 0.060730067185729229 0 0.17935943521264269 0.07135827912697662 0 0.1653937448538241 0.067538194789913991 0 0.17935943521264269 0.07135827912697662 0 0.1653937448538241 0.067538194789913991 0 0.16988015521188329 0.08282073200015258 0 0.15507694825043991 0.057889849327421902 0 0.15260580868734391 0.069203578475014266 0 0.1653937448538241 0.067538194789913991 0 0.15260580868734391 0.069203578475014266 0 0.1653937448538241 0.067538194789913991 0 0.15677919641446331 0.080277826610221981 0 0.1653937448538241 0.067538194789913991 0 0.15677919641446331 0.080277826610221981 0 0.16988015521188329 0.08282073200015258 0 0.15677919641446331 0.080277826610221981 0 0.157853861938485 0.092527754269896317 0 0.16988015521188329 0.08282073200015258 0 0.1705578526620479 0.095927182961129481 0 0.157853861938485 0.092527754269896317 0 0.16988015521188329 0.08282073200015258 0 0.099456207782380623 0.4822659283708195 0 0.1141892196830592 0.48396198267476093 0 0.11304725129434449 0.46767028325629811 0 0.099456207782380623 0.4822659283708195 0 0.11304725129434449 0.46767028325629811 0 0.096803680563272876 0.46646214520586099 0 0.099456207782380623 0.4822659283708195 0 0.10782601469385079 0.5 0 0.078267650747156567 0.50000000000000133 0 0.099456207782380623 0.4822659283708195 0 0.10782601469385079 0.5 0 0.1141892196830592 0.48396198267476093 0 0.10782601469385079 0.5 0 0.1249193769550877 0.49369376296818718 0 0.1141892196830592 0.48396198267476093 0 0.1249193769550877 0.49369376296818718 0 0.1141892196830592 0.48396198267476093 0 0.12569724768963239 0.47617993877849962 0 0.10782601469385079 0.5 0 0.1249193769550877 0.49369376296818718 0 0.13738437864054501 0.5 0 0.1141892196830592 0.48396198267476093 0 0.11304725129434449 0.46767028325629811 0 0.12569724768963239 0.47617993877849962 0 0.11304725129434449 0.46767028325629811 0 0.1267882431275838 0.46370707134437261 0 0.12569724768963239 0.47617993877849962 0 0.11304725129434449 0.46767028325629811 0 0.1221607865463437 0.4507156547582637 0 0.1004821270038239 0.44949914822431608 0 0.11304725129434449 0.46767028325629811 0 0.1221607865463437 0.4507156547582637 0 0.1267882431275838 0.46370707134437261 0 0.1221607865463437 0.4507156547582637 0 0.1004821270038239 0.44949914822431608 0 0.12259086230274099 0.42947812748907283 0 0.1004821270038239 0.44949914822431608 0 0.096803680563272876 0.46646214520586099 0 0.084307548883437972 0.45862843933572522 0 0.11304725129434449 0.46767028325629811 0 0.1004821270038239 0.44949914822431608 0 0.096803680563272876 0.46646214520586099 0 0.084307548883437972 0.45862843933572522 0 0.070120974899159305 0.46867166915081548 0 0.08254081050968877 0.47642281665818748 0 0.096803680563272876 0.46646214520586099 0 0.084307548883437972 0.45862843933572522 0 0.08254081050968877 0.47642281665818748 0 0.084307548883437972 0.45862843933572522 0 0.083205653112744402 0.44008551456546158 0 0.070599818540594342 0.45171728711773013 0 0.1004821270038239 0.44949914822431608 0 0.084307548883437972 0.45862843933572522 0 0.083205653112744402 0.44008551456546158 0 0.1004821270038239 0.44949914822431608 0 0.083205653112744402 0.44008551456546158 0 0.095892719888732866 0.42453745382262881 0 0.070599818540594342 0.45171728711773013 0 0.057347956450285731 0.44480695268810438 0 0.068330088192809502 0.43602814955066621 0 0.083205653112744402 0.44008551456546158 0 0.070599818540594342 0.45171728711773013 0 0.068330088192809502 0.43602814955066621 0 0.070599818540594342 0.45171728711773013 0 0.070120974899159305 0.46867166915081548 0 0.05832870883015126 0.45973880463956351 0 0.084307548883437972 0.45862843933572522 0 0.070599818540594342 0.45171728711773013 0 0.070120974899159305 0.46867166915081548 0 0.070120974899159305 0.46867166915081548 0 0.08254081050968877 0.47642281665818748 0 0.061557047466102868 0.48310025102256282 0 0.070120974899159305 0.46867166915081548 0 0.061557047466102868 0.48310025102256282 0 0.05832870883015126 0.45973880463956351 0 0.099456207782380623 0.4822659283708195 0 0.096803680563272876 0.46646214520586099 0 0.08254081050968877 0.47642281665818748 0 0.099456207782380623 0.4822659283708195 0 0.08254081050968877 0.47642281665818748 0 0.078267650747156567 0.50000000000000133 0 0.078267650747156567 0.50000000000000133 0 0.049166882519808157 0.5 0 0.061557047466102868 0.48310025102256282 0 0.08254081050968877 0.47642281665818748 0 0.078267650747156567 0.50000000000000133 0 0.061557047466102868 0.48310025102256282 0 0.078267650747156567 0.50000000000000133 0 0.061557047466102868 0.48310025102256282 0 0.049166882519808157 0.5 0 0.061557047466102868 0.48310025102256282 0 0.038208171894904559 0.48286056860770488 0 0.061557047466102868 0.48310025102256282 0 0.044846444185049857 0.46620050204512359 0 0.05832870883015126 0.45973880463956351 0 0.061557047466102868 0.48310025102256282 0 0.044846444185049857 0.46620050204512359 0 0.061557047466102868 0.48310025102256282 0 0.038208171894904559 0.48286056860770488 0 0.044846444185049857 0.46620050204512359 0 0.038208171894904559 0.48286056860770488 0 0.029572045059576241 0.469060477695939 0 0.044846444185049857 0.46620050204512359 0 0.049166882519808157 0.5 0 0.038208171894904559 0.48286056860770488 0 0.020066114292459799 0.5 0 0.038208171894904559 0.48286056860770488 0 0.020066114292459799 0.5 0 0.021055159894441029 0.48095839664786189 0 0.038208171894904559 0.48286056860770488 0 0.029572045059576241 0.469060477695939 0 0.021055159894441029 0.48095839664786189 0 0.029572045059576241 0.469060477695939 0 0.021055159894441029 0.48095839664786189 0 0.01561460841948897 0.46598216811131982 0 0.021055159894441029 0.48095839664786189 0 0.0030933759349822849 0.48266358315495572 0 0.01561460841948897 0.46598216811131982 0 0.0030933759349822849 0.48266358315495572 0 0.01561460841948897 0.46598216811131982 0 0.0036787250480955699 0.47408322248379448 0 0.0030933759349822849 0.48266358315495572 0 0.01561460841948897 0.46598216811131982 0 -0.0016340076521478781 0.48633642657919801 0 0.0036787250480955699 0.47408322248379448 0 0.0030933759349822849 0.48266358315495572 0 0.020066114292459799 0.5 0 0.021055159894441029 0.48095839664786189 0 0.0030933759349822849 0.48266358315495572 0 -0.0090346539348886701 0.5 0 -0.0016340076521478781 0.48633642657919801 0 0.020066114292459799 0.5 0 -0.0016340076521478781 0.48633642657919801 0 0.020066114292459799 0.5 0 0.0030933759349822849 0.48266358315495572 0 -0.0030841453677343121 0.43636499760021141 0 -0.002359076509941094 0.46135071208970457 0 0.010470448459028871 0.45111158928184719 0 -0.0030841453677343121 0.43636499760021141 0 0.010470448459028871 0.45111158928184719 0 0.017893296784651399 0.43894227458572882 0 -0.002359076509941094 0.46135071208970457 0 0.010470448459028871 0.45111158928184719 0 0.01561460841948897 0.46598216811131982 0 -0.002359076509941094 0.46135071208970457 0 0.0036787250480955699 0.47408322248379448 0 0.01561460841948897 0.46598216811131982 0 0.010470448459028871 0.45111158928184719 0 0.01561460841948897 0.46598216811131982 0 0.0281358409039968 0.44930075306768458 0 0.029572045059576241 0.469060477695939 0 0.01561460841948897 0.46598216811131982 0 0.0281358409039968 0.44930075306768458 0 0.01561460841948897 0.46598216811131982 0 0.0281358409039968 0.44930075306768458 0 0.010470448459028871 0.45111158928184719 0 0.0281358409039968 0.44930075306768458 0 0.017893296784651399 0.43894227458572882 0 0.0281358409039968 0.44930075306768458 0 0.017893296784651399 0.43894227458572882 0 0.03800042812263172 0.43615865433005307 0 0.0281358409039968 0.44930075306768458 0 0.017893296784651399 0.43894227458572882 0 0.0281358409039968 0.44930075306768458 0 0.04587361322417214 0.448769157871174 0 0.03800042812263172 0.43615865433005307 0 0.0281358409039968 0.44930075306768458 0 0.03800042812263172 0.43615865433005307 0 0.04587361322417214 0.448769157871174 0 0.049411209704934803 0.43621283219101809 0 0.03800042812263172 0.43615865433005307 0 0.029572045059576241 0.469060477695939 0 0.0281358409039968 0.44930075306768458 0 0.044846444185049857 0.46620050204512359 0 0.0281358409039968 0.44930075306768458 0 0.04587361322417214 0.448769157871174 0 0.044846444185049857 0.46620050204512359 0 0.0281358409039968 0.44930075306768458 0 0.044846444185049857 0.46620050204512359 0 0.04587361322417214 0.448769157871174 0 0.044846444185049857 0.46620050204512359 0 0.05832870883015126 0.45973880463956351 0 0.04587361322417214 0.448769157871174 0 0.057347956450285731 0.44480695268810438 0 0.049411209704934803 0.43621283219101809 0 0.04587361322417214 0.448769157871174 0 0.05832870883015126 0.45973880463956351 0 0.057347956450285731 0.44480695268810438 0 0.070599818540594342 0.45171728711773013 0 0.05832870883015126 0.45973880463956351 0 0.057347956450285731 0.44480695268810438 0 0.057347956450285731 0.44480695268810438 0 0.058238482531349368 0.43512174465279091 0 0.068330088192809502 0.43602814955066621 0 0.057347956450285731 0.44480695268810438 0 0.058238482531349368 0.43512174465279091 0 0.049411209704934803 0.43621283219101809 0 0.058238482531349368 0.43512174465279091 0 0.05412352915042095 0.42739076434297479 0 0.063786863135573219 0.4234822836218442 0 0.05412352915042095 0.42739076434297479 0 0.047865015341267358 0.42301655559242213 0 0.049411209704934803 0.43621283219101809 0 0.05412352915042095 0.42739076434297479 0 0.047865015341267358 0.42301655559242213 0 0.058238482531349368 0.43512174465279091 0 0.05412352915042095 0.42739076434297479 0 0.049411209704934803 0.43621283219101809 0 0.047865015341267358 0.42301655559242213 0 0.055388731832649349 0.41299308245440008 0 0.044385004541519633 0.40583709082877739 0 0.055388731832649349 0.41299308245440008 0 0.057103340742871267 0.4006394318358022 0 0.0691327228978319 0.40699071288372829 0 0.05412352915042095 0.42739076434297479 0 0.055388731832649349 0.41299308245440008 0 0.063786863135573219 0.4234822836218442 0 0.047865015341267358 0.42301655559242213 0 0.055388731832649349 0.41299308245440008 0 0.05412352915042095 0.42739076434297479 0 0.047865015341267358 0.42301655559242213 0 0.055388731832649349 0.41299308245440008 0 0.055388731832649349 0.41299308245440008 0 0.044385004541519633 0.40583709082877739 0 0.057103340742871267 0.4006394318358022 0 0.047865015341267358 0.42301655559242213 0 0.030398582533070099 0.41080889326869052 0 0.044385004541519633 0.40583709082877739 0 0.047865015341267358 0.42301655559242213 0 0.035686717363660143 0.42423985257235269 0 0.030398582533070099 0.41080889326869052 0 0.047865015341267358 0.42301655559242213 0 0.030398582533070099 0.41080889326869052 0 0.047865015341267358 0.42301655559242213 0 0.049411209704934803 0.43621283219101809 0 0.03800042812263172 0.43615865433005307 0 0.047865015341267358 0.42301655559242213 0 0.03800042812263172 0.43615865433005307 0 0.047865015341267358 0.42301655559242213 0 0.035686717363660143 0.42423985257235269 0 0.03800042812263172 0.43615865433005307 0 0.035686717363660143 0.42423985257235269 0 0.03800042812263172 0.43615865433005307 0 0.0264828434576714 0.42697530709824522 0 0.017893296784651399 0.43894227458572882 0 0.0264828434576714 0.42697530709824522 0 0.013451351612083251 0.42022136891186163 0 0.017893296784651399 0.43894227458572882 0 0.03800042812263172 0.43615865433005307 0 0.0264828434576714 0.42697530709824522 0 0.030398582533070099 0.41080889326869052 0 0.013451351612083251 0.42022136891186163 0 0.012932149724872831 0.39860123094495892 0 0.0264828434576714 0.42697530709824522 0 0.030398582533070099 0.41080889326869052 0 0.013451351612083251 0.42022136891186163 0 0.035686717363660143 0.42423985257235269 0 0.0264828434576714 0.42697530709824522 0 0.030398582533070099 0.41080889326869052 0 -0.0038092142255275289 0.41137928311071797 0 0.013451351612083251 0.42022136891186163 0 0.012932149724872831 0.39860123094495892 0 -0.0030841453677343121 0.43636499760021141 0 0.017893296784651399 0.43894227458572882 0 0.013451351612083251 0.42022136891186163 0 -0.0030841453677343121 0.43636499760021141 0 -0.0038092142255275289 0.41137928311071797 0 0.013451351612083251 0.42022136891186163 0 -0.0045342830833226501 0.3863935686212247 0 0.012932149724872831 0.39860123094495892 0 0.0079023355216259559 0.37348921158265391 0 0.012932149724872831 0.39860123094495892 0 0.025375843575522711 0.38021681034322929 0 0.0079023355216259559 0.37348921158265391 0 -0.0045342830833226501 0.3863935686212247 0 0.012932149724872831 0.39860123094495892 0 -0.0045342830833226501 0.3863935686212247 0 -0.0038092142255275289 0.41137928311071797 0 0.012932149724872831 0.39860123094495892 0 0.030398582533070099 0.41080889326869052 0 0.012932149724872831 0.39860123094495892 0 0.030398582533070099 0.41080889326869052 0 0.012932149724872831 0.39860123094495892 0 0.030218872497922818 0.39559608178221078 0 0.012932149724872831 0.39860123094495892 0 0.030218872497922818 0.39559608178221078 0 0.025375843575522711 0.38021681034322929 0 0.025375843575522711 0.38021681034322929 0 0.045236422390978262 0.39339421550307069 0 0.045418656597819553 0.37354288132317159 0 0.030218872497922818 0.39559608178221078 0 0.025375843575522711 0.38021681034322929 0 0.045236422390978262 0.39339421550307069 0 0.030398582533070099 0.41080889326869052 0 0.030218872497922818 0.39559608178221078 0 0.044385004541519633 0.40583709082877739 0 0.030218872497922818 0.39559608178221078 0 0.045236422390978262 0.39339421550307069 0 0.044385004541519633 0.40583709082877739 0 0.045236422390978262 0.39339421550307069 0 0.057103340742871267 0.4006394318358022 0 0.06607043693335328 0.38973814947632979 0 0.045236422390978262 0.39339421550307069 0 0.044385004541519633 0.40583709082877739 0 0.057103340742871267 0.4006394318358022 0 0.045236422390978262 0.39339421550307069 0 0.06607043693335328 0.38973814947632979 0 0.045418656597819553 0.37354288132317159 0 0.06607043693335328 0.38973814947632979 0 0.066778362586220691 0.36264744131756171 0 0.045418656597819553 0.37354288132317159 0 0.06607043693335328 0.38973814947632979 0 0.086713905658550791 0.37461406501925459 0 0.066778362586220691 0.36264744131756171 0 0.091303312773641829 0.3995757594209417 0 0.1025776524751303 0.38486691706586951 0 0.086713905658550791 0.37461406501925459 0 0.06607043693335328 0.38973814947632979 0 0.091303312773641829 0.3995757594209417 0 0.086713905658550791 0.37461406501925459 0 0.091303312773641829 0.3995757594209417 0 0.086713905658550791 0.37461406501925459 0 0.06607043693335328 0.38973814947632979 0 0.091303312773641829 0.3995757594209417 0 0.0691327228978319 0.40699071288372829 0 0.057103340742871267 0.4006394318358022 0 0.06607043693335328 0.38973814947632979 0 0.0691327228978319 0.40699071288372829 0 0.055388731832649349 0.41299308245440008 0 0.0691327228978319 0.40699071288372829 0 0.063786863135573219 0.4234822836218442 0 0.0691327228978319 0.40699071288372829 0 0.077714875811277062 0.4214876261871765 0 0.063786863135573219 0.4234822836218442 0 0.083205653112744402 0.44008551456546158 0 0.077714875811277062 0.4214876261871765 0 0.068330088192809502 0.43602814955066621 0 0.058238482531349368 0.43512174465279091 0 0.068330088192809502 0.43602814955066621 0 0.063786863135573219 0.4234822836218442 0 0.077714875811277062 0.4214876261871765 0 0.068330088192809502 0.43602814955066621 0 0.063786863135573219 0.4234822836218442 0 0.083205653112744402 0.44008551456546158 0 0.077714875811277062 0.4214876261871765 0 0.095892719888732866 0.42453745382262881 0 0.091303312773641829 0.3995757594209417 0 0.0691327228978319 0.40699071288372829 0 0.077714875811277062 0.4214876261871765 0 0.091303312773641829 0.3995757594209417 0 0.095892719888732866 0.42453745382262881 0 0.091303312773641829 0.3995757594209417 0 0.077714875811277062 0.4214876261871765 0 0.095892719888732866 0.42453745382262881 0 0.091303312773641829 0.3995757594209417 0 0.095892719888732866 0.42453745382262881 0 0.115428724103706 0.40267530492779557 0 0.1004821270038239 0.44949914822431608 0 0.095892719888732866 0.42453745382262881 0 0.12259086230274099 0.42947812748907283 0 0.1004821270038239 0.44949914822431608 0 0.095892719888732866 0.42453745382262881 0 0.095892719888732866 0.42453745382262881 0 0.12259086230274099 0.42947812748907283 0 0.115428724103706 0.40267530492779557 0 0.115428724103706 0.40267530492779557 0 0.119448870245615 0.38256434187866972 0 0.13692284990477191 0.38930777957628943 0 0.119448870245615 0.38256434187866972 0 0.1025776524751303 0.38486691706586951 0 0.1087205780393706 0.3656269003386084 0 0.115428724103706 0.40267530492779557 0 0.119448870245615 0.38256434187866972 0 0.1025776524751303 0.38486691706586951 0 0.1025776524751303 0.38486691706586951 0 0.1087205780393706 0.3656269003386084 0 0.086713905658550791 0.37461406501925459 0 0.091303312773641829 0.3995757594209417 0 0.115428724103706 0.40267530492779557 0 0.1025776524751303 0.38486691706586951 0 0.1087205780393706 0.3656269003386084 0 0.1202868522871179 0.34060046584014031 0 0.0915497208986496 0.34709204532757532 0 0.1087205780393706 0.3656269003386084 0 0.0915497208986496 0.34709204532757532 0 0.086713905658550791 0.37461406501925459 0 0.119448870245615 0.38256434187866972 0 0.1087205780393706 0.3656269003386084 0 0.13274728415341139 0.36410634055334368 0 0.1087205780393706 0.3656269003386084 0 0.1202868522871179 0.34060046584014031 0 0.13274728415341139 0.36410634055334368 0 0.1202868522871179 0.34060046584014031 0 0.1104734498024164 0.31171603628350752 0 0.14183880654046921 0.32250528078568202 0 0.1202868522871179 0.34060046584014031 0 0.1016552612267161 0.33013161519950079 0 0.1104734498024164 0.31171603628350752 0 0.1016552612267161 0.33013161519950079 0 0.081254576285268804 0.3210829637434266 0 0.1104734498024164 0.31171603628350752 0 0.1202868522871179 0.34060046584014031 0 0.1016552612267161 0.33013161519950079 0 0.0915497208986496 0.34709204532757532 0 0.081254576285268804 0.3210829637434266 0 0.072654821413094289 0.33942743407960763 0 0.0915497208986496 0.34709204532757532 0 0.1016552612267161 0.33013161519950079 0 0.081254576285268804 0.3210829637434266 0 0.0915497208986496 0.34709204532757532 0 0.081254576285268804 0.3210829637434266 0 0.06358813508901956 0.32234581427363851 0 0.071244474661197085 0.3036312559279935 0 0.081254576285268804 0.3210829637434266 0 0.06358813508901956 0.32234581427363851 0 0.072654821413094289 0.33942743407960763 0 0.06358813508901956 0.32234581427363851 0 0.072654821413094289 0.33942743407960763 0 0.055199983679349987 0.34246375673151652 0 0.072654821413094289 0.33942743407960763 0 0.066778362586220691 0.36264744131756171 0 0.055199983679349987 0.34246375673151652 0 0.072654821413094289 0.33942743407960763 0 0.0915497208986496 0.34709204532757532 0 0.066778362586220691 0.36264744131756171 0 0.0915497208986496 0.34709204532757532 0 0.086713905658550791 0.37461406501925459 0 0.066778362586220691 0.36264744131756171 0 0.066778362586220691 0.36264744131756171 0 0.044951457965310811 0.3555124197003488 0 0.045418656597819553 0.37354288132317159 0 0.066778362586220691 0.36264744131756171 0 0.044951457965310811 0.3555124197003488 0 0.055199983679349987 0.34246375673151652 0 0.044951457965310811 0.3555124197003488 0 0.021903196078839001 0.35746348141110651 0 0.035457090884324839 0.34144453771838768 0 0.044951457965310811 0.3555124197003488 0 0.035457090884324839 0.34144453771838768 0 0.055199983679349987 0.34246375673151652 0 0.044951457965310811 0.3555124197003488 0 0.045418656597819553 0.37354288132317159 0 0.021903196078839001 0.35746348141110651 0 0.025375843575522711 0.38021681034322929 0 0.021903196078839001 0.35746348141110651 0 0.0079023355216259559 0.37348921158265391 0 0.025375843575522711 0.38021681034322929 0 0.045418656597819553 0.37354288132317159 0 0.021903196078839001 0.35746348141110651 0 0.021903196078839001 0.35746348141110651 0 0.017151683724365509 0.3376665205351736 0 0.035457090884324839 0.34144453771838768 0 0.021903196078839001 0.35746348141110651 0 0.0095650341834115256 0.34490192427506011 0 0.017151683724365509 0.3376665205351736 0 0.021903196078839001 0.35746348141110651 0 0.0095650341834115256 0.34490192427506011 0 0.0061318462344260851 0.35417601161121459 0 -0.0050552824635438226 0.34569829691311771 0 0.0095650341834115256 0.34490192427506011 0 0.0061318462344260851 0.35417601161121459 0 0.021903196078839001 0.35746348141110651 0 0.0061318462344260851 0.35417601161121459 0 0.0079023355216259559 0.37348921158265391 0 -0.0052616759920083916 0.36132776784546622 0 0.0061318462344260851 0.35417601161121459 0 0.0079023355216259559 0.37348921158265391 0 0.0087281755863181168 0.33049580891976171 0 0.020410497070949891 0.30832150289807031 0 0.0056044744337335906 0.31412092038659428 0 0.0087281755863181168 0.33049580891976171 0 0.020410497070949891 0.30832150289807031 0 -0.003280447873963227 0.32161399115684158 0 0.0056044744337335906 0.31412092038659428 0 0.0087281755863181168 0.33049580891976171 0 0.0064742168078369342 0.3347740657525386 0 0.0087281755863181168 0.33049580891976171 0 -0.0050552824635438226 0.34569829691311771 0 0.0095650341834115256 0.34490192427506011 0 0.0064742168078369342 0.3347740657525386 0 0.0095650341834115256 0.34490192427506011 0 0.0064742168078369342 0.3347740657525386 0 0.017151683724365509 0.3376665205351736 0 0.0064742168078369342 0.3347740657525386 0 0.0087281755863181168 0.33049580891976171 0 0.017151683724365509 0.3376665205351736 0 0.0087281755863181168 0.33049580891976171 0 0.025353163704189718 0.33024288796319817 0 0.017151683724365509 0.3376665205351736 0 0.0087281755863181168 0.33049580891976171 0 0.025353163704189718 0.33024288796319817 0 0.025353163704189718 0.33024288796319817 0 0.017151683724365509 0.3376665205351736 0 0.035457090884324839 0.34144453771838768 0 0.0087281755863181168 0.33049580891976171 0 0.025353163704189718 0.33024288796319817 0 0.020410497070949891 0.30832150289807031 0 0.025353163704189718 0.33024288796319817 0 0.038017806832533571 0.30672300381527179 0 0.020410497070949891 0.30832150289807031 0 0.025353163704189718 0.33024288796319817 0 0.045812945845809312 0.32351293560108041 0 0.038017806832533571 0.30672300381527179 0 0.025353163704189718 0.33024288796319817 0 0.045812945845809312 0.32351293560108041 0 0.035457090884324839 0.34144453771838768 0 0.045812945845809312 0.32351293560108041 0 0.035457090884324839 0.34144453771838768 0 0.055199983679349987 0.34246375673151652 0 0.06358813508901956 0.32234581427363851 0 0.045812945845809312 0.32351293560108041 0 0.055199983679349987 0.34246375673151652 0 0.06358813508901956 0.32234581427363851 0 0.045812945845809312 0.32351293560108041 0 0.055148108477292443 0.3057593846019967 0 0.055148108477292443 0.3057593846019967 0 0.047586914097201803 0.29032131063477928 0 0.038017806832533571 0.30672300381527179 0 0.055148108477292443 0.3057593846019967 0 0.047586914097201803 0.29032131063477928 0 0.066935962560195753 0.28615893812798288 0 0.047586914097201803 0.29032131063477928 0 0.050578246113349837 0.27455429857722041 0 0.066935962560195753 0.28615893812798288 0 0.047586914097201803 0.29032131063477928 0 0.032092818555581597 0.28614719687637868 0 0.038017806832533571 0.30672300381527179 0 0.047586914097201803 0.29032131063477928 0 0.032092818555581597 0.28614719687637868 0 0.050578246113349837 0.27455429857722041 0 0.045812945845809312 0.32351293560108041 0 0.055148108477292443 0.3057593846019967 0 0.038017806832533571 0.30672300381527179 0 0.032092818555581597 0.28614719687637868 0 0.038017806832533571 0.30672300381527179 0 0.020410497070949891 0.30832150289807031 0 0.032092818555581597 0.28614719687637868 0 0.020410497070949891 0.30832150289807031 0 0.032092818555581597 0.28614719687637868 0 0.020410497070949891 0.30832150289807031 0 0.0083336089875100904 0.29343585490586271 0 0.032092818555581597 0.28614719687637868 0 0.0083336089875100904 0.29343585490586271 0 0.021382191810826279 0.2686960609189637 0 -0.0088759444352828343 0.31092800175718183 0 0.0056044744337335906 0.31412092038659428 0 0.0083336089875100904 0.29343585490586271 0 0.0056044744337335906 0.31412092038659428 0 0.020410497070949891 0.30832150289807031 0 0.0083336089875100904 0.29343585490586271 0 0.0073806355134042019 0.25529449578482938 0 3.3590645499582607e-05 0.27236849017123349 0 0.021382191810826279 0.2686960609189637 0 0.0083336089875100904 0.29343585490586271 0 3.3590645499582607e-05 0.27236849017123349 0 0.021382191810826279 0.2686960609189637 0 0.025149977659741599 0.24684982625080901 0 0.0073806355134042019 0.25529449578482938 0 0.021382191810826279 0.2686960609189637 0 0.025149977659741599 0.24684982625080901 0 0.021382191810826279 0.2686960609189637 0 0.043775140040213267 0.26397289085468728 0 0.025149977659741599 0.24684982625080901 0 0.045472231705318063 0.24424317023843681 0 0.050158093690384618 0.2598810672441918 0 0.025149977659741599 0.24684982625080901 0 0.050158093690384618 0.2598810672441918 0 0.025149977659741599 0.24684982625080901 0 0.043775140040213267 0.26397289085468728 0 0.050158093690384618 0.2598810672441918 0 0.032092818555581597 0.28614719687637868 0 0.043775140040213267 0.26397289085468728 0 0.032092818555581597 0.28614719687637868 0 0.021382191810826279 0.2686960609189637 0 0.043775140040213267 0.26397289085468728 0 0.032092818555581597 0.28614719687637868 0 0.043775140040213267 0.26397289085468728 0 0.050578246113349837 0.27455429857722041 0 0.050578246113349837 0.27455429857722041 0 0.063875668081316214 0.2678607518654692 0 0.066935962560195753 0.28615893812798288 0 0.043775140040213267 0.26397289085468728 0 0.050578246113349837 0.27455429857722041 0 0.050158093690384618 0.2598810672441918 0 0.050578246113349837 0.27455429857722041 0 0.056046126259945157 0.25263236173372139 0 0.063875668081316214 0.2678607518654692 0 0.050578246113349837 0.27455429857722041 0 0.050158093690384618 0.2598810672441918 0 0.056046126259945157 0.25263236173372139 0 0.045472231705318063 0.24424317023843681 0 0.050158093690384618 0.2598810672441918 0 0.056046126259945157 0.25263236173372139 0 0.050578246113349837 0.27455429857722041 0 0.056046126259945157 0.25263236173372139 0 0.078525547080241467 0.2465942846531784 0 0.067905867336300579 0.25358800162702 0 0.079567988853459573 0.27014218499250892 0 0.067905867336300579 0.25358800162702 0 0.079567988853459573 0.27014218499250892 0 0.063875668081316214 0.2678607518654692 0 0.056046126259945157 0.25263236173372139 0 0.067905867336300579 0.25358800162702 0 0.063875668081316214 0.2678607518654692 0 0.078525547080241467 0.2465942846531784 0 0.079567988853459573 0.27014218499250892 0 0.093798877441032588 0.2579700649065903 0 0.079567988853459573 0.27014218499250892 0 0.063875668081316214 0.2678607518654692 0 0.066935962560195753 0.28615893812798288 0 0.079567988853459573 0.27014218499250892 0 0.066935962560195753 0.28615893812798288 0 0.087430381393448858 0.29852998767476718 0 0.066935962560195753 0.28615893812798288 0 0.071244474661197085 0.3036312559279935 0 0.087430381393448858 0.29852998767476718 0 0.055148108477292443 0.3057593846019967 0 0.066935962560195753 0.28615893812798288 0 0.071244474661197085 0.3036312559279935 0 0.06358813508901956 0.32234581427363851 0 0.055148108477292443 0.3057593846019967 0 0.071244474661197085 0.3036312559279935 0 0.081254576285268804 0.3210829637434266 0 0.087430381393448858 0.29852998767476718 0 0.1104734498024164 0.31171603628350752 0 0.081254576285268804 0.3210829637434266 0 0.071244474661197085 0.3036312559279935 0 0.087430381393448858 0.29852998767476718 0 0.079567988853459573 0.27014218499250892 0 0.087430381393448858 0.29852998767476718 0 0.1079828451826004 0.27738565586056829 0 0.087430381393448858 0.29852998767476718 0 0.1104734498024164 0.31171603628350752 0 0.1079828451826004 0.27738565586056829 0 0.1104734498024164 0.31171603628350752 0 0.1079828451826004 0.27738565586056829 0 0.13401849175413849 0.29214957311260448 0 0.1079828451826004 0.27738565586056829 0 0.13401849175413849 0.29214957311260448 0 0.1100607559553454 0.25396994184181759 0 0.1079828451826004 0.27738565586056829 0 0.13366986361514199 0.26692500362740812 0 0.12787711237058769 0.24521089126939841 0 0.1100607559553454 0.25396994184181759 0 0.13366986361514199 0.26692500362740812 0 0.092857250133516089 0.24175825718487831 0 0.1100607559553454 0.25396994184181759 0 0.093798877441032588 0.2579700649065903 0 0.1100607559553454 0.25396994184181759 0 0.093798877441032588 0.2579700649065903 0 0.1079828451826004 0.27738565586056829 0 0.079567988853459573 0.27014218499250892 0 0.093798877441032588 0.2579700649065903 0 0.1079828451826004 0.27738565586056829 0 0.13366986361514199 0.26692500362740812 0 0.1558685034792309 0.28595093384994291 0 0.15959452244756481 0.26367036214955358 0 0.14702044576598061 0.2478904659134552 0 0.13366986361514199 0.26692500362740812 0 0.15959452244756481 0.26367036214955358 0 0.14702044576598061 0.2478904659134552 0 0.12787711237058769 0.24521089126939841 0 0.13366986361514199 0.26692500362740812 0 0.1079828451826004 0.27738565586056829 0 0.13366986361514199 0.26692500362740812 0 0.13401849175413849 0.29214957311260448 0 0.1104734498024164 0.31171603628350752 0 0.13401849175413849 0.29214957311260448 0 0.14183880654046921 0.32250528078568202 0 0.13401849175413849 0.29214957311260448 0 0.16005413832567669 0.30691349036464077 0 0.14183880654046921 0.32250528078568202 0 0.13401849175413849 0.29214957311260448 0 0.16005413832567669 0.30691349036464077 0 0.13401849175413849 0.29214957311260448 0 0.1558685034792309 0.28595093384994291 0 0.16005413832567669 0.30691349036464077 0 0.13366986361514199 0.26692500362740812 0 0.13401849175413849 0.29214957311260448 0 0.1558685034792309 0.28595093384994291 0 0.1558685034792309 0.28595093384994291 0 0.1700220001876428 0.28782965529906401 0 0.16005413832567669 0.30691349036464077 0 0.1558685034792309 0.28595093384994291 0 0.1700220001876428 0.28782965529906401 0 0.17370236977615991 0.27502287964280692 0 0.1700220001876428 0.28782965529906401 0 0.16005413832567669 0.30691349036464077 0 0.1764196225356903 0.29880027385689728 0 0.16005413832567669 0.30691349036464077 0 0.1764196225356903 0.29880027385689728 0 0.18686192329242929 0.31378732528256248 0 0.1764196225356903 0.29880027385689728 0 0.18674031124236579 0.30201460306836742 0 0.19086383386244751 0.2907864273273883 0 0.1764196225356903 0.29880027385689728 0 0.18674031124236579 0.30201460306836742 0 0.18686192329242929 0.31378732528256248 0 0.1700220001876428 0.28782965529906401 0 0.18013512871176271 0.28566990799825959 0 0.17370236977615991 0.27502287964280692 0 0.1700220001876428 0.28782965529906401 0 0.1764196225356903 0.29880027385689728 0 0.18013512871176271 0.28566990799825959 0 0.1764196225356903 0.29880027385689728 0 0.18013512871176271 0.28566990799825959 0 0.19086383386244751 0.2907864273273883 0 0.18013512871176271 0.28566990799825959 0 0.1896678171968729 0.27591030386514148 0 0.19086383386244751 0.2907864273273883 0 0.18251379545819379 0.26835647973838378 0 0.17370236977615991 0.27502287964280692 0 0.1896678171968729 0.27591030386514148 0 0.18013512871176271 0.28566990799825959 0 0.17370236977615991 0.27502287964280692 0 0.1896678171968729 0.27591030386514148 0 0.18251379545819379 0.26835647973838378 0 0.17370236977615991 0.27502287964280692 0 0.17699066645021869 0.2595722272450377 0 0.17370236977615991 0.27502287964280692 0 0.15959452244756481 0.26367036214955358 0 0.17699066645021869 0.2595722272450377 0 0.1558685034792309 0.28595093384994291 0 0.17370236977615991 0.27502287964280692 0 0.15959452244756481 0.26367036214955358 0 0.16774616909827719 0.2460930353984315 0 0.15959452244756481 0.26367036214955358 0 0.17699066645021869 0.2595722272450377 0 0.14702044576598061 0.2478904659134552 0 0.16774616909827719 0.2460930353984315 0 0.15959452244756481 0.26367036214955358 0 0.18692125413578081 0.24552837502103991 0 0.16774616909827719 0.2460930353984315 0 0.17699066645021869 0.2595722272450377 0 0.18692125413578081 0.24552837502103991 0 0.17699066645021869 0.2595722272450377 0 0.19242781921148469 0.26384338938458129 0 0.18251379545819379 0.26835647973838378 0 0.17699066645021869 0.2595722272450377 0 0.19242781921148469 0.26384338938458129 0 0.18692125413578081 0.24552837502103991 0 0.19242781921148469 0.26384338938458129 0 0.20107379594449931 0.25686311186437227 0 0.18692125413578081 0.24552837502103991 0 0.20107379594449931 0.25686311186437227 0 0.19242781921148469 0.26384338938458129 0 0.20107379594449931 0.25686311186437227 0 0.2008998280478862 0.26959186196165702 0 0.19242781921148469 0.26384338938458129 0 0.20107379594449931 0.25686311186437227 0 0.19242781921148469 0.26384338938458129 0 0.1896678171968729 0.27591030386514148 0 0.2008998280478862 0.26959186196165702 0 0.18251379545819379 0.26835647973838378 0 0.19242781921148469 0.26384338938458129 0 0.1896678171968729 0.27591030386514148 0 0.1896678171968729 0.27591030386514148 0 0.2008998280478862 0.26959186196165702 0 0.20354188417430641 0.281093168015905 0 0.2008998280478862 0.26959186196165702 0 0.2177878237122676 0.27024933667828532 0 0.20354188417430641 0.281093168015905 0 0.2177878237122676 0.27024933667828532 0 0.20354188417430641 0.281093168015905 0 0.2166033006779626 0.28924568688104418 0 0.21557305570370441 0.24515722135805329 0 0.20107379594449931 0.25686311186437227 0 0.2177878237122676 0.27024933667828532 0 0.20107379594449931 0.25686311186437227 0 0.2177878237122676 0.27024933667828532 0 0.20107379594449931 0.25686311186437227 0 0.2008998280478862 0.26959186196165702 0 0.2177878237122676 0.27024933667828532 0 0.21557305570370441 0.24515722135805329 0 0.20107379594449931 0.25686311186437227 0 0.21557305570370441 0.24515722135805329 0 0.2177878237122676 0.27024933667828532 0 0.23628031136540401 0.25597328662156199 0 0.2177878237122676 0.27024933667828532 0 0.23628031136540401 0.25597328662156199 0 0.23450185148003599 0.28363556149219821 0 0.2177878237122676 0.27024933667828532 0 0.23450185148003599 0.28363556149219821 0 0.2166033006779626 0.28924568688104418 0 0.2177878237122676 0.27024933667828532 0 0.23450185148003599 0.28363556149219821 0 0.23628031136540401 0.25597328662156199 0 0.23450185148003599 0.28363556149219821 0 0.25102838231212438 0.26850893423506528 0 0.23450185148003599 0.28363556149219821 0 0.25953152444998728 0.28294166139542631 0 0.25102838231212438 0.26850893423506528 0 0.23628031136540401 0.25597328662156199 0 0.25102838231212438 0.26850893423506528 0 0.26221447651104962 0.2479993693513689 0 0.2297645605960125 0.30261029929826411 0 0.25121587924780342 0.29702178630611242 0 0.2484846271056145 0.31037308609574782 0 0.2297645605960125 0.30261029929826411 0 0.23798581837376781 0.31938142953188831 0 0.2484846271056145 0.31037308609574782 0 0.2297645605960125 0.30261029929826411 0 0.25121587924780342 0.29702178630611242 0 0.23450185148003599 0.28363556149219821 0 0.2297645605960125 0.30261029929826411 0 0.25121587924780342 0.29702178630611242 0 0.23450185148003599 0.28363556149219821 0 0.25121587924780342 0.29702178630611242 0 0.23450185148003599 0.28363556149219821 0 0.25953152444998728 0.28294166139542631 0 0.25121587924780342 0.29702178630611242 0 0.23450185148003599 0.28363556149219821 0 0.2297645605960125 0.30261029929826411 0 0.2166033006779626 0.28924568688104418 0 0.2297645605960125 0.30261029929826411 0 0.20831324194422091 0.30819881229041318 0 0.2297645605960125 0.30261029929826411 0 0.20831324194422091 0.30819881229041318 0 0.21977364325038071 0.31928170538083578 0 0.20831324194422091 0.30819881229041318 0 0.2166033006779626 0.28924568688104418 0 0.20288664267638859 0.29424953150154581 0 0.2297645605960125 0.30261029929826411 0 0.20831324194422091 0.30819881229041318 0 0.2166033006779626 0.28924568688104418 0 0.20354188417430641 0.281093168015905 0 0.2166033006779626 0.28924568688104418 0 0.20288664267638859 0.29424953150154581 0 0.20354188417430641 0.281093168015905 0 0.20288664267638859 0.29424953150154581 0 0.19086383386244751 0.2907864273273883 0 0.20288664267638859 0.29424953150154581 0 0.19086383386244751 0.2907864273273883 0 0.19511095272300569 0.3019235629929784 0 0.1896678171968729 0.27591030386514148 0 0.20354188417430641 0.281093168015905 0 0.19086383386244751 0.2907864273273883 0 0.20831324194422091 0.30819881229041318 0 0.18686192329242929 0.31378732528256248 0 0.20831324194422091 0.30819881229041318 0 0.19511095272300569 0.3019235629929784 0 0.18686192329242929 0.31378732528256248 0 0.20831324194422091 0.30819881229041318 0 0.20288664267638859 0.29424953150154581 0 0.19511095272300569 0.3019235629929784 0 0.18674031124236579 0.30201460306836742 0 0.19086383386244751 0.2907864273273883 0 0.19511095272300569 0.3019235629929784 0 0.18674031124236579 0.30201460306836742 0 0.19511095272300569 0.3019235629929784 0 0.18686192329242929 0.31378732528256248 0 0.20141288137377081 0.31920030670374799 0 0.18686192329242929 0.31378732528256248 0 0.18608978489721489 0.32167740761667712 0 0.20831324194422091 0.30819881229041318 0 0.20141288137377081 0.31920030670374799 0 0.18686192329242929 0.31378732528256248 0 0.20141288137377081 0.31920030670374799 0 0.21212543146875301 0.33644132486871342 0 0.18608978489721489 0.32167740761667712 0 0.21212543146875301 0.33644132486871342 0 0.18608978489721489 0.32167740761667712 0 0.19231113454718349 0.34165597013868199 0 0.21212543146875301 0.33644132486871342 0 0.18608978489721489 0.32167740761667712 0 0.20831324194422091 0.30819881229041318 0 0.20141288137377081 0.31920030670374799 0 0.21977364325038071 0.31928170538083578 0 0.20141288137377081 0.31920030670374799 0 0.21212543146875301 0.33644132486871342 0 0.21977364325038071 0.31928170538083578 0 0.21977364325038071 0.31928170538083578 0 0.2290399257457596 0.32985805959198788 0 0.23798581837376781 0.31938142953188831 0 0.2297645605960125 0.30261029929826411 0 0.21977364325038071 0.31928170538083578 0 0.23798581837376781 0.31938142953188831 0 0.21212543146875301 0.33644132486871342 0 0.21977364325038071 0.31928170538083578 0 0.2290399257457596 0.32985805959198788 0 0.21212543146875301 0.33644132486871342 0 0.23060518033342339 0.33807106122714048 0 0.2290399257457596 0.32985805959198788 0 0.21212543146875301 0.33644132486871342 0 0.23060518033342339 0.33807106122714048 0 0.23816107804029091 0.35120524212074949 0 0.23060518033342339 0.33807106122714048 0 0.2290399257457596 0.32985805959198788 0 0.2430942860788903 0.33477961832711151 0 0.23060518033342339 0.33807106122714048 0 0.2430942860788903 0.33477961832711151 0 0.23816107804029091 0.35120524212074949 0 0.2484846271056145 0.31037308609574782 0 0.23798581837376781 0.31938142953188831 0 0.25508783524565293 0.32209220201309929 0 0.2430942860788903 0.33477961832711151 0 0.23798581837376781 0.31938142953188831 0 0.25508783524565293 0.32209220201309929 0 0.2290399257457596 0.32985805959198788 0 0.2430942860788903 0.33477961832711151 0 0.23798581837376781 0.31938142953188831 0 0.23439037865920059 0.35560025357312369 0 0.2386764282036242 0.37725286527910618 0 0.24311907173897271 0.36013203008567057 0 0.23439037865920059 0.35560025357312369 0 0.2386764282036242 0.37725286527910618 0 0.2492643002430574 0.365916522193315 0 0.24311907173897271 0.36013203008567057 0 0.2386764282036242 0.37725286527910618 0 0.2492643002430574 0.365916522193315 0 0.2386764282036242 0.37725286527910618 0 0.25383912625151372 0.37755129754335942 0 0.24311907173897271 0.36013203008567057 0 0.23816107804029091 0.35120524212074949 0 0.2641967246118288 0.36596915937278562 0 0.2430942860788903 0.33477961832711151 0 0.23816107804029091 0.35120524212074949 0 0.26173146881309822 0.35734024057335978 0 0.24311907173897271 0.36013203008567057 0 0.23816107804029091 0.35120524212074949 0 0.23439037865920059 0.35560025357312369 0 0.21212543146875301 0.33644132486871342 0 0.23816107804029091 0.35120524212074949 0 0.21848510057545151 0.35453686872473111 0 0.23816107804029091 0.35120524212074949 0 0.23439037865920059 0.35560025357312369 0 0.21848510057545151 0.35453686872473111 0 0.21212543146875301 0.33644132486871342 0 0.23816107804029091 0.35120524212074949 0 0.23439037865920059 0.35560025357312369 0 0.22513916990612379 0.36868200325308897 0 0.2386764282036242 0.37725286527910618 0 0.23439037865920059 0.35560025357312369 0 0.22513916990612379 0.36868200325308897 0 0.21848510057545151 0.35453686872473111 0 0.22513916990612379 0.36868200325308897 0 0.20931495008602691 0.36890180222237801 0 0.21961872799640589 0.38146559318592133 0 0.22513916990612379 0.36868200325308897 0 0.20931495008602691 0.36890180222237801 0 0.21848510057545151 0.35453686872473111 0 0.20931495008602691 0.36890180222237801 0 0.21848510057545151 0.35453686872473111 0 0.2018014651714847 0.35413555731190122 0 0.21212543146875301 0.33644132486871342 0 0.21848510057545151 0.35453686872473111 0 0.2018014651714847 0.35413555731190122 0 0.19231113454718349 0.34165597013868199 0 0.2018014651714847 0.35413555731190122 0 0.1832131523033072 0.3569188224833833 0 0.19231113454718349 0.34165597013868199 0 0.21212543146875301 0.33644132486871342 0 0.2018014651714847 0.35413555731190122 0 0.20931495008602691 0.36890180222237801 0 0.2018014651714847 0.35413555731190122 0 0.19217836357317111 0.36996972767433872 0 0.20931495008602691 0.36890180222237801 0 0.19217836357317111 0.36996972767433872 0 0.20289108470775991 0.38370682355227331 0 0.2018014651714847 0.35413555731190122 0 0.19217836357317111 0.36996972767433872 0 0.1832131523033072 0.3569188224833833 0 0.19217836357317111 0.36996972767433872 0 0.17197644233242751 0.37002706837148541 0 0.1832131523033072 0.3569188224833833 0 0.17197644233242751 0.37002706837148541 0 0.16866852787741549 0.35230522619665788 0 0.1832131523033072 0.3569188224833833 0 0.17197644233242751 0.37002706837148541 0 0.16866852787741549 0.35230522619665788 0 0.15186920095361911 0.35620033980905319 0 0.17197644233242751 0.37002706837148541 0 0.15186920095361911 0.35620033980905319 0 0.15185568245476189 0.37707061606136422 0 0.16866852787741549 0.35230522619665788 0 0.1579580049025659 0.33927316190663209 0 0.15186920095361911 0.35620033980905319 0 0.16866852787741549 0.35230522619665788 0 0.1832131523033072 0.3569188224833833 0 0.17832583889515771 0.33910673841273542 0 0.19231113454718349 0.34165597013868199 0 0.1832131523033072 0.3569188224833833 0 0.17832583889515771 0.33910673841273542 0 0.17832583889515771 0.33910673841273542 0 0.18608978489721489 0.32167740761667712 0 0.16647560889869609 0.32578562508456149 0 0.19231113454718349 0.34165597013868199 0 0.17832583889515771 0.33910673841273542 0 0.18608978489721489 0.32167740761667712 0 0.16005413832567669 0.30691349036464077 0 0.18608978489721489 0.32167740761667712 0 0.16005413832567669 0.30691349036464077 0 0.18686192329242929 0.31378732528256248 0 0.18608978489721489 0.32167740761667712 0 0.16005413832567669 0.30691349036464077 0 0.18608978489721489 0.32167740761667712 0 0.16647560889869609 0.32578562508456149 0 0.17832583889515771 0.33910673841273542 0 0.16647560889869609 0.32578562508456149 0 0.1579580049025659 0.33927316190663209 0 0.16866852787741549 0.35230522619665788 0 0.17832583889515771 0.33910673841273542 0 0.1579580049025659 0.33927316190663209 0 0.16647560889869609 0.32578562508456149 0 0.1579580049025659 0.33927316190663209 0 0.14183880654046921 0.32250528078568202 0 0.1579580049025659 0.33927316190663209 0 0.14183880654046921 0.32250528078568202 0 0.14054269679001921 0.34363296691054102 0 0.16005413832567669 0.30691349036464077 0 0.16647560889869609 0.32578562508456149 0 0.14183880654046921 0.32250528078568202 0 0.1202868522871179 0.34060046584014031 0 0.14183880654046921 0.32250528078568202 0 0.14054269679001921 0.34363296691054102 0 0.1202868522871179 0.34060046584014031 0 0.14054269679001921 0.34363296691054102 0 0.13274728415341139 0.36410634055334368 0 0.13274728415341139 0.36410634055334368 0 0.15186920095361911 0.35620033980905319 0 0.15185568245476189 0.37707061606136422 0 0.14054269679001921 0.34363296691054102 0 0.13274728415341139 0.36410634055334368 0 0.15186920095361911 0.35620033980905319 0 0.1579580049025659 0.33927316190663209 0 0.14054269679001921 0.34363296691054102 0 0.15186920095361911 0.35620033980905319 0 0.15352992747694119 0.40026604784697911 0 0.13692284990477191 0.38930777957628943 0 0.1397509022148696 0.40843688002483958 0 0.15352992747694119 0.40026604784697911 0 0.15185568245476189 0.37707061606136422 0 0.13692284990477191 0.38930777957628943 0 0.13274728415341139 0.36410634055334368 0 0.15185568245476189 0.37707061606136422 0 0.13692284990477191 0.38930777957628943 0 0.119448870245615 0.38256434187866972 0 0.13274728415341139 0.36410634055334368 0 0.13692284990477191 0.38930777957628943 0 0.115428724103706 0.40267530492779557 0 0.13692284990477191 0.38930777957628943 0 0.1397509022148696 0.40843688002483958 0 0.12259086230274099 0.42947812748907283 0 0.1397509022148696 0.40843688002483958 0 0.14363603346764281 0.42707530835579988 0 0.12259086230274099 0.42947812748907283 0 0.115428724103706 0.40267530492779557 0 0.1397509022148696 0.40843688002483958 0 0.12259086230274099 0.42947812748907283 0 0.14363603346764281 0.42707530835579988 0 0.13510526379757609 0.44116740875256688 0 0.14363603346764281 0.42707530835579988 0 0.16526304614212209 0.42908608809292892 0 0.1507341445198021 0.44370602134863157 0 0.14363603346764281 0.42707530835579988 0 0.15527295380072001 0.4153931176925994 0 0.16526304614212209 0.42908608809292892 0 0.14363603346764281 0.42707530835579988 0 0.1507341445198021 0.44370602134863157 0 0.13510526379757609 0.44116740875256688 0 0.1397509022148696 0.40843688002483958 0 0.14363603346764281 0.42707530835579988 0 0.15527295380072001 0.4153931176925994 0 0.15352992747694119 0.40026604784697911 0 0.1397509022148696 0.40843688002483958 0 0.15527295380072001 0.4153931176925994 0 0.15527295380072001 0.4153931176925994 0 0.1711416470664554 0.41062619466687539 0 0.16526304614212209 0.42908608809292892 0 0.15352992747694119 0.40026604784697911 0 0.15527295380072001 0.4153931176925994 0 0.1711416470664554 0.41062619466687539 0 0.16526304614212209 0.42908608809292892 0 0.1809560021812836 0.43814832633623357 0 0.16598328874466911 0.44273574664910909 0 0.16526304614212209 0.42908608809292892 0 0.18469425222239219 0.42125941149134333 0 0.1809560021812836 0.43814832633623357 0 0.1711416470664554 0.41062619466687539 0 0.16526304614212209 0.42908608809292892 0 0.18469425222239219 0.42125941149134333 0 0.1711416470664554 0.41062619466687539 0 0.18469425222239219 0.42125941149134333 0 0.1843100454414533 0.40126956181167389 0 0.1711416470664554 0.41062619466687539 0 0.1843100454414533 0.40126956181167389 0 0.16952276405911931 0.3912061138884545 0 0.1843100454414533 0.40126956181167389 0 0.16952276405911931 0.3912061138884545 0 0.18589276442329861 0.38606835492789338 0 0.15352992747694119 0.40026604784697911 0 0.1711416470664554 0.41062619466687539 0 0.16952276405911931 0.3912061138884545 0 0.15352992747694119 0.40026604784697911 0 0.15185568245476189 0.37707061606136422 0 0.16952276405911931 0.3912061138884545 0 0.17197644233242751 0.37002706837148541 0 0.15185568245476189 0.37707061606136422 0 0.16952276405911931 0.3912061138884545 0 0.17197644233242751 0.37002706837148541 0 0.16952276405911931 0.3912061138884545 0 0.18589276442329861 0.38606835492789338 0 0.19217836357317111 0.36996972767433872 0 0.17197644233242751 0.37002706837148541 0 0.18589276442329861 0.38606835492789338 0 0.18589276442329861 0.38606835492789338 0 0.20289108470775991 0.38370682355227331 0 0.19700705340585539 0.39579078134538831 0 0.19217836357317111 0.36996972767433872 0 0.18589276442329861 0.38606835492789338 0 0.20289108470775991 0.38370682355227331 0 0.19700705340585539 0.39579078134538831 0 0.21316338490038089 0.39704202397260657 0 0.19877798755638451 0.41086714246249401 0 0.1843100454414533 0.40126956181167389 0 0.19700705340585539 0.39579078134538831 0 0.19877798755638451 0.41086714246249401 0 0.1843100454414533 0.40126956181167389 0 0.18589276442329861 0.38606835492789338 0 0.19700705340585539 0.39579078134538831 0 0.20289108470775991 0.38370682355227331 0 0.19700705340585539 0.39579078134538831 0 0.21316338490038089 0.39704202397260657 0 0.20931495008602691 0.36890180222237801 0 0.20289108470775991 0.38370682355227331 0 0.21961872799640589 0.38146559318592133 0 0.20289108470775991 0.38370682355227331 0 0.21316338490038089 0.39704202397260657 0 0.21961872799640589 0.38146559318592133 0 0.22513916990612379 0.36868200325308897 0 0.21961872799640589 0.38146559318592133 0 0.2386764282036242 0.37725286527910618 0 0.21961872799640589 0.38146559318592133 0 0.22852735017452019 0.39320804083607441 0 0.2386764282036242 0.37725286527910618 0 0.21316338490038089 0.39704202397260657 0 0.21961872799640589 0.38146559318592133 0 0.22852735017452019 0.39320804083607441 0 0.21316338490038089 0.39704202397260657 0 0.22852735017452019 0.39320804083607441 0 0.22983145469658259 0.40925978250573319 0 0.21316338490038089 0.39704202397260657 0 0.22983145469658259 0.40925978250573319 0 0.22852735017452019 0.39320804083607441 0 0.2429624777480478 0.39890547698508871 0 0.22983145469658259 0.40925978250573319 0 0.2429624777480478 0.39890547698508871 0 0.2386764282036242 0.37725286527910618 0 0.22852735017452019 0.39320804083607441 0 0.2429624777480478 0.39890547698508871 0 0.2386764282036242 0.37725286527910618 0 0.2429624777480478 0.39890547698508871 0 0.2386764282036242 0.37725286527910618 0 0.25341304662754638 0.38974012394171498 0 0.2386764282036242 0.37725286527910618 0 0.25383912625151372 0.37755129754335942 0 0.25341304662754638 0.38974012394171498 0 0.24649952449278431 0.42147754103885982 0 0.22996656543308741 0.44177288309861867 0 0.24946733303660301 0.43176723098649622 0 0.24649952449278431 0.42147754103885982 0 0.22996656543308741 0.44177288309861867 0 0.24649952449278431 0.42147754103885982 0 0.22738899126970491 0.42458926785457718 0 0.22996656543308741 0.44177288309861867 0 0.24946733303660301 0.43176723098649622 0 0.24649952449278431 0.42147754103885982 0 0.2429624777480478 0.39890547698508871 0 0.24649952449278431 0.42147754103885982 0 0.24649952449278431 0.42147754103885982 0 0.22983145469658259 0.40925978250573319 0 0.22738899126970491 0.42458926785457718 0 0.24649952449278431 0.42147754103885982 0 0.22983145469658259 0.40925978250573319 0 0.2429624777480478 0.39890547698508871 0 0.24649952449278431 0.42147754103885982 0 0.22983145469658259 0.40925978250573319 0 0.21316338490038089 0.39704202397260657 0 0.22983145469658259 0.40925978250573319 0 0.21370806227123909 0.41789950377956148 0 0.22983145469658259 0.40925978250573319 0 0.22738899126970491 0.42458926785457718 0 0.21370806227123909 0.41789950377956148 0 0.22738899126970491 0.42458926785457718 0 0.21739304288862979 0.43200563017257382 0 0.22996656543308741 0.44177288309861867 0 0.22738899126970491 0.42458926785457718 0 0.21739304288862979 0.43200563017257382 0 0.21370806227123909 0.41789950377956148 0 0.21739304288862979 0.43200563017257382 0 0.1999317510848099 0.43097584272053618 0 0.2111195299095035 0.44359306409302351 0 0.21739304288862979 0.43200563017257382 0 0.21370806227123909 0.41789950377956148 0 0.1999317510848099 0.43097584272053618 0 0.21370806227123909 0.41789950377956148 0 0.19877798755638451 0.41086714246249401 0 0.1999317510848099 0.43097584272053618 0 0.21316338490038089 0.39704202397260657 0 0.21370806227123909 0.41789950377956148 0 0.19877798755638451 0.41086714246249401 0 0.18469425222239219 0.42125941149134333 0 0.19877798755638451 0.41086714246249401 0 0.1999317510848099 0.43097584272053618 0 0.18469425222239219 0.42125941149134333 0 0.1843100454414533 0.40126956181167389 0 0.19877798755638451 0.41086714246249401 0 0.18469425222239219 0.42125941149134333 0 0.1999317510848099 0.43097584272053618 0 0.1809560021812836 0.43814832633623357 0 0.1999317510848099 0.43097584272053618 0 0.19479511809318301 0.4526549487178691 0 0.2111195299095035 0.44359306409302351 0 0.1999317510848099 0.43097584272053618 0 0.19479511809318301 0.4526549487178691 0 0.1809560021812836 0.43814832633623357 0 0.19479511809318301 0.4526549487178691 0 0.213169792932182 0.46047172596691099 0 0.19211155850092579 0.47790980627879082 0 0.19479511809318301 0.4526549487178691 0 0.19211155850092579 0.47790980627879082 0 0.18348770279874721 0.46143911161818069 0 0.213169792932182 0.46047172596691099 0 0.2111195299095035 0.44359306409302351 0 0.22996656543308741 0.44177288309861867 0 0.19479511809318301 0.4526549487178691 0 0.213169792932182 0.46047172596691099 0 0.2111195299095035 0.44359306409302351 0 0.21739304288862979 0.43200563017257382 0 0.2111195299095035 0.44359306409302351 0 0.22996656543308741 0.44177288309861867 0 0.22996656543308741 0.44177288309861867 0 0.22854105436186559 0.46372788353366717 0 0.24141841662185301 0.45603819576859073 0 0.213169792932182 0.46047172596691099 0 0.22854105436186559 0.46372788353366717 0 0.221321310837439 0.47674074212904899 0 0.213169792932182 0.46047172596691099 0 0.22996656543308741 0.44177288309861867 0 0.22854105436186559 0.46372788353366717 0 0.24141841662185301 0.45603819576859073 0 0.23645949407781469 0.47608243786178739 0 0.25047151807745072 0.47036873115219768 0 0.22854105436186559 0.46372788353366717 0 0.24141841662185301 0.45603819576859073 0 0.23645949407781469 0.47608243786178739 0 0.24141841662185301 0.45603819576859073 0 0.25047151807745072 0.47036873115219768 0 0.25477099823403621 0.45804476415031298 0 0.24141841662185301 0.45603819576859073 0 0.25282491994113748 0.44831200937164878 0 0.25477099823403621 0.45804476415031298 0 0.22996656543308741 0.44177288309861867 0 0.24141841662185301 0.45603819576859073 0 0.24583280085865111 0.44361242472787987 0 0.24946733303660301 0.43176723098649622 0 0.22996656543308741 0.44177288309861867 0 0.24583280085865111 0.44361242472787987 0 0.24141841662185301 0.45603819576859073 0 0.24583280085865111 0.44361242472787987 0 0.25282491994113748 0.44831200937164878 0 0.24904418528453851 0.48634810883828161 0 0.23645949407781469 0.47608243786178739 0 0.23352830384551029 0.49999999999999978 0 0.24904418528453851 0.48634810883828161 0 0.23352830384551029 0.49999999999999978 0 0.25181722630913472 0.5 0 0.24904418528453851 0.48634810883828161 0 0.23645949407781469 0.47608243786178739 0 0.25047151807745072 0.47036873115219768 0 0.23645949407781469 0.47608243786178739 0 0.221321310837439 0.47674074212904899 0 0.23352830384551029 0.49999999999999978 0 0.22854105436186559 0.46372788353366717 0 0.23645949407781469 0.47608243786178739 0 0.221321310837439 0.47674074212904899 0 0.23352830384551029 0.49999999999999978 0 0.2128199311732181 0.48895490313939532 0 0.21702906166474581 0.5 0 0.23352830384551029 0.49999999999999978 0 0.2128199311732181 0.48895490313939532 0 0.221321310837439 0.47674074212904899 0 0.23352830384551029 0.49999999999999978 0 0.2128199311732181 0.48895490313939532 0 0.2128199311732181 0.48895490313939532 0 0.21702906166474581 0.5 0 0.20052981948398141 0.49999999999999989 0 0.213169792932182 0.46047172596691099 0 0.221321310837439 0.47674074212904899 0 0.19211155850092579 0.47790980627879082 0 0.221321310837439 0.47674074212904899 0 0.2128199311732181 0.48895490313939532 0 0.19211155850092579 0.47790980627879082 0 0.2128199311732181 0.48895490313939532 0 0.19211155850092579 0.47790980627879082 0 0.2128199311732181 0.48895490313939532 0 0.20052981948398141 0.49999999999999989 0 0.19295831529489699 0.4905304616351287 0 0.2128199311732181 0.48895490313939532 0 0.19211155850092579 0.47790980627879082 0 0.19295831529489699 0.4905304616351287 0 0.20052981948398141 0.49999999999999989 0 0.1839227339461352 0.49861489743603538 0 0.20052981948398141 0.49999999999999989 0 0.19295831529489699 0.4905304616351287 0 0.1839227339461352 0.49861489743603538 0 0.19211155850092579 0.47790980627879082 0 0.19295831529489699 0.4905304616351287 0 0.1809625144841838 0.48570342190566712 0 0.1839227339461352 0.49861489743603538 0 0.1809625144841838 0.48570342190566712 0 0.16731564840828889 0.49722979487207219 0 0.1839227339461352 0.49861489743603538 0 0.16731564840828889 0.49722979487207219 0 0.1839227339461352 0.49861489743603538 0 0.1669427425872391 0.49999999999999922 0 0.16731564840828889 0.49722979487207219 0 0.19295831529489699 0.4905304616351287 0 0.1839227339461352 0.49861489743603538 0 0.1809625144841838 0.48570342190566712 0 0.1809625144841838 0.48570342190566712 0 0.16731564840828889 0.49722979487207219 0 0.16935941711846161 0.48204725214512889 0 0.16731564840828889 0.49722979487207219 0 0.157708884996551 0.48584061526662409 0 0.14611751268168829 0.49546177892012921 0 0.16731564840828889 0.49722979487207219 0 0.14611751268168829 0.49546177892012921 0 0.1669427425872391 0.49999999999999922 0 0.16731564840828889 0.49722979487207219 0 0.14611751268168829 0.49546177892012921 0 0.1669427425872391 0.49999999999999922 0 0.16731564840828889 0.49722979487207219 0 0.16731564840828889 0.49722979487207219 0 0.16935941711846161 0.48204725214512889 0 0.16731564840828889 0.49722979487207219 0 0.157708884996551 0.48584061526662409 0 0.16935941711846161 0.48204725214512889 0 0.16382575626869561 0.4735735187060508 0 0.15802571703479451 0.46684670821381258 0 0.1531189490294651 0.47544631339495541 0 0.157708884996551 0.48584061526662409 0 0.16382575626869561 0.4735735187060508 0 0.1531189490294651 0.47544631339495541 0 0.157708884996551 0.48584061526662409 0 0.16382575626869561 0.4735735187060508 0 0.16935941711846161 0.48204725214512889 0 0.16935941711846161 0.48204725214512889 0 0.17140318582863401 0.46686470941818559 0 0.16382575626869561 0.4735735187060508 0 0.16935941711846161 0.48204725214512889 0 0.17140318582863401 0.46686470941818559 0 0.1809625144841838 0.48570342190566712 0 0.16935941711846161 0.48204725214512889 0 0.17140318582863401 0.46686470941818559 0 0.19211155850092579 0.47790980627879082 0 0.1809625144841838 0.48570342190566712 0 0.17140318582863401 0.46686470941818559 0 0.19211155850092579 0.47790980627879082 0 0.17140318582863401 0.46686470941818559 0 0.19479511809318301 0.4526549487178691 0 0.18348770279874721 0.46143911161818069 0 0.17341546959919829 0.45191605883299152 0 0.19211155850092579 0.47790980627879082 0 0.18348770279874721 0.46143911161818069 0 0.17140318582863401 0.46686470941818559 0 0.18348770279874721 0.46143911161818069 0 0.17341546959919829 0.45191605883299152 0 0.17140318582863401 0.46686470941818559 0 0.17341546959919829 0.45191605883299152 0 0.17140318582863401 0.46686470941818559 0 0.19479511809318301 0.4526549487178691 0 0.1809560021812836 0.43814832633623357 0 0.17341546959919829 0.45191605883299152 0 0.1809560021812836 0.43814832633623357 0 0.17341546959919829 0.45191605883299152 0 0.16598328874466911 0.44273574664910909 0 0.17341546959919829 0.45191605883299152 0 0.16598328874466911 0.44273574664910909 0 0.15954778128093949 0.4508222386347599 0 0.16598328874466911 0.44273574664910909 0 0.15954778128093949 0.4508222386347599 0 0.1507341445198021 0.44370602134863157 0 0.16526304614212209 0.42908608809292892 0 0.16598328874466911 0.44273574664910909 0 0.1507341445198021 0.44370602134863157 0 0.16382575626869561 0.4735735187060508 0 0.1651762257979181 0.46354347419730452 0 0.17140318582863401 0.46686470941818559 0 0.1651762257979181 0.46354347419730452 0 0.17140318582863401 0.46686470941818559 0 0.17341546959919829 0.45191605883299152 0 0.1651762257979181 0.46354347419730452 0 0.17140318582863401 0.46686470941818559 0 0.17341546959919829 0.45191605883299152 0 0.15954778128093949 0.4508222386347599 0 0.1651762257979181 0.46354347419730452 0 0.15954778128093949 0.4508222386347599 0 0.1651762257979181 0.46354347419730452 0 0.1582471669695637 0.45974252444074731 0 0.16382575626869561 0.4735735187060508 0 0.1651762257979181 0.46354347419730452 0 0.15802571703479451 0.46684670821381258 0 0.1651762257979181 0.46354347419730452 0 0.1582471669695637 0.45974252444074731 0 0.15802571703479451 0.46684670821381258 0 0.14976048710833001 0.46192771033000529 0 0.1507341445198021 0.44370602134863157 0 0.136404492151351 0.45486193181106682 0 0.1582471669695637 0.45974252444074731 0 0.15802571703479451 0.46684670821381258 0 0.14976048710833001 0.46192771033000529 0 0.15802571703479451 0.46684670821381258 0 0.14976048710833001 0.46192771033000529 0 0.1531189490294651 0.47544631339495541 0 0.15954778128093949 0.4508222386347599 0 0.1582471669695637 0.45974252444074731 0 0.14976048710833001 0.46192771033000529 0 0.14976048710833001 0.46192771033000529 0 0.136404492151351 0.45486193181106682 0 0.13663143795624749 0.46910754811773492 0 0.15954778128093949 0.4508222386347599 0 0.14976048710833001 0.46192771033000529 0 0.1507341445198021 0.44370602134863157 0 0.1507341445198021 0.44370602134863157 0 0.13510526379757609 0.44116740875256688 0 0.136404492151351 0.45486193181106682 0 0.1221607865463437 0.4507156547582637 0 0.12259086230274099 0.42947812748907283 0 0.13510526379757609 0.44116740875256688 0 0.1221607865463437 0.4507156547582637 0 0.13510526379757609 0.44116740875256688 0 0.136404492151351 0.45486193181106682 0 0.136404492151351 0.45486193181106682 0 0.1267882431275838 0.46370707134437261 0 0.13663143795624749 0.46910754811773492 0 0.1221607865463437 0.4507156547582637 0 0.136404492151351 0.45486193181106682 0 0.1267882431275838 0.46370707134437261 0 0.1267882431275838 0.46370707134437261 0 0.12569724768963239 0.47617993877849962 0 0.13663143795624749 0.46910754811773492 0 0.12569724768963239 0.47617993877849962 0 0.13663143795624749 0.46910754811773492 0 0.1364132019148096 0.48384982340983701 0 0.13663143795624749 0.46910754811773492 0 0.1364132019148096 0.48384982340983701 0 0.14361111091913481 0.47574478002545789 0 0.1249193769550877 0.49369376296818718 0 0.1364132019148096 0.48384982340983701 0 0.14611751268168829 0.49546177892012921 0 0.1249193769550877 0.49369376296818718 0 0.14611751268168829 0.49546177892012921 0 0.1249193769550877 0.49369376296818718 0 0.12569724768963239 0.47617993877849962 0 0.1364132019148096 0.48384982340983701 0 0.1249193769550877 0.49369376296818718 0 0.13738437864054501 0.5 0 0.14611751268168829 0.49546177892012921 0 0.1364132019148096 0.48384982340983701 0 0.14611751268168829 0.49546177892012921 0 0.14718343377546941 0.48347361591025501 0 0.1669427425872391 0.49999999999999922 0 0.13738437864054501 0.5 0 0.14611751268168829 0.49546177892012921 0 0.157708884996551 0.48584061526662409 0 0.14611751268168829 0.49546177892012921 0 0.14718343377546941 0.48347361591025501 0 0.157708884996551 0.48584061526662409 0 0.1531189490294651 0.47544631339495541 0 0.14718343377546941 0.48347361591025501 0 0.14976048710833001 0.46192771033000529 0 0.1531189490294651 0.47544631339495541 0 0.14361111091913481 0.47574478002545789 0 0.14976048710833001 0.46192771033000529 0 0.13663143795624749 0.46910754811773492 0 0.14361111091913481 0.47574478002545789 0 0.1364132019148096 0.48384982340983701 0 0.14361111091913481 0.47574478002545789 0 0.14718343377546941 0.48347361591025501 0 0.1531189490294651 0.47544631339495541 0 0.14361111091913481 0.47574478002545789 0 0.14718343377546941 0.48347361591025501 0 0.35832214194920592 0.47929915408112939 0 0.34611268429232461 0.46591887339206078 0 0.3375369348076922 0.4829399206954248 0 0.35832214194920592 0.47929915408112939 0 0.35850557312216419 0.5 0 0.3375369348076922 0.4829399206954248 0 0.35850557312216419 0.5 0 0.37801407526051067 0.48065415083330842 0 0.38797204790529932 0.5 0 0.35832214194920592 0.47929915408112939 0 0.35850557312216419 0.5 0 0.37801407526051067 0.48065415083330842 0 0.35832214194920592 0.47929915408112939 0 0.36980735363827261 0.46050290225189661 0 0.37801407526051067 0.48065415083330842 0 0.36980735363827261 0.46050290225189661 0 0.34502769605759259 0.44546544446971242 0 0.36959298495063608 0.43610817863788948 0 0.35832214194920592 0.47929915408112939 0 0.36980735363827261 0.46050290225189661 0 0.34611268429232461 0.46591887339206078 0 0.36980735363827261 0.46050290225189661 0 0.34502769605759259 0.44546544446971242 0 0.34611268429232461 0.46591887339206078 0 0.36980735363827261 0.46050290225189661 0 0.34611268429232461 0.46591887339206078 0 0.34611268429232461 0.46591887339206078 0 0.3317687487832644 0.45597005559148451 0 0.32241801494637662 0.47133484453222518 0 0.34502769605759259 0.44546544446971242 0 0.34611268429232461 0.46591887339206078 0 0.3317687487832644 0.45597005559148451 0 0.34611268429232461 0.46591887339206078 0 0.32241801494637662 0.47133484453222518 0 0.34502769605759259 0.44546544446971242 0 0.3317687487832644 0.45597005559148451 0 0.32480939915707069 0.44218818576869201 0 0.34502769605759259 0.44546544446971242 0 0.32480939915707069 0.44218818576869201 0 0.33523501366627878 0.43221560569608392 0 0.3107318966111981 0.4514989769174147 0 0.3227404476219688 0.42624713816244092 0 0.3317687487832644 0.45597005559148451 0 0.32480939915707069 0.44218818576869201 0 0.3107318966111981 0.4514989769174147 0 0.32480939915707069 0.44218818576869201 0 0.3107318966111981 0.4514989769174147 0 0.3227404476219688 0.42624713816244092 0 0.3317687487832644 0.45597005559148451 0 0.32241801494637662 0.47133484453222518 0 0.3107318966111981 0.4514989769174147 0 0.32241801494637662 0.47133484453222518 0 0.3375369348076922 0.4829399206954248 0 0.31372501333874958 0.48784291822244708 0 0.34611268429232461 0.46591887339206078 0 0.32241801494637662 0.47133484453222518 0 0.3375369348076922 0.4829399206954248 0 0.35850557312216419 0.5 0 0.3375369348076922 0.4829399206954248 0 0.32903909833902928 0.5 0 0.32903909833902928 0.5 0 0.31372501333874958 0.48784291822244708 0 0.29957262355589431 0.5 0 0.3375369348076922 0.4829399206954248 0 0.32903909833902928 0.5 0 0.31372501333874958 0.48784291822244708 0 0.31372501333874958 0.48784291822244708 0 0.30130976803097798 0.48891801032572652 0 0.29957262355589431 0.5 0 0.31372501333874958 0.48784291822244708 0 0.30130976803097798 0.48891801032572652 0 0.29872334560042851 0.47675081567238892 0 0.30130976803097798 0.48891801032572652 0 0.29957262355589431 0.5 0 0.28978827390519868 0.49553967616935518 0 0.32241801494637662 0.47133484453222518 0 0.29872334560042851 0.47675081567238892 0 0.32241801494637662 0.47133484453222518 0 0.31372501333874958 0.48784291822244708 0 0.29872334560042851 0.47675081567238892 0 0.29872334560042851 0.47675081567238892 0 0.28397488520641462 0.48012192141307769 0 0.28978827390519868 0.49553967616935518 0 0.29872334560042851 0.47675081567238892 0 0.28929399795500932 0.47058792179259418 0 0.29703527816799058 0.46117092995693892 0 0.29872334560042851 0.47675081567238892 0 0.28929399795500932 0.47058792179259418 0 0.28397488520641462 0.48012192141307769 0 0.29872334560042851 0.47675081567238892 0 0.28397488520641462 0.48012192141307769 0 0.28929399795500932 0.47058792179259418 0 0.28397488520641462 0.48012192141307769 0 0.27920072977811172 0.47805830749059319 0 0.28397488520641462 0.48012192141307769 0 0.28978827390519868 0.49553967616935518 0 0.27010614877275918 0.50000000000000067 0 0.29957262355589431 0.5 0 0.28978827390519868 0.49553967616935518 0 0.27010614877275918 0.50000000000000067 0 0.30130976803097798 0.48891801032572652 0 0.29872334560042851 0.47675081567238892 0 0.28978827390519868 0.49553967616935518 0 0.29872334560042851 0.47675081567238892 0 0.28978827390519868 0.49553967616935518 0 0.28397488520641462 0.48012192141307769 0 0.27010614877275918 0.50000000000000067 0 0.27920072977811172 0.47805830749059319 0 0.27010614877275918 0.50000000000000067 0 0.26909437115437917 0.48384867389528768 0 0.26130641782501518 0.49139676135406141 0 0.27010614877275918 0.50000000000000067 0 0.27920072977811172 0.47805830749059319 0 0.26909437115437917 0.48384867389528768 0 0.27010614877275918 0.50000000000000067 0 0.27920072977811172 0.47805830749059319 0 0.27920072977811172 0.47805830749059319 0 0.27306774476234302 0.47644699960251641 0 0.26909437115437917 0.48384867389528768 0 0.27920072977811172 0.47805830749059319 0 0.27306774476234302 0.47644699960251641 0 0.27643472525740193 0.46726539210963169 0 0.26824582816420722 0.47348896141386071 0 0.27306774476234302 0.47644699960251641 0 0.27643472525740193 0.46726539210963169 0 0.26824582816420722 0.47348896141386071 0 0.26909437115437917 0.48384867389528768 0 0.25993240985832161 0.47939275616227872 0 0.26824582816420722 0.47348896141386071 0 0.27306774476234302 0.47644699960251641 0 0.26909437115437917 0.48384867389528768 0 0.24904418528453851 0.48634810883828161 0 0.25993240985832161 0.47939275616227872 0 0.25047151807745072 0.47036873115219768 0 0.26824582816420722 0.47348896141386071 0 0.25993240985832161 0.47939275616227872 0 0.26165523792153211 0.46576309323832682 0 0.25993240985832161 0.47939275616227872 0 0.25047151807745072 0.47036873115219768 0 0.26165523792153211 0.46576309323832682 0 0.27010614877275918 0.50000000000000067 0 0.25181722630913472 0.5 0 0.26130641782501518 0.49139676135406141 0 0.24904418528453851 0.48634810883828161 0 0.25993240985832161 0.47939275616227872 0 0.26130641782501518 0.49139676135406141 0 0.24904418528453851 0.48634810883828161 0 0.25181722630913472 0.5 0 0.26130641782501518 0.49139676135406141 0 0.26909437115437917 0.48384867389528768 0 0.25993240985832161 0.47939275616227872 0 0.26130641782501518 0.49139676135406141 0 0.26490489917960358 0.45079530358348557 0 0.25548676926057468 0.44017180441404491 0 0.26331147225899149 0.43380076267102891 0 0.24946733303660301 0.43176723098649622 0 0.24583280085865111 0.44361242472787987 0 0.25548676926057468 0.44017180441404491 0 0.24583280085865111 0.44361242472787987 0 0.25548676926057468 0.44017180441404491 0 0.25282491994113748 0.44831200937164878 0 0.26490489917960358 0.45079530358348557 0 0.25548676926057468 0.44017180441404491 0 0.25282491994113748 0.44831200937164878 0 0.26490489917960358 0.45079530358348557 0 0.25282491994113748 0.44831200937164878 0 0.25477099823403621 0.45804476415031298 0 0.25047151807745072 0.47036873115219768 0 0.25477099823403621 0.45804476415031298 0 0.26165523792153211 0.46576309323832682 0 0.26490489917960358 0.45079530358348557 0 0.25477099823403621 0.45804476415031298 0 0.26165523792153211 0.46576309323832682 0 0.26490489917960358 0.45079530358348557 0 0.27160577401557351 0.46248804296782559 0 0.27679169795675967 0.45600994403837303 0 0.26490489917960358 0.45079530358348557 0 0.26165523792153211 0.46576309323832682 0 0.27160577401557351 0.46248804296782559 0 0.26824582816420722 0.47348896141386071 0 0.27160577401557351 0.46248804296782559 0 0.27643472525740193 0.46726539210963169 0 0.26824582816420722 0.47348896141386071 0 0.26165523792153211 0.46576309323832682 0 0.27160577401557351 0.46248804296782559 0 0.27160577401557351 0.46248804296782559 0 0.27643472525740193 0.46726539210963169 0 0.27679169795675967 0.45600994403837303 0 0.27643472525740193 0.46726539210963169 0 0.27679169795675967 0.45600994403837303 0 0.28829531078346382 0.45611661498118572 0 0.27903440424894049 0.4453257315987294 0 0.26331147225899149 0.43380076267102891 0 0.26490489917960358 0.45079530358348557 0 0.27903440424894049 0.4453257315987294 0 0.26331147225899149 0.43380076267102891 0 0.26490489917960358 0.45079530358348557 0 0.27679169795675967 0.45600994403837303 0 0.27903440424894049 0.4453257315987294 0 0.27903440424894049 0.4453257315987294 0 0.2917470315179379 0.44281751567604499 0 0.28179675760275558 0.42932557237874241 0 0.27679169795675967 0.45600994403837303 0 0.27903440424894049 0.4453257315987294 0 0.28829531078346382 0.45611661498118572 0 0.27903440424894049 0.4453257315987294 0 0.2917470315179379 0.44281751567604499 0 0.28829531078346382 0.45611661498118572 0 0.2917470315179379 0.44281751567604499 0 0.28829531078346382 0.45611661498118572 0 0.29813183988985342 0.45090032042111128 0 0.27920072977811172 0.47805830749059319 0 0.27643472525740193 0.46726539210963169 0 0.28829531078346382 0.45611661498118572 0 0.28929399795500932 0.47058792179259418 0 0.27920072977811172 0.47805830749059319 0 0.28829531078346382 0.45611661498118572 0 0.27920072977811172 0.47805830749059319 0 0.28829531078346382 0.45611661498118572 0 0.28829531078346382 0.45611661498118572 0 0.29703527816799058 0.46117092995693892 0 0.29813183988985342 0.45090032042111128 0 0.28929399795500932 0.47058792179259418 0 0.28829531078346382 0.45611661498118572 0 0.29703527816799058 0.46117092995693892 0 0.29872334560042851 0.47675081567238892 0 0.29703527816799058 0.46117092995693892 0 0.3107318966111981 0.4514989769174147 0 0.29872334560042851 0.47675081567238892 0 0.3107318966111981 0.4514989769174147 0 0.32241801494637662 0.47133484453222518 0 0.29872334560042851 0.47675081567238892 0 0.3107318966111981 0.4514989769174147 0 0.29703527816799058 0.46117092995693892 0 0.29813183988985342 0.45090032042111128 0 0.3107318966111981 0.4514989769174147 0 0.30159082278473881 0.44219288247638061 0 0.3107318966111981 0.4514989769174147 0 0.30884109342504262 0.43428586920116352 0 0.2917470315179379 0.44281751567604499 0 0.30159082278473881 0.44219288247638061 0 0.29850225247966211 0.43146173016616862 0 0.2917470315179379 0.44281751567604499 0 0.30159082278473881 0.44219288247638061 0 0.29813183988985342 0.45090032042111128 0 0.30159082278473881 0.44219288247638061 0 0.29813183988985342 0.45090032042111128 0 0.3107318966111981 0.4514989769174147 0 0.30884109342504262 0.43428586920116352 0 0.29850225247966211 0.43146173016616862 0 0.30862162828234507 0.42004495563460759 0 0.29850225247966211 0.43146173016616862 0 0.30862162828234507 0.42004495563460759 0 0.29547148538100448 0.41817397575591742 0 0.30159082278473881 0.44219288247638061 0 0.30884109342504262 0.43428586920116352 0 0.29850225247966211 0.43146173016616862 0 0.30862162828234507 0.42004495563460759 0 0.30304430461131138 0.40735012112542651 0 0.3196782615082488 0.40265332564926309 0 0.30862162828234507 0.42004495563460759 0 0.30304430461131138 0.40735012112542651 0 0.29547148538100448 0.41817397575591742 0 0.30304430461131138 0.40735012112542651 0 0.29062365375375682 0.40708788978866228 0 0.29547148538100448 0.41817397575591742 0 0.29062365375375682 0.40708788978866228 0 0.29547148538100448 0.41817397575591742 0 0.28288479604298378 0.41446876034122271 0 0.29547148538100448 0.41817397575591742 0 0.28288479604298378 0.41446876034122271 0 0.28179675760275558 0.42932557237874241 0 0.29062365375375682 0.40708788978866228 0 0.28288479604298378 0.41446876034122271 0 0.28001120465417539 0.40182109974822727 0 0.29850225247966211 0.43146173016616862 0 0.29547148538100448 0.41817397575591742 0 0.28179675760275558 0.42932557237874241 0 0.2917470315179379 0.44281751567604499 0 0.29850225247966211 0.43146173016616862 0 0.28179675760275558 0.42932557237874241 0 0.28179675760275558 0.42932557237874241 0 0.27042562322166658 0.41684269204638819 0 0.26331147225899149 0.43380076267102891 0 0.27903440424894049 0.4453257315987294 0 0.28179675760275558 0.42932557237874241 0 0.26331147225899149 0.43380076267102891 0 0.27042562322166658 0.41684269204638819 0 0.26380858941988822 0.4002294757553399 0 0.28001120465417539 0.40182109974822727 0 0.28288479604298378 0.41446876034122271 0 0.28179675760275558 0.42932557237874241 0 0.27042562322166658 0.41684269204638819 0 0.28288479604298378 0.41446876034122271 0 0.27042562322166658 0.41684269204638819 0 0.28001120465417539 0.40182109974822727 0 0.24649952449278431 0.42147754103885982 0 0.25492995388566009 0.41993008507457552 0 0.26380858941988822 0.4002294757553399 0 0.27042562322166658 0.41684269204638819 0 0.25492995388566009 0.41993008507457552 0 0.26380858941988822 0.4002294757553399 0 0.24649952449278431 0.42147754103885982 0 0.26380858941988822 0.4002294757553399 0 0.2429624777480478 0.39890547698508871 0 0.24649952449278431 0.42147754103885982 0 0.26380858941988822 0.4002294757553399 0 0.24946733303660301 0.43176723098649622 0 0.24649952449278431 0.42147754103885982 0 0.26331147225899149 0.43380076267102891 0 0.24649952449278431 0.42147754103885982 0 0.25492995388566009 0.41993008507457552 0 0.26331147225899149 0.43380076267102891 0 0.24649952449278431 0.42147754103885982 0 0.26331147225899149 0.43380076267102891 0 0.27042562322166658 0.41684269204638819 0 0.25492995388566009 0.41993008507457552 0 0.26331147225899149 0.43380076267102891 0 0.24946733303660301 0.43176723098649622 0 0.25548676926057468 0.44017180441404491 0 0.26331147225899149 0.43380076267102891 0 0.26350653962281989 0.38010735630523079 0 0.25341304662754638 0.38974012394171498 0 0.26380858941988822 0.4002294757553399 0 0.26350653962281989 0.38010735630523079 0 0.25383912625151372 0.37755129754335942 0 0.25710864090743918 0.37145542319719338 0 0.26350653962281989 0.38010735630523079 0 0.25383912625151372 0.37755129754335942 0 0.25341304662754638 0.38974012394171498 0 0.2429624777480478 0.39890547698508871 0 0.25341304662754638 0.38974012394171498 0 0.26380858941988822 0.4002294757553399 0 0.26380858941988822 0.4002294757553399 0 0.28001120465417539 0.40182109974822727 0 0.28036865154730628 0.37990086281960789 0 0.26350653962281989 0.38010735630523079 0 0.28036865154730628 0.37990086281960789 0 0.2641967246118288 0.36596915937278562 0 0.26380858941988822 0.4002294757553399 0 0.28036865154730628 0.37990086281960789 0 0.26350653962281989 0.38010735630523079 0 0.26380858941988822 0.4002294757553399 0 0.28036865154730628 0.37990086281960789 0 0.28036865154730628 0.37990086281960789 0 0.29170647807930872 0.39362549197251728 0 0.2987730087010142 0.37934426936791982 0 0.28036865154730628 0.37990086281960789 0 0.29170647807930872 0.39362549197251728 0 0.28001120465417539 0.40182109974822727 0 0.28036865154730628 0.37990086281960789 0 0.29170647807930872 0.39362549197251728 0 0.29062365375375682 0.40708788978866228 0 0.28001120465417539 0.40182109974822727 0 0.29170647807930872 0.39362549197251728 0 0.30304430461131138 0.40735012112542651 0 0.29062365375375682 0.40708788978866228 0 0.29170647807930872 0.39362549197251728 0 0.30304430461131138 0.40735012112542651 0 0.30637452063024528 0.39219955594670219 0 0.3196782615082488 0.40265332564926309 0 0.30304430461131138 0.40735012112542651 0 0.29170647807930872 0.39362549197251728 0 0.30304430461131138 0.40735012112542651 0 0.29170647807930872 0.39362549197251728 0 0.30637452063024528 0.39219955594670219 0 0.30637452063024528 0.39219955594670219 0 0.2987730087010142 0.37934426936791982 0 0.31661607539452802 0.37905951313608538 0 0.29170647807930872 0.39362549197251728 0 0.30637452063024528 0.39219955594670219 0 0.2987730087010142 0.37934426936791982 0 0.31661607539452802 0.37905951313608538 0 0.32905198958534931 0.38831461949406398 0 0.3196782615082488 0.40265332564926309 0 0.31661607539452802 0.37905951313608538 0 0.32905198958534931 0.38831461949406398 0 0.33389487655237682 0.3658352592629312 0 0.32905198958534931 0.38831461949406398 0 0.34270248502322931 0.38427053755298168 0 0.33389487655237682 0.3658352592629312 0 0.32905198958534931 0.38831461949406398 0 0.34270248502322931 0.38427053755298168 0 0.33272146632259869 0.40525883785771122 0 0.34270248502322931 0.38427053755298168 0 0.33272146632259869 0.40525883785771122 0 0.34270248502322931 0.38427053755298168 0 0.33272146632259869 0.40525883785771122 0 0.34670895149724801 0.40816004440777182 0 0.31661607539452802 0.37905951313608538 0 0.3196782615082488 0.40265332564926309 0 0.32905198958534931 0.38831461949406398 0 0.33272146632259869 0.40525883785771122 0 0.3196782615082488 0.40265332564926309 0 0.30637452063024528 0.39219955594670219 0 0.31661607539452802 0.37905951313608538 0 0.3196782615082488 0.40265332564926309 0 0.3196782615082488 0.40265332564926309 0 0.3227404476219688 0.42624713816244092 0 0.30862162828234507 0.42004495563460759 0 0.3196782615082488 0.40265332564926309 0 0.3227404476219688 0.42624713816244092 0 0.33272146632259869 0.40525883785771122 0 0.3196782615082488 0.40265332564926309 0 0.3227404476219688 0.42624713816244092 0 0.33272146632259869 0.40525883785771122 0 0.3227404476219688 0.42624713816244092 0 0.32480939915707069 0.44218818576869201 0 0.3227404476219688 0.42624713816244092 0 0.3107318966111981 0.4514989769174147 0 0.30884109342504262 0.43428586920116352 0 0.3227404476219688 0.42624713816244092 0 0.32480939915707069 0.44218818576869201 0 0.3227404476219688 0.42624713816244092 0 0.33523501366627878 0.43221560569608392 0 0.30884109342504262 0.43428586920116352 0 0.30862162828234507 0.42004495563460759 0 0.3227404476219688 0.42624713816244092 0 0.34502769605759259 0.44546544446971242 0 0.33523501366627878 0.43221560569608392 0 0.34795858503051302 0.425881111768525 0 0.3227404476219688 0.42624713816244092 0 0.33523501366627878 0.43221560569608392 0 0.33659904832278342 0.4201421825902541 0 0.33523501366627878 0.43221560569608392 0 0.33659904832278342 0.4201421825902541 0 0.34795858503051302 0.425881111768525 0 0.33272146632259869 0.40525883785771122 0 0.3227404476219688 0.42624713816244092 0 0.33659904832278342 0.4201421825902541 0 0.33272146632259869 0.40525883785771122 0 0.33659904832278342 0.4201421825902541 0 0.34670895149724801 0.40816004440777182 0 0.33659904832278342 0.4201421825902541 0 0.34670895149724801 0.40816004440777182 0 0.34795858503051302 0.425881111768525 0 0.34670895149724801 0.40816004440777182 0 0.34795858503051302 0.425881111768525 0 0.36336601300371613 0.41450991002864218 0 0.34670895149724801 0.40816004440777182 0 0.36336601300371613 0.41450991002864218 0 0.35690611128064731 0.3988976866485166 0 0.34502769605759259 0.44546544446971242 0 0.34795858503051302 0.425881111768525 0 0.36959298495063608 0.43610817863788948 0 0.34795858503051302 0.425881111768525 0 0.36959298495063608 0.43610817863788948 0 0.36336601300371613 0.41450991002864218 0 0.36959298495063608 0.43610817863788948 0 0.36336601300371613 0.41450991002864218 0 0.38530342098431941 0.41064856824057122 0 0.36336601300371613 0.41450991002864218 0 0.3736470799201031 0.39378130610698531 0 0.38530342098431941 0.41064856824057122 0 0.3736470799201031 0.39378130610698531 0 0.3601059063978746 0.38125551426405008 0 0.35690611128064731 0.3988976866485166 0 0.36336601300371613 0.41450991002864218 0 0.3736470799201031 0.39378130610698531 0 0.35690611128064731 0.3988976866485166 0 0.3736470799201031 0.39378130610698531 0 0.3601059063978746 0.38125551426405008 0 0.37414389550204002 0.36898578533419818 0 0.34270248502322931 0.38427053755298168 0 0.3601059063978746 0.38125551426405008 0 0.35690611128064731 0.3988976866485166 0 0.34270248502322931 0.38427053755298168 0 0.3601059063978746 0.38125551426405008 0 0.35268350372385993 0.36328223724825232 0 0.34270248502322931 0.38427053755298168 0 0.34670895149724801 0.40816004440777182 0 0.35690611128064731 0.3988976866485166 0 0.35268350372385993 0.36328223724825232 0 0.36266452242448938 0.34229393694352239 0 0.35030182712711511 0.35130594720886232 0 0.35268350372385993 0.36328223724825232 0 0.36266452242448938 0.34229393694352239 0 0.35030182712711511 0.35130594720886232 0 0.35146565257524442 0.34420791440797271 0 0.36266452242448938 0.34229393694352239 0 0.35030182712711511 0.35130594720886232 0 0.35146565257524442 0.34420791440797271 0 0.34269927497721508 0.34493512072036142 0 0.35030182712711511 0.35130594720886232 0 0.35268350372385993 0.36328223724825232 0 0.33389487655237682 0.3658352592629312 0 0.34270248502322931 0.38427053755298168 0 0.35268350372385993 0.36328223724825232 0 0.3601059063978746 0.38125551426405008 0 0.35268350372385993 0.36328223724825232 0 0.37414389550204002 0.36898578533419818 0 0.35268350372385993 0.36328223724825232 0 0.37414389550204002 0.36898578533419818 0 0.36300645299402812 0.35604351837507042 0 0.37414389550204002 0.36898578533419818 0 0.37228166628853332 0.35471301169251829 0 0.36300645299402812 0.35604351837507042 0 0.35268350372385993 0.36328223724825232 0 0.36300645299402812 0.35604351837507042 0 0.36266452242448938 0.34229393694352239 0 0.37228166628853332 0.35471301169251829 0 0.36300645299402812 0.35604351837507042 0 0.36840829020790361 0.34668560051738673 0 0.36300645299402812 0.35604351837507042 0 0.36840829020790361 0.34668560051738673 0 0.36266452242448938 0.34229393694352239 0 0.36840829020790361 0.34668560051738673 0 0.36266452242448938 0.34229393694352239 0 0.36587418437400321 0.34278907974668538 0 0.37228166628853332 0.35471301169251829 0 0.36840829020790361 0.34668560051738673 0 0.37486749369974542 0.34694596905823039 0 0.37486749369974542 0.34694596905823039 0 0.37256750073976291 0.34304532959464751 0 0.37670219357667811 0.34177383067972761 0 0.36840829020790361 0.34668560051738673 0 0.37486749369974542 0.34694596905823039 0 0.37256750073976291 0.34304532959464751 0 0.36124897776362869 0.33531944770056321 0 0.36266452242448938 0.34229393694352239 0 0.36411885078159001 0.32644375487552563 0 0.37256750073976291 0.34304532959464751 0 0.36916640720496519 0.34145859007673351 0 0.37369311900952262 0.33836265764115908 0 0.37256750073976291 0.34304532959464751 0 0.37369311900952262 0.33836265764115908 0 0.37670219357667811 0.34177383067972761 0 0.36266452242448938 0.34229393694352239 0 0.37014896644917339 0.316543878568457 0 0.36770298492566261 0.33637877995368609 0 0.36266452242448938 0.34229393694352239 0 0.37368960646642962 0.31911015363466272 0 0.36770298492566261 0.33637877995368609 0 0.36985494237623989 0.33311962493185521 0 0.37368960646642962 0.31911015363466272 0 0.36266452242448938 0.34229393694352239 0 0.37368960646642962 0.31911015363466272 0 0.36266452242448938 0.34229393694352239 0 0.37014896644917339 0.316543878568457 0 0.36411885078159001 0.32644375487552563 0 0.36840829020790361 0.34668560051738673 0 0.36916640720496519 0.34145859007673351 0 0.36587418437400321 0.34278907974668538 0 0.36840829020790361 0.34668560051738673 0 0.37256750073976291 0.34304532959464751 0 0.36916640720496519 0.34145859007673351 0 0.36916640720496519 0.34145859007673351 0 0.36587418437400321 0.34278907974668538 0 0.36708394454210669 0.33994961910346172 0 0.36916640720496519 0.34145859007673351 0 0.37010024416019238 0.33739894816112592 0 0.36708394454210669 0.33994961910346172 0 0.36916640720496519 0.34145859007673351 0 0.37010024416019238 0.33739894816112592 0 0.37369311900952262 0.33836265764115908 0 0.36770298492566261 0.33637877995368609 0 0.37010024416019238 0.33739894816112592 0 0.36708394454210669 0.33994961910346172 0 0.37010024416019238 0.33739894816112592 0 0.37369311900952262 0.33836265764115908 0 0.3722735272100694 0.33425106354392481 0 0.3722735272100694 0.33425106354392481 0 0.37245621682226088 0.32924087979990557 0 0.375263113682131 0.33313320718557798 0 0.37369311900952262 0.33836265764115908 0 0.3722735272100694 0.33425106354392481 0 0.375263113682131 0.33313320718557798 0 0.3722735272100694 0.33425106354392481 0 0.37245621682226088 0.32924087979990557 0 0.36985494237623989 0.33311962493185521 0 0.37245621682226088 0.32924087979990557 0 0.37577016905582622 0.32787937856968757 0 0.375263113682131 0.33313320718557798 0 0.37010024416019238 0.33739894816112592 0 0.3722735272100694 0.33425106354392481 0 0.36985494237623989 0.33311962493185521 0 0.36770298492566261 0.33637877995368609 0 0.37010024416019238 0.33739894816112592 0 0.36985494237623989 0.33311962493185521 0 0.36128237795215928 0.33126347269122047 0 0.36124897776362869 0.33531944770056321 0 0.36411885078159001 0.32644375487552563 0 0.36150631125237548 0.32912422255951068 0 0.36128237795215928 0.33126347269122047 0 0.36411885078159001 0.32644375487552563 0 0.36150631125237548 0.32912422255951068 0 0.35994194411877378 0.32646204206530971 0 0.35835984371964152 0.33045614064968309 0 0.36128237795215928 0.33126347269122047 0 0.35899626180536931 0.33430086833413269 0 0.35835984371964152 0.33045614064968309 0 0.36150631125237548 0.32912422255951068 0 0.36128237795215928 0.33126347269122047 0 0.35835984371964152 0.33045614064968309 0 0.36128237795215928 0.33126347269122047 0 0.36124897776362869 0.33531944770056321 0 0.35899626180536931 0.33430086833413269 0 0.36124897776362869 0.33531944770056321 0 0.36001134864139028 0.33778823672905661 0 0.35899626180536931 0.33430086833413269 0 0.36124897776362869 0.33531944770056321 0 0.36001134864139028 0.33778823672905661 0 0.36266452242448938 0.34229393694352239 0 0.36001134864139028 0.33778823672905661 0 0.36266452242448938 0.34229393694352239 0 0.3582225103283424 0.33883319475427592 0 0.36266452242448938 0.34229393694352239 0 0.36587418437400321 0.34278907974668538 0 0.36708394454210669 0.33994961910346172 0 0.36770298492566261 0.33637877995368609 0 0.36266452242448938 0.34229393694352239 0 0.36708394454210669 0.33994961910346172 0 0.36266452242448938 0.34229393694352239 0 0.37368960646642962 0.31911015363466272 0 0.37014896644917339 0.316543878568457 0 0.37014896644917339 0.316543878568457 0 0.36604953812300478 0.31497278055865852 0 0.36630954626425261 0.31087512405144152 0 0.37499251130121058 0.31593455150060828 0 0.37014896644917339 0.316543878568457 0 0.37695808612291098 0.31120865645681561 0 0.37499251130121058 0.31593455150060828 0 0.37368960646642962 0.31911015363466272 0 0.37014896644917339 0.316543878568457 0 0.37014896644917339 0.316543878568457 0 0.36646072203027302 0.32009490443849897 0 0.3659238024377004 0.31770243144255911 0 0.37014896644917339 0.316543878568457 0 0.3659238024377004 0.31770243144255911 0 0.36604953812300478 0.31497278055865852 0 0.37245621682226088 0.32924087979990557 0 0.36985494237623989 0.33311962493185521 0 0.37368960646642962 0.31911015363466272 0 0.37245621682226088 0.32924087979990557 0 0.37368960646642962 0.31911015363466272 0 0.37506056064123422 0.32471797871916308 0 0.37245621682226088 0.32924087979990557 0 0.37577016905582622 0.32787937856968757 0 0.37506056064123422 0.32471797871916308 0 0.37014896644917339 0.316543878568457 0 0.36411885078159001 0.32644375487552563 0 0.36646072203027302 0.32009490443849897 0 0.36411885078159001 0.32644375487552563 0 0.35994194411877378 0.32646204206530971 0 0.36132202517978662 0.32303080634539388 0 0.36150631125237548 0.32912422255951068 0 0.36411885078159001 0.32644375487552563 0 0.35994194411877378 0.32646204206530971 0 0.36132202517978662 0.32303080634539388 0 0.36348301458407639 0.32047903077872458 0 0.35962675317161102 0.31893041505789499 0 0.36411885078159001 0.32644375487552563 0 0.36132202517978662 0.32303080634539388 0 0.36348301458407639 0.32047903077872458 0 0.36411885078159001 0.32644375487552563 0 0.36348301458407639 0.32047903077872458 0 0.36646072203027302 0.32009490443849897 0 0.36348301458407639 0.32047903077872458 0 0.36646072203027302 0.32009490443849897 0 0.3659238024377004 0.31770243144255911 0 0.3659238024377004 0.31770243144255911 0 0.36344593390349789 0.31667187251247519 0 0.36604953812300478 0.31497278055865852 0 0.36348301458407639 0.32047903077872458 0 0.3659238024377004 0.31770243144255911 0 0.36344593390349789 0.31667187251247519 0 0.36348301458407639 0.32047903077872458 0 0.36344593390349789 0.31667187251247519 0 0.35962675317161102 0.31893041505789499 0 0.36344593390349789 0.31667187251247519 0 0.35962675317161102 0.31893041505789499 0 0.35878641637012221 0.31305233625990619 0 0.36344593390349789 0.31667187251247519 0 0.36331333565659901 0.31283202127524651 0 0.35878641637012221 0.31305233625990619 0 0.36331333565659901 0.31283202127524651 0 0.36604953812300478 0.31497278055865852 0 0.36630954626425261 0.31087512405144152 0 0.36344593390349789 0.31667187251247519 0 0.36331333565659901 0.31283202127524651 0 0.36604953812300478 0.31497278055865852 0 0.35878641637012221 0.31305233625990619 0 0.35512602374864599 0.31718053618965047 0 0.35090510471213721 0.31152713165908658 0 0.35512602374864599 0.31718053618965047 0 0.34983435518440159 0.31943204998396652 0 0.35090510471213721 0.31152713165908658 0 0.35962675317161102 0.31893041505789499 0 0.35878641637012221 0.31305233625990619 0 0.35512602374864599 0.31718053618965047 0 0.35962675317161102 0.31893041505789499 0 0.35512602374864599 0.31718053618965047 0 0.35673455485560862 0.32229528426682241 0 0.35512602374864599 0.31718053618965047 0 0.35673455485560862 0.32229528426682241 0 0.34983435518440159 0.31943204998396652 0 0.35673455485560862 0.32229528426682241 0 0.35060422568955008 0.32587015674736058 0 0.34983435518440159 0.31943204998396652 0 0.35994194411877378 0.32646204206530971 0 0.36132202517978662 0.32303080634539388 0 0.35673455485560862 0.32229528426682241 0 0.36132202517978662 0.32303080634539388 0 0.35962675317161102 0.31893041505789499 0 0.35673455485560862 0.32229528426682241 0 0.35994194411877378 0.32646204206530971 0 0.35673455485560862 0.32229528426682241 0 0.35627338036128769 0.32705738058013539 0 0.35994194411877378 0.32646204206530971 0 0.35627338036128769 0.32705738058013539 0 0.35835984371964152 0.33045614064968309 0 0.35627338036128769 0.32705738058013539 0 0.35060422568955008 0.32587015674736058 0 0.35398721241228231 0.33095327650953749 0 0.35673455485560862 0.32229528426682241 0 0.35627338036128769 0.32705738058013539 0 0.35060422568955008 0.32587015674736058 0 0.35060422568955008 0.32587015674736058 0 0.34514221143703899 0.32919058107390442 0 0.34284551192874652 0.32364904383841531 0 0.35060422568955008 0.32587015674736058 0 0.34983435518440159 0.31943204998396652 0 0.34284551192874652 0.32364904383841531 0 0.34983435518440159 0.31943204998396652 0 0.34480088275632298 0.31606258733578418 0 0.35090510471213721 0.31152713165908658 0 0.34983435518440159 0.31943204998396652 0 0.34480088275632298 0.31606258733578418 0 0.34284551192874652 0.32364904383841531 0 0.35146565257524442 0.34420791440797271 0 0.36266452242448938 0.34229393694352239 0 0.35562031764263757 0.34031424282986023 0 0.35302683950207769 0.33602013814058929 0 0.35562031764263757 0.34031424282986023 0 0.35672120529774148 0.33684362974708199 0 0.35202203774268331 0.33965573310897551 0 0.35302683950207769 0.33602013814058929 0 0.35562031764263757 0.34031424282986023 0 0.35146565257524442 0.34420791440797271 0 0.35202203774268331 0.33965573310897551 0 0.35562031764263757 0.34031424282986023 0 0.36266452242448938 0.34229393694352239 0 0.35562031764263757 0.34031424282986023 0 0.3582225103283424 0.33883319475427592 0 0.35562031764263757 0.34031424282986023 0 0.3582225103283424 0.33883319475427592 0 0.35672120529774148 0.33684362974708199 0 0.36001134864139028 0.33778823672905661 0 0.3582225103283424 0.33883319475427592 0 0.35672120529774148 0.33684362974708199 0 0.36001134864139028 0.33778823672905661 0 0.35672120529774148 0.33684362974708199 0 0.35899626180536931 0.33430086833413269 0 0.35899626180536931 0.33430086833413269 0 0.35641212776078268 0.33381706902087938 0 0.35835984371964152 0.33045614064968309 0 0.35672120529774148 0.33684362974708199 0 0.35899626180536931 0.33430086833413269 0 0.35641212776078268 0.33381706902087938 0 0.35627338036128769 0.32705738058013539 0 0.35835984371964152 0.33045614064968309 0 0.35398721241228231 0.33095327650953749 0 0.35641212776078268 0.33381706902087938 0 0.35835984371964152 0.33045614064968309 0 0.35398721241228231 0.33095327650953749 0 0.35302683950207769 0.33602013814058929 0 0.35641212776078268 0.33381706902087938 0 0.35398721241228231 0.33095327650953749 0 0.35302683950207769 0.33602013814058929 0 0.35398721241228231 0.33095327650953749 0 0.34924685744035389 0.33249877391857741 0 0.35302683950207769 0.33602013814058929 0 0.35672120529774148 0.33684362974708199 0 0.35641212776078268 0.33381706902087938 0 0.35302683950207769 0.33602013814058929 0 0.34924685744035389 0.33249877391857741 0 0.34788509595764172 0.33882226599831611 0 0.35060422568955008 0.32587015674736058 0 0.34924685744035389 0.33249877391857741 0 0.34514221143703899 0.32919058107390442 0 0.35060422568955008 0.32587015674736058 0 0.35398721241228231 0.33095327650953749 0 0.34924685744035389 0.33249877391857741 0 0.34924685744035389 0.33249877391857741 0 0.34514221143703899 0.32919058107390442 0 0.34474234507332802 0.33433591834825649 0 0.34924685744035389 0.33249877391857741 0 0.34474234507332802 0.33433591834825649 0 0.34788509595764172 0.33882226599831611 0 0.34474234507332802 0.33433591834825649 0 0.34788509595764172 0.33882226599831611 0 0.34057592936449049 0.33809639891542392 0 0.35146565257524442 0.34420791440797271 0 0.34788509595764172 0.33882226599831611 0 0.34269927497721508 0.34493512072036142 0 0.35202203774268331 0.33965573310897551 0 0.35302683950207769 0.33602013814058929 0 0.34788509595764172 0.33882226599831611 0 0.35146565257524442 0.34420791440797271 0 0.35202203774268331 0.33965573310897551 0 0.34788509595764172 0.33882226599831611 0 0.34057592936449049 0.33809639891542392 0 0.33318390910610529 0.34358855052096038 0 0.34269927497721508 0.34493512072036142 0 0.34788509595764172 0.33882226599831611 0 0.34057592936449049 0.33809639891542392 0 0.34269927497721508 0.34493512072036142 0 0.34474234507332802 0.33433591834825649 0 0.34057592936449049 0.33809639891542392 0 0.33946855119551672 0.33096103471374028 0 0.34514221143703899 0.32919058107390442 0 0.34474234507332802 0.33433591834825649 0 0.33946855119551672 0.33096103471374028 0 0.34057592936449049 0.33809639891542392 0 0.33946855119551672 0.33096103471374028 0 0.33283637980140879 0.33469331179832718 0 0.33946855119551672 0.33096103471374028 0 0.33283637980140879 0.33469331179832718 0 0.33464693517381472 0.32630086361949601 0 0.33283637980140879 0.33469331179832718 0 0.33464693517381472 0.32630086361949601 0 0.3250964778074269 0.32978689602061512 0 0.34057592936449049 0.33809639891542392 0 0.33283637980140879 0.33469331179832718 0 0.33318390910610529 0.34358855052096038 0 0.33283637980140879 0.33469331179832718 0 0.33318390910610529 0.34358855052096038 0 0.32611481079287369 0.33974729713420021 0 0.34480088275632298 0.31606258733578418 0 0.33769186663180051 0.31814262317354819 0 0.34192449374142192 0.30753297203612773 0 0.34480088275632298 0.31606258733578418 0 0.33769186663180051 0.31814262317354819 0 0.34284551192874652 0.32364904383841531 0 0.33946855119551672 0.33096103471374028 0 0.34284551192874652 0.32364904383841531 0 0.33464693517381472 0.32630086361949601 0 0.33769186663180051 0.31814262317354819 0 0.34284551192874652 0.32364904383841531 0 0.33464693517381472 0.32630086361949601 0 0.34514221143703899 0.32919058107390442 0 0.33946855119551672 0.33096103471374028 0 0.34284551192874652 0.32364904383841531 0 0.33769186663180051 0.31814262317354819 0 0.33464693517381472 0.32630086361949601 0 0.32994282367798861 0.32057227217232959 0 0.33464693517381472 0.32630086361949601 0 0.32994282367798861 0.32057227217232959 0 0.3250964778074269 0.32978689602061512 0 0.33769186663180051 0.31814262317354819 0 0.32994282367798861 0.32057227217232959 0 0.32867162081685902 0.31028670060733149 0 0.32176892132522322 0.32006025561378759 0 0.31440941436971798 0.31242774502049953 0 0.32867162081685902 0.31028670060733149 0 0.32994282367798861 0.32057227217232959 0 0.32176892132522322 0.32006025561378759 0 0.32867162081685902 0.31028670060733149 0 0.32176892132522322 0.32006025561378759 0 0.31484893044661 0.32778579360563193 0 0.3250964778074269 0.32978689602061512 0 0.32994282367798861 0.32057227217232959 0 0.32176892132522322 0.32006025561378759 0 0.3250964778074269 0.32978689602061512 0 0.32176892132522322 0.32006025561378759 0 0.31484893044661 0.32778579360563193 0 0.31440941436971798 0.31242774502049953 0 0.32611481079287369 0.33974729713420021 0 0.3250964778074269 0.32978689602061512 0 0.31767498628904178 0.33862919533695518 0 0.32611481079287369 0.33974729713420021 0 0.31767498628904178 0.33862919533695518 0 0.32336406622478242 0.34852958887145069 0 0.33283637980140879 0.33469331179832718 0 0.32611481079287369 0.33974729713420021 0 0.3250964778074269 0.32978689602061512 0 0.31484893044661 0.32778579360563193 0 0.31767498628904178 0.33862919533695518 0 0.30654896287530792 0.34033791233229299 0 0.31484893044661 0.32778579360563193 0 0.3250964778074269 0.32978689602061512 0 0.31767498628904178 0.33862919533695518 0 0.31767498628904178 0.33862919533695518 0 0.31315570067328902 0.3464643712977632 0 0.32336406622478242 0.34852958887145069 0 0.31315570067328902 0.3464643712977632 0 0.31355388928080707 0.35546570062290778 0 0.32336406622478242 0.34852958887145069 0 0.32336406622478242 0.34852958887145069 0 0.33442175170730049 0.35218858713626039 0 0.32437013183195901 0.3602157298059272 0 0.31355388928080707 0.35546570062290778 0 0.32336406622478242 0.34852958887145069 0 0.32437013183195901 0.3602157298059272 0 0.33318390910610529 0.34358855052096038 0 0.32611481079287369 0.33974729713420021 0 0.32336406622478242 0.34852958887145069 0 0.35030182712711511 0.35130594720886232 0 0.33442175170730049 0.35218858713626039 0 0.33389487655237682 0.3658352592629312 0 0.33318390910610529 0.34358855052096038 0 0.32336406622478242 0.34852958887145069 0 0.33442175170730049 0.35218858713626039 0 0.35030182712711511 0.35130594720886232 0 0.33442175170730049 0.35218858713626039 0 0.34269927497721508 0.34493512072036142 0 0.33318390910610529 0.34358855052096038 0 0.33442175170730049 0.35218858713626039 0 0.34269927497721508 0.34493512072036142 0 0.34270248502322931 0.38427053755298168 0 0.35268350372385993 0.36328223724825232 0 0.33389487655237682 0.3658352592629312 0 0.33442175170730049 0.35218858713626039 0 0.33389487655237682 0.3658352592629312 0 0.32437013183195901 0.3602157298059272 0 0.31661607539452802 0.37905951313608538 0 0.33389487655237682 0.3658352592629312 0 0.32437013183195901 0.3602157298059272 0 0.31661607539452802 0.37905951313608538 0 0.31355388928080707 0.35546570062290778 0 0.32437013183195901 0.3602157298059272 0 0.31661607539452802 0.37905951313608538 0 0.31355388928080707 0.35546570062290778 0 0.31661607539452802 0.37905951313608538 0 0.31355388928080707 0.35546570062290778 0 0.30541822204374358 0.36584678197342768 0 0.2987730087010142 0.37934426936791982 0 0.31661607539452802 0.37905951313608538 0 0.30541822204374358 0.36584678197342768 0 0.30541822204374358 0.36584678197342768 0 0.30393955747459928 0.35096595789874813 0 0.29215410451095353 0.36543341035917859 0 0.2987730087010142 0.37934426936791982 0 0.30541822204374358 0.36584678197342768 0 0.29215410451095353 0.36543341035917859 0 0.31315570067328902 0.3464643712977632 0 0.30393955747459928 0.35096595789874813 0 0.30654896287530792 0.34033791233229299 0 0.31315570067328902 0.3464643712977632 0 0.31355388928080707 0.35546570062290778 0 0.30393955747459928 0.35096595789874813 0 0.31355388928080707 0.35546570062290778 0 0.30541822204374358 0.36584678197342768 0 0.30393955747459928 0.35096595789874813 0 0.30393955747459928 0.35096595789874813 0 0.29215410451095353 0.36543341035917859 0 0.30393955747459928 0.35096595789874813 0 0.29720735802849829 0.34424744790442102 0 0.29027641861796738 0.35164951467646482 0 0.30393955747459928 0.35096595789874813 0 0.29720735802849829 0.34424744790442102 0 0.30654896287530792 0.34033791233229299 0 0.29720735802849829 0.34424744790442102 0 0.29027641861796738 0.35164951467646482 0 0.28998304713239348 0.34105976447064218 0 0.30393955747459928 0.35096595789874813 0 0.29027641861796738 0.35164951467646482 0 0.29215410451095353 0.36543341035917859 0 0.29027641861796738 0.35164951467646482 0 0.29215410451095353 0.36543341035917859 0 0.27920137084664282 0.3573603676334649 0 0.29027641861796738 0.35164951467646482 0 0.27920137084664282 0.3573603676334649 0 0.28068773357058369 0.34198453751068081 0 0.29027641861796738 0.35164951467646482 0 0.28068773357058369 0.34198453751068081 0 0.28998304713239348 0.34105976447064218 0 0.28036865154730628 0.37990086281960789 0 0.29215410451095353 0.36543341035917859 0 0.27920137084664282 0.3573603676334649 0 0.28036865154730628 0.37990086281960789 0 0.2987730087010142 0.37934426936791982 0 0.29215410451095353 0.36543341035917859 0 0.28036865154730628 0.37990086281960789 0 0.29215410451095353 0.36543341035917859 0 0.28036865154730628 0.37990086281960789 0 0.27920137084664282 0.3573603676334649 0 0.26173146881309822 0.35734024057335978 0 0.28036865154730628 0.37990086281960789 0 0.26173146881309822 0.35734024057335978 0 0.28036865154730628 0.37990086281960789 0 0.26173146881309822 0.35734024057335978 0 0.2641967246118288 0.36596915937278562 0 0.27920137084664282 0.3573603676334649 0 0.27030047393074008 0.3474963096498429 0 0.26173146881309822 0.35734024057335978 0 0.27920137084664282 0.3573603676334649 0 0.27030047393074008 0.3474963096498429 0 0.28068773357058369 0.34198453751068081 0 0.2430942860788903 0.33477961832711151 0 0.26173146881309822 0.35734024057335978 0 0.27030047393074008 0.3474963096498429 0 0.26173146881309822 0.35734024057335978 0 0.26240083601839698 0.33727672217147331 0 0.23816107804029091 0.35120524212074949 0 0.26173146881309822 0.35734024057335978 0 0.2641967246118288 0.36596915937278562 0 0.23816107804029091 0.35120524212074949 0 0.2641967246118288 0.36596915937278562 0 0.2492643002430574 0.365916522193315 0 0.24311907173897271 0.36013203008567057 0 0.2641967246118288 0.36596915937278562 0 0.2492643002430574 0.365916522193315 0 0.25710864090743918 0.37145542319719338 0 0.2641967246118288 0.36596915937278562 0 0.2492643002430574 0.365916522193315 0 0.25383912625151372 0.37755129754335942 0 0.25710864090743918 0.37145542319719338 0 0.26350653962281989 0.38010735630523079 0 0.25710864090743918 0.37145542319719338 0 0.2641967246118288 0.36596915937278562 0 0.2484846271056145 0.31037308609574782 0 0.25508783524565293 0.32209220201309929 0 0.26836904206483531 0.31075971332937607 0 0.25508783524565293 0.32209220201309929 0 0.26240083601839698 0.33727672217147331 0 0.26677092012209491 0.32204036282613252 0 0.25508783524565293 0.32209220201309929 0 0.26677092012209491 0.32204036282613252 0 0.26836904206483531 0.31075971332937607 0 0.2430942860788903 0.33477961832711151 0 0.25508783524565293 0.32209220201309929 0 0.26240083601839698 0.33727672217147331 0 0.2430942860788903 0.33477961832711151 0 0.26173146881309822 0.35734024057335978 0 0.26240083601839698 0.33727672217147331 0 0.26240083601839698 0.33727672217147331 0 0.27184092000699639 0.33891315949469752 0 0.27388917516664008 0.32964775149744319 0 0.26240083601839698 0.33727672217147331 0 0.27388917516664008 0.32964775149744319 0 0.26677092012209491 0.32204036282613252 0 0.27030047393074008 0.3474963096498429 0 0.26240083601839698 0.33727672217147331 0 0.27184092000699639 0.33891315949469752 0 0.27030047393074008 0.3474963096498429 0 0.27184092000699639 0.33891315949469752 0 0.28068773357058369 0.34198453751068081 0 0.27184092000699639 0.33891315949469752 0 0.28068773357058369 0.34198453751068081 0 0.27388917516664008 0.32964775149744319 0 0.28068773357058369 0.34198453751068081 0 0.27388917516664008 0.32964775149744319 0 0.28570907475377572 0.33188311037056872 0 0.27388917516664008 0.32964775149744319 0 0.26677092012209491 0.32204036282613252 0 0.28178409254690689 0.31684790712797722 0 0.27388917516664008 0.32964775149744319 0 0.28178409254690689 0.31684790712797722 0 0.28570907475377572 0.33188311037056872 0 0.26677092012209491 0.32204036282613252 0 0.28178409254690689 0.31684790712797722 0 0.26836904206483531 0.31075971332937607 0 0.28178409254690689 0.31684790712797722 0 0.29262159606390598 0.32453461147271162 0 0.29660332646403359 0.30785121346786842 0 0.28178409254690689 0.31684790712797722 0 0.29262159606390598 0.32453461147271162 0 0.28570907475377572 0.33188311037056872 0 0.28068773357058369 0.34198453751068081 0 0.28570907475377572 0.33188311037056872 0 0.28998304713239348 0.34105976447064218 0 0.29262159606390598 0.32453461147271162 0 0.28570907475377572 0.33188311037056872 0 0.29603465069114282 0.33553421189107618 0 0.29720735802849829 0.34424744790442102 0 0.29603465069114282 0.33553421189107618 0 0.28998304713239348 0.34105976447064218 0 0.28570907475377572 0.33188311037056872 0 0.29603465069114282 0.33553421189107618 0 0.28998304713239348 0.34105976447064218 0 0.29720735802849829 0.34424744790442102 0 0.29603465069114282 0.33553421189107618 0 0.30654896287530792 0.34033791233229299 0 0.29603465069114282 0.33553421189107618 0 0.30654896287530792 0.34033791233229299 0 0.30445412428221041 0.32558903425911379 0 0.29262159606390598 0.32453461147271162 0 0.29603465069114282 0.33553421189107618 0 0.30445412428221041 0.32558903425911379 0 0.31484893044661 0.32778579360563193 0 0.30654896287530792 0.34033791233229299 0 0.30445412428221041 0.32558903425911379 0 0.31767498628904178 0.33862919533695518 0 0.31315570067328902 0.3464643712977632 0 0.30654896287530792 0.34033791233229299 0 0.30445412428221041 0.32558903425911379 0 0.29660332646403359 0.30785121346786842 0 0.31440941436971798 0.31242774502049953 0 0.29262159606390598 0.32453461147271162 0 0.30445412428221041 0.32558903425911379 0 0.29660332646403359 0.30785121346786842 0 0.31484893044661 0.32778579360563193 0 0.30445412428221041 0.32558903425911379 0 0.31440941436971798 0.31242774502049953 0 0.30822946874662033 0.29998271616579031 0 0.29660332646403359 0.30785121346786842 0 0.31440941436971798 0.31242774502049953 0 0.30822946874662033 0.29998271616579031 0 0.30055108247350393 0.28416894361273021 0 0.29660332646403359 0.30785121346786842 0 0.30822946874662033 0.29998271616579031 0 0.30055108247350393 0.28416894361273021 0 0.32109763140443309 0.29547610107375327 0 0.30055108247350393 0.28416894361273021 0 0.29660332646403359 0.30785121346786842 0 0.27430616976337108 0.29100628718303567 0 0.30055108247350393 0.28416894361273021 0 0.27430616976337108 0.29100628718303567 0 0.28443506245096839 0.27205148705280008 0 0.30055108247350393 0.28416894361273021 0 0.27430616976337108 0.29100628718303567 0 0.28178409254690689 0.31684790712797722 0 0.29660332646403359 0.30785121346786842 0 0.27430616976337108 0.29100628718303567 0 0.28178409254690689 0.31684790712797722 0 0.26836904206483531 0.31075971332937607 0 0.27430616976337108 0.29100628718303567 0 0.28178409254690689 0.31684790712797722 0 0.27430616976337108 0.29100628718303567 0 0.27430616976337108 0.29100628718303567 0 0.25121587924780342 0.29702178630611242 0 0.27430616976337108 0.29100628718303567 0 0.25953152444998728 0.28294166139542631 0 0.25121587924780342 0.29702178630611242 0 0.26836904206483531 0.31075971332937607 0 0.27430616976337108 0.29100628718303567 0 0.25121587924780342 0.29702178630611242 0 0.26836904206483531 0.31075971332937607 0 0.25121587924780342 0.29702178630611242 0 0.2484846271056145 0.31037308609574782 0 0.26836904206483531 0.31075971332937607 0 0.25121587924780342 0.29702178630611242 0 0.25102838231212438 0.26850893423506528 0 0.26790857605335527 0.26889798384773289 0 0.26221447651104962 0.2479993693513689 0 0.26790857605335527 0.26889798384773289 0 0.26221447651104962 0.2479993693513689 0 0.25953152444998728 0.28294166139542631 0 0.25102838231212438 0.26850893423506528 0 0.26790857605335527 0.26889798384773289 0 0.27430616976337108 0.29100628718303567 0 0.26790857605335527 0.26889798384773289 0 0.28443506245096839 0.27205148705280008 0 0.27430616976337108 0.29100628718303567 0 0.25953152444998728 0.28294166139542631 0 0.26790857605335527 0.26889798384773289 0 0.27430616976337108 0.29100628718303567 0 0.26790857605335527 0.26889798384773289 0 0.26790857605335527 0.26889798384773289 0 0.28119448123381058 0.25405304303149878 0 0.26221447651104962 0.2479993693513689 0 0.26790857605335527 0.26889798384773289 0 0.28119448123381058 0.25405304303149878 0 0.28443506245096839 0.27205148705280008 0 0.28119448123381058 0.25405304303149878 0 0.28443506245096839 0.27205148705280008 0 0.2982150027308012 0.26213117758900317 0 0.28119448123381058 0.25405304303149878 0 0.2982150027308012 0.26213117758900317 0 0.30328699804120918 0.24394477185791469 0 0.30055108247350393 0.28416894361273021 0 0.28443506245096839 0.27205148705280008 0 0.2982150027308012 0.26213117758900317 0 0.30055108247350393 0.28416894361273021 0 0.2982150027308012 0.26213117758900317 0 0.31879452400631653 0.25919465198291952 0 0.2982150027308012 0.26213117758900317 0 0.31879452400631653 0.25919465198291952 0 0.30328699804120918 0.24394477185791469 0 0.31879452400631653 0.25919465198291952 0 0.33092809789354199 0.24744869965648561 0 0.31845456220733243 0.24449663650262579 0 0.31879452400631653 0.25919465198291952 0 0.33565265393095528 0.25675142138279861 0 0.33982225619875311 0.26765994074234428 0 0.31879452400631653 0.25919465198291952 0 0.33982225619875311 0.26765994074234428 0 0.31879452400631653 0.25919465198291952 0 0.33565265393095528 0.25675142138279861 0 0.33092809789354199 0.24744869965648561 0 0.33565265393095528 0.25675142138279861 0 0.33982225619875311 0.26765994074234428 0 0.34536281311255052 0.25941060478944128 0 0.33565265393095528 0.25675142138279861 0 0.3433555784436142 0.25004320974280247 0 0.33092809789354199 0.24744869965648561 0 0.33565265393095528 0.25675142138279861 0 0.3433555784436142 0.25004320974280247 0 0.34536281311255052 0.25941060478944128 0 0.31879452400631653 0.25919465198291952 0 0.33982225619875311 0.26765994074234428 0 0.32679599518363661 0.27733160004242491 0 0.33982225619875311 0.26765994074234428 0 0.32679599518363661 0.27733160004242491 0 0.34056182851336592 0.28206143899133118 0 0.30055108247350393 0.28416894361273021 0 0.32679599518363661 0.27733160004242491 0 0.30055108247350393 0.28416894361273021 0 0.31879452400631653 0.25919465198291952 0 0.32679599518363661 0.27733160004242491 0 0.32679599518363661 0.27733160004242491 0 0.32109763140443309 0.29547610107375327 0 0.33248404658197278 0.28876668272462419 0 0.30055108247350393 0.28416894361273021 0 0.32679599518363661 0.27733160004242491 0 0.32109763140443309 0.29547610107375327 0 0.32109763140443309 0.29547610107375327 0 0.31440941436971798 0.31242774502049953 0 0.32867162081685902 0.31028670060733149 0 0.30822946874662033 0.29998271616579031 0 0.32109763140443309 0.29547610107375327 0 0.31440941436971798 0.31242774502049953 0 0.32867162081685902 0.31028670060733149 0 0.33472549883669622 0.29791121211074773 0 0.34192449374142192 0.30753297203612773 0 0.32109763140443309 0.29547610107375327 0 0.32867162081685902 0.31028670060733149 0 0.33472549883669622 0.29791121211074773 0 0.33472549883669622 0.29791121211074773 0 0.34281583705185747 0.29966479619329672 0 0.34192449374142192 0.30753297203612773 0 0.33769186663180051 0.31814262317354819 0 0.32867162081685902 0.31028670060733149 0 0.34192449374142192 0.30753297203612773 0 0.32679599518363661 0.27733160004242491 0 0.33248404658197278 0.28876668272462419 0 0.34056182851336592 0.28206143899133118 0 0.32109763140443309 0.29547610107375327 0 0.33472549883669622 0.29791121211074773 0 0.33248404658197278 0.28876668272462419 0 0.33472549883669622 0.29791121211074773 0 0.33248404658197278 0.28876668272462419 0 0.34417327957572558 0.29277050597204329 0 0.33472549883669622 0.29791121211074773 0 0.34281583705185747 0.29966479619329672 0 0.34417327957572558 0.29277050597204329 0 0.33248404658197278 0.28876668272462419 0 0.34056182851336592 0.28206143899133118 0 0.34417327957572558 0.29277050597204329 0 0.34056182851336592 0.28206143899133118 0 0.34979868535227071 0.28728326233729501 0 0.34417327957572558 0.29277050597204329 0 0.34056182851336592 0.28206143899133118 0 0.34979868535227071 0.28728326233729501 0 0.35183199075491411 0.27966461044832719 0 0.34417327957572558 0.29277050597204329 0 0.35334053836337709 0.29410458558147129 0 0.34972900846361488 0.30172704795696642 0 0.34979868535227071 0.28728326233729501 0 0.34417327957572558 0.29277050597204329 0 0.35334053836337709 0.29410458558147129 0 0.34979868535227071 0.28728326233729501 0 0.35334053836337709 0.29410458558147129 0 0.35722235408413222 0.28831366276426512 0 0.35334053836337709 0.29410458558147129 0 0.35826071325737319 0.3003277240158499 0 0.36091512844171192 0.29433704443458902 0 0.35334053836337709 0.29410458558147129 0 0.35722235408413222 0.28831366276426512 0 0.36091512844171192 0.29433704443458902 0 0.34979868535227071 0.28728326233729501 0 0.35722235408413222 0.28831366276426512 0 0.35183199075491411 0.27966461044832719 0 0.35722235408413222 0.28831366276426512 0 0.36152496379752869 0.28359539021876212 0 0.35183199075491411 0.27966461044832719 0 0.34480088275632298 0.31606258733578418 0 0.34192449374142192 0.30753297203612773 0 0.35090510471213721 0.31152713165908658 0 0.34192449374142192 0.30753297203612773 0 0.35090510471213721 0.31152713165908658 0 0.34972900846361488 0.30172704795696642 0 0.34281583705185747 0.29966479619329672 0 0.34417327957572558 0.29277050597204329 0 0.34972900846361488 0.30172704795696642 0 0.34281583705185747 0.29966479619329672 0 0.34192449374142192 0.30753297203612773 0 0.34972900846361488 0.30172704795696642 0 0.34972900846361488 0.30172704795696642 0 0.35826071325737319 0.3003277240158499 0 0.35721607615581658 0.30656573559573969 0 0.35334053836337709 0.29410458558147129 0 0.34972900846361488 0.30172704795696642 0 0.35826071325737319 0.3003277240158499 0 0.35090510471213721 0.31152713165908658 0 0.34972900846361488 0.30172704795696642 0 0.35721607615581658 0.30656573559573969 0 0.35878641637012221 0.31305233625990619 0 0.35090510471213721 0.31152713165908658 0 0.35721607615581658 0.30656573559573969 0 0.37014896644917339 0.316543878568457 0 0.37763341047385651 0.29079382019339128 0 0.37014896644917339 0.316543878568457 0 0.37108481648816682 0.30013899891886681 0 0.36845835323010317 0.30596496181531441 0 0.37014896644917339 0.316543878568457 0 0.37763341047385651 0.29079382019339128 0 0.37695808612291098 0.31120865645681561 0 0.37014896644917339 0.316543878568457 0 0.37108481648816682 0.30013899891886681 0 0.37763341047385651 0.29079382019339128 0 0.36630954626425261 0.31087512405144152 0 0.36228941999803421 0.30896529616435242 0 0.36543096483439103 0.3064802843427199 0 0.36331333565659901 0.31283202127524651 0 0.36630954626425261 0.31087512405144152 0 0.36228941999803421 0.30896529616435242 0 0.36331333565659901 0.31283202127524651 0 0.35878641637012221 0.31305233625990619 0 0.36228941999803421 0.30896529616435242 0 0.35878641637012221 0.31305233625990619 0 0.35721607615581658 0.30656573559573969 0 0.36228941999803421 0.30896529616435242 0 0.35721607615581658 0.30656573559573969 0 0.36228941999803421 0.30896529616435242 0 0.36268018070702418 0.30398627546106088 0 0.36630954626425261 0.31087512405144152 0 0.36543096483439103 0.3064802843427199 0 0.36845835323010317 0.30596496181531441 0 0.36228941999803421 0.30896529616435242 0 0.36543096483439103 0.3064802843427199 0 0.36268018070702418 0.30398627546106088 0 0.36543096483439103 0.3064802843427199 0 0.36607900901995372 0.30349396637540749 0 0.36845835323010317 0.30596496181531441 0 0.36607900901995372 0.30349396637540749 0 0.36268018070702418 0.30398627546106088 0 0.36558719123160882 0.29969948119116269 0 0.36607900901995372 0.30349396637540749 0 0.36558719123160882 0.29969948119116269 0 0.36823835509664099 0.30133882906677939 0 0.36543096483439103 0.3064802843427199 0 0.36607900901995372 0.30349396637540749 0 0.36268018070702418 0.30398627546106088 0 0.35826071325737319 0.3003277240158499 0 0.35721607615581658 0.30656573559573969 0 0.36268018070702418 0.30398627546106088 0 0.35826071325737319 0.3003277240158499 0 0.36268018070702418 0.30398627546106088 0 0.36558719123160882 0.29969948119116269 0 0.35826071325737319 0.3003277240158499 0 0.36558719123160882 0.29969948119116269 0 0.36091512844171192 0.29433704443458902 0 0.36871223371641282 0.29817542324200702 0 0.37108481648816682 0.30013899891886681 0 0.37014933742706652 0.29575476169949788 0 0.36558719123160882 0.29969948119116269 0 0.36871223371641282 0.29817542324200702 0 0.36734652779664789 0.29411680932906442 0 0.36558719123160882 0.29969948119116269 0 0.36871223371641282 0.29817542324200702 0 0.36823835509664099 0.30133882906677939 0 0.36871223371641282 0.29817542324200702 0 0.37108481648816682 0.30013899891886681 0 0.36823835509664099 0.30133882906677939 0 0.37108481648816682 0.30013899891886681 0 0.36823835509664099 0.30133882906677939 0 0.36845835323010317 0.30596496181531441 0 0.36607900901995372 0.30349396637540749 0 0.36823835509664099 0.30133882906677939 0 0.36845835323010317 0.30596496181531441 0 0.37014896644917339 0.316543878568457 0 0.36630954626425261 0.31087512405144152 0 0.36845835323010317 0.30596496181531441 0 0.36812955944888692 0.28419813691800921 0 0.36084998839118931 0.2761252295017701 0 0.37969218042614078 0.28371066929036243 0 0.36152496379752869 0.28359539021876212 0 0.36812955944888692 0.28419813691800921 0 0.36084998839118931 0.2761252295017701 0 0.36414496955441777 0.28941104037434479 0 0.36911771796651938 0.28986917351547109 0 0.36812955944888692 0.28419813691800921 0 0.36152496379752869 0.28359539021876212 0 0.36414496955441777 0.28941104037434479 0 0.36812955944888692 0.28419813691800921 0 0.35722235408413222 0.28831366276426512 0 0.36152496379752869 0.28359539021876212 0 0.36414496955441777 0.28941104037434479 0 0.35722235408413222 0.28831366276426512 0 0.36091512844171192 0.29433704443458902 0 0.36414496955441777 0.28941104037434479 0 0.36558719123160882 0.29969948119116269 0 0.36091512844171192 0.29433704443458902 0 0.36734652779664789 0.29411680932906442 0 0.36091512844171192 0.29433704443458902 0 0.36414496955441777 0.28941104037434479 0 0.36734652779664789 0.29411680932906442 0 0.36414496955441777 0.28941104037434479 0 0.36911771796651938 0.28986917351547109 0 0.36734652779664789 0.29411680932906442 0 0.36911771796651938 0.28986917351547109 0 0.37026464520563152 0.29279186409727531 0 0.36734652779664789 0.29411680932906442 0 0.37108481648816682 0.30013899891886681 0 0.37306860395079622 0.29341917559567809 0 0.37763341047385651 0.29079382019339128 0 0.36911771796651938 0.28986917351547109 0 0.37026464520563152 0.29279186409727531 0 0.37237913536365119 0.29056320862162688 0 0.36871223371641282 0.29817542324200702 0 0.36734652779664789 0.29411680932906442 0 0.37014933742706652 0.29575476169949788 0 0.37026464520563152 0.29279186409727531 0 0.36734652779664789 0.29411680932906442 0 0.37014933742706652 0.29575476169949788 0 0.37108481648816682 0.30013899891886681 0 0.37014933742706652 0.29575476169949788 0 0.37306860395079622 0.29341917559567809 0 0.37026464520563152 0.29279186409727531 0 0.37014933742706652 0.29575476169949788 0 0.37306860395079622 0.29341917559567809 0 0.36911771796651938 0.28986917351547109 0 0.37237913536365119 0.29056320862162688 0 0.37333201972158658 0.2878654242033048 0 0.37306860395079622 0.29341917559567809 0 0.37237913536365119 0.29056320862162688 0 0.37763341047385651 0.29079382019339128 0 0.37237913536365119 0.29056320862162688 0 0.37333201972158658 0.2878654242033048 0 0.37763341047385651 0.29079382019339128 0 0.37026464520563152 0.29279186409727531 0 0.37306860395079622 0.29341917559567809 0 0.37237913536365119 0.29056320862162688 0 0.37333201972158658 0.2878654242033048 0 0.36812955944888692 0.28419813691800921 0 0.37969218042614078 0.28371066929036243 0 0.36911771796651938 0.28986917351547109 0 0.37333201972158658 0.2878654242033048 0 0.36812955944888692 0.28419813691800921 0 0.36084998839118931 0.2761252295017701 0 0.37969218042614078 0.28371066929036243 0 0.36084998839118931 0.2761252295017701 0 0.37017340450925651 0.266060206293324 0 0.3539366042426153 0.26554047293381039 0 0.36084998839118931 0.2761252295017701 0 0.38460708535355081 0.26680105137204091 0 0.36084998839118931 0.2761252295017701 0 0.37017340450925651 0.266060206293324 0 0.38460708535355081 0.26680105137204091 0 0.3539366042426153 0.26554047293381039 0 0.38129994004966872 0.25577407136566988 0 0.37169426656027921 0.24972740256563611 0 0.37017340450925651 0.266060206293324 0 0.3539366042426153 0.26554047293381039 0 0.38129994004966872 0.25577407136566988 0 0.3539366042426153 0.26554047293381039 0 0.37169426656027921 0.24972740256563611 0 0.36205361842742478 0.24882498742118489 0 0.3539366042426153 0.26554047293381039 0 0.38129994004966872 0.25577407136566988 0 0.3539366042426153 0.26554047293381039 0 0.35175757775775729 0.2532797976346674 0 0.36205361842742478 0.24882498742118489 0 0.3433555784436142 0.25004320974280247 0 0.35175757775775729 0.2532797976346674 0 0.34536281311255052 0.25941060478944128 0 0.33982225619875311 0.26765994074234428 0 0.3539366042426153 0.26554047293381039 0 0.34536281311255052 0.25941060478944128 0 0.3539366042426153 0.26554047293381039 0 0.35175757775775729 0.2532797976346674 0 0.34536281311255052 0.25941060478944128 0 0.33982225619875311 0.26765994074234428 0 0.36084998839118931 0.2761252295017701 0 0.33982225619875311 0.26765994074234428 0 0.36084998839118931 0.2761252295017701 0 0.3539366042426153 0.26554047293381039 0 0.33982225619875311 0.26765994074234428 0 0.36084998839118931 0.2761252295017701 0 0.35183199075491411 0.27966461044832719 0 0.33982225619875311 0.26765994074234428 0 0.34056182851336592 0.28206143899133118 0 0.35183199075491411 0.27966461044832719 0 0.36152496379752869 0.28359539021876212 0 0.36084998839118931 0.2761252295017701 0 0.35183199075491411 0.27966461044832719 0 0.36084998839118931 0.2761252295017701 0 0.35183199075491411 0.27966461044832719 0 0.39945440726228237 0.27350419034528239 0 0.38460708535355081 0.26680105137204091 0 0.40768566828284042 0.25774317622192677 0 0.39945440726228237 0.27350419034528239 0 0.4092682188351508 0.26816031590002881 0 0.40768566828284042 0.25774317622192677 0 0.39945440726228237 0.27350419034528239 0 0.38460708535355081 0.26680105137204091 0 0.3904751567012596 0.27530993325585928 0 0.39945440726228237 0.27350419034528239 0 0.3904751567012596 0.27530993325585928 0 0.39488150240831521 0.28173053148540511 0 0.39945440726228237 0.27350419034528239 0 0.40366985246608472 0.28285995447659418 0 0.40929088926209078 0.279020096056181 0 0.39945440726228237 0.27350419034528239 0 0.4092682188351508 0.26816031590002881 0 0.40929088926209078 0.279020096056181 0 0.39945440726228237 0.27350419034528239 0 0.39488150240831521 0.28173053148540511 0 0.40366985246608472 0.28285995447659418 0 0.38783836144724232 0.2556839199238965 0 0.38129994004966872 0.25577407136566988 0 0.40866327585672191 0.24600766979752939 0 0.38460708535355081 0.26680105137204091 0 0.40768566828284042 0.25774317622192677 0 0.38783836144724232 0.2556839199238965 0 0.40768566828284042 0.25774317622192677 0 0.40866327585672191 0.24600766979752939 0 0.38783836144724232 0.2556839199238965 0 0.38460708535355081 0.26680105137204091 0 0.40768566828284042 0.25774317622192677 0 0.38129994004966872 0.25577407136566988 0 0.40866327585672191 0.24600766979752939 0 0.38783836144724232 0.2556839199238965 0 0.38129994004966872 0.25577407136566988 0 0.38460708535355081 0.26680105137204091 0 0.38783836144724232 0.2556839199238965 0 0.38460708535355081 0.26680105137204091 0 0.38129994004966872 0.25577407136566988 0 0.37169426656027921 0.24972740256563611 0 0.38106847269238292 0.24536179082341181 0 0.37017340450925651 0.266060206293324 0 0.38129994004966872 0.25577407136566988 0 0.38460708535355081 0.26680105137204091 0 0.36084998839118931 0.2761252295017701 0 0.38460708535355081 0.26680105137204091 0 0.37969218042614078 0.28371066929036243 0 0.38460708535355081 0.26680105137204091 0 0.3904751567012596 0.27530993325585928 0 0.37969218042614078 0.28371066929036243 0 0.38460708535355081 0.26680105137204091 0 0.37969218042614078 0.28371066929036243 0 0.3904751567012596 0.27530993325585928 0 0.37969218042614078 0.28371066929036243 0 0.39488150240831521 0.28173053148540511 0 0.37969218042614078 0.28371066929036243 0 0.37763341047385651 0.29079382019339128 0 0.40259214502479168 0.29292967641552992 0 0.37763341047385651 0.29079382019339128 0 0.4027243230010164 0.30147339632314252 0 0.37969218042614078 0.28371066929036243 0 0.37763341047385651 0.29079382019339128 0 0.37333201972158658 0.2878654242033048 0 0.37969218042614078 0.28371066929036243 0 0.37763341047385651 0.29079382019339128 0 0.37763341047385651 0.29079382019339128 0 0.37695808612291098 0.31120865645681561 0 0.38599374742651271 0.30414296713942529 0 0.37763341047385651 0.29079382019339128 0 0.38599374742651271 0.30414296713942529 0 0.4027243230010164 0.30147339632314252 0 0.37695808612291098 0.31120865645681561 0 0.38599374742651271 0.30414296713942529 0 0.38754735899376969 0.31282171123814728 0 0.38599374742651271 0.30414296713942529 0 0.4027243230010164 0.30147339632314252 0 0.38754735899376969 0.31282171123814728 0 0.4027243230010164 0.30147339632314252 0 0.3956366020903157 0.32248231082130752 0 0.38754735899376969 0.31282171123814728 0 0.37969218042614078 0.28371066929036243 0 0.40259214502479168 0.29292967641552992 0 0.37969218042614078 0.28371066929036243 0 0.39488150240831521 0.28173053148540511 0 0.40259214502479168 0.29292967641552992 0 0.37763341047385651 0.29079382019339128 0 0.4027243230010164 0.30147339632314252 0 0.40259214502479168 0.29292967641552992 0 0.4027243230010164 0.30147339632314252 0 0.40259214502479168 0.29292967641552992 0 0.41139710839419091 0.29189735433941028 0 0.40259214502479168 0.29292967641552992 0 0.40366985246608472 0.28285995447659418 0 0.41139710839419091 0.29189735433941028 0 0.39488150240831521 0.28173053148540511 0 0.40259214502479168 0.29292967641552992 0 0.40366985246608472 0.28285995447659418 0 0.40366985246608472 0.28285995447659418 0 0.41139710839419091 0.29189735433941028 0 0.40929088926209078 0.279020096056181 0 0.41139710839419091 0.29189735433941028 0 0.42781523552817591 0.31215297245289481 0 0.42226183937510081 0.28327127115801121 0 0.41139710839419091 0.29189735433941028 0 0.42226183937510081 0.28327127115801121 0 0.40929088926209078 0.279020096056181 0 0.4027243230010164 0.30147339632314252 0 0.41139710839419091 0.29189735433941028 0 0.42781523552817591 0.31215297245289481 0 0.4027243230010164 0.30147339632314252 0 0.42781523552817591 0.31215297245289481 0 0.41357021602424721 0.32279281759874212 0 0.4027243230010164 0.30147339632314252 0 0.42781523552817591 0.31215297245289481 0 0.42781523552817591 0.31215297245289481 0 0.42226183937510081 0.28327127115801121 0 0.42781523552817591 0.31215297245289481 0 0.42226183937510081 0.28327127115801121 0 0.44120727567718632 0.28746005308771089 0 0.42226183937510081 0.28327127115801121 0 0.43023391716603732 0.27040224467912161 0 0.44120727567718632 0.28746005308771089 0 0.42226183937510081 0.28327127115801121 0 0.43023391716603732 0.27040224467912161 0 0.41664462513020523 0.25422696758609492 0 0.43023391716603732 0.27040224467912161 0 0.43692075095235122 0.26433370861442979 0 0.44373838257505849 0.27050131303512348 0 0.42226183937510081 0.28327127115801121 0 0.4092682188351508 0.26816031590002881 0 0.41664462513020523 0.25422696758609492 0 0.42226183937510081 0.28327127115801121 0 0.41664462513020523 0.25422696758609492 0 0.42226183937510081 0.28327127115801121 0 0.4092682188351508 0.26816031590002881 0 0.40929088926209078 0.279020096056181 0 0.40768566828284042 0.25774317622192677 0 0.41664462513020523 0.25422696758609492 0 0.40866327585672191 0.24600766979752939 0 0.40768566828284042 0.25774317622192677 0 0.41664462513020523 0.25422696758609492 0 0.4092682188351508 0.26816031590002881 0 0.40768566828284042 0.25774317622192677 0 0.41664462513020523 0.25422696758609492 0 0.42749544465446981 0.25699566217507153 0 0.45166362976964691 0.25106894999712381 0 0.43076425121212841 0.2486853010718087 0 0.41664462513020523 0.25422696758609492 0 0.42749544465446981 0.25699566217507153 0 0.43076425121212841 0.2486853010718087 0 0.43023391716603732 0.27040224467912161 0 0.41664462513020523 0.25422696758609492 0 0.42749544465446981 0.25699566217507153 0 0.41664462513020523 0.25422696758609492 0 0.43076425121212841 0.2486853010718087 0 0.42749544465446981 0.25699566217507153 0 0.43692075095235122 0.26433370861442979 0 0.44456450099631911 0.26043047377218492 0 0.43023391716603732 0.27040224467912161 0 0.42749544465446981 0.25699566217507153 0 0.43692075095235122 0.26433370861442979 0 0.42749544465446981 0.25699566217507153 0 0.45166362976964691 0.25106894999712381 0 0.42749544465446981 0.25699566217507153 0 0.44456450099631911 0.26043047377218492 0 0.45166362976964691 0.25106894999712381 0 0.43692075095235122 0.26433370861442979 0 0.44456450099631911 0.26043047377218492 0 0.44373838257505849 0.27050131303512348 0 0.44456450099631911 0.26043047377218492 0 0.44373838257505849 0.27050131303512348 0 0.45508065662597141 0.26402805921732958 0 0.44456450099631911 0.26043047377218492 0 0.45166362976964691 0.25106894999712381 0 0.45508065662597141 0.26402805921732958 0 0.44373838257505849 0.27050131303512348 0 0.45472874274978531 0.27586911806656422 0 0.44120727567718632 0.28746005308771089 0 0.43023391716603732 0.27040224467912161 0 0.44373838257505849 0.27050131303512348 0 0.44120727567718632 0.28746005308771089 0 0.44373838257505849 0.27050131303512348 0 0.45472874274978531 0.27586911806656422 0 0.45508065662597141 0.26402805921732958 0 0.45472874274978531 0.27586911806656422 0 0.46665275363318931 0.27127710252775639 0 0.46192346945889701 0.28817835066990299 0 0.45472874274978531 0.27586911806656422 0 0.46665275363318931 0.27127710252775639 0 0.45508065662597141 0.26402805921732958 0 0.45166362976964691 0.25106894999712381 0 0.46652816171208539 0.25830808769848879 0 0.47583181488482379 0.2451422378191761 0 0.45166362976964691 0.25106894999712381 0 0.45508065662597141 0.26402805921732958 0 0.46652816171208539 0.25830808769848879 0 0.46665275363318931 0.27127710252775639 0 0.45508065662597141 0.26402805921732958 0 0.46652816171208539 0.25830808769848879 0 0.46665275363318931 0.27127710252775639 0 0.46652816171208539 0.25830808769848879 0 0.48341195364679568 0.26002408893105827 0 0.46652816171208539 0.25830808769848879 0 0.48341195364679568 0.26002408893105827 0 0.47583181488482379 0.2451422378191761 0 0.46665275363318931 0.27127710252775639 0 0.48341195364679568 0.26002408893105827 0 0.48138518434246891 0.28130646820503019 0 0.46665275363318931 0.27127710252775639 0 0.48138518434246891 0.28130646820503019 0 0.46192346945889701 0.28817835066990299 0 0.5 0.26671351767664991 0 0.5 0.29421150971207138 0 0.48138518434246891 0.28130646820503019 0 0.48341195364679568 0.26002408893105827 0 0.5 0.26671351767664991 0 0.48138518434246891 0.28130646820503019 0 0.48341195364679568 0.26002408893105827 0 0.5 0.26671351767664991 0 0.50000000000000067 0.2392155256412283 0 0.5 0.29421150971207138 0 0.47556093647901088 0.30733800586058863 0 0.5 0.32170950174749302 0 0.5 0.29421150971207138 0 0.48138518434246891 0.28130646820503019 0 0.47556093647901088 0.30733800586058863 0 0.48138518434246891 0.28130646820503019 0 0.47556093647901088 0.30733800586058863 0 0.46192346945889701 0.28817835066990299 0 0.47556093647901088 0.30733800586058863 0 0.45214514511688908 0.30370412902975941 0 0.45421880844117613 0.32339126307769928 0 0.47556093647901088 0.30733800586058863 0 0.46192346945889701 0.28817835066990299 0 0.45214514511688908 0.30370412902975941 0 0.46192346945889701 0.28817835066990299 0 0.44120727567718632 0.28746005308771089 0 0.45214514511688908 0.30370412902975941 0 0.45472874274978531 0.27586911806656422 0 0.46192346945889701 0.28817835066990299 0 0.44120727567718632 0.28746005308771089 0 0.42781523552817591 0.31215297245289481 0 0.44120727567718632 0.28746005308771089 0 0.45214514511688908 0.30370412902975941 0 0.42781523552817591 0.31215297245289481 0 0.45421880844117613 0.32339126307769928 0 0.43298436918619881 0.33903622913929549 0 0.42781523552817591 0.31215297245289481 0 0.45214514511688908 0.30370412902975941 0 0.45421880844117613 0.32339126307769928 0 0.42781523552817591 0.31215297245289481 0 0.45421880844117613 0.32339126307769928 0 0.45421880844117613 0.32339126307769928 0 0.45970761232660212 0.34692044601787542 0 0.43298436918619881 0.33903622913929549 0 0.45421880844117613 0.32339126307769928 0 0.48062238135417568 0.33462955370250519 0 0.45421880844117613 0.32339126307769928 0 0.48062238135417568 0.33462955370250519 0 0.45970761232660212 0.34692044601787542 0 0.47556093647901088 0.30733800586058863 0 0.45421880844117613 0.32339126307769928 0 0.48062238135417568 0.33462955370250519 0 0.48062238135417568 0.33462955370250519 0 0.5 0.32170950174749302 0 0.5 0.34920749378291471 0 0.47556093647901088 0.30733800586058863 0 0.48062238135417568 0.33462955370250519 0 0.5 0.32170950174749302 0 0.5 0.34920749378291471 0 0.48254603458521478 0.3522402998402685 0 0.5 0.37670548581833618 0 0.48062238135417568 0.33462955370250519 0 0.5 0.34920749378291471 0 0.48254603458521478 0.3522402998402685 0 0.48254603458521478 0.3522402998402685 0 0.46972057754862501 0.36630584452178799 0 0.45970761232660212 0.34692044601787542 0 0.48062238135417568 0.33462955370250519 0 0.48254603458521478 0.3522402998402685 0 0.45970761232660212 0.34692044601787542 0 0.48254603458521478 0.3522402998402685 0 0.46972057754862501 0.36630584452178799 0 0.5 0.37670548581833618 0 0.46972057754862501 0.36630584452178799 0 0.43815350284422228 0.36591948582569622 0 0.45848938469160699 0.38276388730883248 0 0.46972057754862501 0.36630584452178799 0 0.45970761232660212 0.34692044601787542 0 0.43815350284422228 0.36591948582569622 0 0.45970761232660212 0.34692044601787542 0 0.43815350284422228 0.36591948582569622 0 0.43298436918619881 0.33903622913929549 0 0.43815350284422228 0.36591948582569622 0 0.4167242930516859 0.35972934744593471 0 0.42344095457037051 0.38268701701273461 0 0.4167242930516859 0.35972934744593471 0 0.40101385701800268 0.38518895784325291 0 0.4167242930516859 0.35972934744593471 0 0.40181680918128981 0.35947395412181382 0 0.40101385701800268 0.38518895784325291 0 0.4167242930516859 0.35972934744593471 0 0.40869055031553031 0.33881917925707022 0 0.40181680918128981 0.35947395412181382 0 0.4167242930516859 0.35972934744593471 0 0.43298436918619881 0.33903622913929549 0 0.40869055031553031 0.33881917925707022 0 0.43815350284422228 0.36591948582569622 0 0.4167242930516859 0.35972934744593471 0 0.43298436918619881 0.33903622913929549 0 0.43815350284422228 0.36591948582569622 0 0.43298436918619881 0.33903622913929549 0 0.42781523552817591 0.31215297245289481 0 0.43298436918619881 0.33903622913929549 0 0.42781523552817591 0.31215297245289481 0 0.43298436918619881 0.33903622913929549 0 0.41357021602424721 0.32279281759874212 0 0.43298436918619881 0.33903622913929549 0 0.41357021602424721 0.32279281759874212 0 0.40869055031553031 0.33881917925707022 0 0.40869055031553031 0.33881917925707022 0 0.39369601167170543 0.33564153172070438 0 0.39209274976778918 0.34814598654190299 0 0.40869055031553031 0.33881917925707022 0 0.39369601167170543 0.33564153172070438 0 0.3956366020903157 0.32248231082130752 0 0.39369601167170543 0.33564153172070438 0 0.3956366020903157 0.32248231082130752 0 0.38362385659697051 0.32926172455430031 0 0.39369601167170543 0.33564153172070438 0 0.38635485741833753 0.33883185827426582 0 0.39209274976778918 0.34814598654190299 0 0.41357021602424721 0.32279281759874212 0 0.40869055031553031 0.33881917925707022 0 0.3956366020903157 0.32248231082130752 0 0.4027243230010164 0.30147339632314252 0 0.41357021602424721 0.32279281759874212 0 0.3956366020903157 0.32248231082130752 0 0.3956366020903157 0.32248231082130752 0 0.38754735899376969 0.31282171123814728 0 0.38479800915553353 0.32074741934569512 0 0.38754735899376969 0.31282171123814728 0 0.38479800915553353 0.32074741934569512 0 0.37917338616632867 0.3168755173424983 0 0.3956366020903157 0.32248231082130752 0 0.38479800915553353 0.32074741934569512 0 0.38362385659697051 0.32926172455430031 0 0.38479800915553353 0.32074741934569512 0 0.37832625022041982 0.32264150287239662 0 0.38362385659697051 0.32926172455430031 0 0.37577016905582622 0.32787937856968757 0 0.37832625022041982 0.32264150287239662 0 0.38362385659697051 0.32926172455430031 0 0.37577016905582622 0.32787937856968757 0 0.37506056064123422 0.32471797871916308 0 0.37832625022041982 0.32264150287239662 0 0.37368960646642962 0.31911015363466272 0 0.37506056064123422 0.32471797871916308 0 0.37832625022041982 0.32264150287239662 0 0.37695808612291098 0.31120865645681561 0 0.38754735899376969 0.31282171123814728 0 0.37917338616632867 0.3168755173424983 0 0.38479800915553353 0.32074741934569512 0 0.37832625022041982 0.32264150287239662 0 0.37917338616632867 0.3168755173424983 0 0.37368960646642962 0.31911015363466272 0 0.37832625022041982 0.32264150287239662 0 0.37917338616632867 0.3168755173424983 0 0.37499251130121058 0.31593455150060828 0 0.37368960646642962 0.31911015363466272 0 0.37917338616632867 0.3168755173424983 0 0.37499251130121058 0.31593455150060828 0 0.37695808612291098 0.31120865645681561 0 0.37917338616632867 0.3168755173424983 0 0.38635485741833753 0.33883185827426582 0 0.3795813787571668 0.3363772241379393 0 0.38278029029805521 0.34473282441648212 0 0.39369601167170543 0.33564153172070438 0 0.38635485741833753 0.33883185827426582 0 0.38362385659697051 0.32926172455430031 0 0.38635485741833753 0.33883185827426582 0 0.38362385659697051 0.32926172455430031 0 0.3795813787571668 0.3363772241379393 0 0.37577016905582622 0.32787937856968757 0 0.38362385659697051 0.32926172455430031 0 0.37868435463470768 0.3315773541462857 0 0.38362385659697051 0.32926172455430031 0 0.37868435463470768 0.3315773541462857 0 0.3795813787571668 0.3363772241379393 0 0.37577016905582622 0.32787937856968757 0 0.37868435463470768 0.3315773541462857 0 0.375263113682131 0.33313320718557798 0 0.37868435463470768 0.3315773541462857 0 0.375263113682131 0.33313320718557798 0 0.3795813787571668 0.3363772241379393 0 0.37369311900952262 0.33836265764115908 0 0.3795813787571668 0.3363772241379393 0 0.37670219357667811 0.34177383067972761 0 0.3795813787571668 0.3363772241379393 0 0.37670219357667811 0.34177383067972761 0 0.38278029029805521 0.34473282441648212 0 0.37369311900952262 0.33836265764115908 0 0.375263113682131 0.33313320718557798 0 0.3795813787571668 0.3363772241379393 0 0.3809821990389497 0.35490418517770578 0 0.39056259575344082 0.36548629952090861 0 0.39209274976778918 0.34814598654190299 0 0.37486749369974542 0.34694596905823039 0 0.37670219357667811 0.34177383067972761 0 0.38278029029805521 0.34473282441648212 0 0.37486749369974542 0.34694596905823039 0 0.38278029029805521 0.34473282441648212 0 0.3809821990389497 0.35490418517770578 0 0.38278029029805521 0.34473282441648212 0 0.3809821990389497 0.35490418517770578 0 0.39209274976778918 0.34814598654190299 0 0.38635485741833753 0.33883185827426582 0 0.38278029029805521 0.34473282441648212 0 0.39209274976778918 0.34814598654190299 0 0.37228166628853332 0.35471301169251829 0 0.37486749369974542 0.34694596905823039 0 0.3809821990389497 0.35490418517770578 0 0.37414389550204002 0.36898578533419818 0 0.3809821990389497 0.35490418517770578 0 0.39056259575344082 0.36548629952090861 0 0.37414389550204002 0.36898578533419818 0 0.39056259575344082 0.36548629952090861 0 0.40101385701800268 0.38518895784325291 0 0.37414389550204002 0.36898578533419818 0 0.37228166628853332 0.35471301169251829 0 0.3809821990389497 0.35490418517770578 0 0.39056259575344082 0.36548629952090861 0 0.40181680918128981 0.35947395412181382 0 0.40101385701800268 0.38518895784325291 0 0.39056259575344082 0.36548629952090861 0 0.40181680918128981 0.35947395412181382 0 0.39209274976778918 0.34814598654190299 0 0.40869055031553031 0.33881917925707022 0 0.40181680918128981 0.35947395412181382 0 0.39209274976778918 0.34814598654190299 0 0.40101385701800268 0.38518895784325291 0 0.38530342098431941 0.41064856824057122 0 0.40101385701800268 0.38518895784325291 0 0.38530342098431941 0.41064856824057122 0 0.41521715527738928 0.40390661881175682 0 0.3736470799201031 0.39378130610698531 0 0.37414389550204002 0.36898578533419818 0 0.40101385701800268 0.38518895784325291 0 0.3736470799201031 0.39378130610698531 0 0.40101385701800268 0.38518895784325291 0 0.38530342098431941 0.41064856824057122 0 0.36959298495063608 0.43610817863788948 0 0.38530342098431941 0.41064856824057122 0 0.36959298495063608 0.43610817863788948 0 0.38530342098431941 0.41064856824057122 0 0.3889231515195431 0.43141286456833011 0 0.3889231515195431 0.43141286456833011 0 0.40362265567455102 0.42304679086704539 0 0.39942544658573009 0.43872588670818857 0 0.40362265567455102 0.42304679086704539 0 0.41248490446316177 0.43293377153942381 0 0.39942544658573009 0.43872588670818857 0 0.38530342098431941 0.41064856824057122 0 0.3889231515195431 0.43141286456833011 0 0.40362265567455102 0.42304679086704539 0 0.38530342098431941 0.41064856824057122 0 0.40362265567455102 0.42304679086704539 0 0.41521715527738928 0.40390661881175682 0 0.40362265567455102 0.42304679086704539 0 0.42233359500988371 0.42307221464191669 0 0.41521715527738928 0.40390661881175682 0 0.40362265567455102 0.42304679086704539 0 0.41248490446316177 0.43293377153942381 0 0.42233359500988371 0.42307221464191669 0 0.41248490446316177 0.43293377153942381 0 0.42233359500988371 0.42307221464191669 0 0.42326813014219627 0.43909650749986368 0 0.42233359500988371 0.42307221464191669 0 0.43681876433844857 0.43497208046478802 0 0.42326813014219627 0.43909650749986368 0 0.42233359500988371 0.42307221464191669 0 0.43681876433844857 0.43497208046478802 0 0.43655617137350622 0.42038510460191503 0 0.42233359500988371 0.42307221464191669 0 0.42830887421762198 0.41018013153495869 0 0.41521715527738928 0.40390661881175682 0 0.42233359500988371 0.42307221464191669 0 0.42830887421762198 0.41018013153495869 0 0.43655617137350622 0.42038510460191503 0 0.42830887421762198 0.41018013153495869 0 0.43655617137350622 0.42038510460191503 0 0.439625884597032 0.40642404903869822 0 0.42978568865087441 0.39901034440009059 0 0.42344095457037051 0.38268701701273461 0 0.4433226365022459 0.39280274251209668 0 0.42978568865087441 0.39901034440009059 0 0.41521715527738928 0.40390661881175682 0 0.42344095457037051 0.38268701701273461 0 0.42830887421762198 0.41018013153495869 0 0.42978568865087441 0.39901034440009059 0 0.439625884597032 0.40642404903869822 0 0.42830887421762198 0.41018013153495869 0 0.42978568865087441 0.39901034440009059 0 0.41521715527738928 0.40390661881175682 0 0.4167242930516859 0.35972934744593471 0 0.40101385701800268 0.38518895784325291 0 0.42344095457037051 0.38268701701273461 0 0.40101385701800268 0.38518895784325291 0 0.41521715527738928 0.40390661881175682 0 0.42344095457037051 0.38268701701273461 0 0.43815350284422228 0.36591948582569622 0 0.42344095457037051 0.38268701701273461 0 0.4433226365022459 0.39280274251209668 0 0.43815350284422228 0.36591948582569622 0 0.4433226365022459 0.39280274251209668 0 0.43815350284422228 0.36591948582569622 0 0.4433226365022459 0.39280274251209668 0 0.45848938469160699 0.38276388730883248 0 0.4433226365022459 0.39280274251209668 0 0.4587292321942566 0.40377894109977869 0 0.44849177016026981 0.41968599919849731 0 0.4433226365022459 0.39280274251209668 0 0.44849177016026981 0.41968599919849731 0 0.42978568865087441 0.39901034440009059 0 0.4433226365022459 0.39280274251209668 0 0.439625884597032 0.40642404903869822 0 0.4433226365022459 0.39280274251209668 0 0.4587292321942566 0.40377894109977869 0 0.45848938469160699 0.38276388730883248 0 0.4587292321942566 0.40377894109977869 0 0.45848938469160699 0.38276388730883248 0 0.47720201034463561 0.39055994944820821 0 0.46972057754862501 0.36630584452178799 0 0.45848938469160699 0.38276388730883248 0 0.47720201034463561 0.39055994944820821 0 0.46972057754862501 0.36630584452178799 0 0.47720201034463561 0.39055994944820821 0 0.5 0.37670548581833618 0 0.47720201034463561 0.39055994944820821 0 0.5 0.40420347785375749 0 0.47329291580914951 0.41490179660840648 0 0.4587292321942566 0.40377894109977869 0 0.47720201034463561 0.39055994944820821 0 0.47329291580914951 0.41490179660840648 0 0.47720201034463561 0.39055994944820821 0 0.5 0.40420347785375749 0 0.5 0.37670548581833618 0 0.48546521128148462 0.42572005307568972 0 0.49999999999999828 0.43170146988917901 0 0.48502495584706629 0.44181750450007778 0 0.49999999999999828 0.43170146988917901 0 0.48502495584706629 0.44181750450007778 0 0.5 0.40420347785375749 0 0.48546521128148462 0.42572005307568972 0 0.47329291580914951 0.41490179660840648 0 0.5 0.40420347785375749 0 0.48546521128148462 0.42572005307568972 0 0.49999999999999828 0.43170146988917901 0 0.48546521128148462 0.42572005307568972 0 0.47462076711180717 0.43403653248997731 0 0.48502495584706629 0.44181750450007778 0 0.47329291580914951 0.41490179660840648 0 0.47462076711180717 0.43403653248997731 0 0.45927084092720188 0.43580976915473651 0 0.48546521128148462 0.42572005307568972 0 0.47329291580914951 0.41490179660840648 0 0.47462076711180717 0.43403653248997731 0 0.45927084092720188 0.43580976915473651 0 0.44849177016026981 0.41968599919849731 0 0.47329291580914951 0.41490179660840648 0 0.45927084092720188 0.43580976915473651 0 0.44849177016026981 0.41968599919849731 0 0.45927084092720188 0.43580976915473651 0 0.44849177016026981 0.41968599919849731 0 0.45165089640657707 0.43611575462809582 0 0.4587292321942566 0.40377894109977869 0 0.47329291580914951 0.41490179660840648 0 0.44849177016026981 0.41968599919849731 0 0.4433226365022459 0.39280274251209668 0 0.44849177016026981 0.41968599919849731 0 0.439625884597032 0.40642404903869822 0 0.43655617137350622 0.42038510460191503 0 0.44849177016026981 0.41968599919849731 0 0.439625884597032 0.40642404903869822 0 0.44849177016026981 0.41968599919849731 0 0.439625884597032 0.40642404903869822 0 0.44849177016026981 0.41968599919849731 0 0.45165089640657707 0.43611575462809582 0 0.44386952542921521 0.4295111469185629 0 0.44849177016026981 0.41968599919849731 0 0.45165089640657707 0.43611575462809582 0 0.45165089640657707 0.43611575462809582 0 0.44386952542921521 0.4295111469185629 0 0.44519082659473158 0.43782150968735878 0 0.43655617137350622 0.42038510460191503 0 0.44849177016026981 0.41968599919849731 0 0.44386952542921521 0.4295111469185629 0 0.43681876433844857 0.43497208046478802 0 0.43655617137350622 0.42038510460191503 0 0.44386952542921521 0.4295111469185629 0 0.43681876433844857 0.43497208046478802 0 0.44386952542921521 0.4295111469185629 0 0.44519082659473158 0.43782150968735878 0 0.43681876433844857 0.43497208046478802 0 0.44519082659473158 0.43782150968735878 0 0.44362096681603608 0.44566090358066651 0 0.43681876433844857 0.43497208046478802 0 0.44362096681603608 0.44566090358066651 0 0.43343701099378978 0.44857281610427868 0 0.44362096681603608 0.44566090358066651 0 0.44110505044236059 0.45564825146568327 0 0.43343701099378978 0.44857281610427868 0 0.44362096681603608 0.44566090358066651 0 0.45255374853073171 0.45216262504332899 0 0.45221828903371142 0.44335246171580328 0 0.44362096681603608 0.44566090358066651 0 0.45255374853073171 0.45216262504332899 0 0.44110505044236059 0.45564825146568327 0 0.44519082659473158 0.43782150968735878 0 0.44362096681603608 0.44566090358066651 0 0.45221828903371142 0.44335246171580328 0 0.45165089640657707 0.43611575462809582 0 0.44519082659473158 0.43782150968735878 0 0.45221828903371142 0.44335246171580328 0 0.45255374853073171 0.45216262504332899 0 0.44518446721829791 0.46873079822848901 0 0.44110505044236059 0.45564825146568327 0 0.44518446721829791 0.46873079822848901 0 0.44110505044236059 0.45564825146568327 0 0.43072905865294731 0.46311411437165317 0 0.47284597636140308 0.45611600571247141 0 0.46302896313844299 0.47272331085799019 0 0.45255374853073171 0.45216262504332899 0 0.44518446721829791 0.46873079822848901 0 0.47004991169413368 0.45193353911097589 0 0.47004991169413368 0.45193353911097589 0 0.47284597636140308 0.45611600571247141 0 0.46302896313844299 0.47272331085799019 0 0.44518446721829791 0.46873079822848901 0 0.47004991169413368 0.45193353911097589 0 0.46302896313844299 0.47272331085799019 0 0.44518446721829791 0.46873079822848901 0 0.47004991169413368 0.45193353911097589 0 0.45927084092720188 0.43580976915473651 0 0.47004991169413368 0.45193353911097589 0 0.45927084092720188 0.43580976915473651 0 0.45930684530103161 0.44617181272829648 0 0.47004991169413368 0.45193353911097589 0 0.47462076711180717 0.43403653248997731 0 0.45927084092720188 0.43580976915473651 0 0.47004991169413368 0.45193353911097589 0 0.45255374853073171 0.45216262504332899 0 0.45930684530103161 0.44617181272829648 0 0.47004991169413368 0.45193353911097589 0 0.45927084092720188 0.43580976915473651 0 0.45221828903371142 0.44335246171580328 0 0.45930684530103161 0.44617181272829648 0 0.45927084092720188 0.43580976915473651 0 0.45165089640657707 0.43611575462809582 0 0.45221828903371142 0.44335246171580328 0 0.45255374853073171 0.45216262504332899 0 0.45221828903371142 0.44335246171580328 0 0.45930684530103161 0.44617181272829648 0 0.47462076711180717 0.43403653248997731 0 0.47004991169413368 0.45193353911097589 0 0.48502495584706629 0.44181750450007778 0 0.48189680466807888 0.45106209462173341 0 0.47450081081676521 0.45331654521044668 0 0.48502495584706629 0.44181750450007778 0 0.47004991169413368 0.45193353911097589 0 0.48502495584706629 0.44181750450007778 0 0.47004991169413368 0.45193353911097589 0 0.47450081081676521 0.45331654521044668 0 0.48502495584706629 0.44181750450007778 0 0.47284597636140308 0.45611600571247141 0 0.48050552008400071 0.46757346096286262 0 0.46302896313844299 0.47272331085799019 0 0.47004991169413368 0.45193353911097589 0 0.47284597636140308 0.45611600571247141 0 0.47004991169413368 0.45193353911097589 0 0.47450081081676521 0.45331654521044668 0 0.47284597636140308 0.45611600571247141 0 0.47450081081676521 0.45331654521044668 0 0.47284597636140308 0.45611600571247141 0 0.47951191807974908 0.45654698881850991 0 0.47450081081676521 0.45331654521044668 0 0.47284597636140308 0.45611600571247141 0 0.47284597636140308 0.45611600571247141 0 0.48050552008400071 0.46757346096286262 0 0.47284597636140308 0.45611600571247141 0 0.48050552008400071 0.46757346096286262 0 0.47951191807974908 0.45654698881850991 0 0.48189680466807888 0.45106209462173341 0 0.47951191807974908 0.45654698881850991 0 0.4878104784684959 0.4546668375850359 0 0.48050552008400071 0.46757346096286262 0 0.47951191807974908 0.45654698881850991 0 0.4878104784684959 0.4546668375850359 0 0.48189680466807888 0.45106209462173341 0 0.47450081081676521 0.45331654521044668 0 0.47951191807974908 0.45654698881850991 0 0.48050552008400071 0.46757346096286262 0 0.4878104784684959 0.4546668375850359 0 0.49999999999999928 0.46182898591187349 0 0.48050552008400071 0.46757346096286262 0 0.49999999999999928 0.46182898591187349 0 0.49999999999999828 0.43170146988917901 0 0.4878104784684959 0.4546668375850359 0 0.49999999999999928 0.46182898591187349 0 0.49999999999999828 0.43170146988917901 0 0.4878104784684959 0.4546668375850359 0 0.48502495584706629 0.44181750450007778 0 0.48189680466807888 0.45106209462173341 0 0.4878104784684959 0.4546668375850359 0 0.48502495584706629 0.44181750450007778 0 0.49999999999999928 0.46182898591187349 0 0.5 0.5 0 0.49753071700976492 0.4930404390193398 0 0.5 0.5 0 0.47501141284236448 0.48698608464618232 0 0.44690499747156931 0.4999999999999995 0 0.5 0.5 0 0.49753071700976492 0.4930404390193398 0 0.47501141284236448 0.48698608464618232 0 0.49753071700976492 0.4930404390193398 0 0.48901811854688337 0.4803069499911008 0 0.47501141284236448 0.48698608464618232 0 0.49753071700976492 0.4930404390193398 0 0.48901811854688337 0.4803069499911008 0 0.48050552008400071 0.46757346096286262 0 0.49999999999999928 0.46182898591187349 0 0.48901811854688337 0.4803069499911008 0 0.49999999999999928 0.46182898591187349 0 0.49753071700976492 0.4930404390193398 0 0.48901811854688337 0.4803069499911008 0 0.48050552008400071 0.46757346096286262 0 0.48901811854688337 0.4803069499911008 0 0.48050552008400071 0.46757346096286262 0 0.46302896313844299 0.47272331085799019 0 0.48901811854688337 0.4803069499911008 0 0.47689100365292297 0.47689745161453417 0 0.47501141284236448 0.48698608464618232 0 0.48050552008400071 0.46757346096286262 0 0.47689100365292297 0.47689745161453417 0 0.46302896313844299 0.47272331085799019 0 0.48050552008400071 0.46757346096286262 0 0.48901811854688337 0.4803069499911008 0 0.47689100365292297 0.47689745161453417 0 0.47689100365292297 0.47689745161453417 0 0.47501141284236448 0.48698608464618232 0 0.46302896313844299 0.47272331085799019 0 0.47501141284236448 0.48698608464618232 0 0.45496698030500621 0.48636165542899479 0 0.44690499747156931 0.4999999999999995 0 0.47501141284236448 0.48698608464618232 0 0.45496698030500621 0.48636165542899479 0 0.46302896313844299 0.47272331085799019 0 0.45496698030500621 0.48636165542899479 0 0.46302896313844299 0.47272331085799019 0 0.46302896313844299 0.47272331085799019 0 0.43620850627812668 0.48062654530969717 0 0.44518446721829791 0.46873079822848901 0 0.46302896313844299 0.47272331085799019 0 0.43620850627812668 0.48062654530969717 0 0.45496698030500621 0.48636165542899479 0 0.46302896313844299 0.47272331085799019 0 0.43620850627812668 0.48062654530969717 0 0.45496698030500621 0.48636165542899479 0 0.44690499747156931 0.4999999999999995 0 0.43620850627812668 0.48062654530969717 0 0.45496698030500621 0.48636165542899479 0 0.44690499747156931 0.4999999999999995 0 0.42031902274246069 0.48552805734600057 0 0.41743852268843429 0.5 0 0.43620850627812668 0.48062654530969717 0 0.44690499747156931 0.4999999999999995 0 0.41743852268843429 0.5 0 0.43620850627812668 0.48062654530969717 0 0.42031902274246069 0.48552805734600057 0 0.41743852268843429 0.5 0 0.40134209412993838 0.48520307466421098 0 0.42031902274246069 0.48552805734600057 0 0.40973563488985532 0.47579104778557152 0 0.40134209412993838 0.48520307466421098 0 0.42031902274246069 0.48552805734600057 0 0.40973563488985532 0.47579104778557152 0 0.41789473538963601 0.46705380048502582 0 0.44518446721829791 0.46873079822848901 0 0.42031902274246069 0.48552805734600057 0 0.43072905865294731 0.46311411437165317 0 0.44518446721829791 0.46873079822848901 0 0.42031902274246069 0.48552805734600057 0 0.43620850627812668 0.48062654530969717 0 0.44518446721829791 0.46873079822848901 0 0.42031902274246069 0.48552805734600057 0 0.42031902274246069 0.48552805734600057 0 0.43072905865294731 0.46311411437165317 0 0.41789473538963601 0.46705380048502582 0 0.44110505044236059 0.45564825146568327 0 0.43072905865294731 0.46311411437165317 0 0.43343701099378978 0.44857281610427868 0 0.43072905865294731 0.46311411437165317 0 0.43343701099378978 0.44857281610427868 0 0.42053980660522761 0.45341513910658388 0 0.43072905865294731 0.46311411437165317 0 0.41789473538963601 0.46705380048502582 0 0.42053980660522761 0.45341513910658388 0 0.43681876433844857 0.43497208046478802 0 0.43343701099378978 0.44857281610427868 0 0.42326813014219627 0.43909650749986368 0 0.43343701099378978 0.44857281610427868 0 0.42326813014219627 0.43909650749986368 0 0.42053980660522761 0.45341513910658388 0 0.41248490446316177 0.43293377153942381 0 0.42326813014219627 0.43909650749986368 0 0.41215324011006321 0.44426916471351768 0 0.42326813014219627 0.43909650749986368 0 0.41215324011006321 0.44426916471351768 0 0.42053980660522761 0.45341513910658388 0 0.41215324011006321 0.44426916471351768 0 0.42053980660522761 0.45341513910658388 0 0.40575666434273311 0.45838443146516472 0 0.41248490446316177 0.43293377153942381 0 0.41215324011006321 0.44426916471351768 0 0.39942544658573009 0.43872588670818857 0 0.40973563488985532 0.47579104778557152 0 0.41789473538963601 0.46705380048502582 0 0.40575666434273311 0.45838443146516472 0 0.41789473538963601 0.46705380048502582 0 0.42053980660522761 0.45341513910658388 0 0.40575666434273311 0.45838443146516472 0 0.40973563488985532 0.47579104778557152 0 0.40575666434273311 0.45838443146516472 0 0.39457326129307041 0.46924519202038539 0 0.40575666434273311 0.45838443146516472 0 0.38748492612950952 0.44892285829301931 0 0.39457326129307041 0.46924519202038539 0 0.40575666434273311 0.45838443146516472 0 0.39942544658573009 0.43872588670818857 0 0.38748492612950952 0.44892285829301931 0 0.3889231515195431 0.43141286456833011 0 0.39942544658573009 0.43872588670818857 0 0.38748492612950952 0.44892285829301931 0 0.41215324011006321 0.44426916471351768 0 0.40575666434273311 0.45838443146516472 0 0.39942544658573009 0.43872588670818857 0 0.36980735363827261 0.46050290225189661 0 0.36959298495063608 0.43610817863788948 0 0.38748492612950952 0.44892285829301931 0 0.36959298495063608 0.43610817863788948 0 0.3889231515195431 0.43141286456833011 0 0.38748492612950952 0.44892285829301931 0 0.36980735363827261 0.46050290225189661 0 0.38748492612950952 0.44892285829301931 0 0.39457326129307041 0.46924519202038539 0 0.36980735363827261 0.46050290225189661 0 0.37801407526051067 0.48065415083330842 0 0.39457326129307041 0.46924519202038539 0 0.37801407526051067 0.48065415083330842 0 0.38797204790529932 0.5 0 0.40134209412993838 0.48520307466421098 0 0.41743852268843429 0.5 0 0.38797204790529932 0.5 0 0.40134209412993838 0.48520307466421098 0 0.40973563488985532 0.47579104778557152 0 0.40134209412993838 0.48520307466421098 0 0.39457326129307041 0.46924519202038539 0 0.37801407526051067 0.48065415083330842 0 0.40134209412993838 0.48520307466421098 0 0.39457326129307041 0.46924519202038539 0 0.33471388977496319 0.083869725553476451 0 0.32003772732572838 0.080925826065863432 0 0.34163206045391592 0.099703108374672819 0 0.32003772732572838 0.080925826065863432 0 0.34163206045391592 0.099703108374672819 0 0.33471388977496319 0.083869725553476451 0 0.34163206045391592 0.099703108374672819 0 0.35085433501378249 0.086695181415402722 0 0.33471388977496319 0.083869725553476451 0 0.34209731100959018 0.06531632876058778 0 0.3490795063897344 0.076610282135673974 0 0.33471388977496319 0.083869725553476451 0 0.34209731100959018 0.06531632876058778 0 0.32721969837032222 0.069259436753723466 0 0.33471388977496319 0.083869725553476451 0 0.32721969837032222 0.069259436753723466 0 0.32003772732572838 0.080925826065863432 0 0.31518448171420999 0.065085558788002928 0 0.32721969837032222 0.069259436753723466 0 0.32003772732572838 0.080925826065863432 0 0.32003772732572838 0.080925826065863432 0 0.31657863646219547 0.093324099257994786 0 0.34163206045391592 0.099703108374672819 0 0.32003772732572838 0.080925826065863432 0 0.31657863646219547 0.093324099257994786 0 0.30227411453462139 0.089652133027170247 0 0.33471388977496319 0.083869725553476451 0 0.32003772732572838 0.080925826065863432 0 0.31657863646219547 0.093324099257994786 0 0.32025759602694659 0.1047776340902011 0 0.34163206045391592 0.099703108374672819 0 0.31657863646219547 0.093324099257994786 0 0.32025759602694659 0.1047776340902011 0 0.30640852481201453 0.1024735992044304 0 0.32025759602694659 0.1047776340902011 0 0.31114536757858358 0.11742006929579971 0 0.30640852481201453 0.1024735992044304 0 0.32606950933900308 0.1158177097477945 0 0.31114536757858358 0.11742006929579971 0 0.3195478300457561 0.1332621056988223 0 0.32025759602694659 0.1047776340902011 0 0.32606950933900308 0.1158177097477945 0 0.31114536757858358 0.11742006929579971 0 0.33761965874988609 0.1186889285033586 0 0.34163206045391592 0.099703108374672819 0 0.34956654336434939 0.1234914401014125 0 0.32606950933900308 0.1158177097477945 0 0.33761965874988609 0.1186889285033586 0 0.34163206045391592 0.099703108374672819 0 0.32606950933900308 0.1158177097477945 0 0.33761965874988609 0.1186889285033586 0 0.33436770153514289 0.13112975471366969 0 0.33761965874988609 0.1186889285033586 0 0.34956654336434939 0.1234914401014125 0 0.33436770153514289 0.13112975471366969 0 0.32025759602694659 0.1047776340902011 0 0.32606950933900308 0.1158177097477945 0 0.34163206045391592 0.099703108374672819 0 0.34163206045391592 0.099703108374672819 0 0.35755874922647762 0.098360434014750309 0 0.36322639358210312 0.11848039068348271 0 0.34163206045391592 0.099703108374672819 0 0.36322639358210312 0.11848039068348271 0 0.34163206045391592 0.099703108374672819 0 0.35755874922647762 0.098360434014750309 0 0.35085433501378249 0.086695181415402722 0 0.34163206045391592 0.099703108374672819 0 0.34956654336434939 0.1234914401014125 0 0.36322639358210312 0.11848039068348271 0 0.36322639358210312 0.11848039068348271 0 0.37045299287494049 0.09679375479102828 0 0.38005682511468147 0.12140739343396729 0 0.35755874922647762 0.098360434014750309 0 0.36322639358210312 0.11848039068348271 0 0.37045299287494049 0.09679375479102828 0 0.35755874922647762 0.098360434014750309 0 0.37045299287494049 0.09679375479102828 0 0.35979627253246887 0.087956112087811941 0 0.37045299287494049 0.09679375479102828 0 0.36986657419494789 0.075759843690150083 0 0.37682589963749002 0.081332762740894418 0 0.37045299287494049 0.09679375479102828 0 0.35979627253246887 0.087956112087811941 0 0.36084916063519962 0.072180116148089279 0 0.37045299287494049 0.09679375479102828 0 0.36084916063519962 0.072180116148089279 0 0.36986657419494789 0.075759843690150083 0 0.37045299287494049 0.09679375479102828 0 0.36084916063519962 0.072180116148089279 0 0.35755874922647762 0.098360434014750309 0 0.35979627253246887 0.087956112087811941 0 0.35085433501378249 0.086695181415402722 0 0.35979627253246887 0.087956112087811941 0 0.35560274156159061 0.081403828627082772 0 0.36084916063519962 0.072180116148089279 0 0.33471388977496319 0.083869725553476451 0 0.35085433501378249 0.086695181415402722 0 0.3490795063897344 0.076610282135673974 0 0.35979627253246887 0.087956112087811941 0 0.35560274156159061 0.081403828627082772 0 0.35085433501378249 0.086695181415402722 0 0.35560274156159061 0.081403828627082772 0 0.35085433501378249 0.086695181415402722 0 0.3490795063897344 0.076610282135673974 0 0.34209731100959018 0.06531632876058778 0 0.3490795063897344 0.076610282135673974 0 0.36084916063519962 0.072180116148089279 0 0.36448270712015302 0.068442951443566186 0 0.36084916063519962 0.072180116148089279 0 0.35124532839545858 0.047566477505150237 0 0.35560274156159061 0.081403828627082772 0 0.3490795063897344 0.076610282135673974 0 0.36084916063519962 0.072180116148089279 0 0.36448270712015302 0.068442951443566186 0 0.36084916063519962 0.072180116148089279 0 0.36986657419494789 0.075759843690150083 0 0.36986657419494789 0.075759843690150083 0 0.37596532967213542 0.069868995675824025 0 0.37682589963749002 0.081332762740894418 0 0.36448270712015302 0.068442951443566186 0 0.36986657419494789 0.075759843690150083 0 0.37084641292541748 0.06878424193773866 0 0.36986657419494789 0.075759843690150083 0 0.37084641292541748 0.06878424193773866 0 0.37596532967213542 0.069868995675824025 0 0.36448270712015302 0.068442951443566186 0 0.37084641292541748 0.06878424193773866 0 0.37307104071443398 0.061065176941414383 0 0.37084641292541748 0.06878424193773866 0 0.37307104071443398 0.061065176941414383 0 0.37596532967213542 0.069868995675824025 0 0.36448270712015302 0.068442951443566186 0 0.37307104071443398 0.061065176941414383 0 0.37146335928247548 0.04052602251159599 0 0.36448270712015302 0.068442951443566186 0 0.37146335928247548 0.04052602251159599 0 0.35124532839545858 0.047566477505150237 0 0.36448270712015302 0.068442951443566186 0 0.37146335928247548 0.04052602251159599 0 0.37146335928247548 0.04052602251159599 0 0.35572529983931911 0.032753521421585163 0 0.36312657459820519 0.022962182453169309 0 0.37146335928247548 0.04052602251159599 0 0.35572529983931911 0.032753521421585163 0 0.35124532839545858 0.047566477505150237 0 0.35572529983931911 0.032753521421585163 0 0.35124532839545858 0.047566477505150237 0 0.3321968515854315 0.028027004478648001 0 0.36084916063519962 0.072180116148089279 0 0.35124532839545858 0.047566477505150237 0 0.34209731100959018 0.06531632876058778 0 0.36084916063519962 0.072180116148089279 0 0.35124532839545858 0.047566477505150237 0 0.36312657459820519 0.022962182453169309 0 0.35936362748920009 0.0091271431172253586 0 0.37844401144479839 0.012609093579625891 0 0.35936362748920009 0.0091271431172253586 0 0.37844401144479839 0.012609093579625891 0 0.36665723294200347 -0.001883505129568449 0 0.35936362748920009 0.0091271431172253586 0 0.36665723294200347 -0.001883505129568449 0 0.35531676971978082 -0.0033532784323768001 0 0.37146335928247548 0.04052602251159599 0 0.36312657459820519 0.022962182453169309 0 0.37844401144479839 0.012609093579625891 0 0.37146335928247548 0.04052602251159599 0 0.37844401144479839 0.012609093579625891 0 0.35572529983931911 0.032753521421585163 0 0.35063657493523293 0.0197951316358141 0 0.3321968515854315 0.028027004478648001 0 0.35572529983931911 0.032753521421585163 0 0.36312657459820519 0.022962182453169309 0 0.35063657493523293 0.0197951316358141 0 0.36312657459820519 0.022962182453169309 0 0.35063657493523293 0.0197951316358141 0 0.35936362748920009 0.0091271431172253586 0 0.35936362748920009 0.0091271431172253586 0 0.33689267375143878 0.0039255003288513873 0 0.35531676971978082 -0.0033532784323768001 0 0.35063657493523293 0.0197951316358141 0 0.35936362748920009 0.0091271431172253586 0 0.33689267375143878 0.0039255003288513873 0 0.33689267375143878 0.0039255003288513873 0 0.3321968515854315 0.028027004478648001 0 0.30352242257352219 0.0039185454548519476 0 0.35063657493523293 0.0197951316358141 0 0.33689267375143878 0.0039255003288513873 0 0.3321968515854315 0.028027004478648001 0 0.3321968515854315 0.028027004478648001 0 0.32406508202711942 0.05109974460068676 0 0.30086563814790429 0.035038583275740692 0 0.34209731100959018 0.06531632876058778 0 0.32721969837032222 0.069259436753723466 0 0.32406508202711942 0.05109974460068676 0 0.34209731100959018 0.06531632876058778 0 0.35124532839545858 0.047566477505150237 0 0.32406508202711942 0.05109974460068676 0 0.35124532839545858 0.047566477505150237 0 0.3321968515854315 0.028027004478648001 0 0.32406508202711942 0.05109974460068676 0 0.31518448171420999 0.065085558788002928 0 0.32721969837032222 0.069259436753723466 0 0.32406508202711942 0.05109974460068676 0 0.31518448171420999 0.065085558788002928 0 0.32406508202711942 0.05109974460068676 0 0.29882370077581188 0.062479238108283437 0 0.32406508202711942 0.05109974460068676 0 0.29882370077581188 0.062479238108283437 0 0.30086563814790429 0.035038583275740692 0 0.32406508202711942 0.05109974460068676 0 0.30086563814790429 0.035038583275740692 0 0.30086563814790429 0.035038583275740692 0 0.28350496565293731 0.043820562147367653 0 0.27766619426868899 0.018977421950794569 0 0.29882370077581188 0.062479238108283437 0 0.30086563814790429 0.035038583275740692 0 0.28350496565293731 0.043820562147367653 0 0.29882370077581188 0.062479238108283437 0 0.28350496565293731 0.043820562147367653 0 0.28339325744793759 0.061338593161917712 0 0.3321968515854315 0.028027004478648001 0 0.30086563814790429 0.035038583275740692 0 0.30352242257352219 0.0039185454548519476 0 0.30086563814790429 0.035038583275740692 0 0.27766619426868899 0.018977421950794569 0 0.30086563814790429 0.035038583275740692 0 0.30352242257352219 0.0039185454548519476 0 0.27766619426868899 0.018977421950794569 0 0.30352242257352219 0.0039185454548519476 0 0.27766619426868899 0.018977421950794569 0 0.27708695819087842 -0.0025378708656911609 0 0.27766619426868899 0.018977421950794569 0 0.25446675038947358 0.0029162606258486688 0 0.27766619426868899 0.018977421950794569 0 0.26047117107291767 -0.0019720443344692288 0 0.27708695819087842 -0.0025378708656911609 0 0.27766619426868899 0.018977421950794569 0 0.2600935707136679 0.019574361616358959 0 0.26464981823601458 0.038183209123269009 0 0.2600935707136679 0.019574361616358959 0 0.26464981823601458 0.038183209123269009 0 0.25044211127373811 0.032849993626191502 0 0.27766619426868899 0.018977421950794569 0 0.2600935707136679 0.019574361616358959 0 0.25446675038947358 0.0029162606258486688 0 0.27766619426868899 0.018977421950794569 0 0.25446675038947358 0.0029162606258486688 0 0.26047117107291767 -0.0019720443344692288 0 0.25446675038947358 0.0029162606258486688 0 0.26047117107291767 -0.0019720443344692288 0 0.28339325744793759 0.061338593161917712 0 0.2699795556074106 0.054659435659755229 0 0.26514968559830832 0.069915803624621298 0 0.28350496565293731 0.043820562147367653 0 0.28339325744793759 0.061338593161917712 0 0.2699795556074106 0.054659435659755229 0 0.28350496565293731 0.043820562147367653 0 0.27766619426868899 0.018977421950794569 0 0.26464981823601458 0.038183209123269009 0 0.28350496565293731 0.043820562147367653 0 0.2699795556074106 0.054659435659755229 0 0.26464981823601458 0.038183209123269009 0 0.26464981823601458 0.038183209123269009 0 0.25174039047255609 0.044464402284776217 0 0.2585751734657834 0.052327775232976027 0 0.26464981823601458 0.038183209123269009 0 0.25044211127373811 0.032849993626191502 0 0.25174039047255609 0.044464402284776217 0 0.25174039047255609 0.044464402284776217 0 0.25102243244437311 0.053297338652025752 0 0.2585751734657834 0.052327775232976027 0 0.2699795556074106 0.054659435659755229 0 0.26464981823601458 0.038183209123269009 0 0.2585751734657834 0.052327775232976027 0 0.2699795556074106 0.054659435659755229 0 0.2585751734657834 0.052327775232976027 0 0.26000268679747079 0.061003988239662958 0 0.2699795556074106 0.054659435659755229 0 0.26000268679747079 0.061003988239662958 0 0.26514968559830832 0.069915803624621298 0 0.2585751734657834 0.052327775232976027 0 0.26000268679747079 0.061003988239662958 0 0.2530174900015254 0.0600809219264858 0 0.25102243244437311 0.053297338652025752 0 0.2585751734657834 0.052327775232976027 0 0.2530174900015254 0.0600809219264858 0 0.24751669685985911 0.059618880130872708 0 0.25102243244437311 0.053297338652025752 0 0.2530174900015254 0.0600809219264858 0 0.24853219730195361 0.063845178725116872 0 0.2530174900015254 0.0600809219264858 0 0.25274476311700622 0.067427493409812952 0 0.2530174900015254 0.0600809219264858 0 0.25274476311700622 0.067427493409812952 0 0.26000268679747079 0.061003988239662958 0 0.2530174900015254 0.0600809219264858 0 0.25274476311700622 0.067427493409812952 0 0.25274476311700622 0.067427493409812952 0 0.25243039498113262 0.075895774732197205 0 0.24842415088314279 0.069033451464499671 0 0.25274476311700622 0.067427493409812952 0 0.25243039498113262 0.075895774732197205 0 0.25274476311700622 0.067427493409812952 0 0.25243039498113262 0.075895774732197205 0 0.26514968559830832 0.069915803624621298 0 0.25243039498113262 0.075895774732197205 0 0.26514968559830832 0.069915803624621298 0 0.26417250328098718 0.085299079350852347 0 0.25243039498113262 0.075895774732197205 0 0.26514968559830832 0.069915803624621298 0 0.26000268679747079 0.061003988239662958 0 0.25274476311700622 0.067427493409812952 0 0.26514968559830832 0.069915803624621298 0 0.25274476311700622 0.067427493409812952 0 0.26514968559830832 0.069915803624621298 0 0.25243039498113262 0.075895774732197205 0 0.26417250328098718 0.085299079350852347 0 0.25158482098595109 0.098673396421397969 0 0.25243039498113262 0.075895774732197205 0 0.25158482098595109 0.098673396421397969 0 0.26417250328098718 0.085299079350852347 0 0.27563544099652842 0.091217529053328833 0 0.26597619666038957 0.098681263799979324 0 0.26417250328098718 0.085299079350852347 0 0.27658940398852799 0.081360569412953818 0 0.27563544099652842 0.091217529053328833 0 0.26514968559830832 0.069915803624621298 0 0.26417250328098718 0.085299079350852347 0 0.27658940398852799 0.081360569412953818 0 0.27658940398852799 0.081360569412953818 0 0.27563544099652842 0.091217529053328833 0 0.28742128170162778 0.087331448045782731 0 0.28339325744793759 0.061338593161917712 0 0.26514968559830832 0.069915803624621298 0 0.29259370646201821 0.075420814845242989 0 0.26514968559830832 0.069915803624621298 0 0.27658940398852799 0.081360569412953818 0 0.29259370646201821 0.075420814845242989 0 0.28339325744793759 0.061338593161917712 0 0.26514968559830832 0.069915803624621298 0 0.26514968559830832 0.069915803624621298 0 0.29259370646201821 0.075420814845242989 0 0.29882370077581188 0.062479238108283437 0 0.28339325744793759 0.061338593161917712 0 0.29259370646201821 0.075420814845242989 0 0.27658940398852799 0.081360569412953818 0 0.29259370646201821 0.075420814845242989 0 0.28742128170162778 0.087331448045782731 0 0.27563544099652842 0.091217529053328833 0 0.28742128170162778 0.087331448045782731 0 0.29001374252644291 0.099006193890217781 0 0.28742128170162778 0.087331448045782731 0 0.30227411453462139 0.089652133027170247 0 0.29001374252644291 0.099006193890217781 0 0.29259370646201821 0.075420814845242989 0 0.28742128170162778 0.087331448045782731 0 0.30227411453462139 0.089652133027170247 0 0.32003772732572838 0.080925826065863432 0 0.29259370646201821 0.075420814845242989 0 0.30227411453462139 0.089652133027170247 0 0.32003772732572838 0.080925826065863432 0 0.29259370646201821 0.075420814845242989 0 0.32003772732572838 0.080925826065863432 0 0.29882370077581188 0.062479238108283437 0 0.29259370646201821 0.075420814845242989 0 0.32003772732572838 0.080925826065863432 0 0.29882370077581188 0.062479238108283437 0 0.31518448171420999 0.065085558788002928 0 0.32003772732572838 0.080925826065863432 0 0.29882370077581188 0.062479238108283437 0 0.29818169174329712 0.11066146566519899 0 0.31114536757858358 0.11742006929579971 0 0.294250496481684 0.12267566802032639 0 0.31114536757858358 0.11742006929579971 0 0.294250496481684 0.12267566802032639 0 0.30313841955192899 0.13260249050964579 0 0.29818169174329712 0.11066146566519899 0 0.31114536757858358 0.11742006929579971 0 0.30640852481201453 0.1024735992044304 0 0.30227411453462139 0.089652133027170247 0 0.30640852481201453 0.1024735992044304 0 0.29001374252644291 0.099006193890217781 0 0.29818169174329712 0.11066146566519899 0 0.30640852481201453 0.1024735992044304 0 0.29001374252644291 0.099006193890217781 0 0.31657863646219547 0.093324099257994786 0 0.30227411453462139 0.089652133027170247 0 0.30640852481201453 0.1024735992044304 0 0.29818169174329712 0.11066146566519899 0 0.29001374252644291 0.099006193890217781 0 0.28729541733308872 0.1128284558108848 0 0.29001374252644291 0.099006193890217781 0 0.28729541733308872 0.1128284558108848 0 0.27577858748266387 0.1072301355245756 0 0.29818169174329712 0.11066146566519899 0 0.28729541733308872 0.1128284558108848 0 0.294250496481684 0.12267566802032639 0 0.28729541733308872 0.1128284558108848 0 0.294250496481684 0.12267566802032639 0 0.28067449336876182 0.1220521091494646 0 0.28067449336876182 0.1220521091494646 0 0.26956705708048567 0.1198361090660386 0 0.27577858748266387 0.1072301355245756 0 0.28729541733308872 0.1128284558108848 0 0.28067449336876182 0.1220521091494646 0 0.27577858748266387 0.1072301355245756 0 0.26956705708048567 0.1198361090660386 0 0.27577858748266387 0.1072301355245756 0 0.26270963055581759 0.11098617864974181 0 0.27563544099652842 0.091217529053328833 0 0.27577858748266387 0.1072301355245756 0 0.26597619666038957 0.098681263799979324 0 0.27563544099652842 0.091217529053328833 0 0.29001374252644291 0.099006193890217781 0 0.27577858748266387 0.1072301355245756 0 0.27577858748266387 0.1072301355245756 0 0.26597619666038957 0.098681263799979324 0 0.26270963055581759 0.11098617864974181 0 0.25158482098595109 0.098673396421397969 0 0.25094552198087999 0.11589449234768209 0 0.25158482098595109 0.098673396421397969 0 0.26270963055581759 0.11098617864974181 0 0.25094552198087999 0.11589449234768209 0 0.26417250328098718 0.085299079350852347 0 0.26597619666038957 0.098681263799979324 0 0.25158482098595109 0.098673396421397969 0 0.26597619666038957 0.098681263799979324 0 0.25158482098595109 0.098673396421397969 0 0.26270963055581759 0.11098617864974181 0 0.25158482098595109 0.098673396421397969 0 0.26270963055581759 0.11098617864974181 0 0.25094552198087999 0.11589449234768209 0 0.25030622297580962 0.13311558827396619 0 0.26022612795132161 0.12333036834530881 0 0.25094552198087999 0.11589449234768209 0 0.25030622297580962 0.13311558827396619 0 0.26956705708048567 0.1198361090660386 0 0.26022612795132161 0.12333036834530881 0 0.26270963055581759 0.11098617864974181 0 0.26022612795132161 0.12333036834530881 0 0.26270963055581759 0.11098617864974181 0 0.25094552198087999 0.11589449234768209 0 0.26956705708048567 0.1198361090660386 0 0.26022612795132161 0.12333036834530881 0 0.26675796828336718 0.1380571931171293 0 0.26022612795132161 0.12333036834530881 0 0.25030622297580962 0.13311558827396619 0 0.26675796828336718 0.1380571931171293 0 0.25030622297580962 0.13311558827396619 0 0.26675796828336718 0.1380571931171293 0 0.25030622297580962 0.13311558827396619 0 0.26675796828336718 0.1380571931171293 0 0.25638724149227848 0.14295410589973731 0 0.25004344172447263 0.14019424959050239 0 0.25030622297580962 0.13311558827396619 0 0.25638724149227848 0.14295410589973731 0 0.25004344172447263 0.14019424959050239 0 0.25030622297580962 0.13311558827396619 0 0.26675796828336718 0.1380571931171293 0 0.28320971359092417 0.1429987979602943 0 0.26675796828336718 0.1380571931171293 0 0.28666270206708028 0.1324408374186071 0 0.28320971359092417 0.1429987979602943 0 0.28067449336876182 0.1220521091494646 0 0.26956705708048567 0.1198361090660386 0 0.26675796828336718 0.1380571931171293 0 0.28067449336876182 0.1220521091494646 0 0.26675796828336718 0.1380571931171293 0 0.28666270206708028 0.1324408374186071 0 0.26675796828336718 0.1380571931171293 0 0.27436529468354132 0.15433220537778311 0 0.26010861073109098 0.15248373785575309 0 0.26675796828336718 0.1380571931171293 0 0.27436529468354132 0.15433220537778311 0 0.28320971359092417 0.1429987979602943 0 0.26675796828336718 0.1380571931171293 0 0.26010861073109098 0.15248373785575309 0 0.25638724149227848 0.14295410589973731 0 0.2496536413094039 0.15044712256699261 0 0.25004344172447263 0.14019424959050239 0 0.25638724149227848 0.14295410589973731 0 0.24653130607993951 0.16237692388552691 0 0.2496536413094039 0.15044712256699261 0 0.26010861073109098 0.15248373785575309 0 0.2496536413094039 0.15044712256699261 0 0.26010861073109098 0.15248373785575309 0 0.25638724149227848 0.14295410589973731 0 0.24653130607993951 0.16237692388552691 0 0.25292738168467233 0.17649485219682931 0 0.26638423851283249 0.16867758561061549 0 0.24653130607993951 0.16237692388552691 0 0.26010861073109098 0.15248373785575309 0 0.26638423851283249 0.16867758561061549 0 0.24528107816237801 0.1907036486386274 0 0.25292738168467233 0.17649485219682931 0 0.26633433714882182 0.18577592949096661 0 0.25292738168467233 0.17649485219682931 0 0.26633433714882182 0.18577592949096661 0 0.26638423851283249 0.16867758561061549 0 0.27723266788850742 0.181048228772968 0 0.26638423851283249 0.16867758561061549 0 0.28391425324491287 0.17071999404263091 0 0.26633433714882182 0.18577592949096661 0 0.27723266788850742 0.181048228772968 0 0.26638423851283249 0.16867758561061549 0 0.27436529468354132 0.15433220537778311 0 0.26010861073109098 0.15248373785575309 0 0.26638423851283249 0.16867758561061549 0 0.27436529468354132 0.15433220537778311 0 0.26638423851283249 0.16867758561061549 0 0.28391425324491287 0.17071999404263091 0 0.27436529468354132 0.15433220537778311 0 0.28391425324491287 0.17071999404263091 0 0.29097703849613438 0.15773848939083679 0 0.28391425324491287 0.17071999404263091 0 0.2931647794093819 0.16879209887591959 0 0.29097703849613438 0.15773848939083679 0 0.2931647794093819 0.16879209887591959 0 0.29097703849613438 0.15773848939083679 0 0.30040947706207388 0.16512632217721829 0 0.28391425324491287 0.17071999404263091 0 0.28743664533084129 0.187357279865842 0 0.29743995151898561 0.17866098634217961 0 0.27723266788850742 0.181048228772968 0 0.28391425324491287 0.17071999404263091 0 0.28743664533084129 0.187357279865842 0 0.28391425324491287 0.17071999404263091 0 0.2931647794093819 0.16879209887591959 0 0.29743995151898561 0.17866098634217961 0 0.28743664533084129 0.187357279865842 0 0.29743995151898561 0.17866098634217961 0 0.29971043857951379 0.19298806906372529 0 0.29743995151898561 0.17866098634217961 0 0.30929675685570829 0.1858318568065235 0 0.29971043857951379 0.19298806906372529 0 0.29743995151898561 0.17866098634217961 0 0.3101655001798202 0.17563615506282959 0 0.30040947706207388 0.16512632217721829 0 0.29743995151898561 0.17866098634217961 0 0.3101655001798202 0.17563615506282959 0 0.30929675685570829 0.1858318568065235 0 0.30040947706207388 0.16512632217721829 0 0.30453528129870422 0.15487579661148021 0 0.32848741365188411 0.1727716232507491 0 0.29097703849613438 0.15773848939083679 0 0.30040947706207388 0.16512632217721829 0 0.30453528129870422 0.15487579661148021 0 0.2931647794093819 0.16879209887591959 0 0.29743995151898561 0.17866098634217961 0 0.30040947706207388 0.16512632217721829 0 0.29097703849613438 0.15773848939083679 0 0.30453528129870422 0.15487579661148021 0 0.29618567382365713 0.14404403195872001 0 0.30453528129870422 0.15487579661148021 0 0.30873747279203018 0.14281046260302349 0 0.29618567382365713 0.14404403195872001 0 0.30453528129870422 0.15487579661148021 0 0.30873747279203018 0.14281046260302349 0 0.32007589174333823 0.14676000458717811 0 0.30873747279203018 0.14281046260302349 0 0.30313841955192899 0.13260249050964579 0 0.3195478300457561 0.1332621056988223 0 0.31114536757858358 0.11742006929579971 0 0.30313841955192899 0.13260249050964579 0 0.3195478300457561 0.1332621056988223 0 0.30873747279203018 0.14281046260302349 0 0.30313841955192899 0.13260249050964579 0 0.29618567382365713 0.14404403195872001 0 0.294250496481684 0.12267566802032639 0 0.30313841955192899 0.13260249050964579 0 0.28666270206708028 0.1324408374186071 0 0.30313841955192899 0.13260249050964579 0 0.28666270206708028 0.1324408374186071 0 0.29618567382365713 0.14404403195872001 0 0.294250496481684 0.12267566802032639 0 0.28067449336876182 0.1220521091494646 0 0.28666270206708028 0.1324408374186071 0 0.28666270206708028 0.1324408374186071 0 0.28320971359092417 0.1429987979602943 0 0.29618567382365713 0.14404403195872001 0 0.27436529468354132 0.15433220537778311 0 0.29097703849613438 0.15773848939083679 0 0.28320971359092417 0.1429987979602943 0 0.29097703849613438 0.15773848939083679 0 0.28320971359092417 0.1429987979602943 0 0.29618567382365713 0.14404403195872001 0 0.28119448123381058 0.25405304303149878 0 0.26221447651104962 0.2479993693513689 0 0.28440499104296979 0.23439140090611099 0 0.26221447651104962 0.2479993693513689 0 0.26853130556434218 0.23400660741274959 0 0.28440499104296979 0.23439140090611099 0 0.26221447651104962 0.2479993693513689 0 0.28440499104296979 0.23439140090611099 0 0.2457442494512444 0.24022391879071339 0 0.26221447651104962 0.2479993693513689 0 0.25511338863332461 0.22468137717712711 0 0.26221447651104962 0.2479993693513689 0 0.25511338863332461 0.22468137717712711 0 0.26853130556434218 0.23400660741274959 0 0.26221447651104962 0.2479993693513689 0 0.25511338863332461 0.22468137717712711 0 0.25511338863332461 0.22468137717712711 0 0.25242827713160498 0.21540237912569379 0 0.25511338863332461 0.22468137717712711 0 0.2794126892910288 0.21617120911671081 0 0.25511338863332461 0.22468137717712711 0 0.26853130556434218 0.23400660741274959 0 0.2794126892910288 0.21617120911671081 0 0.26853130556434218 0.23400660741274959 0 0.2794126892910288 0.21617120911671081 0 0.28440499104296979 0.23439140090611099 0 0.25511338863332461 0.22468137717712711 0 0.2794126892910288 0.21617120911671081 0 0.26644318031571418 0.20408753099865831 0 0.2794126892910288 0.21617120911671081 0 0.26644318031571418 0.20408753099865831 0 0.27722953884408802 0.19656269719262509 0 0.24528107816237801 0.1907036486386274 0 0.26644318031571418 0.20408753099865831 0 0.25242827713160498 0.21540237912569379 0 0.25511338863332461 0.22468137717712711 0 0.26644318031571418 0.20408753099865831 0 0.25242827713160498 0.21540237912569379 0 0.26644318031571418 0.20408753099865831 0 0.25242827713160498 0.21540237912569379 0 0.24528107816237801 0.1907036486386274 0 0.26633433714882182 0.18577592949096661 0 0.26644318031571418 0.20408753099865831 0 0.26633433714882182 0.18577592949096661 0 0.26644318031571418 0.20408753099865831 0 0.27722953884408802 0.19656269719262509 0 0.27723266788850742 0.181048228772968 0 0.28743664533084129 0.187357279865842 0 0.27722953884408802 0.19656269719262509 0 0.26633433714882182 0.18577592949096661 0 0.27723266788850742 0.181048228772968 0 0.27722953884408802 0.19656269719262509 0 0.28743664533084129 0.187357279865842 0 0.27722953884408802 0.19656269719262509 0 0.28939512316467059 0.2005252056429343 0 0.28743664533084129 0.187357279865842 0 0.28939512316467059 0.2005252056429343 0 0.29971043857951379 0.19298806906372529 0 0.30929675685570829 0.1858318568065235 0 0.29971043857951379 0.19298806906372529 0 0.31162694501442678 0.19735313208654229 0 0.29971043857951379 0.19298806906372529 0 0.31162694501442678 0.19735313208654229 0 0.30371198994873311 0.20766104105629449 0 0.28939512316467059 0.2005252056429343 0 0.29971043857951379 0.19298806906372529 0 0.30371198994873311 0.20766104105629449 0 0.2794126892910288 0.21617120911671081 0 0.30371198994873311 0.20766104105629449 0 0.2794126892910288 0.21617120911671081 0 0.30371198994873311 0.20766104105629449 0 0.30659550557489001 0.220783432460853 0 0.2794126892910288 0.21617120911671081 0 0.27722953884408802 0.19656269719262509 0 0.28939512316467059 0.2005252056429343 0 0.2794126892910288 0.21617120911671081 0 0.28939512316467059 0.2005252056429343 0 0.30371198994873311 0.20766104105629449 0 0.30659550557489001 0.220783432460853 0 0.28440499104296979 0.23439140090611099 0 0.2794126892910288 0.21617120911671081 0 0.30659550557489001 0.220783432460853 0 0.28440499104296979 0.23439140090611099 0 0.30659550557489001 0.220783432460853 0 0.30328699804120918 0.24394477185791469 0 0.28440499104296979 0.23439140090611099 0 0.30659550557489001 0.220783432460853 0 0.30328699804120918 0.24394477185791469 0 0.31607427666693672 0.2331905299380852 0 0.28119448123381058 0.25405304303149878 0 0.30328699804120918 0.24394477185791469 0 0.28440499104296979 0.23439140090611099 0 0.3433555784436142 0.25004320974280247 0 0.34183468199228573 0.23727684870966961 0 0.33092809789354199 0.24744869965648561 0 0.34183468199228573 0.23727684870966961 0 0.3288410404878227 0.2348757256337824 0 0.33092809789354199 0.24744869965648561 0 0.3288410404878227 0.2348757256337824 0 0.33092809789354199 0.24744869965648561 0 0.31845456220733243 0.24449663650262579 0 0.31879452400631653 0.25919465198291952 0 0.30328699804120918 0.24394477185791469 0 0.31845456220733243 0.24449663650262579 0 0.30328699804120918 0.24394477185791469 0 0.31845456220733243 0.24449663650262579 0 0.31607427666693672 0.2331905299380852 0 0.3288410404878227 0.2348757256337824 0 0.31845456220733243 0.24449663650262579 0 0.31607427666693672 0.2331905299380852 0 0.3288410404878227 0.2348757256337824 0 0.31607427666693672 0.2331905299380852 0 0.32372534117020862 0.22390137225637691 0 0.30659550557489001 0.220783432460853 0 0.31607427666693672 0.2331905299380852 0 0.32372534117020862 0.22390137225637691 0 0.3288410404878227 0.2348757256337824 0 0.32372534117020862 0.22390137225637691 0 0.33832986301458301 0.22348170923356889 0 0.34183468199228573 0.23727684870966961 0 0.3288410404878227 0.2348757256337824 0 0.33832986301458301 0.22348170923356889 0 0.32372534117020862 0.22390137225637691 0 0.33832986301458301 0.22348170923356889 0 0.32878602010681029 0.20717546401559489 0 0.33832986301458301 0.22348170923356889 0 0.32878602010681029 0.20717546401559489 0 0.35089693608391498 0.21212819010674691 0 0.32878602010681029 0.20717546401559489 0 0.35097653463873058 0.19356749557033681 0 0.35089693608391498 0.21212819010674691 0 0.30659550557489001 0.220783432460853 0 0.32372534117020862 0.22390137225637691 0 0.32878602010681029 0.20717546401559489 0 0.31162694501442678 0.19735313208654229 0 0.30371198994873311 0.20766104105629449 0 0.32878602010681029 0.20717546401559489 0 0.30371198994873311 0.20766104105629449 0 0.30659550557489001 0.220783432460853 0 0.32878602010681029 0.20717546401559489 0 0.30659550557489001 0.220783432460853 0 0.32878602010681029 0.20717546401559489 0 0.32878602010681029 0.20717546401559489 0 0.31972446529152482 0.19052244909679969 0 0.3336272658304279 0.18895925974375941 0 0.31162694501442678 0.19735313208654229 0 0.32878602010681029 0.20717546401559489 0 0.31972446529152482 0.19052244909679969 0 0.30929675685570829 0.1858318568065235 0 0.31162694501442678 0.19735313208654229 0 0.31972446529152482 0.19052244909679969 0 0.32878602010681029 0.20717546401559489 0 0.3336272658304279 0.18895925974375941 0 0.35097653463873058 0.19356749557033681 0 0.32878602010681029 0.20717546401559489 0 0.35097653463873058 0.19356749557033681 0 0.3336272658304279 0.18895925974375941 0 0.35097653463873058 0.19356749557033681 0 0.35656535024169428 0.1804169243242798 0 0.35097653463873058 0.19356749557033681 0 0.35896651107905142 0.20360726904620211 0 0.35089693608391498 0.21212819010674691 0 0.35097653463873058 0.19356749557033681 0 0.36405518175537521 0.19484170215684679 0 0.35896651107905142 0.20360726904620211 0 0.35097653463873058 0.19356749557033681 0 0.36405518175537521 0.19484170215684679 0 0.35656535024169428 0.1804169243242798 0 0.36405518175537521 0.19484170215684679 0 0.35656535024169428 0.1804169243242798 0 0.38464328683150451 0.18806222539781059 0 0.36405518175537521 0.19484170215684679 0 0.36923798170140371 0.20928007436804161 0 0.38464328683150451 0.18806222539781059 0 0.36405518175537521 0.19484170215684679 0 0.36923798170140371 0.20928007436804161 0 0.35896651107905142 0.20360726904620211 0 0.36923798170140371 0.20928007436804161 0 0.36132702422268731 0.21787493872225441 0 0.35896651107905142 0.20360726904620211 0 0.36923798170140371 0.20928007436804161 0 0.36132702422268731 0.21787493872225441 0 0.37292139258550783 0.22672254500020811 0 0.36132702422268731 0.21787493872225441 0 0.35896651107905142 0.20360726904620211 0 0.35089693608391498 0.21212819010674691 0 0.34183468199228573 0.23727684870966961 0 0.33832986301458301 0.22348170923356889 0 0.35524969613090918 0.22837961108452459 0 0.36132702422268731 0.21787493872225441 0 0.35089693608391498 0.21212819010674691 0 0.35524969613090918 0.22837961108452459 0 0.33832986301458301 0.22348170923356889 0 0.35089693608391498 0.21212819010674691 0 0.35524969613090918 0.22837961108452459 0 0.36132702422268731 0.21787493872225441 0 0.35524969613090918 0.22837961108452459 0 0.37292139258550783 0.22672254500020811 0 0.35524969613090918 0.22837961108452459 0 0.37292139258550783 0.22672254500020811 0 0.36587213359177301 0.2378375665458646 0 0.37292139258550783 0.22672254500020811 0 0.36587213359177301 0.2378375665458646 0 0.3757768555661396 0.240133652284411 0 0.36587213359177301 0.2378375665458646 0 0.37169426656027921 0.24972740256563611 0 0.3757768555661396 0.240133652284411 0 0.36587213359177301 0.2378375665458646 0 0.37169426656027921 0.24972740256563611 0 0.36205361842742478 0.24882498742118489 0 0.36587213359177301 0.2378375665458646 0 0.36205361842742478 0.24882498742118489 0 0.35356337405553911 0.24205426642971811 0 0.35175757775775729 0.2532797976346674 0 0.36205361842742478 0.24882498742118489 0 0.35356337405553911 0.24205426642971811 0 0.35524969613090918 0.22837961108452459 0 0.36587213359177301 0.2378375665458646 0 0.35356337405553911 0.24205426642971811 0 0.34183468199228573 0.23727684870966961 0 0.35524969613090918 0.22837961108452459 0 0.35356337405553911 0.24205426642971811 0 0.3433555784436142 0.25004320974280247 0 0.34183468199228573 0.23727684870966961 0 0.35356337405553911 0.24205426642971811 0 0.3433555784436142 0.25004320974280247 0 0.35175757775775729 0.2532797976346674 0 0.35356337405553911 0.24205426642971811 0 0.33379856680907583 0.1437068241164389 0 0.32007589174333823 0.14676000458717811 0 0.33365817402274128 0.15789089208148979 0 0.33379856680907583 0.1437068241164389 0 0.33365817402274128 0.15789089208148979 0 0.34780073530519279 0.14835628742565241 0 0.33379856680907583 0.1437068241164389 0 0.34780073530519279 0.14835628742565241 0 0.34586764947947463 0.1362539899128139 0 0.33379856680907583 0.1437068241164389 0 0.33436770153514289 0.13112975471366969 0 0.34586764947947463 0.1362539899128139 0 0.34956654336434939 0.1234914401014125 0 0.33436770153514289 0.13112975471366969 0 0.34586764947947463 0.1362539899128139 0 0.33379856680907583 0.1437068241164389 0 0.33436770153514289 0.13112975471366969 0 0.3195478300457561 0.1332621056988223 0 0.32606950933900308 0.1158177097477945 0 0.33436770153514289 0.13112975471366969 0 0.3195478300457561 0.1332621056988223 0 0.30873747279203018 0.14281046260302349 0 0.3195478300457561 0.1332621056988223 0 0.32007589174333823 0.14676000458717811 0 0.30453528129870422 0.15487579661148021 0 0.32007589174333823 0.14676000458717811 0 0.33365817402274128 0.15789089208148979 0 0.33379856680907583 0.1437068241164389 0 0.3195478300457561 0.1332621056988223 0 0.32007589174333823 0.14676000458717811 0 0.30453528129870422 0.15487579661148021 0 0.33365817402274128 0.15789089208148979 0 0.30453528129870422 0.15487579661148021 0 0.32848741365188411 0.1727716232507491 0 0.33365817402274128 0.15789089208148979 0 0.30040947706207388 0.16512632217721829 0 0.32848741365188411 0.1727716232507491 0 0.3101655001798202 0.17563615506282959 0 0.30040947706207388 0.16512632217721829 0 0.32848741365188411 0.1727716232507491 0 0.3101655001798202 0.17563615506282959 0 0.31983557186529732 0.18171103000860481 0 0.32848741365188411 0.1727716232507491 0 0.3336272658304279 0.18895925974375941 0 0.31983557186529732 0.18171103000860481 0 0.32848741365188411 0.1727716232507491 0 0.3101655001798202 0.17563615506282959 0 0.30929675685570829 0.1858318568065235 0 0.31983557186529732 0.18171103000860481 0 0.30929675685570829 0.1858318568065235 0 0.31972446529152482 0.19052244909679969 0 0.31983557186529732 0.18171103000860481 0 0.31972446529152482 0.19052244909679969 0 0.3336272658304279 0.18895925974375941 0 0.31983557186529732 0.18171103000860481 0 0.32848741365188411 0.1727716232507491 0 0.34507730906385942 0.16855187839241309 0 0.35656535024169428 0.1804169243242798 0 0.3336272658304279 0.18895925974375941 0 0.32848741365188411 0.1727716232507491 0 0.35656535024169428 0.1804169243242798 0 0.32848741365188411 0.1727716232507491 0 0.35656535024169428 0.1804169243242798 0 0.32848741365188411 0.1727716232507491 0 0.33365817402274128 0.15789089208148979 0 0.34507730906385942 0.16855187839241309 0 0.33365817402274128 0.15789089208148979 0 0.34507730906385942 0.16855187839241309 0 0.36278106674677829 0.1609059875514994 0 0.34507730906385942 0.16855187839241309 0 0.35656535024169428 0.1804169243242798 0 0.36278106674677829 0.1609059875514994 0 0.33365817402274128 0.15789089208148979 0 0.36278106674677829 0.1609059875514994 0 0.35656535024169428 0.1804169243242798 0 0.37356219856206202 0.1741215612114578 0 0.38464328683150451 0.18806222539781059 0 0.35656535024169428 0.1804169243242798 0 0.38464328683150451 0.18806222539781059 0 0.35656535024169428 0.1804169243242798 0 0.37356219856206202 0.1741215612114578 0 0.36278106674677829 0.1609059875514994 0 0.36278106674677829 0.1609059875514994 0 0.36531512046589693 0.1378839500987098 0 0.37680076681991098 0.15092733218095339 0 0.36278106674677829 0.1609059875514994 0 0.34780073530519279 0.14835628742565241 0 0.36531512046589693 0.1378839500987098 0 0.34780073530519279 0.14835628742565241 0 0.34586764947947463 0.1362539899128139 0 0.36531512046589693 0.1378839500987098 0 0.33365817402274128 0.15789089208148979 0 0.36278106674677829 0.1609059875514994 0 0.34780073530519279 0.14835628742565241 0 0.34956654336434939 0.1234914401014125 0 0.34586764947947463 0.1362539899128139 0 0.36531512046589693 0.1378839500987098 0 0.34956654336434939 0.1234914401014125 0 0.36322639358210312 0.11848039068348271 0 0.36531512046589693 0.1378839500987098 0 0.36322639358210312 0.11848039068348271 0 0.36531512046589693 0.1378839500987098 0 0.38482072671029011 0.13725767299229241 0 0.36322639358210312 0.11848039068348271 0 0.38482072671029011 0.13725767299229241 0 0.36322639358210312 0.11848039068348271 0 0.38482072671029011 0.13725767299229241 0 0.38005682511468147 0.12140739343396729 0 0.38482072671029011 0.13725767299229241 0 0.39398634319161102 0.12556361147638159 0 0.38005682511468147 0.12140739343396729 0 0.38482072671029011 0.13725767299229241 0 0.39398634319161102 0.12556361147638159 0 0.40386822996399702 0.1370092008917044 0 0.39398634319161102 0.12556361147638159 0 0.40386822996399702 0.1370092008917044 0 0.40630256149234217 0.12337914253670321 0 0.38482072671029011 0.13725767299229241 0 0.40641505983847698 0.15603495530110209 0 0.38482072671029011 0.13725767299229241 0 0.40386822996399702 0.1370092008917044 0 0.40641505983847698 0.15603495530110209 0 0.38482072671029011 0.13725767299229241 0 0.39190395947081519 0.16392108302150901 0 0.40641505983847698 0.15603495530110209 0 0.36531512046589693 0.1378839500987098 0 0.38482072671029011 0.13725767299229241 0 0.37680076681991098 0.15092733218095339 0 0.38482072671029011 0.13725767299229241 0 0.37680076681991098 0.15092733218095339 0 0.39190395947081519 0.16392108302150901 0 0.36278106674677829 0.1609059875514994 0 0.39190395947081519 0.16392108302150901 0 0.36278106674677829 0.1609059875514994 0 0.37680076681991098 0.15092733218095339 0 0.39190395947081519 0.16392108302150901 0 0.37356219856206202 0.1741215612114578 0 0.36278106674677829 0.1609059875514994 0 0.39190395947081519 0.16392108302150901 0 0.37356219856206202 0.1741215612114578 0 0.39190395947081519 0.16392108302150901 0 0.38464328683150451 0.18806222539781059 0 0.4059128807594603 0.17981630131623391 0 0.39190395947081519 0.16392108302150901 0 0.38464328683150451 0.18806222539781059 0 0.39190395947081519 0.16392108302150901 0 0.42102685219485209 0.16693617849151851 0 0.40641505983847698 0.15603495530110209 0 0.4059128807594603 0.17981630131623391 0 0.39190395947081519 0.16392108302150901 0 0.42102685219485209 0.16693617849151851 0 0.42102685219485209 0.16693617849151851 0 0.40641505983847698 0.15603495530110209 0 0.41490094777653419 0.14712571815411829 0 0.39190395947081519 0.16392108302150901 0 0.42102685219485209 0.16693617849151851 0 0.4059128807594603 0.17981630131623391 0 0.42102685219485209 0.16693617849151851 0 0.42759287120751482 0.1799189573059411 0 0.4059128807594603 0.17981630131623391 0 0.42759287120751482 0.1799189573059411 0 0.42045703890892938 0.19185412915784311 0 0.42102685219485209 0.16693617849151851 0 0.42759287120751482 0.1799189573059411 0 0.45014974491888898 0.16995127396152809 0 0.42759287120751482 0.1799189573059411 0 0.42045703890892938 0.19185412915784311 0 0.43799329450951457 0.1898848624547933 0 0.42102685219485209 0.16693617849151851 0 0.45014974491888898 0.16995127396152809 0 0.42102685219485209 0.16693617849151851 0 0.43641214087317609 0.15776157540708571 0 0.42820809332857229 0.14540676379554701 0 0.42102685219485209 0.16693617849151851 0 0.43641214087317609 0.15776157540708571 0 0.45014974491888898 0.16995127396152809 0 0.43641214087317609 0.15776157540708571 0 0.42820809332857229 0.14540676379554701 0 0.44305345270963392 0.14224085277467549 0 0.42820809332857229 0.14540676379554701 0 0.43267139290449452 0.12562392175117529 0 0.41815906511665779 0.13368892679480551 0 0.42820809332857229 0.14540676379554701 0 0.43267139290449452 0.12562392175117529 0 0.44305345270963392 0.14224085277467549 0 0.43267139290449452 0.12562392175117529 0 0.41815906511665779 0.13368892679480551 0 0.41840244549433692 0.1204435227777134 0 0.41815906511665779 0.13368892679480551 0 0.41840244549433692 0.1204435227777134 0 0.40630256149234217 0.12337914253670321 0 0.40386822996399702 0.1370092008917044 0 0.41815906511665779 0.13368892679480551 0 0.40630256149234217 0.12337914253670321 0 0.40386822996399702 0.1370092008917044 0 0.41815906511665779 0.13368892679480551 0 0.41490094777653419 0.14712571815411829 0 0.42102685219485209 0.16693617849151851 0 0.42820809332857229 0.14540676379554701 0 0.41490094777653419 0.14712571815411829 0 0.40386822996399702 0.1370092008917044 0 0.40641505983847698 0.15603495530110209 0 0.41490094777653419 0.14712571815411829 0 0.42820809332857229 0.14540676379554701 0 0.41815906511665779 0.13368892679480551 0 0.41490094777653419 0.14712571815411829 0 0.39196586341458151 0.242441409442547 0 0.40329821407583749 0.23025496453590971 0 0.40866327585672191 0.24600766979752939 0 0.38129994004966872 0.25577407136566988 0 0.39196586341458151 0.242441409442547 0 0.40866327585672191 0.24600766979752939 0 0.38129994004966872 0.25577407136566988 0 0.39196586341458151 0.242441409442547 0 0.38106847269238292 0.24536179082341181 0 0.37169426656027921 0.24972740256563611 0 0.38106847269238292 0.24536179082341181 0 0.3757768555661396 0.240133652284411 0 0.37292139258550783 0.22672254500020811 0 0.3757768555661396 0.240133652284411 0 0.38460543787124563 0.238732418458795 0 0.38106847269238292 0.24536179082341181 0 0.3757768555661396 0.240133652284411 0 0.38460543787124563 0.238732418458795 0 0.39196586341458151 0.242441409442547 0 0.38106847269238292 0.24536179082341181 0 0.38460543787124563 0.238732418458795 0 0.39196586341458151 0.242441409442547 0 0.38460543787124563 0.238732418458795 0 0.38844350160088592 0.2284985707660753 0 0.37292139258550783 0.22672254500020811 0 0.38460543787124563 0.238732418458795 0 0.38844350160088592 0.2284985707660753 0 0.37292139258550783 0.22672254500020811 0 0.38844350160088592 0.2284985707660753 0 0.38369130631537601 0.21297307403445409 0 0.38844350160088592 0.2284985707660753 0 0.39679964264504158 0.21937630878092959 0 0.38369130631537601 0.21297307403445409 0 0.38844350160088592 0.2284985707660753 0 0.39679964264504158 0.21937630878092959 0 0.40329821407583749 0.23025496453590971 0 0.39196586341458151 0.242441409442547 0 0.38844350160088592 0.2284985707660753 0 0.40329821407583749 0.23025496453590971 0 0.39679964264504158 0.21937630878092959 0 0.40329821407583749 0.23025496453590971 0 0.41066806580544729 0.2160617609406458 0 0.39598296716959969 0.20626700748070109 0 0.40513352984814438 0.19492560706685999 0 0.41066806580544729 0.2160617609406458 0 0.39679964264504158 0.21937630878092959 0 0.39598296716959969 0.20626700748070109 0 0.41066806580544729 0.2160617609406458 0 0.39679964264504158 0.21937630878092959 0 0.39598296716959969 0.20626700748070109 0 0.38369130631537601 0.21297307403445409 0 0.36923798170140371 0.20928007436804161 0 0.37292139258550783 0.22672254500020811 0 0.38369130631537601 0.21297307403445409 0 0.36923798170140371 0.20928007436804161 0 0.38369130631537601 0.21297307403445409 0 0.38464328683150451 0.18806222539781059 0 0.39598296716959969 0.20626700748070109 0 0.38369130631537601 0.21297307403445409 0 0.38464328683150451 0.18806222539781059 0 0.39598296716959969 0.20626700748070109 0 0.38464328683150451 0.18806222539781059 0 0.40513352984814438 0.19492560706685999 0 0.4059128807594603 0.17981630131623391 0 0.38464328683150451 0.18806222539781059 0 0.40513352984814438 0.19492560706685999 0 0.40513352984814438 0.19492560706685999 0 0.42045703890892938 0.19185412915784311 0 0.42444067869502011 0.20693424997503959 0 0.4059128807594603 0.17981630131623391 0 0.40513352984814438 0.19492560706685999 0 0.42045703890892938 0.19185412915784311 0 0.42045703890892938 0.19185412915784311 0 0.42444067869502011 0.20693424997503959 0 0.43799329450951457 0.1898848624547933 0 0.42444067869502011 0.20693424997503959 0 0.44184419378540352 0.2076794424592901 0 0.43799329450951457 0.1898848624547933 0 0.42444067869502011 0.20693424997503959 0 0.4302098735549707 0.2206458244329694 0 0.44184419378540352 0.2076794424592901 0 0.42444067869502011 0.20693424997503959 0 0.41066806580544729 0.2160617609406458 0 0.4302098735549707 0.2206458244329694 0 0.40513352984814438 0.19492560706685999 0 0.42444067869502011 0.20693424997503959 0 0.41066806580544729 0.2160617609406458 0 0.41066806580544729 0.2160617609406458 0 0.41777320819135039 0.22984229758728861 0 0.4302098735549707 0.2206458244329694 0 0.40329821407583749 0.23025496453590971 0 0.41066806580544729 0.2160617609406458 0 0.41777320819135039 0.22984229758728861 0 0.4302098735549707 0.2206458244329694 0 0.43602661166377499 0.2362412682293889 0 0.44584438813649652 0.2203436080528294 0 0.41777320819135039 0.22984229758728861 0 0.4302098735549707 0.2206458244329694 0 0.43602661166377499 0.2362412682293889 0 0.43602661166377499 0.2362412682293889 0 0.43076425121212841 0.2486853010718087 0 0.40866327585672191 0.24600766979752939 0 0.43602661166377499 0.2362412682293889 0 0.40866327585672191 0.24600766979752939 0 0.41777320819135039 0.22984229758728861 0 0.43602661166377499 0.2362412682293889 0 0.40866327585672191 0.24600766979752939 0 0.41664462513020523 0.25422696758609492 0 0.43076425121212841 0.2486853010718087 0 0.40866327585672191 0.24600766979752939 0 0.40329821407583749 0.23025496453590971 0 0.41777320819135039 0.22984229758728861 0 0.40866327585672191 0.24600766979752939 0 0.45166362976964691 0.25106894999712381 0 0.45384283414141641 0.23962742592169059 0 0.47583181488482379 0.2451422378191761 0 0.45166362976964691 0.25106894999712381 0 0.47583181488482379 0.2451422378191761 0 0.45384283414141641 0.23962742592169059 0 0.47692141707070451 0.23056955077157251 0 0.45166362976964691 0.25106894999712381 0 0.43076425121212841 0.2486853010718087 0 0.45384283414141641 0.23962742592169059 0 0.43602661166377499 0.2362412682293889 0 0.43076425121212841 0.2486853010718087 0 0.45384283414141641 0.23962742592169059 0 0.43076425121212841 0.2486853010718087 0 0.45384283414141641 0.23962742592169059 0 0.43602661166377499 0.2362412682293889 0 0.46338994747082818 0.22647486666124839 0 0.43602661166377499 0.2362412682293889 0 0.44584438813649652 0.2203436080528294 0 0.46338994747082818 0.22647486666124839 0 0.43602661166377499 0.2362412682293889 0 0.45384283414141641 0.23962742592169059 0 0.46338994747082818 0.22647486666124839 0 0.44584438813649652 0.2203436080528294 0 0.46338994747082818 0.22647486666124839 0 0.4574246187180494 0.20998202225832771 0 0.45384283414141641 0.23962742592169059 0 0.46338994747082818 0.22647486666124839 0 0.47692141707070451 0.23056955077157251 0 0.46338994747082818 0.22647486666124839 0 0.4574246187180494 0.20998202225832771 0 0.47311107537994651 0.21060674662752529 0 0.4574246187180494 0.20998202225832771 0 0.46861366351278472 0.19789432193598561 0 0.47311107537994651 0.21060674662752529 0 0.44584438813649652 0.2203436080528294 0 0.4574246187180494 0.20998202225832771 0 0.44184419378540352 0.2076794424592901 0 0.4302098735549707 0.2206458244329694 0 0.44584438813649652 0.2203436080528294 0 0.44184419378540352 0.2076794424592901 0 0.4574246187180494 0.20998202225832771 0 0.44184419378540352 0.2076794424592901 0 0.45120510308892831 0.19507838461398491 0 0.44184419378540352 0.2076794424592901 0 0.43799329450951457 0.1898848624547933 0 0.45120510308892831 0.19507838461398491 0 0.4574246187180494 0.20998202225832771 0 0.45120510308892831 0.19507838461398491 0 0.46861366351278472 0.19789432193598561 0 0.45120510308892831 0.19507838461398491 0 0.46861366351278472 0.19789432193598561 0 0.45014974491888898 0.16995127396152809 0 0.46861366351278472 0.19789432193598561 0 0.48377650321145821 0.20030440734603891 0 0.47890777313388699 0.17818810929941131 0 0.46861366351278472 0.19789432193598561 0 0.48377650321145821 0.20030440734603891 0 0.47311107537994651 0.21060674662752529 0 0.48377650321145821 0.20030440734603891 0 0.5 0.19442179120654851 0 0.47890777313388699 0.17818810929941131 0 0.48377650321145821 0.20030440734603891 0 0.5 0.19442179120654851 0 0.49075328327788142 0.2167084650931079 0 0.5 0.19442179120654851 0 0.49075328327788142 0.2167084650931079 0 0.49999999999999339 0.2215116756214566 0 0.48377650321145821 0.20030440734603891 0 0.49075328327788142 0.2167084650931079 0 0.47311107537994651 0.21060674662752529 0 0.46338994747082818 0.22647486666124839 0 0.49075328327788142 0.2167084650931079 0 0.47311107537994651 0.21060674662752529 0 0.46338994747082818 0.22647486666124839 0 0.49075328327788142 0.2167084650931079 0 0.46338994747082818 0.22647486666124839 0 0.49075328327788142 0.2167084650931079 0 0.47692141707070451 0.23056955077157251 0 0.47692141707070451 0.23056955077157251 0 0.49999999999999339 0.2215116756214566 0 0.50000000000000067 0.2392155256412283 0 0.49075328327788142 0.2167084650931079 0 0.47692141707070451 0.23056955077157251 0 0.49999999999999339 0.2215116756214566 0 0.47692141707070451 0.23056955077157251 0 0.49999999999999339 0.2215116756214566 0 0.50000000000000067 0.2392155256412283 0 0.47583181488482379 0.2451422378191761 0 0.48341195364679568 0.26002408893105827 0 0.50000000000000067 0.2392155256412283 0 0.47583181488482379 0.2451422378191761 0 0.47692141707070451 0.23056955077157251 0 0.50000000000000067 0.2392155256412283 0 0.47583181488482379 0.2451422378191761 0 0.45384283414141641 0.23962742592169059 0 0.47692141707070451 0.23056955077157251 0 0.47583181488482379 0.2451422378191761 0 0.46053260521531592 0.14091734283165991 0 0.45014974491888898 0.16995127396152809 0 0.47759274938693741 0.15337993901402261 0 0.46053260521531592 0.14091734283165991 0 0.47596637305353268 0.1236489788231635 0 0.45094723062946279 0.12208098845927939 0 0.46053260521531592 0.14091734283165991 0 0.44305345270963392 0.14224085277467549 0 0.45094723062946279 0.12208098845927939 0 0.43267139290449452 0.12562392175117529 0 0.44305345270963392 0.14224085277467549 0 0.45094723062946279 0.12208098845927939 0 0.46053260521531592 0.14091734283165991 0 0.44305345270963392 0.14224085277467549 0 0.45014974491888898 0.16995127396152809 0 0.43641214087317609 0.15776157540708571 0 0.44305345270963392 0.14224085277467549 0 0.45014974491888898 0.16995127396152809 0 0.42759287120751482 0.1799189573059411 0 0.43799329450951457 0.1898848624547933 0 0.45014974491888898 0.16995127396152809 0 0.43799329450951457 0.1898848624547933 0 0.45120510308892831 0.19507838461398491 0 0.45014974491888898 0.16995127396152809 0 0.46861366351278472 0.19789432193598561 0 0.45014974491888898 0.16995127396152809 0 0.47890777313388699 0.17818810929941131 0 0.45014974491888898 0.16995127396152809 0 0.47890777313388699 0.17818810929941131 0 0.47759274938693741 0.15337993901402261 0 0.5 0.19442179120654851 0 0.47890777313388699 0.17818810929941131 0 0.5 0.16733190679164031 0 0.47890777313388699 0.17818810929941131 0 0.5 0.16733190679164031 0 0.47759274938693741 0.15337993901402261 0 0.5 0.16733190679164031 0 0.47759274938693741 0.15337993901402261 0 0.5 0.14024202237673219 0 0.46053260521531592 0.14091734283165991 0 0.47759274938693741 0.15337993901402261 0 0.47596637305353268 0.1236489788231635 0 0.5 0.14024202237673219 0 0.5 0.11315213796182411 0 0.47596637305353268 0.1236489788231635 0 0.47759274938693741 0.15337993901402261 0 0.5 0.14024202237673219 0 0.47596637305353268 0.1236489788231635 0 0.5 0.11315213796182411 0 0.48146508414057748 0.097867616362435003 0 0.47596637305353268 0.1236489788231635 0 0.5 0.11315213796182411 0 0.48146508414057748 0.097867616362435003 0 0.5 0.08606225354691599 0 0.48146508414057748 0.097867616362435003 0 0.46684480345772023 0.083704774648097419 0 0.46085076100455152 0.1051260388446932 0 0.48146508414057748 0.097867616362435003 0 0.47596637305353268 0.1236489788231635 0 0.46085076100455152 0.1051260388446932 0 0.5 0.08606225354691599 0 0.48297411160829701 0.071419164250366693 0 0.5 0.058972369132007867 0 0.48146508414057748 0.097867616362435003 0 0.5 0.08606225354691599 0 0.48297411160829701 0.071419164250366693 0 0.48146508414057748 0.097867616362435003 0 0.48297411160829701 0.071419164250366693 0 0.46684480345772023 0.083704774648097419 0 0.48297411160829701 0.071419164250366693 0 0.46368779630991369 0.062884433647911922 0 0.46684480345772023 0.083704774648097419 0 0.46368779630991369 0.062884433647911922 0 0.4455316944648699 0.078385408113317706 0 0.46368779630991369 0.062884433647911922 0 0.46684480345772023 0.083704774648097419 0 0.4455316944648699 0.078385408113317706 0 0.46684480345772023 0.083704774648097419 0 0.4455316944648699 0.078385408113317706 0 0.46085076100455152 0.1051260388446932 0 0.4455316944648699 0.078385408113317706 0 0.46085076100455152 0.1051260388446932 0 0.43655847815144871 0.087567909291679069 0 0.4455316944648699 0.078385408113317706 0 0.43655847815144871 0.087567909291679069 0 0.43300293116684879 0.070359854062556224 0 0.4455316944648699 0.078385408113317706 0 0.43300293116684879 0.070359854062556224 0 0.44432728466234178 0.059795406129610977 0 0.46368779630991369 0.062884433647911922 0 0.4455316944648699 0.078385408113317706 0 0.44432728466234178 0.059795406129610977 0 0.47596637305353268 0.1236489788231635 0 0.46085076100455152 0.1051260388446932 0 0.45094723062946279 0.12208098845927939 0 0.46085076100455152 0.1051260388446932 0 0.43655847815144871 0.087567909291679069 0 0.46085076100455152 0.1051260388446932 0 0.43845481143497073 0.110031162788742 0 0.43302597451412722 0.09911942802672713 0 0.46085076100455152 0.1051260388446932 0 0.43302597451412722 0.09911942802672713 0 0.43655847815144871 0.087567909291679069 0 0.43267139290449452 0.12562392175117529 0 0.45094723062946279 0.12208098845927939 0 0.43845481143497073 0.110031162788742 0 0.46085076100455152 0.1051260388446932 0 0.45094723062946279 0.12208098845927939 0 0.43845481143497073 0.110031162788742 0 0.43267139290449452 0.12562392175117529 0 0.43845481143497073 0.110031162788742 0 0.42512360996164289 0.1101942667169049 0 0.43267139290449452 0.12562392175117529 0 0.42512360996164289 0.1101942667169049 0 0.41840244549433692 0.1204435227777134 0 0.42512360996164289 0.1101942667169049 0 0.41840244549433692 0.1204435227777134 0 0.41145911669595331 0.1096997076075869 0 0.41840244549433692 0.1204435227777134 0 0.41145911669595331 0.1096997076075869 0 0.40630256149234217 0.12337914253670321 0 0.41145911669595331 0.1096997076075869 0 0.41782870111656589 0.098086010242617663 0 0.40188519574572068 0.098349840232826835 0 0.41782870111656589 0.098086010242617663 0 0.41132824907511162 0.087668761689670915 0 0.40188519574572068 0.098349840232826835 0 0.42512360996164289 0.1101942667169049 0 0.41145911669595331 0.1096997076075869 0 0.41782870111656589 0.098086010242617663 0 0.41782870111656589 0.098086010242617663 0 0.43302597451412722 0.09911942802672713 0 0.42198136315300161 0.08812274721924529 0 0.42512360996164289 0.1101942667169049 0 0.41782870111656589 0.098086010242617663 0 0.43302597451412722 0.09911942802672713 0 0.43845481143497073 0.110031162788742 0 0.42512360996164289 0.1101942667169049 0 0.43302597451412722 0.09911942802672713 0 0.43655847815144871 0.087567909291679069 0 0.42198136315300161 0.08812274721924529 0 0.41226619529834591 0.070009779738664735 0 0.43655847815144871 0.087567909291679069 0 0.41226619529834591 0.070009779738664735 0 0.43302597451412722 0.09911942802672713 0 0.43655847815144871 0.087567909291679069 0 0.42198136315300161 0.08812274721924529 0 0.43300293116684879 0.070359854062556224 0 0.41226619529834591 0.070009779738664735 0 0.42739758089851382 0.054541393999090262 0 0.43655847815144871 0.087567909291679069 0 0.43300293116684879 0.070359854062556224 0 0.41226619529834591 0.070009779738664735 0 0.42198136315300161 0.08812274721924529 0 0.41226619529834591 0.070009779738664735 0 0.41132824907511162 0.087668761689670915 0 0.41226619529834591 0.070009779738664735 0 0.41132824907511162 0.087668761689670915 0 0.39992923875424519 0.082621500021195282 0 0.41782870111656589 0.098086010242617663 0 0.42198136315300161 0.08812274721924529 0 0.41132824907511162 0.087668761689670915 0 0.41132824907511162 0.087668761689670915 0 0.39992923875424519 0.082621500021195282 0 0.40188519574572068 0.098349840232826835 0 0.39992923875424519 0.082621500021195282 0 0.38759228221014619 0.095233220303727467 0 0.40188519574572068 0.098349840232826835 0 0.39992923875424519 0.082621500021195282 0 0.38759228221014619 0.095233220303727467 0 0.41226619529834591 0.070009779738664735 0 0.39707386889515511 0.070908779594843374 0 0.39683376059791597 0.058855427163935138 0 0.41226619529834591 0.070009779738664735 0 0.39683376059791597 0.058855427163935138 0 0.41226619529834591 0.070009779738664735 0 0.39992923875424519 0.082621500021195282 0 0.41226619529834591 0.070009779738664735 0 0.39992923875424519 0.082621500021195282 0 0.39707386889515511 0.070908779594843374 0 0.39992923875424519 0.082621500021195282 0 0.39707386889515511 0.070908779594843374 0 0.38583977896057609 0.075316135258006081 0 0.39707386889515511 0.070908779594843374 0 0.38282045226763678 0.060547433734587333 0 0.39683376059791597 0.058855427163935138 0 0.39707386889515511 0.070908779594843374 0 0.38583977896057609 0.075316135258006081 0 0.38282045226763678 0.060547433734587333 0 0.38583977896057609 0.075316135258006081 0 0.37596532967213542 0.069868995675824025 0 0.37682589963749002 0.081332762740894418 0 0.37307104071443398 0.061065176941414383 0 0.37596532967213542 0.069868995675824025 0 0.38282045226763678 0.060547433734587333 0 0.38583977896057609 0.075316135258006081 0 0.37596532967213542 0.069868995675824025 0 0.38282045226763678 0.060547433734587333 0 0.39992923875424519 0.082621500021195282 0 0.38412803848747967 0.086259474622970303 0 0.38759228221014619 0.095233220303727467 0 0.39992923875424519 0.082621500021195282 0 0.38583977896057609 0.075316135258006081 0 0.38412803848747967 0.086259474622970303 0 0.37045299287494049 0.09679375479102828 0 0.38412803848747967 0.086259474622970303 0 0.38759228221014619 0.095233220303727467 0 0.38583977896057609 0.075316135258006081 0 0.38412803848747967 0.086259474622970303 0 0.37682589963749002 0.081332762740894418 0 0.37045299287494049 0.09679375479102828 0 0.38412803848747967 0.086259474622970303 0 0.37682589963749002 0.081332762740894418 0 0.37045299287494049 0.09679375479102828 0 0.38005682511468147 0.12140739343396729 0 0.37045299287494049 0.09679375479102828 0 0.38759228221014619 0.095233220303727467 0 0.38890959528695412 0.1083938038889192 0 0.37045299287494049 0.09679375479102828 0 0.38890959528695412 0.1083938038889192 0 0.38005682511468147 0.12140739343396729 0 0.39398634319161102 0.12556361147638159 0 0.38890959528695412 0.1083938038889192 0 0.38005682511468147 0.12140739343396729 0 0.39398634319161102 0.12556361147638159 0 0.38890959528695412 0.1083938038889192 0 0.39948393258462489 0.11301500309558379 0 0.39398634319161102 0.12556361147638159 0 0.40630256149234217 0.12337914253670321 0 0.39948393258462489 0.11301500309558379 0 0.41145911669595331 0.1096997076075869 0 0.40630256149234217 0.12337914253670321 0 0.39948393258462489 0.11301500309558379 0 0.41145911669595331 0.1096997076075869 0 0.39948393258462489 0.11301500309558379 0 0.40188519574572068 0.098349840232826835 0 0.38759228221014619 0.095233220303727467 0 0.38890959528695412 0.1083938038889192 0 0.40188519574572068 0.098349840232826835 0 0.38890959528695412 0.1083938038889192 0 0.39948393258462489 0.11301500309558379 0 0.40188519574572068 0.098349840232826835 0 0.3912475249538237 0.025882868266216091 0 0.40325323122183843 0.024352223252143548 0 0.39536881189699241 0.01378873843063998 0 0.3912475249538237 0.025882868266216091 0 0.40325323122183843 0.024352223252143548 0 0.39805180056669343 0.032772735105760037 0 0.40325323122183843 0.024352223252143548 0 0.39805180056669343 0.032772735105760037 0 0.40655765028286611 0.035582104639029083 0 0.40325323122183843 0.024352223252143548 0 0.39536881189699241 0.01378873843063998 0 0.40720094273855439 0.01372602960598159 0 0.40060323373222451 0.0042547197705496897 0 0.39536881189699241 0.01378873843063998 0 0.40720094273855439 0.01372602960598159 0 0.40060323373222451 0.0042547197705496897 0 0.41081432206005303 0.0037114498956348132 0 0.4046584776842293 -0.0050702490882302163 0 0.40060323373222451 0.0042547197705496897 0 0.41081432206005303 0.0037114498956348132 0 0.40720094273855439 0.01372602960598159 0 0.40060323373222451 0.0042547197705496897 0 0.39025836247721268 0.0036292771787240202 0 0.39531848553630572 -0.0042569273994520467 0 0.40060323373222451 0.0042547197705496897 0 0.39536881189699241 0.01378873843063998 0 0.39025836247721268 0.0036292771787240202 0 0.37844401144479839 0.012609093579625891 0 0.38356146703633898 -0.0078565650350033434 0 0.37844401144479839 0.012609093579625891 0 0.39025836247721268 0.0036292771787240202 0 0.38356146703633898 -0.0078565650350033434 0 0.39536881189699241 0.01378873843063998 0 0.37844401144479839 0.012609093579625891 0 0.39025836247721268 0.0036292771787240202 0 0.3912475249538237 0.025882868266216091 0 0.37844401144479839 0.012609093579625891 0 0.38063223185621792 0.036578263657106522 0 0.37844401144479839 0.012609093579625891 0 0.38063223185621792 0.036578263657106522 0 0.37146335928247548 0.04052602251159599 0 0.37844401144479839 0.012609093579625891 0 0.38063223185621792 0.036578263657106522 0 0.3912475249538237 0.025882868266216091 0 0.39536881189699241 0.01378873843063998 0 0.37844401144479839 0.012609093579625891 0 0.37146335928247548 0.04052602251159599 0 0.38063223185621792 0.036578263657106522 0 0.38282045226763678 0.060547433734587333 0 0.3912475249538237 0.025882868266216091 0 0.38063223185621792 0.036578263657106522 0 0.3908528121234538 0.035995570554822158 0 0.38063223185621792 0.036578263657106522 0 0.38791705742610771 0.044539104287684539 0 0.3908528121234538 0.035995570554822158 0 0.38791705742610771 0.044539104287684539 0 0.38282045226763678 0.060547433734587333 0 0.39079668350586277 0.051215399393808793 0 0.37307104071443398 0.061065176941414383 0 0.37146335928247548 0.04052602251159599 0 0.38282045226763678 0.060547433734587333 0 0.38063223185621792 0.036578263657106522 0 0.38791705742610771 0.044539104287684539 0 0.38282045226763678 0.060547433734587333 0 0.38063223185621792 0.036578263657106522 0 0.38282045226763678 0.060547433734587333 0 0.38282045226763678 0.060547433734587333 0 0.39683376059791597 0.058855427163935138 0 0.39079668350586277 0.051215399393808793 0 0.41226619529834591 0.070009779738664735 0 0.39683376059791597 0.058855427163935138 0 0.40948896714378957 0.05055434744181983 0 0.39683376059791597 0.058855427163935138 0 0.39079668350586277 0.051215399393808793 0 0.39674782008621368 0.04348041067995833 0 0.39683376059791597 0.058855427163935138 0 0.39674782008621368 0.04348041067995833 0 0.40948896714378957 0.05055434744181983 0 0.3908528121234538 0.035995570554822158 0 0.39805180056669343 0.032772735105760037 0 0.39674782008621368 0.04348041067995833 0 0.3912475249538237 0.025882868266216091 0 0.3908528121234538 0.035995570554822158 0 0.39805180056669343 0.032772735105760037 0 0.38791705742610771 0.044539104287684539 0 0.3908528121234538 0.035995570554822158 0 0.39674782008621368 0.04348041067995833 0 0.38791705742610771 0.044539104287684539 0 0.39079668350586277 0.051215399393808793 0 0.39674782008621368 0.04348041067995833 0 0.39674782008621368 0.04348041067995833 0 0.40655765028286611 0.035582104639029083 0 0.40948896714378957 0.05055434744181983 0 0.39805180056669343 0.032772735105760037 0 0.39674782008621368 0.04348041067995833 0 0.40655765028286611 0.035582104639029083 0 0.40655765028286611 0.035582104639029083 0 0.41713079569888262 0.040856968430241461 0 0.41557099838193923 0.024039796491718179 0 0.41713079569888262 0.040856968430241461 0 0.42755741698364552 0.032815777208855347 0 0.41557099838193923 0.024039796491718179 0 0.40655765028286611 0.035582104639029083 0 0.41713079569888262 0.040856968430241461 0 0.40948896714378957 0.05055434744181983 0 0.41226619529834591 0.070009779738664735 0 0.40948896714378957 0.05055434744181983 0 0.42739758089851382 0.054541393999090262 0 0.41713079569888262 0.040856968430241461 0 0.40948896714378957 0.05055434744181983 0 0.42739758089851382 0.054541393999090262 0 0.41226619529834591 0.070009779738664735 0 0.42739758089851382 0.054541393999090262 0 0.43300293116684879 0.070359854062556224 0 0.42739758089851382 0.054541393999090262 0 0.44432728466234178 0.059795406129610977 0 0.41713079569888262 0.040856968430241461 0 0.42739758089851382 0.054541393999090262 0 0.42755741698364552 0.032815777208855347 0 0.42739758089851382 0.054541393999090262 0 0.42755741698364552 0.032815777208855347 0 0.44252896649868317 0.039073008259517338 0 0.42739758089851382 0.054541393999090262 0 0.44252896649868317 0.039073008259517338 0 0.42755741698364552 0.032815777208855347 0 0.4358194844604939 0.024219735287320941 0 0.44252896649868317 0.039073008259517338 0 0.42755741698364552 0.032815777208855347 0 0.41557099838193923 0.024039796491718179 0 0.4265644217351573 0.014684511896395219 0 0.4358194844604939 0.024219735287320941 0 0.4265644217351573 0.014684511896395219 0 0.44548351627008242 0.01642882659412407 0 0.42755741698364552 0.032815777208855347 0 0.4358194844604939 0.024219735287320941 0 0.4265644217351573 0.014684511896395219 0 0.41557099838193923 0.024039796491718179 0 0.4165272652869268 0.01155925859927168 0 0.4265644217351573 0.014684511896395219 0 0.41557099838193923 0.024039796491718179 0 0.40720094273855439 0.01372602960598159 0 0.4165272652869268 0.01155925859927168 0 0.40325323122183843 0.024352223252143548 0 0.41557099838193923 0.024039796491718179 0 0.40720094273855439 0.01372602960598159 0 0.40325323122183843 0.024352223252143548 0 0.40655765028286611 0.035582104639029083 0 0.41557099838193923 0.024039796491718179 0 0.41081432206005303 0.0037114498956348132 0 0.40720094273855439 0.01372602960598159 0 0.4165272652869268 0.01155925859927168 0 0.4165272652869268 0.01155925859927168 0 0.42248564151892998 0.0016345051066286029 0 0.4265644217351573 0.014684511896395219 0 0.41081432206005303 0.0037114498956348132 0 0.4165272652869268 0.01155925859927168 0 0.42248564151892998 0.0016345051066286029 0 0.42248564151892998 0.0016345051066286029 0 0.4265644217351573 0.014684511896395219 0 0.4382820622288856 -0.0014159552958160841 0 0.4265644217351573 0.014684511896395219 0 0.44548351627008242 0.01642882659412407 0 0.4382820622288856 -0.0014159552958160841 0 0.45100246047295739 0.0046664116742636159 0 0.44548351627008242 0.01642882659412407 0 0.4382820622288856 -0.0014159552958160841 0 0.45100246047295739 0.0046664116742636159 0 0.44548351627008242 0.01642882659412407 0 0.4580470330794123 0.0188547641718908 0 0.4358194844604939 0.024219735287320941 0 0.4514029071021442 0.02821869916314456 0 0.44548351627008242 0.01642882659412407 0 0.4358194844604939 0.024219735287320941 0 0.4514029071021442 0.02821869916314456 0 0.44252896649868317 0.039073008259517338 0 0.4514029071021442 0.02821869916314456 0 0.44548351627008242 0.01642882659412407 0 0.4580470330794123 0.0188547641718908 0 0.4514029071021442 0.02821869916314456 0 0.4580470330794123 0.0188547641718908 0 0.46553563141862692 0.027383902935855992 0 0.4580470330794123 0.0188547641718908 0 0.46553563141862692 0.027383902935855992 0 0.471035018561343 0.01684384088441979 0 0.4580470330794123 0.0188547641718908 0 0.4620271672997433 0.0081957990277541914 0 0.471035018561343 0.01684384088441979 0 0.4620271672997433 0.0081957990277541914 0 0.47207727543944228 0.0077163925679632076 0 0.45540766643685782 -0.0078732224449345398 0 0.4620271672997433 0.0081957990277541914 0 0.47207727543944228 0.0077163925679632076 0 0.471035018561343 0.01684384088441979 0 0.45100246047295739 0.0046664116742636159 0 0.4620271672997433 0.0081957990277541914 0 0.45540766643685782 -0.0078732224449345398 0 0.45100246047295739 0.0046664116742636159 0 0.4580470330794123 0.0188547641718908 0 0.4620271672997433 0.0081957990277541914 0 0.42739758089851382 0.054541393999090262 0 0.44432728466234178 0.059795406129610977 0 0.44252896649868317 0.039073008259517338 0 0.44432728466234178 0.059795406129610977 0 0.44252896649868317 0.039073008259517338 0 0.46100281088556699 0.043351957730158222 0 0.4514029071021442 0.02821869916314456 0 0.44252896649868317 0.039073008259517338 0 0.46100281088556699 0.043351957730158222 0 0.4514029071021442 0.02821869916314456 0 0.46553563141862692 0.027383902935855992 0 0.46100281088556699 0.043351957730158222 0 0.46553563141862692 0.027383902935855992 0 0.46100281088556699 0.043351957730158222 0 0.4764725540003833 0.035303178421407518 0 0.46368779630991369 0.062884433647911922 0 0.44432728466234178 0.059795406129610977 0 0.46100281088556699 0.043351957730158222 0 0.48297411160829701 0.071419164250366693 0 0.46368779630991369 0.062884433647911922 0 0.48184389815495748 0.047383459182506117 0 0.46368779630991369 0.062884433647911922 0 0.46100281088556699 0.043351957730158222 0 0.48184389815495748 0.047383459182506117 0 0.46368779630991369 0.062884433647911922 0 0.48184389815495748 0.047383459182506117 0 0.46100281088556699 0.043351957730158222 0 0.48184389815495748 0.047383459182506117 0 0.4764725540003833 0.035303178421407518 0 0.48184389815495748 0.047383459182506117 0 0.50000000000000089 0.031882484717099757 0 0.48184389815495748 0.047383459182506117 0 0.50000000000000089 0.031882484717099757 0 0.5 0.058972369132007867 0 0.48184389815495748 0.047383459182506117 0 0.4764725540003833 0.035303178421407518 0 0.50000000000000089 0.031882484717099757 0 0.48297411160829701 0.071419164250366693 0 0.48184389815495748 0.047383459182506117 0 0.5 0.058972369132007867 0 0.48173822001607031 0.002441982684480838 0 0.47207727543944228 0.0077163925679632076 0 0.45540766643685782 -0.0078732224449345398 0 0.48073089036299149 0.01447516008145705 0 0.48088876464914698 0.0066420825236524483 0 0.47207727543944228 0.0077163925679632076 0 0.48088876464914698 0.0066420825236524483 0 0.48173822001607031 0.002441982684480838 0 0.48944624590280772 0.014576472087587141 0 0.48073089036299149 0.01447516008145705 0 0.48088876464914698 0.0066420825236524483 0 0.48944624590280772 0.014576472087587141 0 0.48088876464914698 0.0066420825236524483 0 0.48173822001607031 0.002441982684480838 0 0.47207727543944228 0.0077163925679632076 0 0.48088876464914698 0.0066420825236524483 0 0.48173822001607031 0.002441982684480838 0 0.48073089036299149 0.01447516008145705 0 0.47207727543944228 0.0077163925679632076 0 0.471035018561343 0.01684384088441979 0 0.46553563141862692 0.027383902935855992 0 0.471035018561343 0.01684384088441979 0 0.48098968552297122 0.023479159592672289 0 0.46553563141862692 0.027383902935855992 0 0.4764725540003833 0.035303178421407518 0 0.48098968552297122 0.023479159592672289 0 0.48073089036299149 0.01447516008145705 0 0.471035018561343 0.01684384088441979 0 0.48098968552297122 0.023479159592672289 0 0.48073089036299149 0.01447516008145705 0 0.48098968552297122 0.023479159592672289 0 0.48944624590280772 0.014576472087587141 0 0.50000000000000089 0.031882484717099757 0 0.50000000000000044 0.0095961811708810997 0 0.48944624590280772 0.014576472087587141 0 0.4764725540003833 0.035303178421407518 0 0.50000000000000089 0.031882484717099757 0 0.48098968552297122 0.023479159592672289 0 0.50000000000000089 0.031882484717099757 0 0.48098968552297122 0.023479159592672289 0 0.48944624590280772 0.014576472087587141 0 0.48173822001607031 0.002441982684480838 0 0.50000000000000044 0.0095961811708810997 0 0.48944624590280772 0.014576472087587141 0 0.48173822001607031 0.002441982684480838 0 0.50000000000000044 0.0095961811708810997 0 0.48173822001607031 0.002441982684480838 0 0.50000000000000044 0.0095961811708810997 0 0.5 -0.01553848795347695 0 0.48173822001607031 0.002441982684480838 0 0.5 -0.01553848795347695 0 0.48723509010938909 -0.024737082977995831 0 0.48173822001607031 0.002441982684480838 0 0.48723509010938909 -0.024737082977995831 0 0.48173822001607031 0.002441982684480838 0 0.46944239540012012 -0.021901386132034111 0 0.45540766643685782 -0.0078732224449345398 0 0.48173822001607031 0.002441982684480838 0 0.46944239540012012 -0.021901386132034111 0 0.48723509010938909 -0.024737082977995831 0 0.46944239540012012 -0.021901386132034111 0 0.48723509010938909 -0.024737082977995831 0 0.47311684284700922 -0.039980301183512167 0 0.5 -0.01553848795347695 0 0.48723509010938909 -0.024737082977995831 0 0.5 -0.040673157077835087 0 0.48723509010938909 -0.024737082977995831 0 0.49273196020270971 -0.051916148640471983 0 0.48034048547664182 -0.050194577481915269 0 0.48723509010938909 -0.024737082977995831 0 0.49273196020270971 -0.051916148640471983 0 0.48723509010938909 -0.024737082977995831 0 0.5 -0.040673157077835087 0 0.49273196020270971 -0.051916148640471983 0 0.5 -0.040673157077835087 0 0.49273196020270971 -0.051916148640471983 0 0.5 -0.065807826202193331 0 0.49273196020270971 -0.051916148640471983 0 0.48384360039889979 -0.062204599920787272 0 0.48034048547664182 -0.050194577481915269 0 0.48034048547664182 -0.050194577481915269 0 0.47035120232490191 -0.060528185902064997 0 0.47311684284700922 -0.039980301183512167 0 0.47035120232490191 -0.060528185902064997 0 0.47311684284700922 -0.039980301183512167 0 0.48384360039889979 -0.062204599920787272 0 0.48034048547664182 -0.050194577481915269 0 0.47035120232490191 -0.060528185902064997 0 0.48723509010938909 -0.024737082977995831 0 0.48034048547664182 -0.050194577481915269 0 0.47311684284700922 -0.039980301183512167 0 0.46944239540012012 -0.021901386132034111 0 0.47311684284700922 -0.039980301183512167 0 0.44971415759127392 -0.039358306738208573 0 0.47035120232490191 -0.060528185902064997 0 0.47311684284700922 -0.039980301183512167 0 0.44971415759127392 -0.039358306738208573 0 0.47035120232490191 -0.060528185902064997 0 0.44971415759127392 -0.039358306738208573 0 0.47035120232490191 -0.060528185902064997 0 0.43963483674523918 -0.055334607978488382 0 0.44971415759127392 -0.039358306738208573 0 0.43963483674523918 -0.055334607978488382 0 0.44971415759127392 -0.039358306738208573 0 0.42419530264354072 -0.042652000491910397 0 0.46944239540012012 -0.021901386132034111 0 0.44971415759127392 -0.039358306738208573 0 0.45540766643685782 -0.0078732224449345398 0 0.44971415759127392 -0.039358306738208573 0 0.42907711285764621 -0.01818842757435184 0 0.44971415759127392 -0.039358306738208573 0 0.45540766643685782 -0.0078732224449345398 0 0.42907711285764621 -0.01818842757435184 0 0.45540766643685782 -0.0078732224449345398 0 0.42907711285764621 -0.01818842757435184 0 0.45100246047295739 0.0046664116742636159 0 0.4382820622288856 -0.0014159552958160841 0 0.45540766643685782 -0.0078732224449345398 0 0.4382820622288856 -0.0014159552958160841 0 0.45540766643685782 -0.0078732224449345398 0 0.42907711285764621 -0.01818842757435184 0 0.48173822001607031 0.002441982684480838 0 0.45540766643685782 -0.0078732224449345398 0 0.47129126618897188 -0.1223351355815797 0 0.47148248434309947 -0.114916285604633 0 0.48087269318342413 -0.1216818802472065 0 0.47148248434309947 -0.114916285604633 0 0.48087269318342413 -0.1216818802472065 0 0.47838814501791832 -0.1066654575105275 0 0.48087269318342413 -0.1216818802472065 0 0.48924328608656842 -0.1141618265083332 0 0.47838814501791832 -0.1066654575105275 0 0.5 -0.1122204549214597 0 0.48924328608656842 -0.1141618265083332 0 0.5 -0.13349841451636779 0 0.48087269318342413 -0.1216818802472065 0 0.48924328608656842 -0.1141618265083332 0 0.5 -0.13349841451636779 0 0.5 -0.1122204549214597 0 0.48924328608656842 -0.1141618265083332 0 0.48827073793524339 -0.097774102912636218 0 0.48924328608656842 -0.1141618265083332 0 0.48827073793524339 -0.097774102912636218 0 0.47838814501791832 -0.1066654575105275 0 0.5 -0.1122204549214597 0 0.48827073793524339 -0.097774102912636218 0 0.50000000000000266 -0.090942495326551576 0 0.47652975213937199 -0.091635549067057065 0 0.46683976751390588 -0.086617099886465918 0 0.46456669494636288 -0.10350535152343909 0 0.48827073793524339 -0.097774102912636218 0 0.47838814501791832 -0.1066654575105275 0 0.47652975213937199 -0.091635549067057065 0 0.47148248434309947 -0.114916285604633 0 0.47838814501791832 -0.1066654575105275 0 0.46456669494636288 -0.10350535152343909 0 0.47838814501791832 -0.1066654575105275 0 0.47652975213937199 -0.091635549067057065 0 0.46456669494636288 -0.10350535152343909 0 0.48827073793524339 -0.097774102912636218 0 0.47652975213937199 -0.091635549067057065 0 0.48517560116245317 -0.075735340614307423 0 0.47652975213937199 -0.091635549067057065 0 0.48517560116245317 -0.075735340614307423 0 0.46683976751390588 -0.086617099886465918 0 0.47652975213937199 -0.091635549067057065 0 0.46683976751390588 -0.086617099886465918 0 0.50000000000000266 -0.090942495326551576 0 0.49822883029603021 -0.079095214302948247 0 0.5 -0.065807826202193331 0 0.48827073793524339 -0.097774102912636218 0 0.50000000000000266 -0.090942495326551576 0 0.48517560116245317 -0.075735340614307423 0 0.50000000000000266 -0.090942495326551576 0 0.48517560116245317 -0.075735340614307423 0 0.50000000000000266 -0.090942495326551576 0 0.49822883029603021 -0.079095214302948247 0 0.48517560116245317 -0.075735340614307423 0 0.49273196020270971 -0.051916148640471983 0 0.49822883029603021 -0.079095214302948247 0 0.48384360039889979 -0.062204599920787272 0 0.49822883029603021 -0.079095214302948247 0 0.48517560116245317 -0.075735340614307423 0 0.49273196020270971 -0.051916148640471983 0 0.48384360039889979 -0.062204599920787272 0 0.49822883029603021 -0.079095214302948247 0 0.49273196020270971 -0.051916148640471983 0 0.49822883029603021 -0.079095214302948247 0 0.5 -0.065807826202193331 0 0.47035120232490191 -0.060528185902064997 0 0.48517560116245317 -0.075735340614307423 0 0.47035120232490191 -0.060528185902064997 0 0.48517560116245317 -0.075735340614307423 0 0.46683976751390588 -0.086617099886465918 0 0.48384360039889979 -0.062204599920787272 0 0.47035120232490191 -0.060528185902064997 0 0.48517560116245317 -0.075735340614307423 0 0.47035120232490191 -0.060528185902064997 0 0.46683976751390588 -0.086617099886465918 0 0.47035120232490191 -0.060528185902064997 0 0.44249197108241189 -0.074007360679063244 0 0.46683976751390588 -0.086617099886465918 0 0.47035120232490191 -0.060528185902064997 0 0.43963483674523918 -0.055334607978488382 0 0.44249197108241189 -0.074007360679063244 0 0.44249197108241189 -0.074007360679063244 0 0.46683976751390588 -0.086617099886465918 0 0.4490662803509099 -0.094083529251462475 0 0.44249197108241189 -0.074007360679063244 0 0.4490662803509099 -0.094083529251462475 0 0.42834270349958448 -0.099226311759436261 0 0.44249197108241189 -0.074007360679063244 0 0.46683976751390588 -0.086617099886465918 0 0.46683976751390588 -0.086617099886465918 0 0.46456669494636288 -0.10350535152343909 0 0.4490662803509099 -0.094083529251462475 0 0.46683976751390588 -0.086617099886465918 0 0.46456669494636288 -0.10350535152343909 0 0.46456669494636288 -0.10350535152343909 0 0.4490662803509099 -0.094083529251462475 0 0.44386094964032902 -0.11054798122052439 0 0.4490662803509099 -0.094083529251462475 0 0.44386094964032902 -0.11054798122052439 0 0.42834270349958448 -0.099226311759436261 0 0.44386094964032902 -0.11054798122052439 0 0.46257396642688631 -0.12529077885077469 0 0.45239247298790419 -0.125419693033265 0 0.44386094964032902 -0.11054798122052439 0 0.42916935431308728 -0.1205456085246996 0 0.4435038969132965 -0.12540022695152131 0 0.44386094964032902 -0.11054798122052439 0 0.45239247298790419 -0.125419693033265 0 0.4435038969132965 -0.12540022695152131 0 0.44386094964032902 -0.11054798122052439 0 0.46229362237882032 -0.1203936031604123 0 0.46257396642688631 -0.12529077885077469 0 0.46456669494636288 -0.10350535152343909 0 0.46229362237882032 -0.1203936031604123 0 0.46456669494636288 -0.10350535152343909 0 0.44386094964032902 -0.11054798122052439 0 0.46229362237882032 -0.1203936031604123 0 0.44386094964032902 -0.11054798122052439 0 0.46257396642688631 -0.12529077885077469 0 0.47148248434309947 -0.114916285604633 0 0.46456669494636288 -0.10350535152343909 0 0.46229362237882032 -0.1203936031604123 0 0.47129126618897188 -0.1223351355815797 0 0.46229362237882032 -0.1203936031604123 0 0.46257396642688631 -0.12529077885077469 0 0.47129126618897188 -0.1223351355815797 0 0.47148248434309947 -0.114916285604633 0 0.46229362237882032 -0.1203936031604123 0 0.44386094964032902 -0.11054798122052439 0 0.42916935431308728 -0.1205456085246996 0 0.42834270349958448 -0.099226311759436261 0 0.41143930547928681 -0.11934523636421419 0 0.42916935431308728 -0.1205456085246996 0 0.42834270349958448 -0.099226311759436261 0 0.41143930547928681 -0.11934523636421419 0 0.40555832972599831 -0.095826118330896617 0 0.41143930547928681 -0.11934523636421419 0 0.42834270349958448 -0.099226311759436261 0 0.40555832972599831 -0.095826118330896617 0 0.42834270349958448 -0.099226311759436261 0 0.41884290658632428 -0.080552882507727325 0 0.40555832972599831 -0.095826118330896617 0 0.41884290658632428 -0.080552882507727325 0 0.39967735397270959 -0.072307000297579083 0 0.40555832972599831 -0.095826118330896617 0 0.44249197108241189 -0.074007360679063244 0 0.42834270349958448 -0.099226311759436261 0 0.41884290658632428 -0.080552882507727325 0 0.44249197108241189 -0.074007360679063244 0 0.41814417465091752 -0.061397621471661459 0 0.43963483674523918 -0.055334607978488382 0 0.44249197108241189 -0.074007360679063244 0 0.41814417465091752 -0.061397621471661459 0 0.44249197108241189 -0.074007360679063244 0 0.41884290658632428 -0.080552882507727325 0 0.41814417465091752 -0.061397621471661459 0 0.41884290658632428 -0.080552882507727325 0 0.39967735397270959 -0.072307000297579083 0 0.41814417465091752 -0.061397621471661459 0 0.39967735397270959 -0.072307000297579083 0 0.38669795957132042 -0.057310603286660967 0 0.37240766699872252 -0.068318548019290964 0 0.39967735397270959 -0.072307000297579083 0 0.37781097748786241 -0.089314889372882261 0 0.37240766699872252 -0.068318548019290964 0 0.39967735397270959 -0.072307000297579083 0 0.37781097748786241 -0.089314889372882261 0 0.40555832972599831 -0.095826118330896617 0 0.39967735397270959 -0.072307000297579083 0 0.40555832972599831 -0.095826118330896617 0 0.40555832972599831 -0.095826118330896617 0 0.38953803654933628 -0.10754997095337659 0 0.39823574772599779 -0.11763079726210079 0 0.37781097748786241 -0.089314889372882261 0 0.40555832972599831 -0.095826118330896617 0 0.38953803654933628 -0.10754997095337659 0 0.37781097748786241 -0.089314889372882261 0 0.38953803654933628 -0.10754997095337659 0 0.37644505785585192 -0.1058120404938334 0 0.38953803654933628 -0.10754997095337659 0 0.37644505785585192 -0.1058120404938334 0 0.37720890243704291 -0.12310924361699779 0 0.38953803654933628 -0.10754997095337659 0 0.37720890243704291 -0.12310924361699779 0 0.38918813321375051 -0.12739880168557821 0 0.38953803654933628 -0.10754997095337659 0 0.39823574772599779 -0.11763079726210079 0 0.38918813321375051 -0.12739880168557821 0 0.41143930547928681 -0.11934523636421419 0 0.39823574772599779 -0.11763079726210079 0 0.40257569972698831 -0.13396225485532559 0 0.41143930547928681 -0.11934523636421419 0 0.40555832972599831 -0.095826118330896617 0 0.39823574772599779 -0.11763079726210079 0 0.42011428296152808 -0.02169968792975261 0 0.41401194260749391 -0.028450411104576211 0 0.41343304557213612 -0.018371446868227208 0 0.42011428296152808 -0.02169968792975261 0 0.41343304557213612 -0.018371446868227208 0 0.41928481904255338 -0.01548900553927589 0 0.42011428296152808 -0.02169968792975261 0 0.41928481904255338 -0.01548900553927589 0 0.42542521438275183 -0.0144422395697206 0 0.42011428296152808 -0.02169968792975261 0 0.41401194260749391 -0.028450411104576211 0 0.42742255973229643 -0.030069766767760062 0 0.41401194260749391 -0.028450411104576211 0 0.40522076275047969 -0.019933987949522329 0 0.40044964155059998 -0.029094842751199331 0 0.41401194260749391 -0.028450411104576211 0 0.41343304557213612 -0.018371446868227208 0 0.40522076275047969 -0.019933987949522329 0 0.41343304557213612 -0.018371446868227208 0 0.40806592415966281 -0.01253819616599721 0 0.40522076275047969 -0.019933987949522329 0 0.40806592415966281 -0.01253819616599721 0 0.4135204533098043 -0.0054466611181140526 0 0.41498054603746559 -0.011947546426581419 0 0.41343304557213612 -0.018371446868227208 0 0.40806592415966281 -0.01253819616599721 0 0.41498054603746559 -0.011947546426581419 0 0.41081432206005303 0.0037114498956348132 0 0.4135204533098043 -0.0054466611181140526 0 0.4046584776842293 -0.0050702490882302163 0 0.40806592415966281 -0.01253819616599721 0 0.4135204533098043 -0.0054466611181140526 0 0.4046584776842293 -0.0050702490882302163 0 0.41081432206005303 0.0037114498956348132 0 0.42248564151892998 0.0016345051066286029 0 0.4135204533098043 -0.0054466611181140526 0 0.42248564151892998 0.0016345051066286029 0 0.4135204533098043 -0.0054466611181140526 0 0.42119781252485211 -0.0083000839364812864 0 0.41343304557213612 -0.018371446868227208 0 0.41498054603746559 -0.011947546426581419 0 0.41928481904255338 -0.01548900553927589 0 0.4135204533098043 -0.0054466611181140526 0 0.41498054603746559 -0.011947546426581419 0 0.42119781252485211 -0.0083000839364812864 0 0.41498054603746559 -0.011947546426581419 0 0.42119781252485211 -0.0083000839364812864 0 0.41928481904255338 -0.01548900553927589 0 0.42542521438275183 -0.0144422395697206 0 0.42820760236351979 -0.0076976995852137747 0 0.42907711285764621 -0.01818842757435184 0 0.4382820622288856 -0.0014159552958160841 0 0.42820760236351979 -0.0076976995852137747 0 0.42907711285764621 -0.01818842757435184 0 0.42119781252485211 -0.0083000839364812864 0 0.41928481904255338 -0.01548900553927589 0 0.42542521438275183 -0.0144422395697206 0 0.42248564151892998 0.0016345051066286029 0 0.4382820622288856 -0.0014159552958160841 0 0.42820760236351979 -0.0076976995852137747 0 0.42119781252485211 -0.0083000839364812864 0 0.42542521438275183 -0.0144422395697206 0 0.42820760236351979 -0.0076976995852137747 0 0.42248564151892998 0.0016345051066286029 0 0.42119781252485211 -0.0083000839364812864 0 0.42820760236351979 -0.0076976995852137747 0 0.44971415759127392 -0.039358306738208573 0 0.42907711285764621 -0.01818842757435184 0 0.42742255973229643 -0.030069766767760062 0 0.42011428296152808 -0.02169968792975261 0 0.42907711285764621 -0.01818842757435184 0 0.42742255973229643 -0.030069766767760062 0 0.42011428296152808 -0.02169968792975261 0 0.42542521438275183 -0.0144422395697206 0 0.42907711285764621 -0.01818842757435184 0 0.42011428296152808 -0.02169968792975261 0 0.42907711285764621 -0.01818842757435184 0 0.42542521438275183 -0.0144422395697206 0 0.42907711285764621 -0.01818842757435184 0 0.44971415759127392 -0.039358306738208573 0 0.42742255973229643 -0.030069766767760062 0 0.42419530264354072 -0.042652000491910397 0 0.41401194260749391 -0.028450411104576211 0 0.42742255973229643 -0.030069766767760062 0 0.42419530264354072 -0.042652000491910397 0 0.43963483674523918 -0.055334607978488382 0 0.42419530264354072 -0.042652000491910397 0 0.41814417465091752 -0.061397621471661459 0 0.41814417465091752 -0.061397621471661459 0 0.41107184061272262 -0.047596707948501772 0 0.39379637821942232 -0.04878788226426127 0 0.42419530264354072 -0.042652000491910397 0 0.41814417465091752 -0.061397621471661459 0 0.41107184061272262 -0.047596707948501772 0 0.41401194260749391 -0.028450411104576211 0 0.42419530264354072 -0.042652000491910397 0 0.40815150693701141 -0.037549327566173699 0 0.42419530264354072 -0.042652000491910397 0 0.41107184061272262 -0.047596707948501772 0 0.40815150693701141 -0.037549327566173699 0 0.41401194260749391 -0.028450411104576211 0 0.40815150693701141 -0.037549327566173699 0 0.40044964155059998 -0.029094842751199331 0 0.41107184061272262 -0.047596707948501772 0 0.40815150693701141 -0.037549327566173699 0 0.39379637821942232 -0.04878788226426127 0 0.40815150693701141 -0.037549327566173699 0 0.39379637821942232 -0.04878788226426127 0 0.40044964155059998 -0.029094842751199331 0 0.39379637821942232 -0.04878788226426127 0 0.38867892262788012 -0.028322223649632432 0 0.39379637821942232 -0.04878788226426127 0 0.38867892262788012 -0.028322223649632432 0 0.40044964155059998 -0.029094842751199331 0 0.39967735397270959 -0.072307000297579083 0 0.39379637821942232 -0.04878788226426127 0 0.38669795957132042 -0.057310603286660967 0 0.41814417465091752 -0.061397621471661459 0 0.39379637821942232 -0.04878788226426127 0 0.39967735397270959 -0.072307000297579083 0 0.39379637821942232 -0.04878788226426127 0 0.39967735397270959 -0.072307000297579083 0 0.41814417465091752 -0.061397621471661459 0 0.39379637821942232 -0.04878788226426127 0 0.39379637821942232 -0.04878788226426127 0 0.38896036142985008 -0.046283306103098283 0 0.38669795957132042 -0.057310603286660967 0 0.37839056082150663 -0.050608978831784571 0 0.37240766699872252 -0.068318548019290964 0 0.38669795957132042 -0.057310603286660967 0 0.37839056082150663 -0.050608978831784571 0 0.38896036142985008 -0.046283306103098283 0 0.39379637821942232 -0.04878788226426127 0 0.38669795957132042 -0.057310603286660967 0 0.38896036142985008 -0.046283306103098283 0 0.39379637821942232 -0.04878788226426127 0 0.38896036142985008 -0.046283306103098283 0 0.38867892262788012 -0.028322223649632432 0 0.3834615598562825 -0.037386722635115492 0 0.38896036142985008 -0.046283306103098283 0 0.38867892262788012 -0.028322223649632432 0 0.37839056082150663 -0.050608978831784571 0 0.3834615598562825 -0.037386722635115492 0 0.38896036142985008 -0.046283306103098283 0 0.37839056082150663 -0.050608978831784571 0 0.3834615598562825 -0.037386722635115492 0 0.37356965880113402 -0.040783236975350308 0 0.38867892262788012 -0.028322223649632432 0 0.38356146703633898 -0.0078565650350033434 0 0.3834615598562825 -0.037386722635115492 0 0.37600683512296651 -0.014087071697862221 0 0.37356965880113402 -0.040783236975350308 0 0.3834615598562825 -0.037386722635115492 0 0.38867892262788012 -0.028322223649632432 0 0.37600683512296651 -0.014087071697862221 0 0.38867892262788012 -0.028322223649632432 0 0.37600683512296651 -0.014087071697862221 0 0.38356146703633898 -0.0078565650350033434 0 0.38867892262788012 -0.028322223649632432 0 0.39658225960386179 -0.014459285545308009 0 0.38356146703633898 -0.0078565650350033434 0 0.38867892262788012 -0.028322223649632432 0 0.40044964155059998 -0.029094842751199331 0 0.39658225960386179 -0.014459285545308009 0 0.40522076275047969 -0.019933987949522329 0 0.40044964155059998 -0.029094842751199331 0 0.39658225960386179 -0.014459285545308009 0 0.40806592415966281 -0.01253819616599721 0 0.40522076275047969 -0.019933987949522329 0 0.39658225960386179 -0.014459285545308009 0 0.40060323373222451 0.0042547197705496897 0 0.4046584776842293 -0.0050702490882302163 0 0.39531848553630572 -0.0042569273994520467 0 0.40806592415966281 -0.01253819616599721 0 0.4046584776842293 -0.0050702490882302163 0 0.39658225960386179 -0.014459285545308009 0 0.4046584776842293 -0.0050702490882302163 0 0.39658225960386179 -0.014459285545308009 0 0.39531848553630572 -0.0042569273994520467 0 0.39658225960386179 -0.014459285545308009 0 0.39531848553630572 -0.0042569273994520467 0 0.38356146703633898 -0.0078565650350033434 0 0.39025836247721268 0.0036292771787240202 0 0.39531848553630572 -0.0042569273994520467 0 0.38356146703633898 -0.0078565650350033434 0 0.37844401144479839 0.012609093579625891 0 0.37600683512296651 -0.014087071697862221 0 0.37844401144479839 0.012609093579625891 0 0.37600683512296651 -0.014087071697862221 0 0.38356146703633898 -0.0078565650350033434 0 0.37600683512296651 -0.014087071697862221 0 0.36665723294200347 -0.001883505129568449 0 0.35850646790810559 -0.01395473468271459 0 0.37844401144479839 0.012609093579625891 0 0.37600683512296651 -0.014087071697862221 0 0.36665723294200347 -0.001883505129568449 0 0.36665723294200347 -0.001883505129568449 0 0.35531676971978082 -0.0033532784323768001 0 0.35850646790810559 -0.01395473468271459 0 0.37600683512296651 -0.014087071697862221 0 0.37356965880113402 -0.040783236975350308 0 0.37600683512296651 -0.014087071697862221 0 0.36404947753274258 -0.026706798856440471 0 0.35850646790810559 -0.01395473468271459 0 0.37600683512296651 -0.014087071697862221 0 0.36404947753274258 -0.026706798856440471 0 0.37356965880113402 -0.040783236975350308 0 0.34748556133762742 -0.02738266599094942 0 0.35850646790810559 -0.01395473468271459 0 0.34370628527030811 -0.0115647124322744 0 0.36404947753274258 -0.026706798856440471 0 0.34748556133762742 -0.02738266599094942 0 0.35850646790810559 -0.01395473468271459 0 0.36404947753274258 -0.026706798856440471 0 0.34748556133762742 -0.02738266599094942 0 0.36012817770438982 -0.039413746555128387 0 0.33689267375143878 0.0039255003288513873 0 0.35531676971978082 -0.0033532784323768001 0 0.34370628527030811 -0.0115647124322744 0 0.35531676971978082 -0.0033532784323768001 0 0.35850646790810559 -0.01395473468271459 0 0.34370628527030811 -0.0115647124322744 0 0.33689267375143878 0.0039255003288513873 0 0.34370628527030811 -0.0115647124322744 0 0.32469666258817742 -0.019557632270551 0 0.33689267375143878 0.0039255003288513873 0 0.30352242257352219 0.0039185454548519476 0 0.32469666258817742 -0.019557632270551 0 0.34748556133762742 -0.02738266599094942 0 0.34370628527030811 -0.0115647124322744 0 0.32469666258817742 -0.019557632270551 0 0.34748556133762742 -0.02738266599094942 0 0.32469666258817742 -0.019557632270551 0 0.33457477032001748 -0.043965109755099818 0 0.31326255248553708 -0.043768501277314603 0 0.32924913997341337 -0.063603686862235317 0 0.31014365419524398 -0.06072536978512106 0 0.31326255248553708 -0.043768501277314603 0 0.32924913997341337 -0.063603686862235317 0 0.31326255248553708 -0.043768501277314603 0 0.33457477032001748 -0.043965109755099818 0 0.32924913997341337 -0.063603686862235317 0 0.32469666258817742 -0.019557632270551 0 0.31326255248553708 -0.043768501277314603 0 0.33457477032001748 -0.043965109755099818 0 0.33457477032001748 -0.043965109755099818 0 0.34313363496153881 -0.061193084728204693 0 0.35029003257871461 -0.048624574981710279 0 0.33457477032001748 -0.043965109755099818 0 0.34313363496153881 -0.061193084728204693 0 0.32924913997341337 -0.063603686862235317 0 0.35029003257871461 -0.048624574981710279 0 0.36524615827173029 -0.053571455971191423 0 0.35631850447425872 -0.066333179594821989 0 0.34313363496153881 -0.061193084728204693 0 0.35029003257871461 -0.048624574981710279 0 0.35631850447425872 -0.066333179594821989 0 0.35029003257871461 -0.048624574981710279 0 0.36012817770438982 -0.039413746555128387 0 0.36524615827173029 -0.053571455971191423 0 0.34748556133762742 -0.02738266599094942 0 0.33457477032001748 -0.043965109755099818 0 0.35029003257871461 -0.048624574981710279 0 0.34748556133762742 -0.02738266599094942 0 0.35029003257871461 -0.048624574981710279 0 0.36012817770438982 -0.039413746555128387 0 0.36404947753274258 -0.026706798856440471 0 0.36012817770438982 -0.039413746555128387 0 0.37356965880113402 -0.040783236975350308 0 0.36012817770438982 -0.039413746555128387 0 0.37356965880113402 -0.040783236975350308 0 0.36524615827173029 -0.053571455971191423 0 0.37839056082150663 -0.050608978831784571 0 0.36524615827173029 -0.053571455971191423 0 0.37240766699872252 -0.068318548019290964 0 0.37839056082150663 -0.050608978831784571 0 0.37356965880113402 -0.040783236975350308 0 0.36524615827173029 -0.053571455971191423 0 0.36524615827173029 -0.053571455971191423 0 0.37240766699872252 -0.068318548019290964 0 0.35631850447425872 -0.066333179594821989 0 0.37240766699872252 -0.068318548019290964 0 0.36259903827425999 -0.08213590949324566 0 0.35631850447425872 -0.066333179594821989 0 0.37781097748786241 -0.089314889372882261 0 0.37240766699872252 -0.068318548019290964 0 0.36259903827425999 -0.08213590949324566 0 0.37781097748786241 -0.089314889372882261 0 0.36259903827425999 -0.08213590949324566 0 0.3612223149491664 -0.1032740580320769 0 0.34523572746128989 -0.083438872447156087 0 0.3612223149491664 -0.1032740580320769 0 0.36259903827425999 -0.08213590949324566 0 0.34523572746128989 -0.083438872447156087 0 0.3612223149491664 -0.1032740580320769 0 0.34313363496153881 -0.061193084728204693 0 0.34523572746128989 -0.083438872447156087 0 0.35631850447425872 -0.066333179594821989 0 0.36259903827425999 -0.08213590949324566 0 0.34523572746128989 -0.083438872447156087 0 0.35631850447425872 -0.066333179594821989 0 0.37720890243704291 -0.12310924361699779 0 0.36253108037134668 -0.1248744885805331 0 0.3612223149491664 -0.1032740580320769 0 0.37644505785585192 -0.1058120404938334 0 0.37720890243704291 -0.12310924361699779 0 0.3612223149491664 -0.1032740580320769 0 0.37720890243704291 -0.12310924361699779 0 0.3612223149491664 -0.1032740580320769 0 0.37781097748786241 -0.089314889372882261 0 0.37644505785585192 -0.1058120404938334 0 0.3612223149491664 -0.1032740580320769 0 0.34523572746128989 -0.083438872447156087 0 0.3612223149491664 -0.1032740580320769 0 0.33932087337301742 -0.1007066993955318 0 0.3612223149491664 -0.1032740580320769 0 0.34941185211170689 -0.1127717253903176 0 0.33932087337301742 -0.1007066993955318 0 0.36253108037134668 -0.1248744885805331 0 0.33587402752894302 -0.122350175475488 0 0.36253108037134668 -0.1248744885805331 0 0.34941185211170689 -0.1127717253903176 0 0.33587402752894302 -0.122350175475488 0 0.36253108037134668 -0.1248744885805331 0 0.3612223149491664 -0.1032740580320769 0 0.34941185211170689 -0.1127717253903176 0 0.34941185211170689 -0.1127717253903176 0 0.33587402752894302 -0.122350175475488 0 0.33932087337301742 -0.1007066993955318 0 0.33587402752894302 -0.122350175475488 0 0.33932087337301742 -0.1007066993955318 0 0.31943204723016899 -0.10139701157958859 0 0.33932087337301742 -0.1007066993955318 0 0.31943204723016899 -0.10139701157958859 0 0.32474927095682959 -0.081008353448563344 0 0.33587402752894302 -0.122350175475488 0 0.31943204723016899 -0.10139701157958859 0 0.3092169746865393 -0.1198258623704429 0 0.33587402752894302 -0.122350175475488 0 0.3092169746865393 -0.1198258623704429 0 0.34523572746128989 -0.083438872447156087 0 0.32924913997341337 -0.063603686862235317 0 0.32474927095682959 -0.081008353448563344 0 0.34523572746128989 -0.083438872447156087 0 0.32924913997341337 -0.063603686862235317 0 0.34313363496153881 -0.061193084728204693 0 0.34523572746128989 -0.083438872447156087 0 0.32924913997341337 -0.063603686862235317 0 0.34523572746128989 -0.083438872447156087 0 0.33932087337301742 -0.1007066993955318 0 0.32474927095682959 -0.081008353448563344 0 0.31943204723016899 -0.10139701157958859 0 0.32474927095682959 -0.081008353448563344 0 0.31117343018006932 -0.08835554327446378 0 0.32474927095682959 -0.081008353448563344 0 0.30201438303726968 -0.075929904193525521 0 0.32474927095682959 -0.081008353448563344 0 0.30201438303726968 -0.075929904193525521 0 0.31117343018006932 -0.08835554327446378 0 0.32924913997341337 -0.063603686862235317 0 0.32474927095682959 -0.081008353448563344 0 0.31014365419524398 -0.06072536978512106 0 0.32474927095682959 -0.081008353448563344 0 0.30201438303726968 -0.075929904193525521 0 0.31014365419524398 -0.06072536978512106 0 0.30201438303726968 -0.075929904193525521 0 0.31014365419524398 -0.06072536978512106 0 0.29222542489931519 -0.060978945333093171 0 0.31117343018006932 -0.08835554327446378 0 0.29442961060618023 -0.089764156713605506 0 0.30306705175182019 -0.101009202806625 0 0.30201438303726968 -0.075929904193525521 0 0.31117343018006932 -0.08835554327446378 0 0.29442961060618023 -0.089764156713605506 0 0.29442961060618023 -0.089764156713605506 0 0.28691460331806928 -0.079185378374353493 0 0.27734124638624891 -0.089737863242296378 0 0.30201438303726968 -0.075929904193525521 0 0.29442961060618023 -0.089764156713605506 0 0.28691460331806928 -0.079185378374353493 0 0.30201438303726968 -0.075929904193525521 0 0.27927949511770961 -0.070851454938488739 0 0.29222542489931519 -0.060978945333093171 0 0.30201438303726968 -0.075929904193525521 0 0.27927949511770961 -0.070851454938488739 0 0.30201438303726968 -0.075929904193525521 0 0.28691460331806928 -0.079185378374353493 0 0.27927949511770961 -0.070851454938488739 0 0.28691460331806928 -0.079185378374353493 0 0.27927949511770961 -0.070851454938488739 0 0.27809334201771629 -0.079209584513290715 0 0.28691460331806928 -0.079185378374353493 0 0.27927949511770961 -0.070851454938488739 0 0.27927949511770961 -0.070851454938488739 0 0.27868582307562201 -0.055886184139343542 0 0.29222542489931519 -0.060978945333093171 0 0.31943204723016899 -0.10139701157958859 0 0.3092169746865393 -0.1198258623704429 0 0.30306705175182019 -0.101009202806625 0 0.3092169746865393 -0.1198258623704429 0 0.30306705175182019 -0.101009202806625 0 0.28879183359809052 -0.10393054527906551 0 0.31943204723016899 -0.10139701157958859 0 0.31117343018006932 -0.08835554327446378 0 0.30306705175182019 -0.101009202806625 0 0.28879183359809052 -0.10393054527906551 0 0.28255992184413548 -0.11730154926539781 0 0.27267591943638608 -0.1048970298088977 0 0.29442961060618023 -0.089764156713605506 0 0.28879183359809052 -0.10393054527906551 0 0.27734124638624891 -0.089737863242296378 0 0.29442961060618023 -0.089764156713605506 0 0.30306705175182019 -0.101009202806625 0 0.28879183359809052 -0.10393054527906551 0 0.3092169746865393 -0.1198258623704429 0 0.28255992184413548 -0.11730154926539781 0 0.3092169746865393 -0.1198258623704429 0 0.28879183359809052 -0.10393054527906551 0 0.28255992184413548 -0.11730154926539781 0 0.3092169746865393 -0.1198258623704429 0 0.28255992184413548 -0.11730154926539781 0 0.28721398294742878 -0.13035474923543569 0 0.28255992184413548 -0.11730154926539781 0 0.26776517015272971 -0.1222840496799191 0 0.28721398294742878 -0.13035474923543569 0 0.28255992184413548 -0.11730154926539781 0 0.26776517015272971 -0.1222840496799191 0 0.27267591943638608 -0.1048970298088977 0 0.26776517015272971 -0.1222840496799191 0 0.27267591943638608 -0.1048970298088977 0 0.26047800574605201 -0.11084537767631369 0 0.28879183359809052 -0.10393054527906551 0 0.27267591943638608 -0.1048970298088977 0 0.27734124638624891 -0.089737863242296378 0 0.27267591943638608 -0.1048970298088977 0 0.27734124638624891 -0.089737863242296378 0 0.26256105175446781 -0.092679464148907056 0 0.25771864553297669 -0.099620140202181948 0 0.26047800574605201 -0.11084537767631369 0 0.24375228786211539 -0.116580291014256 0 0.27267591943638608 -0.1048970298088977 0 0.25771864553297669 -0.099620140202181948 0 0.26256105175446781 -0.092679464148907056 0 0.25771864553297669 -0.099620140202181948 0 0.25304747237378489 -0.090741332181114118 0 0.24292322406264641 -0.096552741650977186 0 0.25771864553297669 -0.099620140202181948 0 0.26256105175446781 -0.092679464148907056 0 0.25304747237378489 -0.090741332181114118 0 0.27267591943638608 -0.1048970298088977 0 0.25771864553297669 -0.099620140202181948 0 0.26047800574605201 -0.11084537767631369 0 0.26776517015272971 -0.1222840496799191 0 0.26153006621115998 -0.13421007507225571 0 0.24375228786211539 -0.116580291014256 0 0.26776517015272971 -0.1222840496799191 0 0.24375228786211539 -0.116580291014256 0 0.26776517015272971 -0.1222840496799191 0 0.26047800574605201 -0.11084537767631369 0 0.24375228786211539 -0.116580291014256 0 0.27927949511770961 -0.070851454938488739 0 0.25811154610651499 -0.066123023671663908 0 0.26329678137076351 -0.053405898285071182 0 0.27927949511770961 -0.070851454938488739 0 0.25811154610651499 -0.066123023671663908 0 0.26883802324883782 -0.077063641498024305 0 0.27927949511770961 -0.070851454938488739 0 0.25811154610651499 -0.066123023671663908 0 0.26883802324883782 -0.077063641498024305 0 0.27927949511770961 -0.070851454938488739 0 0.27809334201771629 -0.079209584513290715 0 0.26883802324883782 -0.077063641498024305 0 0.27809334201771629 -0.079209584513290715 0 0.27734124638624891 -0.089737863242296378 0 0.26883802324883782 -0.077063641498024305 0 0.27734124638624891 -0.089737863242296378 0 0.25202197504294188 -0.078400955310045109 0 0.28691460331806928 -0.079185378374353493 0 0.27809334201771629 -0.079209584513290715 0 0.27734124638624891 -0.089737863242296378 0 0.27734124638624891 -0.089737863242296378 0 0.26256105175446781 -0.092679464148907056 0 0.25202197504294188 -0.078400955310045109 0 0.27734124638624891 -0.089737863242296378 0 0.25202197504294188 -0.078400955310045109 0 0.26256105175446781 -0.092679464148907056 0 0.25304747237378489 -0.090741332181114118 0 0.25202197504294188 -0.078400955310045109 0 0.25304747237378489 -0.090741332181114118 0 0.25202197504294188 -0.078400955310045109 0 0.24624903761231479 -0.086847438891893419 0 0.26883802324883782 -0.077063641498024305 0 0.25202197504294188 -0.078400955310045109 0 0.25811154610651499 -0.066123023671663908 0 0.25811154610651499 -0.066123023671663908 0 0.26329678137076351 -0.053405898285071182 0 0.24870160087168189 -0.052882304334001928 0 0.26329678137076351 -0.053405898285071182 0 0.24870160087168189 -0.052882304334001928 0 0.24731406762381819 -0.035960341631652723 0 0.27927949511770961 -0.070851454938488739 0 0.26329678137076351 -0.053405898285071182 0 0.27868582307562201 -0.055886184139343542 0 0.27927949511770961 -0.070851454938488739 0 0.26329678137076351 -0.053405898285071182 0 0.26329678137076351 -0.053405898285071182 0 0.27868582307562201 -0.055886184139343542 0 0.27337213238318842 -0.044040078526876879 0 0.27868582307562201 -0.055886184139343542 0 0.27337213238318842 -0.044040078526876879 0 0.28525528160713332 -0.050154543613187753 0 0.26329678137076351 -0.053405898285071182 0 0.27337213238318842 -0.044040078526876879 0 0.26311483972878968 -0.036713614733010089 0 0.27337213238318842 -0.044040078526876879 0 0.27217486102646721 -0.027861542379398439 0 0.28494473946257981 -0.034556038004921102 0 0.27337213238318842 -0.044040078526876879 0 0.26311483972878968 -0.036713614733010089 0 0.27217486102646721 -0.027861542379398439 0 0.27337213238318842 -0.044040078526876879 0 0.28525528160713332 -0.050154543613187753 0 0.28494473946257981 -0.034556038004921102 0 0.26311483972878968 -0.036713614733010089 0 0.25941635623971138 -0.02230021284205122 0 0.24731406762381819 -0.035960341631652723 0 0.26329678137076351 -0.053405898285071182 0 0.24731406762381819 -0.035960341631652723 0 0.26329678137076351 -0.053405898285071182 0 0.26311483972878968 -0.036713614733010089 0 0.24731406762381819 -0.035960341631652723 0 0.25941635623971138 -0.02230021284205122 0 0.24731406762381819 -0.035960341631652723 0 0.2482857443068576 -0.021714794414400052 0 0.25941635623971138 -0.02230021284205122 0 0.25508119948702751 -0.010083838205662381 0 0.2482857443068576 -0.021714794414400052 0 0.26311483972878968 -0.036713614733010089 0 0.25941635623971138 -0.02230021284205122 0 0.27217486102646721 -0.027861542379398439 0 0.2541426920980116 -0.0036136263454906951 0 0.25508119948702751 -0.010083838205662381 0 0.24138147174972829 -0.0061427828714447699 0 0.2541426920980116 -0.0036136263454906951 0 0.25508119948702751 -0.010083838205662381 0 0.26047117107291767 -0.0019720443344692288 0 0.25446675038947358 0.0029162606258486688 0 0.2541426920980116 -0.0036136263454906951 0 0.26047117107291767 -0.0019720443344692288 0 0.25941635623971138 -0.02230021284205122 0 0.25508119948702751 -0.010083838205662381 0 0.26474460583379889 -0.01023883548432745 0 0.25941635623971138 -0.02230021284205122 0 0.26474460583379889 -0.01023883548432745 0 0.27166734417845928 -0.01430021117376327 0 0.25508119948702751 -0.010083838205662381 0 0.26474460583379889 -0.01023883548432745 0 0.26047117107291767 -0.0019720443344692288 0 0.26474460583379889 -0.01023883548432745 0 0.26047117107291767 -0.0019720443344692288 0 0.27708695819087842 -0.0025378708656911609 0 0.26474460583379889 -0.01023883548432745 0 0.27166734417845928 -0.01430021117376327 0 0.27708695819087842 -0.0025378708656911609 0 0.27166734417845928 -0.01430021117376327 0 0.27708695819087842 -0.0025378708656911609 0 0.28469269166600031 -0.01545933141113482 0 0.27217486102646721 -0.027861542379398439 0 0.28469269166600031 -0.01545933141113482 0 0.28494473946257981 -0.034556038004921102 0 0.25941635623971138 -0.02230021284205122 0 0.27166734417845928 -0.01430021117376327 0 0.27217486102646721 -0.027861542379398439 0 0.27166734417845928 -0.01430021117376327 0 0.27217486102646721 -0.027861542379398439 0 0.28469269166600031 -0.01545933141113482 0 0.28469269166600031 -0.01545933141113482 0 0.29727596499766062 -0.023933315692393788 0 0.28494473946257981 -0.034556038004921102 0 0.30352242257352219 0.0039185454548519476 0 0.28469269166600031 -0.01545933141113482 0 0.29727596499766062 -0.023933315692393788 0 0.30352242257352219 0.0039185454548519476 0 0.27708695819087842 -0.0025378708656911609 0 0.28469269166600031 -0.01545933141113482 0 0.30352242257352219 0.0039185454548519476 0 0.32469666258817742 -0.019557632270551 0 0.29727596499766062 -0.023933315692393788 0 0.32469666258817742 -0.019557632270551 0 0.31326255248553708 -0.043768501277314603 0 0.29727596499766062 -0.023933315692393788 0 0.31326255248553708 -0.043768501277314603 0 0.29727596499766062 -0.023933315692393788 0 0.2968975050950291 -0.045887416406534938 0 0.31326255248553708 -0.043768501277314603 0 0.29727596499766062 -0.023933315692393788 0 0.31326255248553708 -0.043768501277314603 0 0.2968975050950291 -0.045887416406534938 0 0.31014365419524398 -0.06072536978512106 0 0.2968975050950291 -0.045887416406534938 0 0.31014365419524398 -0.06072536978512106 0 0.29222542489931519 -0.060978945333093171 0 0.2968975050950291 -0.045887416406534938 0 0.29222542489931519 -0.060978945333093171 0 0.28525528160713332 -0.050154543613187753 0 0.27868582307562201 -0.055886184139343542 0 0.29222542489931519 -0.060978945333093171 0 0.28525528160713332 -0.050154543613187753 0 0.2968975050950291 -0.045887416406534938 0 0.28525528160713332 -0.050154543613187753 0 0.28494473946257981 -0.034556038004921102 0 0.29727596499766062 -0.023933315692393788 0 0.2968975050950291 -0.045887416406534938 0 0.28494473946257981 -0.034556038004921102 0 0.29579617193404978 -0.19432558104056491 0 0.30588539897632072 -0.22256652654210629 0 0.2776594049058328 -0.2175861504380624 0 0.29579617193404978 -0.19432558104056491 0 0.2776594049058328 -0.2175861504380624 0 0.2764107852420567 -0.19644220614923899 0 0.29579617193404978 -0.19432558104056491 0 0.2764107852420567 -0.19644220614923899 0 0.2792899687438003 -0.18116405860585089 0 0.29579617193404978 -0.19432558104056491 0 0.31045946319455608 -0.20263901644370941 0 0.31057073564158039 -0.17760626025882659 0 0.29579617193404978 -0.19432558104056491 0 0.30588539897632072 -0.22256652654210629 0 0.31045946319455608 -0.20263901644370941 0 0.30588539897632072 -0.22256652654210629 0 0.32020032842118662 -0.2136972324735969 0 0.29579617193404978 -0.19432558104056491 0 0.31045946319455608 -0.20263901644370941 0 0.30588539897632072 -0.22256652654210629 0 0.29681701546221179 -0.23419681124085551 0 0.31597462601859122 -0.25080747204364812 0 0.30111904597271899 -0.2536098058489899 0 0.30588539897632072 -0.22256652654210629 0 0.29681701546221179 -0.23419681124085551 0 0.31597462601859122 -0.25080747204364812 0 0.30588539897632072 -0.22256652654210629 0 0.31597462601859122 -0.25080747204364812 0 0.29681701546221179 -0.23419681124085551 0 0.31597462601859122 -0.25080747204364812 0 0.29681701546221179 -0.23419681124085551 0 0.30111904597271899 -0.2536098058489899 0 0.28456511698073272 -0.25518130134833977 0 0.29681701546221179 -0.23419681124085551 0 0.27830026498091959 -0.23745462562099759 0 0.28456511698073272 -0.25518130134833977 0 0.30588539897632072 -0.22256652654210629 0 0.29681701546221179 -0.23419681124085551 0 0.2776594049058328 -0.2175861504380624 0 0.29681701546221179 -0.23419681124085551 0 0.27830026498091959 -0.23745462562099759 0 0.2776594049058328 -0.2175861504380624 0 0.29681701546221179 -0.23419681124085551 0 0.2776594049058328 -0.2175861504380624 0 0.26584409390649738 -0.23415831621220631 0 0.27830026498091959 -0.23745462562099759 0 0.2776594049058328 -0.2175861504380624 0 0.26584409390649738 -0.23415831621220631 0 0.25658827463044448 -0.2222138965281123 0 0.2776594049058328 -0.2175861504380624 0 0.27830026498091959 -0.23745462562099759 0 0.28456511698073272 -0.25518130134833977 0 0.26629969424128969 -0.25192769388052821 0 0.26584409390649738 -0.23415831621220631 0 0.27830026498091959 -0.23745462562099759 0 0.26629969424128969 -0.25192769388052821 0 0.26584409390649738 -0.23415831621220631 0 0.25037283077400019 -0.2416092145933311 0 0.26629969424128969 -0.25192769388052821 0 0.25037283077400019 -0.2416092145933311 0 0.25658827463044448 -0.2222138965281123 0 0.2446094219978813 -0.2276121794933563 0 0.26584409390649738 -0.23415831621220631 0 0.25037283077400019 -0.2416092145933311 0 0.25658827463044448 -0.2222138965281123 0 0.25658827463044448 -0.2222138965281123 0 0.2776594049058328 -0.2175861504380624 0 0.25850179434945381 -0.20097548963526929 0 0.25658827463044448 -0.2222138965281123 0 0.25850179434945381 -0.20097548963526929 0 0.23907695871134879 -0.21289681242661959 0 0.2776594049058328 -0.2175861504380624 0 0.25850179434945381 -0.20097548963526929 0 0.2776594049058328 -0.2175861504380624 0 0.2764107852420567 -0.19644220614923899 0 0.25850179434945381 -0.20097548963526929 0 0.2764107852420567 -0.19644220614923899 0 0.25850179434945381 -0.20097548963526929 0 0.26539786460737957 -0.18100391429238191 0 0.25850179434945381 -0.20097548963526929 0 0.26539786460737957 -0.18100391429238191 0 0.23934418379307471 -0.18436482883247621 0 0.26539786460737957 -0.18100391429238191 0 0.25449645062408999 -0.16331052089379791 0 0.23934418379307471 -0.18436482883247621 0 0.26539786460737957 -0.18100391429238191 0 0.25449645062408999 -0.16331052089379791 0 0.27043371620885309 -0.16438603764101259 0 0.25449645062408999 -0.16331052089379791 0 0.27043371620885309 -0.16438603764101259 0 0.2633734196266177 -0.15149826902969399 0 0.27043371620885309 -0.16438603764101259 0 0.2792899687438003 -0.18116405860585089 0 0.28570694489177878 -0.1660846355390232 0 0.27043371620885309 -0.16438603764101259 0 0.27930784456020519 -0.15183985913025491 0 0.28570694489177878 -0.1660846355390232 0 0.26539786460737957 -0.18100391429238191 0 0.27043371620885309 -0.16438603764101259 0 0.2792899687438003 -0.18116405860585089 0 0.2764107852420567 -0.19644220614923899 0 0.26539786460737957 -0.18100391429238191 0 0.2792899687438003 -0.18116405860585089 0 0.26153006621115998 -0.13421007507225571 0 0.24375228786211539 -0.116580291014256 0 0.24955680073527009 -0.143898101237383 0 0.26153006621115998 -0.13421007507225571 0 0.24375228786211539 -0.116580291014256 0 0.25449645062408999 -0.16331052089379791 0 0.2633734196266177 -0.15149826902969399 0 0.24955680073527009 -0.143898101237383 0 0.26153006621115998 -0.13421007507225571 0 0.2633734196266177 -0.15149826902969399 0 0.24955680073527009 -0.143898101237383 0 0.27043371620885309 -0.16438603764101259 0 0.2633734196266177 -0.15149826902969399 0 0.27930784456020519 -0.15183985913025491 0 0.27561771784950778 -0.13784369003748159 0 0.28570694489177878 -0.1660846355390232 0 0.26153006621115998 -0.13421007507225571 0 0.27930784456020519 -0.15183985913025491 0 0.27561771784950778 -0.13784369003748159 0 0.27930784456020519 -0.15183985913025491 0 0.27561771784950778 -0.13784369003748159 0 0.28570694489177878 -0.1660846355390232 0 0.26153006621115998 -0.13421007507225571 0 0.2633734196266177 -0.15149826902969399 0 0.27930784456020519 -0.15183985913025491 0 0.26153006621115998 -0.13421007507225571 0 0.27930784456020519 -0.15183985913025491 0 0.26776517015272971 -0.1222840496799191 0 0.27561771784950778 -0.13784369003748159 0 0.28721398294742878 -0.13035474923543569 0 0.26776517015272971 -0.1222840496799191 0 0.26153006621115998 -0.13421007507225571 0 0.27561771784950778 -0.13784369003748159 0 0.27561771784950778 -0.13784369003748159 0 0.28721398294742878 -0.13035474923543569 0 0.28891568690104508 -0.14625428249578579 0 0.28721398294742878 -0.13035474923543569 0 0.28891568690104508 -0.14625428249578579 0 0.29920842625061578 -0.1386190615635868 0 0.28891568690104508 -0.14625428249578579 0 0.29920842625061578 -0.1386190615635868 0 0.29789574789403661 -0.15876522012859751 0 0.27561771784950778 -0.13784369003748159 0 0.28891568690104508 -0.14625428249578579 0 0.28570694489177878 -0.1660846355390232 0 0.30985117626407932 -0.1486491484402036 0 0.29920842625061578 -0.1386190615635868 0 0.29789574789403661 -0.15876522012859751 0 0.30985117626407932 -0.1486491484402036 0 0.29789574789403661 -0.15876522012859751 0 0.3134799250960158 -0.16133035304856411 0 0.30985117626407932 -0.1486491484402036 0 0.29920842625061578 -0.1386190615635868 0 0.31980994510895661 -0.13408045692276491 0 0.3092169746865393 -0.1198258623704429 0 0.28721398294742878 -0.13035474923543569 0 0.29920842625061578 -0.1386190615635868 0 0.3092169746865393 -0.1198258623704429 0 0.29920842625061578 -0.1386190615635868 0 0.31980994510895661 -0.13408045692276491 0 0.29579617193404978 -0.19432558104056491 0 0.2792899687438003 -0.18116405860585089 0 0.28570694489177878 -0.1660846355390232 0 0.29579617193404978 -0.19432558104056491 0 0.28570694489177878 -0.1660846355390232 0 0.29579617193404978 -0.19432558104056491 0 0.28570694489177878 -0.1660846355390232 0 0.29784246694311001 -0.17248502473641619 0 0.28891568690104508 -0.14625428249578579 0 0.28570694489177878 -0.1660846355390232 0 0.29789574789403661 -0.15876522012859751 0 0.28570694489177878 -0.1660846355390232 0 0.29789574789403661 -0.15876522012859751 0 0.29784246694311001 -0.17248502473641619 0 0.29789574789403661 -0.15876522012859751 0 0.31057073564158039 -0.17760626025882659 0 0.3134799250960158 -0.16133035304856411 0 0.29789574789403661 -0.15876522012859751 0 0.31057073564158039 -0.17760626025882659 0 0.29784246694311001 -0.17248502473641619 0 0.29789574789403661 -0.15876522012859751 0 0.31057073564158039 -0.17760626025882659 0 0.29579617193404978 -0.19432558104056491 0 0.31057073564158039 -0.17760626025882659 0 0.29784246694311001 -0.17248502473641619 0 0.31057073564158039 -0.17760626025882659 0 0.33117051957001492 -0.16690810347740409 0 0.33960500058918919 -0.18923554211963439 0 0.31057073564158039 -0.17760626025882659 0 0.32324572338912438 -0.19644730038905581 0 0.3134799250960158 -0.16133035304856411 0 0.33117051957001492 -0.16690810347740409 0 0.32297156368297691 -0.15191279281852399 0 0.31057073564158039 -0.17760626025882659 0 0.3134799250960158 -0.16133035304856411 0 0.33117051957001492 -0.16690810347740409 0 0.33117051957001492 -0.16690810347740409 0 0.34312821131240068 -0.1490342399984359 0 0.35150112372442083 -0.17432517416681301 0 0.33117051957001492 -0.16690810347740409 0 0.35150112372442083 -0.17432517416681301 0 0.33960500058918919 -0.18923554211963439 0 0.33587402752894302 -0.122350175475488 0 0.3092169746865393 -0.1198258623704429 0 0.31980994510895661 -0.13408045692276491 0 0.30985117626407932 -0.1486491484402036 0 0.31980994510895661 -0.13408045692276491 0 0.32297156368297691 -0.15191279281852399 0 0.30985117626407932 -0.1486491484402036 0 0.3134799250960158 -0.16133035304856411 0 0.32297156368297691 -0.15191279281852399 0 0.33117051957001492 -0.16690810347740409 0 0.32297156368297691 -0.15191279281852399 0 0.34312821131240068 -0.1490342399984359 0 0.31980994510895661 -0.13408045692276491 0 0.32297156368297691 -0.15191279281852399 0 0.34312821131240068 -0.1490342399984359 0 0.33587402752894302 -0.122350175475488 0 0.31980994510895661 -0.13408045692276491 0 0.34312821131240068 -0.1490342399984359 0 0.36253108037134668 -0.1248744885805331 0 0.33587402752894302 -0.122350175475488 0 0.3555623608711499 -0.1359942506039106 0 0.33587402752894302 -0.122350175475488 0 0.34312821131240068 -0.1490342399984359 0 0.3555623608711499 -0.1359942506039106 0 0.34312821131240068 -0.1490342399984359 0 0.3555623608711499 -0.1359942506039106 0 0.36858459771950869 -0.15733985743645959 0 0.3555623608711499 -0.1359942506039106 0 0.36652086356581781 -0.12946943863695781 0 0.36858459771950869 -0.15733985743645959 0 0.36652086356581781 -0.12946943863695781 0 0.36858459771950869 -0.15733985743645959 0 0.36652086356581781 -0.12946943863695781 0 0.36858459771950869 -0.15733985743645959 0 0.3787995421462832 -0.1425544525875144 0 0.36652086356581781 -0.12946943863695781 0 0.37808333446084269 -0.1309391893982525 0 0.3787995421462832 -0.1425544525875144 0 0.36253108037134668 -0.1248744885805331 0 0.36652086356581781 -0.12946943863695781 0 0.37808333446084269 -0.1309391893982525 0 0.36253108037134668 -0.1248744885805331 0 0.3555623608711499 -0.1359942506039106 0 0.36652086356581781 -0.12946943863695781 0 0.35150112372442083 -0.17432517416681301 0 0.37064833187319962 -0.1852102762359614 0 0.35587008128221181 -0.19822302573298239 0 0.35150112372442083 -0.17432517416681301 0 0.35587008128221181 -0.19822302573298239 0 0.33960500058918919 -0.18923554211963439 0 0.34312821131240068 -0.1490342399984359 0 0.35150112372442083 -0.17432517416681301 0 0.36858459771950869 -0.15733985743645959 0 0.36858459771950869 -0.15733985743645959 0 0.37064833187319962 -0.1852102762359614 0 0.35150112372442083 -0.17432517416681301 0 0.36858459771950869 -0.15733985743645959 0 0.37064833187319962 -0.1852102762359614 0 0.36858459771950869 -0.15733985743645959 0 0.37064833187319962 -0.1852102762359614 0 0.3834788620725188 -0.17954848884060079 0 0.37064833187319962 -0.1852102762359614 0 0.37271206602689039 -0.21308069503546309 0 0.38139900114097952 -0.20469292352659629 0 0.37064833187319962 -0.1852102762359614 0 0.37271206602689039 -0.21308069503546309 0 0.37064833187319962 -0.1852102762359614 0 0.37271206602689039 -0.21308069503546309 0 0.35587008128221181 -0.19822302573298239 0 0.37271206602689039 -0.21308069503546309 0 0.35603419272415182 -0.2169366224123114 0 0.35587008128221181 -0.19822302573298239 0 0.35603419272415182 -0.2169366224123114 0 0.35587008128221181 -0.19822302573298239 0 0.33592071113666833 -0.21528834051928489 0 0.35587008128221181 -0.19822302573298239 0 0.33960500058918919 -0.18923554211963439 0 0.33592071113666833 -0.21528834051928489 0 0.33960500058918919 -0.18923554211963439 0 0.33592071113666833 -0.21528834051928489 0 0.32324572338912438 -0.19644730038905581 0 0.33592071113666833 -0.21528834051928489 0 0.32324572338912438 -0.19644730038905581 0 0.33592071113666833 -0.21528834051928489 0 0.32020032842118662 -0.2136972324735969 0 0.32324572338912438 -0.19644730038905581 0 0.31045946319455608 -0.20263901644370941 0 0.32020032842118662 -0.2136972324735969 0 0.32324572338912438 -0.19644730038905581 0 0.31057073564158039 -0.17760626025882659 0 0.33960500058918919 -0.18923554211963439 0 0.32324572338912438 -0.19644730038905581 0 0.31045946319455608 -0.20263901644370941 0 0.31057073564158039 -0.17760626025882659 0 0.32324572338912438 -0.19644730038905581 0 0.32549034540926353 -0.23154497847382799 0 0.33517615116993849 -0.24743488902137309 0 0.31597462601859122 -0.25080747204364812 0 0.30588539897632072 -0.22256652654210629 0 0.32549034540926353 -0.23154497847382799 0 0.31597462601859122 -0.25080747204364812 0 0.30588539897632072 -0.22256652654210629 0 0.32020032842118662 -0.2136972324735969 0 0.32549034540926353 -0.23154497847382799 0 0.33592071113666833 -0.21528834051928489 0 0.32020032842118662 -0.2136972324735969 0 0.32549034540926353 -0.23154497847382799 0 0.33592071113666833 -0.21528834051928489 0 0.32549034540926353 -0.23154497847382799 0 0.34859569888421221 -0.23412938064951411 0 0.33592071113666833 -0.21528834051928489 0 0.34859569888421221 -0.23412938064951411 0 0.32549034540926353 -0.23154497847382799 0 0.33517615116993849 -0.24743488902137309 0 0.34859569888421221 -0.23412938064951411 0 0.33517615116993849 -0.24743488902137309 0 0.34859569888421221 -0.23412938064951411 0 0.35185333732921159 -0.25428502110151557 0 0.34859569888421221 -0.23412938064951411 0 0.36075586336603621 -0.2426037127049111 0 0.35185333732921159 -0.25428502110151557 0 0.34859569888421221 -0.23412938064951411 0 0.36291464790978972 -0.22902601310760301 0 0.36075586336603621 -0.2426037127049111 0 0.35603419272415182 -0.2169366224123114 0 0.34859569888421221 -0.23412938064951411 0 0.36291464790978972 -0.22902601310760301 0 0.35603419272415182 -0.2169366224123114 0 0.33592071113666833 -0.21528834051928489 0 0.34859569888421221 -0.23412938064951411 0 0.37271206602689039 -0.21308069503546309 0 0.35603419272415182 -0.2169366224123114 0 0.36291464790978972 -0.22902601310760301 0 0.37271206602689039 -0.21308069503546309 0 0.37477580018058132 -0.24095111383496479 0 0.37555308153547928 -0.22286467051027881 0 0.37271206602689039 -0.21308069503546309 0 0.37477580018058132 -0.24095111383496479 0 0.37271206602689039 -0.21308069503546309 0 0.36291464790978972 -0.22902601310760301 0 0.37477580018058132 -0.24095111383496479 0 0.36075586336603621 -0.2426037127049111 0 0.37477580018058132 -0.24095111383496479 0 0.36563983252638571 -0.25462703483095822 0 0.36291464790978972 -0.22902601310760301 0 0.36075586336603621 -0.2426037127049111 0 0.37477580018058132 -0.24095111383496479 0 0.37477580018058132 -0.24095111383496479 0 0.39321551516580561 -0.23618023300957031 0 0.38725375881062551 -0.25185160038302579 0 0.39321551516580561 -0.23618023300957031 0 0.41087794879613182 -0.2494957955088617 0 0.40741230325918792 -0.23450562481703699 0 0.39321551516580561 -0.23618023300957031 0 0.41087794879613182 -0.2494957955088617 0 0.39321551516580561 -0.23618023300957031 0 0.38725375881062551 -0.25185160038302579 0 0.39640803358832022 -0.25154779433757402 0 0.39321551516580561 -0.23618023300957031 0 0.41087794879613182 -0.2494957955088617 0 0.39640803358832022 -0.25154779433757402 0 0.4055308246994358 -0.22407667781788709 0 0.39424069285124719 -0.22310079746779379 0 0.40434357831770951 -0.21487406561090469 0 0.4055308246994358 -0.22407667781788709 0 0.39424069285124719 -0.22310079746779379 0 0.40741230325918792 -0.23450562481703699 0 0.39321551516580561 -0.23618023300957031 0 0.39424069285124719 -0.22310079746779379 0 0.40741230325918792 -0.23450562481703699 0 0.37477580018058132 -0.24095111383496479 0 0.39321551516580561 -0.23618023300957031 0 0.37555308153547928 -0.22286467051027881 0 0.39424069285124719 -0.22310079746779379 0 0.37555308153547928 -0.22286467051027881 0 0.38300691860546521 -0.21527996176244341 0 0.39321551516580561 -0.23618023300957031 0 0.37555308153547928 -0.22286467051027881 0 0.39321551516580561 -0.23618023300957031 0 0.39424069285124719 -0.22310079746779379 0 0.37555308153547928 -0.22286467051027881 0 0.37271206602689039 -0.21308069503546309 0 0.37555308153547928 -0.22286467051027881 0 0.38300691860546521 -0.21527996176244341 0 0.37271206602689039 -0.21308069503546309 0 0.38139900114097952 -0.20469292352659629 0 0.38300691860546521 -0.21527996176244341 0 0.38139900114097952 -0.20469292352659629 0 0.39078770323730427 -0.19674260859680251 0 0.39112975147272949 -0.2126607222720846 0 0.38139900114097952 -0.20469292352659629 0 0.38300691860546521 -0.21527996176244341 0 0.39112975147272949 -0.2126607222720846 0 0.39424069285124719 -0.22310079746779379 0 0.38300691860546521 -0.21527996176244341 0 0.39112975147272949 -0.2126607222720846 0 0.37064833187319962 -0.1852102762359614 0 0.38139900114097952 -0.20469292352659629 0 0.39078770323730427 -0.19674260859680251 0 0.39078770323730427 -0.19674260859680251 0 0.40475141021500721 -0.1910589369573561 0 0.39510197637232292 -0.1839605883432579 0 0.39078770323730427 -0.19674260859680251 0 0.40426546228868082 -0.20108352786525729 0 0.397631623829106 -0.20634023108626229 0 0.39078770323730427 -0.19674260859680251 0 0.40426546228868082 -0.20108352786525729 0 0.40475141021500721 -0.1910589369573561 0 0.39078770323730427 -0.19674260859680251 0 0.39112975147272949 -0.2126607222720846 0 0.397631623829106 -0.20634023108626229 0 0.39112975147272949 -0.2126607222720846 0 0.397631623829106 -0.20634023108626229 0 0.40434357831770951 -0.21487406561090469 0 0.39424069285124719 -0.22310079746779379 0 0.39112975147272949 -0.2126607222720846 0 0.40434357831770951 -0.21487406561090469 0 0.40426546228868082 -0.20108352786525729 0 0.397631623829106 -0.20634023108626229 0 0.40434357831770951 -0.21487406561090469 0 0.40434357831770951 -0.21487406561090469 0 0.41713092845542321 -0.20900944133272009 0 0.41612672436959858 -0.22382622337581301 0 0.40426546228868082 -0.20108352786525729 0 0.40434357831770951 -0.21487406561090469 0 0.41713092845542321 -0.20900944133272009 0 0.41713092845542321 -0.20900944133272009 0 0.42330136258736267 -0.2174116668913772 0 0.41612672436959858 -0.22382622337581301 0 0.40475141021500721 -0.1910589369573561 0 0.41487892771890261 -0.19826025474908979 0 0.4146572714410397 -0.186958864794112 0 0.40426546228868082 -0.20108352786525729 0 0.41713092845542321 -0.20900944133272009 0 0.41487892771890261 -0.19826025474908979 0 0.40426546228868082 -0.20108352786525729 0 0.40475141021500721 -0.1910589369573561 0 0.41487892771890261 -0.19826025474908979 0 0.41713092845542321 -0.20900944133272009 0 0.41487892771890261 -0.19826025474908979 0 0.42701217502226602 -0.19751647228806199 0 0.41487892771890261 -0.19826025474908979 0 0.42053294087941678 -0.1923617771039739 0 0.42701217502226602 -0.19751647228806199 0 0.42053294087941678 -0.1923617771039739 0 0.4146572714410397 -0.186958864794112 0 0.42558338933545942 -0.1867115165846317 0 0.41487892771890261 -0.19826025474908979 0 0.42053294087941678 -0.1923617771039739 0 0.4146572714410397 -0.186958864794112 0 0.42701217502226602 -0.19751647228806199 0 0.43844209377108118 -0.18689286854296691 0 0.44355474576021348 -0.2050869029196882 0 0.42053294087941678 -0.1923617771039739 0 0.42701217502226602 -0.19751647228806199 0 0.42558338933545942 -0.1867115165846317 0 0.42701217502226602 -0.19751647228806199 0 0.42558338933545942 -0.1867115165846317 0 0.43844209377108118 -0.18689286854296691 0 0.42701217502226602 -0.19751647228806199 0 0.43006687167525981 -0.21185300334864521 0 0.44355474576021348 -0.2050869029196882 0 0.41713092845542321 -0.20900944133272009 0 0.42330136258736267 -0.2174116668913772 0 0.43006687167525981 -0.21185300334864521 0 0.42330136258736267 -0.2174116668913772 0 0.43006687167525981 -0.21185300334864521 0 0.42988092584916948 -0.2249579995083304 0 0.41713092845542321 -0.20900944133272009 0 0.42701217502226602 -0.19751647228806199 0 0.43006687167525981 -0.21185300334864521 0 0.43006687167525981 -0.21185300334864521 0 0.42988092584916948 -0.2249579995083304 0 0.44009267276725389 -0.2176624614444449 0 0.42330136258736267 -0.2174116668913772 0 0.42988092584916948 -0.2249579995083304 0 0.41612672436959858 -0.22382622337581301 0 0.42988092584916948 -0.2249579995083304 0 0.43458399188612801 -0.2397076170126072 0 0.42159465327244361 -0.23640953485310751 0 0.42988092584916948 -0.2249579995083304 0 0.42159465327244361 -0.23640953485310751 0 0.41612672436959858 -0.22382622337581301 0 0.42988092584916948 -0.2249579995083304 0 0.43458399188612801 -0.2397076170126072 0 0.44416109061426973 -0.22983272991065171 0 0.43458399188612801 -0.2397076170126072 0 0.42656562700980838 -0.24831468624349931 0 0.4372088962240912 -0.25169219704383999 0 0.43458399188612801 -0.2397076170126072 0 0.42656562700980838 -0.24831468624349931 0 0.42159465327244361 -0.23640953485310751 0 0.42656562700980838 -0.24831468624349931 0 0.42159465327244361 -0.23640953485310751 0 0.41087794879613182 -0.2494957955088617 0 0.42159465327244361 -0.23640953485310751 0 0.41087794879613182 -0.2494957955088617 0 0.40741230325918792 -0.23450562481703699 0 0.4055308246994358 -0.22407667781788709 0 0.40741230325918792 -0.23450562481703699 0 0.41612672436959858 -0.22382622337581301 0 0.4055308246994358 -0.22407667781788709 0 0.40434357831770951 -0.21487406561090469 0 0.41612672436959858 -0.22382622337581301 0 0.42159465327244361 -0.23640953485310751 0 0.40741230325918792 -0.23450562481703699 0 0.41612672436959858 -0.22382622337581301 0 0.39823574772599779 -0.11763079726210079 0 0.40257569972698831 -0.13396225485532559 0 0.38918813321375051 -0.12739880168557821 0 0.40257569972698831 -0.13396225485532559 0 0.38918813321375051 -0.12739880168557821 0 0.39017348084279901 -0.13955387731924049 0 0.38918813321375051 -0.12739880168557821 0 0.37808333446084269 -0.1309391893982525 0 0.39017348084279901 -0.13955387731924049 0 0.37720890243704291 -0.12310924361699779 0 0.36253108037134668 -0.1248744885805331 0 0.38918813321375051 -0.12739880168557821 0 0.36253108037134668 -0.1248744885805331 0 0.38918813321375051 -0.12739880168557821 0 0.37808333446084269 -0.1309391893982525 0 0.36253108037134668 -0.1248744885805331 0 0.38918813321375051 -0.12739880168557821 0 0.37808333446084269 -0.1309391893982525 0 0.39017348084279901 -0.13955387731924049 0 0.3787995421462832 -0.1425544525875144 0 0.36858459771950869 -0.15733985743645959 0 0.3787995421462832 -0.1425544525875144 0 0.38535727780346091 -0.1527557998392445 0 0.39017348084279901 -0.13955387731924049 0 0.3787995421462832 -0.1425544525875144 0 0.38535727780346091 -0.1527557998392445 0 0.40257569972698831 -0.13396225485532559 0 0.39822107621443897 -0.1501202070538992 0 0.41732028123257531 -0.14286435439753159 0 0.40257569972698831 -0.13396225485532559 0 0.39017348084279901 -0.13955387731924049 0 0.39822107621443897 -0.1501202070538992 0 0.39017348084279901 -0.13955387731924049 0 0.38535727780346091 -0.1527557998392445 0 0.39822107621443897 -0.1501202070538992 0 0.39822107621443897 -0.1501202070538992 0 0.39107178753907162 -0.16851380255406381 0 0.40713652226246821 -0.16744863749245631 0 0.39107178753907162 -0.16851380255406381 0 0.40713652226246821 -0.16744863749245631 0 0.38535727780346091 -0.1527557998392445 0 0.39822107621443897 -0.1501202070538992 0 0.39107178753907162 -0.16851380255406381 0 0.39107178753907162 -0.16851380255406381 0 0.40460499843718001 -0.17902112385493851 0 0.40713652226246821 -0.16744863749245631 0 0.36858459771950869 -0.15733985743645959 0 0.38535727780346091 -0.1527557998392445 0 0.39107178753907162 -0.16851380255406381 0 0.36858459771950869 -0.15733985743645959 0 0.39107178753907162 -0.16851380255406381 0 0.3834788620725188 -0.17954848884060079 0 0.39107178753907162 -0.16851380255406381 0 0.3834788620725188 -0.17954848884060079 0 0.39510197637232292 -0.1839605883432579 0 0.39078770323730427 -0.19674260859680251 0 0.3834788620725188 -0.17954848884060079 0 0.39510197637232292 -0.1839605883432579 0 0.37064833187319962 -0.1852102762359614 0 0.39078770323730427 -0.19674260859680251 0 0.3834788620725188 -0.17954848884060079 0 0.39107178753907162 -0.16851380255406381 0 0.39510197637232292 -0.1839605883432579 0 0.40460499843718001 -0.17902112385493851 0 0.40475141021500721 -0.1910589369573561 0 0.39510197637232292 -0.1839605883432579 0 0.40460499843718001 -0.17902112385493851 0 0.40475141021500721 -0.1910589369573561 0 0.40460499843718001 -0.17902112385493851 0 0.4146572714410397 -0.186958864794112 0 0.40460499843718001 -0.17902112385493851 0 0.41491102279317088 -0.17618591298838529 0 0.4146572714410397 -0.186958864794112 0 0.40460499843718001 -0.17902112385493851 0 0.41491102279317088 -0.17618591298838529 0 0.40713652226246821 -0.16744863749245631 0 0.41491102279317088 -0.17618591298838529 0 0.42527009306055918 -0.1746571334479238 0 0.4232012569858648 -0.16638347243084889 0 0.41491102279317088 -0.17618591298838529 0 0.42095079563492938 -0.18072636251124541 0 0.42527009306055918 -0.1746571334479238 0 0.41491102279317088 -0.17618591298838529 0 0.42095079563492938 -0.18072636251124541 0 0.4146572714410397 -0.186958864794112 0 0.42095079563492938 -0.18072636251124541 0 0.4146572714410397 -0.186958864794112 0 0.42558338933545942 -0.1867115165846317 0 0.43180268423531071 -0.1802632517690351 0 0.42527009306055918 -0.1746571334479238 0 0.44880083799057491 -0.164686103644653 0 0.42095079563492938 -0.18072636251124541 0 0.42558338933545942 -0.1867115165846317 0 0.43180268423531071 -0.1802632517690351 0 0.42558338933545942 -0.1867115165846317 0 0.43180268423531071 -0.1802632517690351 0 0.43844209377108118 -0.18689286854296691 0 0.42095079563492938 -0.18072636251124541 0 0.43180268423531071 -0.1802632517690351 0 0.42527009306055918 -0.1746571334479238 0 0.42527009306055918 -0.1746571334479238 0 0.4232012569858648 -0.16638347243084889 0 0.44880083799057491 -0.164686103644653 0 0.4232012569858648 -0.16638347243084889 0 0.43334283997313311 -0.15135273030925811 0 0.44880083799057491 -0.164686103644653 0 0.4232012569858648 -0.16638347243084889 0 0.44880083799057491 -0.164686103644653 0 0.42527009306055918 -0.1746571334479238 0 0.4232012569858648 -0.16638347243084889 0 0.4232012569858648 -0.16638347243084889 0 0.40713652226246821 -0.16744863749245631 0 0.41732028123257531 -0.14286435439753159 0 0.41491102279317088 -0.17618591298838529 0 0.4232012569858648 -0.16638347243084889 0 0.40713652226246821 -0.16744863749245631 0 0.4232012569858648 -0.16638347243084889 0 0.40713652226246821 -0.16744863749245631 0 0.4232012569858648 -0.16638347243084889 0 0.41732028123257531 -0.14286435439753159 0 0.39822107621443897 -0.1501202070538992 0 0.40713652226246821 -0.16744863749245631 0 0.41732028123257531 -0.14286435439753159 0 0.41732028123257531 -0.14286435439753159 0 0.43334283997313311 -0.15135273030925811 0 0.43763345530417341 -0.13584027725706749 0 0.4232012569858648 -0.16638347243084889 0 0.41732028123257531 -0.14286435439753159 0 0.43334283997313311 -0.15135273030925811 0 0.42916935431308728 -0.1205456085246996 0 0.41732028123257531 -0.14286435439753159 0 0.43763345530417341 -0.13584027725706749 0 0.42916935431308728 -0.1205456085246996 0 0.4435038969132965 -0.12540022695152131 0 0.43763345530417341 -0.13584027725706749 0 0.41143930547928681 -0.11934523636421419 0 0.42916935431308728 -0.1205456085246996 0 0.41732028123257531 -0.14286435439753159 0 0.41143930547928681 -0.11934523636421419 0 0.40257569972698831 -0.13396225485532559 0 0.41732028123257531 -0.14286435439753159 0 0.41143930547928681 -0.11934523636421419 0 0.41732028123257531 -0.14286435439753159 0 0.46257396642688631 -0.12529077885077469 0 0.46381730130484328 -0.1363472541609663 0 0.4585659370706795 -0.1308283620105129 0 0.46381730130484328 -0.1363472541609663 0 0.4585659370706795 -0.1308283620105129 0 0.45274550479158487 -0.1345999168850856 0 0.46381730130484328 -0.1363472541609663 0 0.45274550479158487 -0.1345999168850856 0 0.46138481906560302 -0.14686228775601681 0 0.46257396642688631 -0.12529077885077469 0 0.4585659370706795 -0.1308283620105129 0 0.45239247298790419 -0.125419693033265 0 0.4585659370706795 -0.1308283620105129 0 0.45239247298790419 -0.125419693033265 0 0.45274550479158487 -0.1345999168850856 0 0.45239247298790419 -0.125419693033265 0 0.4435038969132965 -0.12540022695152131 0 0.45274550479158487 -0.1345999168850856 0 0.4435038969132965 -0.12540022695152131 0 0.43763345530417341 -0.13584027725706749 0 0.45274550479158487 -0.1345999168850856 0 0.43763345530417341 -0.13584027725706749 0 0.45274550479158487 -0.1345999168850856 0 0.44678149142501389 -0.1466682631704162 0 0.43334283997313311 -0.15135273030925811 0 0.44678149142501389 -0.1466682631704162 0 0.44880083799057491 -0.164686103644653 0 0.44678149142501389 -0.1466682631704162 0 0.46138481906560302 -0.14686228775601681 0 0.44880083799057491 -0.164686103644653 0 0.43334283997313311 -0.15135273030925811 0 0.43763345530417341 -0.13584027725706749 0 0.44678149142501389 -0.1466682631704162 0 0.45274550479158487 -0.1345999168850856 0 0.44678149142501389 -0.1466682631704162 0 0.46138481906560302 -0.14686228775601681 0 0.46138481906560302 -0.14686228775601681 0 0.44880083799057491 -0.164686103644653 0 0.47440041899528501 -0.16298873485845719 0 0.44880083799057491 -0.164686103644653 0 0.46834799031954211 -0.17915452781490099 0 0.47440041899528501 -0.16298873485845719 0 0.44880083799057491 -0.164686103644653 0 0.47440041899528501 -0.16298873485845719 0 0.43180268423531071 -0.1802632517690351 0 0.44880083799057491 -0.164686103644653 0 0.43844209377108118 -0.18689286854296691 0 0.44880083799057491 -0.164686103644653 0 0.43844209377108118 -0.18689286854296691 0 0.45508032593701309 -0.1914137801830845 0 0.44880083799057491 -0.164686103644653 0 0.46834799031954211 -0.17915452781490099 0 0.45508032593701309 -0.1914137801830845 0 0.46834799031954211 -0.17915452781490099 0 0.48419704391512092 -0.17843144908975531 0 0.47440041899528501 -0.16298873485845719 0 0.46834799031954211 -0.17915452781490099 0 0.48419704391512092 -0.17843144908975531 0 0.47823681026078202 -0.19812675643970101 0 0.48419704391512092 -0.17843144908975531 0 0.49999999999999523 -0.16129136607226169 0 0.5 -0.1905958602634561 0 0.49999999999999523 -0.16129136607226169 0 0.47440041899528501 -0.16298873485845719 0 0.50000000000000067 -0.1547763741112759 0 0.48419704391512092 -0.17843144908975531 0 0.49999999999999523 -0.16129136607226169 0 0.47440041899528501 -0.16298873485845719 0 0.49999999999999523 -0.16129136607226169 0 0.47440041899528501 -0.16298873485845719 0 0.46138481906560302 -0.14686228775601681 0 0.47440041899528501 -0.16298873485845719 0 0.48128698321344371 -0.14003357648102521 0 0.46381730130484328 -0.1363472541609663 0 0.46138481906560302 -0.14686228775601681 0 0.48128698321344371 -0.14003357648102521 0 0.50000000000000067 -0.1547763741112759 0 0.48128698321344371 -0.14003357648102521 0 0.50000000000000067 -0.1547763741112759 0 0.5 -0.13349841451636779 0 0.48128698321344371 -0.14003357648102521 0 0.47440041899528501 -0.16298873485845719 0 0.50000000000000067 -0.1547763741112759 0 0.48128698321344371 -0.14003357648102521 0 0.48087269318342413 -0.1216818802472065 0 0.5 -0.13349841451636779 0 0.48128698321344371 -0.14003357648102521 0 0.46257396642688631 -0.12529077885077469 0 0.48128698321344371 -0.14003357648102521 0 0.46257396642688631 -0.12529077885077469 0 0.46381730130484328 -0.1363472541609663 0 0.48128698321344371 -0.14003357648102521 0 0.47129126618897188 -0.1223351355815797 0 0.48087269318342413 -0.1216818802472065 0 0.48128698321344371 -0.14003357648102521 0 0.47129126618897188 -0.1223351355815797 0 0.46257396642688631 -0.12529077885077469 0 0.48128698321344371 -0.14003357648102521 0 0.46029750420545162 -0.23134667767863379 0 0.45079963313025367 -0.219495204315066 0 0.46126535540865482 -0.21094244298034759 0 0.46029750420545162 -0.23134667767863379 0 0.46126535540865482 -0.21094244298034759 0 0.47937109712497578 -0.22608105856418539 0 0.46029750420545162 -0.23134667767863379 0 0.44856132313442931 -0.24393079079591279 0 0.47387431588802909 -0.25499376211151131 0 0.46029750420545162 -0.23134667767863379 0 0.44856132313442931 -0.24393079079591279 0 0.44416109061426973 -0.22983272991065171 0 0.43458399188612801 -0.2397076170126072 0 0.44856132313442931 -0.24393079079591279 0 0.4372088962240912 -0.25169219704383999 0 0.43458399188612801 -0.2397076170126072 0 0.44856132313442931 -0.24393079079591279 0 0.44416109061426973 -0.22983272991065171 0 0.46029750420545162 -0.23134667767863379 0 0.44416109061426973 -0.22983272991065171 0 0.45079963313025367 -0.219495204315066 0 0.44416109061426973 -0.22983272991065171 0 0.45079963313025367 -0.219495204315066 0 0.44009267276725389 -0.2176624614444449 0 0.42988092584916948 -0.2249579995083304 0 0.44416109061426973 -0.22983272991065171 0 0.44009267276725389 -0.2176624614444449 0 0.45079963313025367 -0.219495204315066 0 0.44355474576021348 -0.2050869029196882 0 0.46126535540865482 -0.21094244298034759 0 0.43006687167525981 -0.21185300334864521 0 0.44009267276725389 -0.2176624614444449 0 0.44355474576021348 -0.2050869029196882 0 0.45079963313025367 -0.219495204315066 0 0.44009267276725389 -0.2176624614444449 0 0.44355474576021348 -0.2050869029196882 0 0.43844209377108118 -0.18689286854296691 0 0.44355474576021348 -0.2050869029196882 0 0.45508032593701309 -0.1914137801830845 0 0.46834799031954211 -0.17915452781490099 0 0.45508032593701309 -0.1914137801830845 0 0.47823681026078202 -0.19812675643970101 0 0.44355474576021348 -0.2050869029196882 0 0.45508032593701309 -0.1914137801830845 0 0.46126535540865482 -0.21094244298034759 0 0.45508032593701309 -0.1914137801830845 0 0.46126535540865482 -0.21094244298034759 0 0.47823681026078202 -0.19812675643970101 0 0.46126535540865482 -0.21094244298034759 0 0.47823681026078202 -0.19812675643970101 0 0.47937109712497578 -0.22608105856418539 0 0.48419704391512092 -0.17843144908975531 0 0.47823681026078202 -0.19812675643970101 0 0.5 -0.1905958602634561 0 0.47823681026078202 -0.19812675643970101 0 0.5 -0.1905958602634561 0 0.5 -0.21990035445465039 0 0.47823681026078202 -0.19812675643970101 0 0.5 -0.21990035445465039 0 0.47937109712497578 -0.22608105856418539 0 0.5 -0.21990035445465039 0 0.47937109712497578 -0.22608105856418539 0 0.50000000000000444 -0.24920484864584491 0 0.46029750420545162 -0.23134667767863379 0 0.47937109712497578 -0.22608105856418539 0 0.47387431588802909 -0.25499376211151131 0 0.47937109712497578 -0.22608105856418539 0 0.50000000000000444 -0.24920484864584491 0 0.47387431588802909 -0.25499376211151131 0 0.50000000000000444 -0.24920484864584491 0 0.4915669900217115 -0.25615479242606781 0 0.5 -0.27170772691138367 0 0.50000000000000444 -0.24920484864584491 0 0.4915669900217115 -0.25615479242606781 0 0.47387431588802909 -0.25499376211151131 0 0.50000000000000444 -0.24920484864584491 0 0.47387431588802909 -0.25499376211151131 0 0.4915669900217115 -0.25615479242606781 0 0.48280749151585822 -0.27129304150170008 0 0.47954864786353962 -0.26301133191085868 0 0.4915669900217115 -0.25615479242606781 0 0.5 -0.27170772691138367 0 0.48280749151585822 -0.27129304150170008 0 0.5 -0.27170772691138367 0 0.48280749151585822 -0.27129304150170008 0 0.48951500520952212 -0.28458010338455908 0 0.48280749151585822 -0.27129304150170008 0 0.47474596181800061 -0.28621450290334632 0 0.48951500520952212 -0.28458010338455908 0 0.48280749151585822 -0.27129304150170008 0 0.47416229901770612 -0.26612875971404459 0 0.47954864786353962 -0.26301133191085868 0 0.48280749151585822 -0.27129304150170008 0 0.47416229901770612 -0.26612875971404459 0 0.47052118473631321 -0.27447720361836658 0 0.47416229901770612 -0.26612875971404459 0 0.47052118473631321 -0.27447720361836658 0 0.46319689217890331 -0.26835660325056299 0 0.48280749151585822 -0.27129304150170008 0 0.47052118473631321 -0.27447720361836658 0 0.47474596181800061 -0.28621450290334632 0 0.4915669900217115 -0.25615479242606781 0 0.46965781089888248 -0.25846873400162218 0 0.4915669900217115 -0.25615479242606781 0 0.47387431588802909 -0.25499376211151131 0 0.46965781089888248 -0.25846873400162218 0 0.4915669900217115 -0.25615479242606781 0 0.47954864786353962 -0.26301133191085868 0 0.46965781089888248 -0.25846873400162218 0 0.47416229901770612 -0.26612875971404459 0 0.47954864786353962 -0.26301133191085868 0 0.46965781089888248 -0.25846873400162218 0 0.47416229901770612 -0.26612875971404459 0 0.46965781089888248 -0.25846873400162218 0 0.46319689217890331 -0.26835660325056299 0 0.46965781089888248 -0.25846873400162218 0 0.46319689217890331 -0.26835660325056299 0 0.4477486317760534 -0.26078267557717671 0 0.44856132313442931 -0.24393079079591279 0 0.47387431588802909 -0.25499376211151131 0 0.4477486317760534 -0.26078267557717671 0 0.47387431588802909 -0.25499376211151131 0 0.4477486317760534 -0.26078267557717671 0 0.46965781089888248 -0.25846873400162218 0 0.4477486317760534 -0.26078267557717671 0 0.47387431588802909 -0.25499376211151131 0 0.46965781089888248 -0.25846873400162218 0 0.4477486317760534 -0.26078267557717671 0 0.47052118473631321 -0.27447720361836658 0 0.45389453446556111 -0.28192564334160541 0 0.47474596181800061 -0.28621450290334632 0 0.47052118473631321 -0.27447720361836658 0 0.46319689217890331 -0.26835660325056299 0 0.45389453446556111 -0.28192564334160541 0 0.46319689217890331 -0.26835660325056299 0 0.4477486317760534 -0.26078267557717671 0 0.45389453446556111 -0.28192564334160541 0 0.45389453446556111 -0.28192564334160541 0 0.430823863629894 -0.26453285558412298 0 0.45389453446556111 -0.28192564334160541 0 0.430823863629894 -0.26453285558412298 0 0.43570592202634773 -0.28205449164250063 0 0.4477486317760534 -0.26078267557717671 0 0.45389453446556111 -0.28192564334160541 0 0.430823863629894 -0.26453285558412298 0 0.4477486317760534 -0.26078267557717671 0 0.42854038242645709 -0.26281135800815408 0 0.44856132313442931 -0.24393079079591279 0 0.4477486317760534 -0.26078267557717671 0 0.4372088962240912 -0.25169219704383999 0 0.4477486317760534 -0.26078267557717671 0 0.42854038242645709 -0.26281135800815408 0 0.4372088962240912 -0.25169219704383999 0 0.4477486317760534 -0.26078267557717671 0 0.430823863629894 -0.26453285558412298 0 0.44815314542162782 -0.30273998798419938 0 0.44271266904340639 -0.31513600928105973 0 0.43092107089682352 -0.30573631325696571 0 0.44815314542162782 -0.30273998798419938 0 0.43874415768382158 -0.29310671547163403 0 0.43092107089682352 -0.30573631325696571 0 0.43874415768382158 -0.29310671547163403 0 0.45389453446556111 -0.28192564334160541 0 0.43570592202634773 -0.28205449164250063 0 0.44815314542162782 -0.30273998798419938 0 0.43874415768382158 -0.29310671547163403 0 0.45389453446556111 -0.28192564334160541 0 0.45389453446556111 -0.28192564334160541 0 0.46668010371271101 -0.29937682325086112 0 0.47474596181800061 -0.28621450290334632 0 0.44815314542162782 -0.30273998798419938 0 0.45389453446556111 -0.28192564334160541 0 0.46668010371271101 -0.29937682325086112 0 0.46668010371271101 -0.29937682325086112 0 0.45907432653114449 -0.32014896664993769 0 0.44815314542162782 -0.30273998798419938 0 0.46668010371271101 -0.29937682325086112 0 0.45907432653114449 -0.32014896664993769 0 0.46668010371271101 -0.29937682325086112 0 0.48375110351916628 -0.30725513966339157 0 0.45907432653114449 -0.32014896664993769 0 0.46668010371271101 -0.29937682325086112 0 0.48375110351916628 -0.30725513966339157 0 0.47474596181800061 -0.28621450290334632 0 0.48375110351916628 -0.30725513966339157 0 0.47474596181800061 -0.28621450290334632 0 0.48951500520952212 -0.28458010338455908 0 0.48375110351916628 -0.30725513966339157 0 0.5 -0.29421060517692271 0 0.48951500520952212 -0.28458010338455908 0 0.5 -0.27170772691138367 0 0.5 -0.29421060517692271 0 0.48951500520952212 -0.28458010338455908 0 0.48375110351916628 -0.30725513966339157 0 0.5 -0.29421060517692271 0 0.49999999999999972 -0.31671348344246159 0 0.48375110351916628 -0.30725513966339157 0 0.49999999999999972 -0.31671348344246159 0 0.48658745812515303 -0.32591538654610069 0 0.49999999999999972 -0.31671348344246159 0 0.49107839048707969 -0.33844651150006611 0 0.49999999999999972 -0.31671348344246159 0 0.48658745812515303 -0.32591538654610069 0 0.49107839048707969 -0.33844651150006611 0 0.49999999999999972 -0.31671348344246159 0 0.5 -0.34354646621870782 0 0.49107839048707969 -0.33844651150006611 0 0.48658745812515303 -0.32591538654610069 0 0.49107839048707969 -0.33844651150006611 0 0.48013111160135669 -0.33592777501669763 0 0.48658745812515303 -0.32591538654610069 0 0.48013111160135669 -0.33592777501669763 0 0.47588582758327369 -0.32632043512378739 0 0.48013111160135669 -0.33592777501669763 0 0.46883970942210401 -0.33989811375075968 0 0.47588582758327369 -0.32632043512378739 0 0.48375110351916628 -0.30725513966339157 0 0.48658745812515303 -0.32591538654610069 0 0.47588582758327369 -0.32632043512378739 0 0.48375110351916628 -0.30725513966339157 0 0.47588582758327369 -0.32632043512378739 0 0.45907432653114449 -0.32014896664993769 0 0.5 -0.37037944899495368 0 0.48466784746851571 -0.3739080713738358 0 0.48215678097416009 -0.36017953955767068 0 0.5 -0.34354646621870782 0 0.49107839048707969 -0.33844651150006611 0 0.48215678097416009 -0.36017953955767068 0 0.49107839048707969 -0.33844651150006611 0 0.48013111160135669 -0.33592777501669763 0 0.48215678097416009 -0.36017953955767068 0 0.5 -0.34354646621870782 0 0.5 -0.37037944899495368 0 0.48215678097416009 -0.36017953955767068 0 0.49107839048707969 -0.33844651150006611 0 0.48215678097416009 -0.36017953955767068 0 0.48013111160135669 -0.33592777501669763 0 0.46883970942210401 -0.33989811375075968 0 0.48215678097416009 -0.36017953955767068 0 0.46883970942210401 -0.33989811375075968 0 0.48215678097416009 -0.36017953955767068 0 0.46166172922915721 -0.35810144835948332 0 0.48215678097416009 -0.36017953955767068 0 0.47323517146124039 -0.38191256761527542 0 0.48215678097416009 -0.36017953955767068 0 0.4671179630262795 -0.37324494563770522 0 0.47323517146124039 -0.38191256761527542 0 0.48466784746851571 -0.3739080713738358 0 0.48215678097416009 -0.36017953955767068 0 0.47323517146124039 -0.38191256761527542 0 0.48215678097416009 -0.36017953955767068 0 0.4671179630262795 -0.37324494563770522 0 0.46166172922915721 -0.35810144835948332 0 0.45652460043480969 -0.37267172771365881 0 0.46166172922915721 -0.35810144835948332 0 0.44386277216801179 -0.36169325344809122 0 0.45652460043480969 -0.37267172771365881 0 0.4671179630262795 -0.37324494563770522 0 0.46166172922915721 -0.35810144835948332 0 0.46883970942210401 -0.33989811375075968 0 0.46166172922915721 -0.35810144835948332 0 0.45146854934957792 -0.34092111004901438 0 0.43963091224731599 -0.34751792105314822 0 0.44386277216801179 -0.36169325344809122 0 0.45146854934957792 -0.34092111004901438 0 0.44386277216801179 -0.36169325344809122 0 0.45146854934957792 -0.34092111004901438 0 0.46166172922915721 -0.35810144835948332 0 0.44386277216801179 -0.36169325344809122 0 0.45146854934957792 -0.34092111004901438 0 0.44386277216801179 -0.36169325344809122 0 0.43376943787959182 -0.36708850497004442 0 0.43808065797110041 -0.37748478958974491 0 0.45652460043480969 -0.37267172771365881 0 0.44386277216801179 -0.36169325344809122 0 0.44783900322824399 -0.38008781189722518 0 0.44386277216801179 -0.36169325344809122 0 0.43808065797110041 -0.37748478958974491 0 0.44386277216801179 -0.36169325344809122 0 0.43808065797110041 -0.37748478958974491 0 0.44783900322824399 -0.38008781189722518 0 0.45652460043480969 -0.37267172771365881 0 0.44386277216801179 -0.36169325344809122 0 0.46883970942210401 -0.33989811375075968 0 0.45907432653114449 -0.32014896664993769 0 0.45146854934957792 -0.34092111004901438 0 0.45907432653114449 -0.32014896664993769 0 0.45146854934957792 -0.34092111004901438 0 0.46883970942210401 -0.33989811375075968 0 0.47588582758327369 -0.32632043512378739 0 0.45907432653114449 -0.32014896664993769 0 0.43963091224731599 -0.34751792105314822 0 0.45146854934957792 -0.34092111004901438 0 0.43565299676263758 -0.3352386806192425 0 0.45146854934957792 -0.34092111004901438 0 0.44493724809618768 -0.32603283426431229 0 0.43565299676263758 -0.3352386806192425 0 0.45907432653114449 -0.32014896664993769 0 0.45146854934957792 -0.34092111004901438 0 0.44493724809618768 -0.32603283426431229 0 0.45907432653114449 -0.32014896664993769 0 0.44493724809618768 -0.32603283426431229 0 0.44271266904340639 -0.31513600928105973 0 0.44493724809618768 -0.32603283426431229 0 0.44271266904340639 -0.31513600928105973 0 0.43047755427124879 -0.32102194424988317 0 0.44815314542162782 -0.30273998798419938 0 0.45907432653114449 -0.32014896664993769 0 0.44271266904340639 -0.31513600928105973 0 0.44271266904340639 -0.31513600928105973 0 0.43047755427124879 -0.32102194424988317 0 0.43092107089682352 -0.30573631325696571 0 0.43047755427124879 -0.32102194424988317 0 0.41919911313656122 -0.31385112706466711 0 0.41739686236043672 -0.32199345155319897 0 0.43047755427124879 -0.32102194424988317 0 0.41919911313656122 -0.31385112706466711 0 0.43092107089682352 -0.30573631325696571 0 0.43047755427124879 -0.32102194424988317 0 0.42053718701310799 -0.32957674384091618 0 0.41739686236043672 -0.32199345155319897 0 0.44493724809618768 -0.32603283426431229 0 0.43047755427124879 -0.32102194424988317 0 0.43565299676263758 -0.3352386806192425 0 0.43565299676263758 -0.3352386806192425 0 0.42053718701310799 -0.32957674384091618 0 0.4250793590774925 -0.34540704162396091 0 0.43963091224731599 -0.34751792105314822 0 0.43565299676263758 -0.3352386806192425 0 0.4250793590774925 -0.34540704162396091 0 0.43047755427124879 -0.32102194424988317 0 0.43565299676263758 -0.3352386806192425 0 0.42053718701310799 -0.32957674384091618 0 0.4062959459869725 -0.32912082979983148 0 0.4250793590774925 -0.34540704162396091 0 0.41055923831377589 -0.34398547157316572 0 0.42053718701310799 -0.32957674384091618 0 0.4062959459869725 -0.32912082979983148 0 0.4250793590774925 -0.34540704162396091 0 0.4062959459869725 -0.32912082979983148 0 0.4250793590774925 -0.34540704162396091 0 0.42053718701310799 -0.32957674384091618 0 0.4062959459869725 -0.32912082979983148 0 0.40802480504278882 -0.32457497099322458 0 0.4062959459869725 -0.32912082979983148 0 0.40802480504278882 -0.32457497099322458 0 0.4062959459869725 -0.32912082979983148 0 0.40802480504278882 -0.32457497099322458 0 0.40572459905769331 -0.31910551143285631 0 0.40802480504278882 -0.32457497099322458 0 0.4119015194344513 -0.31818912214386269 0 0.41739686236043672 -0.32199345155319897 0 0.40802480504278882 -0.32457497099322458 0 0.4119015194344513 -0.31818912214386269 0 0.40572459905769331 -0.31910551143285631 0 0.4119015194344513 -0.31818912214386269 0 0.41919911313656122 -0.31385112706466711 0 0.40916221757477672 -0.31142054967536659 0 0.4119015194344513 -0.31818912214386269 0 0.40572459905769331 -0.31910551143285631 0 0.40916221757477672 -0.31142054967536659 0 0.4119015194344513 -0.31818912214386269 0 0.41919911313656122 -0.31385112706466711 0 0.41739686236043672 -0.32199345155319897 0 0.42053718701310799 -0.32957674384091618 0 0.40802480504278882 -0.32457497099322458 0 0.41739686236043672 -0.32199345155319897 0 0.44386277216801179 -0.36169325344809122 0 0.43376943787959182 -0.36708850497004442 0 0.42728564025893462 -0.35958684797927032 0 0.42489657602010461 -0.37065940299189432 0 0.43376943787959182 -0.36708850497004442 0 0.43808065797110041 -0.37748478958974491 0 0.42489657602010461 -0.37065940299189432 0 0.43376943787959182 -0.36708850497004442 0 0.42728564025893462 -0.35958684797927032 0 0.44386277216801179 -0.36169325344809122 0 0.4250793590774925 -0.34540704162396091 0 0.43963091224731599 -0.34751792105314822 0 0.44386277216801179 -0.36169325344809122 0 0.4250793590774925 -0.34540704162396091 0 0.44386277216801179 -0.36169325344809122 0 0.42728564025893462 -0.35958684797927032 0 0.4250793590774925 -0.34540704162396091 0 0.42728564025893462 -0.35958684797927032 0 0.4250793590774925 -0.34540704162396091 0 0.41069622259092692 -0.35617360609135817 0 0.4250793590774925 -0.34540704162396091 0 0.41055923831377589 -0.34398547157316572 0 0.41069622259092692 -0.35617360609135817 0 0.41055923831377589 -0.34398547157316572 0 0.41069622259092692 -0.35617360609135817 0 0.40016542559971202 -0.34524040877751239 0 0.42489657602010461 -0.37065940299189432 0 0.42728564025893462 -0.35958684797927032 0 0.41069622259092692 -0.35617360609135817 0 0.42489657602010461 -0.37065940299189432 0 0.41069622259092692 -0.35617360609135817 0 0.4070765621089808 -0.37107032214525337 0 0.42489657602010461 -0.37065940299189432 0 0.41069622259092692 -0.35617360609135817 0 0.39585190457779329 -0.37201308858561799 0 0.3940349052124521 -0.36135998775519362 0 0.38601585554704992 -0.38244526212700758 0 0.41069622259092692 -0.35617360609135817 0 0.4070765621089808 -0.37107032214525337 0 0.3940349052124521 -0.36135998775519362 0 0.4070765621089808 -0.37107032214525337 0 0.39585190457779329 -0.37201308858561799 0 0.3940349052124521 -0.36135998775519362 0 0.39585190457779329 -0.37201308858561799 0 0.3940349052124521 -0.36135998775519362 0 0.3940349052124521 -0.36135998775519362 0 0.40016542559971202 -0.34524040877751239 0 0.38974443050024338 -0.33620485529262373 0 0.3940349052124521 -0.36135998775519362 0 0.38974443050024338 -0.33620485529262373 0 0.3940349052124521 -0.36135998775519362 0 0.40016542559971202 -0.34524040877751239 0 0.41069622259092692 -0.35617360609135817 0 0.3940349052124521 -0.36135998775519362 0 0.40016542559971202 -0.34524040877751239 0 0.3940349052124521 -0.36135998775519362 0 0.38974443050024338 -0.33620485529262373 0 0.37368731816096312 -0.34897020548070451 0 0.3940349052124521 -0.36135998775519362 0 0.38601585554704992 -0.38244526212700758 0 0.3940349052124521 -0.36135998775519362 0 0.38601585554704992 -0.38244526212700758 0 0.3689120952668708 -0.37284951495870189 0 0.3940349052124521 -0.36135998775519362 0 0.3689120952668708 -0.37284951495870189 0 0.37368731816096312 -0.34897020548070451 0 0.4062959459869725 -0.32912082979983148 0 0.40572459905769331 -0.31910551143285631 0 0.39816778062817881 -0.31191488097197773 0 0.4062959459869725 -0.32912082979983148 0 0.38974443050024338 -0.33620485529262373 0 0.38545395578803499 -0.31104972283005378 0 0.4062959459869725 -0.32912082979983148 0 0.38545395578803499 -0.31104972283005378 0 0.4062959459869725 -0.32912082979983148 0 0.38545395578803499 -0.31104972283005378 0 0.39816778062817881 -0.31191488097197773 0 0.40572459905769331 -0.31910551143285631 0 0.39816778062817881 -0.31191488097197773 0 0.40916221757477672 -0.31142054967536659 0 0.4062959459869725 -0.32912082979983148 0 0.40016542559971202 -0.34524040877751239 0 0.38974443050024338 -0.33620485529262373 0 0.4062959459869725 -0.32912082979983148 0 0.40016542559971202 -0.34524040877751239 0 0.4062959459869725 -0.32912082979983148 0 0.41055923831377589 -0.34398547157316572 0 0.40016542559971202 -0.34524040877751239 0 0.38974443050024338 -0.33620485529262373 0 0.36945761595668469 -0.32738841673247931 0 0.37368731816096312 -0.34897020548070451 0 0.38974443050024338 -0.33620485529262373 0 0.38545395578803499 -0.31104972283005378 0 0.36945761595668469 -0.32738841673247931 0 0.38974443050024338 -0.33620485529262373 0 0.38545395578803499 -0.31104972283005378 0 0.38545395578803499 -0.31104972283005378 0 0.38245755150739558 -0.29348174920317632 0 0.37101427446782781 -0.29852975601036341 0 0.38545395578803499 -0.31104972283005378 0 0.38245755150739558 -0.29348174920317632 0 0.38545395578803499 -0.31104972283005378 0 0.37101427446782781 -0.29852975601036341 0 0.38545395578803499 -0.31104972283005378 0 0.39567659353887108 -0.29306988619604551 0 0.38245755150739558 -0.29348174920317632 0 0.39816778062817881 -0.31191488097197773 0 0.40563314249086863 -0.30155395497769039 0 0.39567659353887108 -0.29306988619604551 0 0.38545395578803499 -0.31104972283005378 0 0.39816778062817881 -0.31191488097197773 0 0.39567659353887108 -0.29306988619604551 0 0.39816778062817881 -0.31191488097197773 0 0.40563314249086863 -0.30155395497769039 0 0.40916221757477672 -0.31142054967536659 0 0.39567659353887108 -0.29306988619604551 0 0.40514250542832608 -0.27022331558021301 0 0.41160024963212011 -0.28933460066763711 0 0.40563314249086863 -0.30155395497769039 0 0.39567659353887108 -0.29306988619604551 0 0.41160024963212011 -0.28933460066763711 0 0.38245755150739558 -0.29348174920317632 0 0.37946114722675722 -0.27591377557629859 0 0.39567659353887108 -0.29306988619604551 0 0.38245755150739558 -0.29348174920317632 0 0.37946114722675722 -0.27591377557629859 0 0.38245755150739558 -0.29348174920317632 0 0.37795999762798671 -0.28395322059410122 0 0.37946114722675722 -0.27591377557629859 0 0.37519981906117678 -0.29055939022370142 0 0.38245755150739558 -0.29348174920317632 0 0.37101427446782781 -0.29852975601036341 0 0.37519981906117678 -0.29055939022370142 0 0.38245755150739558 -0.29348174920317632 0 0.37795999762798671 -0.28395322059410122 0 0.37795999762798671 -0.28395322059410122 0 0.37946114722675722 -0.27591377557629859 0 0.37739853904771847 -0.27637080706343392 0 0.37739853904771847 -0.27637080706343392 0 0.37683953433427181 -0.26882153263446662 0 0.37273728942595791 -0.27740364396778311 0 0.37795999762798671 -0.28395322059410122 0 0.37739853904771847 -0.27637080706343392 0 0.37273728942595791 -0.27740364396778311 0 0.37946114722675722 -0.27591377557629859 0 0.38774772661347989 -0.26664574742688191 0 0.3964002279028962 -0.26984905957103239 0 0.37946114722675722 -0.27591377557629859 0 0.3964002279028962 -0.26984905957103239 0 0.37795999762798671 -0.28395322059410122 0 0.37739853904771847 -0.27637080706343392 0 0.37739853904771847 -0.27637080706343392 0 0.37273728942595791 -0.27740364396778311 0 0.37946114722675722 -0.27591377557629859 0 0.37739853904771847 -0.27637080706343392 0 0.37683953433427181 -0.26882153263446662 0 0.37946114722675722 -0.27591377557629859 0 0.37739853904771847 -0.27637080706343392 0 0.37946114722675722 -0.27591377557629859 0 0.37843581040967561 -0.26746760801825881 0 0.38284686623937531 -0.26497045393317709 0 0.37946114722675722 -0.27591377557629859 0 0.37683953433427181 -0.26882153263446662 0 0.37843581040967561 -0.26746760801825881 0 0.37739853904771847 -0.27637080706343392 0 0.37683953433427181 -0.26882153263446662 0 0.37683953433427181 -0.26882153263446662 0 0.37843581040967561 -0.26746760801825881 0 0.37946114722675722 -0.27591377557629859 0 0.38774772661347989 -0.26664574742688191 0 0.38284686623937531 -0.26497045393317709 0 0.37477580018058132 -0.24095111383496479 0 0.37683953433427181 -0.26882153263446662 0 0.38107906364546162 -0.25934379353391329 0 0.37477580018058132 -0.24095111383496479 0 0.37683953433427181 -0.26882153263446662 0 0.37477580018058132 -0.24095111383496479 0 0.38107906364546162 -0.25934379353391329 0 0.38725375881062551 -0.25185160038302579 0 0.37843581040967561 -0.26746760801825881 0 0.38107906364546162 -0.25934379353391329 0 0.38284686623937531 -0.26497045393317709 0 0.37683953433427181 -0.26882153263446662 0 0.37843581040967561 -0.26746760801825881 0 0.38107906364546162 -0.25934379353391329 0 0.38107906364546162 -0.25934379353391329 0 0.38632261189823958 -0.26200045239958702 0 0.38284686623937531 -0.26497045393317709 0 0.38774772661347989 -0.26664574742688191 0 0.38632261189823958 -0.26200045239958702 0 0.38284686623937531 -0.26497045393317709 0 0.38774772661347989 -0.26664574742688191 0 0.38955528694719099 -0.2630172622662057 0 0.39295554709344072 -0.26445586107842978 0 0.38774772661347989 -0.26664574742688191 0 0.38632261189823958 -0.26200045239958702 0 0.38955528694719099 -0.2630172622662057 0 0.38632261189823958 -0.26200045239958702 0 0.38955528694719099 -0.2630172622662057 0 0.39119526218360401 -0.25896698815992442 0 0.38632261189823958 -0.26200045239958702 0 0.38725375881062551 -0.25185160038302579 0 0.39119526218360401 -0.25896698815992442 0 0.38107906364546162 -0.25934379353391329 0 0.38632261189823958 -0.26200045239958702 0 0.38725375881062551 -0.25185160038302579 0 0.40314688718896508 -0.2619981766022052 0 0.39707581272688741 -0.26613449373937459 0 0.41345304600685079 -0.26440480953867462 0 0.39707581272688741 -0.26613449373937459 0 0.41345304600685079 -0.26440480953867462 0 0.38725375881062551 -0.25185160038302579 0 0.39640803358832022 -0.25154779433757402 0 0.39119526218360401 -0.25896698815992442 0 0.39640803358832022 -0.25154779433757402 0 0.39702034872720737 -0.26014738253762237 0 0.39119526218360401 -0.25896698815992442 0 0.39702034872720737 -0.26014738253762237 0 0.39119526218360401 -0.25896698815992442 0 0.39295554709344072 -0.26445586107842978 0 0.38955528694719099 -0.2630172622662057 0 0.39119526218360401 -0.25896698815992442 0 0.39295554709344072 -0.26445586107842978 0 0.39702034872720737 -0.26014738253762237 0 0.39295554709344072 -0.26445586107842978 0 0.39707581272688741 -0.26613449373937459 0 0.39702034872720737 -0.26014738253762237 0 0.40314688718896508 -0.2619981766022052 0 0.39707581272688741 -0.26613449373937459 0 0.40314688718896508 -0.2619981766022052 0 0.40257909468765629 -0.25704117102420471 0 0.40998094690083942 -0.2590606397541646 0 0.39702034872720737 -0.26014738253762237 0 0.40314688718896508 -0.2619981766022052 0 0.40257909468765629 -0.25704117102420471 0 0.39640803358832022 -0.25154779433757402 0 0.39702034872720737 -0.26014738253762237 0 0.40257909468765629 -0.25704117102420471 0 0.41087794879613182 -0.2494957955088617 0 0.39640803358832022 -0.25154779433757402 0 0.40257909468765629 -0.25704117102420471 0 0.40514250542832608 -0.27022331558021301 0 0.3964002279028962 -0.26984905957103239 0 0.41345304600685079 -0.26440480953867462 0 0.37946114722675722 -0.27591377557629859 0 0.40514250542832608 -0.27022331558021301 0 0.3964002279028962 -0.26984905957103239 0 0.39707581272688741 -0.26613449373937459 0 0.3964002279028962 -0.26984905957103239 0 0.41345304600685079 -0.26440480953867462 0 0.37946114722675722 -0.27591377557629859 0 0.40514250542832608 -0.27022331558021301 0 0.3964002279028962 -0.26984905957103239 0 0.41345304600685079 -0.26440480953867462 0 0.39567659353887108 -0.29306988619604551 0 0.37946114722675722 -0.27591377557629859 0 0.40514250542832608 -0.27022331558021301 0 0.38774772661347989 -0.26664574742688191 0 0.39295554709344072 -0.26445586107842978 0 0.3964002279028962 -0.26984905957103239 0 0.39295554709344072 -0.26445586107842978 0 0.39707581272688741 -0.26613449373937459 0 0.3964002279028962 -0.26984905957103239 0 0.40514250542832608 -0.27022331558021301 0 0.41345304600685079 -0.26440480953867462 0 0.430823863629894 -0.26453285558412298 0 0.40514250542832608 -0.27022331558021301 0 0.430823863629894 -0.26453285558412298 0 0.40514250542832608 -0.27022331558021301 0 0.42166373126508722 -0.27984448092147479 0 0.41160024963212011 -0.28933460066763711 0 0.40514250542832608 -0.27022331558021301 0 0.42166373126508722 -0.27984448092147479 0 0.430823863629894 -0.26453285558412298 0 0.41087794879613182 -0.2494957955088617 0 0.41984775782459283 -0.2623632460968765 0 0.42854038242645709 -0.26281135800815408 0 0.41087794879613182 -0.2494957955088617 0 0.42854038242645709 -0.26281135800815408 0 0.41087794879613182 -0.2494957955088617 0 0.40257909468765629 -0.25704117102420471 0 0.40998094690083942 -0.2590606397541646 0 0.41087794879613182 -0.2494957955088617 0 0.40998094690083942 -0.2590606397541646 0 0.41984775782459283 -0.2623632460968765 0 0.40314688718896508 -0.2619981766022052 0 0.40998094690083942 -0.2590606397541646 0 0.41345304600685079 -0.26440480953867462 0 0.41345304600685079 -0.26440480953867462 0 0.41984775782459283 -0.2623632460968765 0 0.42854038242645709 -0.26281135800815408 0 0.40998094690083942 -0.2590606397541646 0 0.41345304600685079 -0.26440480953867462 0 0.41984775782459283 -0.2623632460968765 0 0.41345304600685079 -0.26440480953867462 0 0.42854038242645709 -0.26281135800815408 0 0.41345304600685079 -0.26440480953867462 0 0.41984775782459283 -0.2623632460968765 0 0.42656562700980838 -0.24831468624349931 0 0.41087794879613182 -0.2494957955088617 0 0.42854038242645709 -0.26281135800815408 0 0.4477486317760534 -0.26078267557717671 0 0.42854038242645709 -0.26281135800815408 0 0.430823863629894 -0.26453285558412298 0 0.41345304600685079 -0.26440480953867462 0 0.42854038242645709 -0.26281135800815408 0 0.430823863629894 -0.26453285558412298 0 0.42854038242645709 -0.26281135800815408 0 0.430823863629894 -0.26453285558412298 0 0.42656562700980838 -0.24831468624349931 0 0.42854038242645709 -0.26281135800815408 0 0.4372088962240912 -0.25169219704383999 0 0.42166373126508722 -0.27984448092147479 0 0.430823863629894 -0.26453285558412298 0 0.43570592202634773 -0.28205449164250063 0 0.42166373126508722 -0.27984448092147479 0 0.43570592202634773 -0.28205449164250063 0 0.42504611560874761 -0.29307714113289868 0 0.43874415768382158 -0.29310671547163403 0 0.43570592202634773 -0.28205449164250063 0 0.42504611560874761 -0.29307714113289868 0 0.43874415768382158 -0.29310671547163403 0 0.42504611560874761 -0.29307714113289868 0 0.43092107089682352 -0.30573631325696571 0 0.41919911313656122 -0.31385112706466711 0 0.43092107089682352 -0.30573631325696571 0 0.41692698488998292 -0.30249561446253759 0 0.42504611560874761 -0.29307714113289868 0 0.43092107089682352 -0.30573631325696571 0 0.41692698488998292 -0.30249561446253759 0 0.41919911313656122 -0.31385112706466711 0 0.41692698488998292 -0.30249561446253759 0 0.40916221757477672 -0.31142054967536659 0 0.40563314249086863 -0.30155395497769039 0 0.41692698488998292 -0.30249561446253759 0 0.40916221757477672 -0.31142054967536659 0 0.40563314249086863 -0.30155395497769039 0 0.41692698488998292 -0.30249561446253759 0 0.41160024963212011 -0.28933460066763711 0 0.42166373126508722 -0.27984448092147479 0 0.42504611560874761 -0.29307714113289868 0 0.41160024963212011 -0.28933460066763711 0 0.42504611560874761 -0.29307714113289868 0 0.41692698488998292 -0.30249561446253759 0 0.41160024963212011 -0.28933460066763711 0 0.5 -0.5 0 0.47532784176218862 -0.47257481327436679 0 0.43264288253940292 -0.48275234633568048 0 0.5 -0.5 0 0.41749257905485199 -0.50000000000000033 0 0.43264288253940292 -0.48275234633568048 0 0.47532784176218862 -0.47257481327436679 0 0.44779318602395363 -0.46550469267136052 0 0.43264288253940292 -0.48275234633568048 0 0.44779318602395363 -0.46550469267136052 0 0.43264288253940292 -0.48275234633568048 0 0.5 -0.5 0 0.47532784176218862 -0.47257481327436679 0 0.49999999999999828 -0.44642064777577001 0 0.47532784176218862 -0.47257481327436679 0 0.47918453573141367 -0.4495963838019249 0 0.46294348950850428 -0.44825703900704061 0 0.47532784176218862 -0.47257481327436679 0 0.49999999999999828 -0.44642064777577001 0 0.47918453573141367 -0.4495963838019249 0 0.49999999999999828 -0.44642064777577001 0 0.47846681165496419 -0.4311330351505217 0 0.49999999999999828 -0.44642064777577001 0 0.47918453573141367 -0.4495963838019249 0 0.47846681165496419 -0.4311330351505217 0 0.47918453573141367 -0.4495963838019249 0 0.46294348950850428 -0.44825703900704061 0 0.47846681165496419 -0.4311330351505217 0 0.46294348950850428 -0.44825703900704061 0 0.44442683605218691 -0.44583817528272968 0 0.45721208074107311 -0.43281318479414382 0 0.46294348950850428 -0.44825703900704061 0 0.44779318602395363 -0.46550469267136052 0 0.47532784176218862 -0.47257481327436679 0 0.46294348950850428 -0.44825703900704061 0 0.44779318602395363 -0.46550469267136052 0 0.44779318602395363 -0.46550469267136052 0 0.44442683605218691 -0.44583817528272968 0 0.43057418754349119 -0.46211781715143319 0 0.46294348950850428 -0.44825703900704061 0 0.44779318602395363 -0.46550469267136052 0 0.44442683605218691 -0.44583817528272968 0 0.44442683605218691 -0.44583817528272968 0 0.44324354583686831 -0.42153379012121539 0 0.45721208074107311 -0.43281318479414382 0 0.44442683605218691 -0.44583817528272968 0 0.44324354583686831 -0.42153379012121539 0 0.42653452723640378 -0.44279137365393179 0 0.44324354583686831 -0.42153379012121539 0 0.45693362330993059 -0.41584542252527262 0 0.45721208074107311 -0.43281318479414382 0 0.45693362330993059 -0.41584542252527262 0 0.4354004349648965 -0.40055780990002432 0 0.44324354583686831 -0.42153379012121539 0 0.45693362330993059 -0.41584542252527262 0 0.4354004349648965 -0.40055780990002432 0 0.45693362330993059 -0.41584542252527262 0 0.46461049463358839 -0.41117161714406408 0 0.47846681165496419 -0.4311330351505217 0 0.45693362330993059 -0.41584542252527262 0 0.46461049463358839 -0.41117161714406408 0 0.45329728287846061 -0.39963099679296588 0 0.46294348950850428 -0.44825703900704061 0 0.45721208074107311 -0.43281318479414382 0 0.47846681165496419 -0.4311330351505217 0 0.45693362330993059 -0.41584542252527262 0 0.45721208074107311 -0.43281318479414382 0 0.47846681165496419 -0.4311330351505217 0 0.45693362330993059 -0.41584542252527262 0 0.47846681165496419 -0.4311330351505217 0 0.49999999999999828 -0.44642064777577001 0 0.47846681165496419 -0.4311330351505217 0 0.5 -0.42181653977348488 0 0.5 -0.42181653977348488 0 0.48394518954555588 -0.41195106762427058 0 0.49999999999999789 -0.3972124317711998 0 0.47846681165496419 -0.4311330351505217 0 0.5 -0.42181653977348488 0 0.48394518954555588 -0.41195106762427058 0 0.46461049463358839 -0.41117161714406408 0 0.47846681165496419 -0.4311330351505217 0 0.48394518954555588 -0.41195106762427058 0 0.46461049463358839 -0.41117161714406408 0 0.48394518954555588 -0.41195106762427058 0 0.47664864143922919 -0.39842171428208217 0 0.47664864143922919 -0.39842171428208217 0 0.47975395238035062 -0.3854291032725421 0 0.46812846895096999 -0.38912968091376021 0 0.47664864143922919 -0.39842171428208217 0 0.49999999999999789 -0.3972124317711998 0 0.48779058149940679 -0.38751051868815611 0 0.48394518954555588 -0.41195106762427058 0 0.47664864143922919 -0.39842171428208217 0 0.49999999999999789 -0.3972124317711998 0 0.47664864143922919 -0.39842171428208217 0 0.49999999999999789 -0.3972124317711998 0 0.5 -0.37037944899495368 0 0.49999999999999789 -0.3972124317711998 0 0.48779058149940679 -0.38751051868815611 0 0.5 -0.37037944899495368 0 0.48466784746851571 -0.3739080713738358 0 0.48779058149940679 -0.38751051868815611 0 0.48466784746851571 -0.3739080713738358 0 0.47975395238035062 -0.3854291032725421 0 0.47323517146124039 -0.38191256761527542 0 0.48466784746851571 -0.3739080713738358 0 0.48779058149940679 -0.38751051868815611 0 0.47975395238035062 -0.3854291032725421 0 0.47664864143922919 -0.39842171428208217 0 0.48779058149940679 -0.38751051868815611 0 0.47975395238035062 -0.3854291032725421 0 0.47975395238035062 -0.3854291032725421 0 0.47323517146124039 -0.38191256761527542 0 0.46812846895096999 -0.38912968091376021 0 0.46918642870160698 -0.38365020197922722 0 0.47323517146124039 -0.38191256761527542 0 0.46812846895096999 -0.38912968091376021 0 0.4671179630262795 -0.37324494563770522 0 0.46918642870160698 -0.38365020197922722 0 0.47323517146124039 -0.38191256761527542 0 0.45652460043480969 -0.37267172771365881 0 0.4671179630262795 -0.37324494563770522 0 0.46918642870160698 -0.38365020197922722 0 0.45652460043480969 -0.37267172771365881 0 0.46918642870160698 -0.38365020197922722 0 0.45652460043480969 -0.37267172771365881 0 0.45606522570456098 -0.38599652494351028 0 0.44783900322824399 -0.38008781189722518 0 0.45652460043480969 -0.37267172771365881 0 0.46918642870160698 -0.38365020197922722 0 0.45606522570456098 -0.38599652494351028 0 0.46918642870160698 -0.38365020197922722 0 0.45606522570456098 -0.38599652494351028 0 0.46812846895096999 -0.38912968091376021 0 0.46461049463358839 -0.41117161714406408 0 0.47664864143922919 -0.39842171428208217 0 0.45329728287846061 -0.39963099679296588 0 0.47664864143922919 -0.39842171428208217 0 0.45329728287846061 -0.39963099679296588 0 0.47664864143922919 -0.39842171428208217 0 0.46812846895096999 -0.38912968091376021 0 0.45329728287846061 -0.39963099679296588 0 0.46461049463358839 -0.41117161714406408 0 0.45329728287846061 -0.39963099679296588 0 0.45606522570456098 -0.38599652494351028 0 0.46812846895096999 -0.38912968091376021 0 0.45329728287846061 -0.39963099679296588 0 0.45693362330993059 -0.41584542252527262 0 0.45329728287846061 -0.39963099679296588 0 0.4354004349648965 -0.40055780990002432 0 0.45329728287846061 -0.39963099679296588 0 0.4354004349648965 -0.40055780990002432 0 0.45329728287846061 -0.39963099679296588 0 0.4390969294492823 -0.3851451998924304 0 0.4354004349648965 -0.40055780990002432 0 0.45329728287846061 -0.39963099679296588 0 0.4390969294492823 -0.3851451998924304 0 0.45606522570456098 -0.38599652494351028 0 0.4390969294492823 -0.3851451998924304 0 0.44783900322824399 -0.38008781189722518 0 0.45606522570456098 -0.38599652494351028 0 0.45329728287846061 -0.39963099679296588 0 0.4390969294492823 -0.3851451998924304 0 0.4390969294492823 -0.3851451998924304 0 0.43808065797110041 -0.37748478958974491 0 0.44783900322824399 -0.38008781189722518 0 0.42782015831496062 -0.38505662608606978 0 0.4354004349648965 -0.40055780990002432 0 0.41188669282555868 -0.38386409155992901 0 0.42489657602010461 -0.37065940299189432 0 0.4390969294492823 -0.3851451998924304 0 0.42782015831496062 -0.38505662608606978 0 0.42489657602010461 -0.37065940299189432 0 0.4390969294492823 -0.3851451998924304 0 0.43808065797110041 -0.37748478958974491 0 0.42489657602010461 -0.37065940299189432 0 0.4390969294492823 -0.3851451998924304 0 0.4390969294492823 -0.3851451998924304 0 0.42782015831496062 -0.38505662608606978 0 0.4354004349648965 -0.40055780990002432 0 0.4354004349648965 -0.40055780990002432 0 0.41188669282555868 -0.38386409155992901 0 0.4354004349648965 -0.40055780990002432 0 0.40669862042327182 -0.40204417319942209 0 0.4354004349648965 -0.40055780990002432 0 0.40669862042327182 -0.40204417319942209 0 0.41188669282555868 -0.38386409155992901 0 0.42489657602010461 -0.37065940299189432 0 0.42782015831496062 -0.38505662608606978 0 0.41188669282555868 -0.38386409155992901 0 0.42489657602010461 -0.37065940299189432 0 0.4070765621089808 -0.37107032214525337 0 0.41188669282555868 -0.38386409155992901 0 0.4070765621089808 -0.37107032214525337 0 0.39585190457779329 -0.37201308858561799 0 0.39886607975096749 -0.38470810625682389 0 0.40669862042327182 -0.40204417319942209 0 0.41188669282555868 -0.38386409155992901 0 0.39886607975096749 -0.38470810625682389 0 0.4070765621089808 -0.37107032214525337 0 0.41188669282555868 -0.38386409155992901 0 0.39886607975096749 -0.38470810625682389 0 0.39585190457779329 -0.37201308858561799 0 0.39886607975096749 -0.38470810625682389 0 0.38601585554704992 -0.38244526212700758 0 0.39886607975096749 -0.38470810625682389 0 0.38601585554704992 -0.38244526212700758 0 0.37799680588164719 -0.40353053649882148 0 0.38601585554704992 -0.38244526212700758 0 0.37799680588164719 -0.40353053649882148 0 0.38601585554704992 -0.38244526212700758 0 0.37799680588164719 -0.40353053649882148 0 0.36816388811638329 -0.39545065246060412 0 0.37799680588164719 -0.40353053649882148 0 0.37635446215448021 -0.40784891206015261 0 0.37799680588164719 -0.40353053649882148 0 0.37505152225636262 -0.40368306209891941 0 0.37635446215448021 -0.40784891206015261 0 0.37799680588164719 -0.40353053649882148 0 0.37505152225636262 -0.40368306209891941 0 0.40669862042327182 -0.40204417319942209 0 0.39886607975096749 -0.38470810625682389 0 0.37799680588164719 -0.40353053649882148 0 0.40669862042327182 -0.40204417319942209 0 0.37799680588164719 -0.40353053649882148 0 0.40669862042327182 -0.40204417319942209 0 0.38553791301154328 -0.41840677215457472 0 0.40567792500840172 -0.4277251834563135 0 0.40669862042327182 -0.40204417319942209 0 0.37799680588164719 -0.40353053649882148 0 0.38553791301154328 -0.41840677215457472 0 0.38553791301154328 -0.41840677215457472 0 0.36905142820508552 -0.42917232846767789 0 0.37241381966677689 -0.417360225696081 0 0.38553791301154328 -0.41840677215457472 0 0.37635446215448021 -0.40784891206015261 0 0.37241381966677689 -0.417360225696081 0 0.37799680588164719 -0.40353053649882148 0 0.38553791301154328 -0.41840677215457472 0 0.37635446215448021 -0.40784891206015261 0 0.38553791301154328 -0.41840677215457472 0 0.38807715457860831 -0.4388905332329941 0 0.36905142820508552 -0.42917232846767789 0 0.38553791301154328 -0.41840677215457472 0 0.40567792500840172 -0.4277251834563135 0 0.38807715457860831 -0.4388905332329941 0 0.40567792500840172 -0.4277251834563135 0 0.42351101069396863 -0.41893046606618117 0 0.42653452723640378 -0.44279137365393179 0 0.4354004349648965 -0.40055780990002432 0 0.40669862042327182 -0.40204417319942209 0 0.42351101069396863 -0.41893046606618117 0 0.40669862042327182 -0.40204417319942209 0 0.40567792500840172 -0.4277251834563135 0 0.42351101069396863 -0.41893046606618117 0 0.44324354583686831 -0.42153379012121539 0 0.4354004349648965 -0.40055780990002432 0 0.42351101069396863 -0.41893046606618117 0 0.44324354583686831 -0.42153379012121539 0 0.42653452723640378 -0.44279137365393179 0 0.44324354583686831 -0.42153379012121539 0 0.42351101069396863 -0.41893046606618117 0 0.42653452723640378 -0.44279137365393179 0 0.44442683605218691 -0.44583817528272968 0 0.42653452723640378 -0.44279137365393179 0 0.43057418754349119 -0.46211781715143319 0 0.42653452723640378 -0.44279137365393179 0 0.43057418754349119 -0.46211781715143319 0 0.40982550863593931 -0.46404895718664829 0 0.42653452723640378 -0.44279137365393179 0 0.40982550863593931 -0.46404895718664829 0 0.42653452723640378 -0.44279137365393179 0 0.40982550863593931 -0.46404895718664829 0 0.4036378289262339 -0.44671034290208689 0 0.40567792500840172 -0.4277251834563135 0 0.42653452723640378 -0.44279137365393179 0 0.4036378289262339 -0.44671034290208689 0 0.40567792500840172 -0.4277251834563135 0 0.4036378289262339 -0.44671034290208689 0 0.38807715457860831 -0.4388905332329941 0 0.4036378289262339 -0.44671034290208689 0 0.38807715457860831 -0.4388905332329941 0 0.38807402917181633 -0.46009566698054732 0 0.38807715457860831 -0.4388905332329941 0 0.3733961412993268 -0.45022493016754961 0 0.36905142820508552 -0.42917232846767789 0 0.38807715457860831 -0.4388905332329941 0 0.38807402917181633 -0.46009566698054732 0 0.3733961412993268 -0.45022493016754961 0 0.38807402917181633 -0.46009566698054732 0 0.36593927904035028 -0.47432204071884282 0 0.3733961412993268 -0.45022493016754961 0 0.40982550863593931 -0.46404895718664829 0 0.4036378289262339 -0.44671034290208689 0 0.38807402917181633 -0.46009566698054732 0 0.40982550863593931 -0.46404895718664829 0 0.39311649003547477 -0.48530654071936469 0 0.40982550863593931 -0.46404895718664829 0 0.38807402917181633 -0.46009566698054732 0 0.39311649003547477 -0.48530654071936469 0 0.38807402917181633 -0.46009566698054732 0 0.39311649003547477 -0.48530654071936469 0 0.36593927904035028 -0.47432204071884282 0 0.37603974257992701 -0.49999999999999978 0 0.39311649003547477 -0.48530654071936469 0 0.36593927904035028 -0.47432204071884282 0 0.37603974257992701 -0.49999999999999978 0 0.39676616081738958 -0.5 0 0.39311649003547477 -0.48530654071936469 0 0.39676616081738958 -0.5 0 0.39311649003547477 -0.48530654071936469 0 0.41749257905485199 -0.50000000000000033 0 0.40982550863593931 -0.46404895718664829 0 0.41749257905485199 -0.50000000000000033 0 0.43264288253940292 -0.48275234633568048 0 0.40982550863593931 -0.46404895718664829 0 0.39311649003547477 -0.48530654071936469 0 0.41749257905485199 -0.50000000000000033 0 0.43057418754349119 -0.46211781715143319 0 0.40982550863593931 -0.46404895718664829 0 0.43264288253940292 -0.48275234633568048 0 0.44779318602395363 -0.46550469267136052 0 0.43057418754349119 -0.46211781715143319 0 0.43264288253940292 -0.48275234633568048 0 0.41749257905485199 -0.50000000000000033 0 0.43264288253940292 -0.48275234633568048 0 0.32215468257820618 -0.5 0 0.33760568703239408 -0.47417818032706111 0 0.31005432530219129 -0.48106067464861729 0 0.33760568703239408 -0.47417818032706111 0 0.3189449745883719 -0.46117016543644002 0 0.31005432530219129 -0.48106067464861729 0 0.32215468257820618 -0.5 0 0.33760568703239408 -0.47417818032706111 0 0.34909721257906662 -0.5 0 0.37603974257992701 -0.49999999999999978 0 0.34909721257906662 -0.5 0 0.36593927904035028 -0.47432204071884282 0 0.37603974257992701 -0.49999999999999978 0 0.36593927904035028 -0.47432204071884282 0 0.33760568703239408 -0.47417818032706111 0 0.34909721257906662 -0.5 0 0.36593927904035028 -0.47432204071884282 0 0.33760568703239408 -0.47417818032706111 0 0.36593927904035028 -0.47432204071884282 0 0.35583881550077368 -0.44864408143768569 0 0.36593927904035028 -0.47432204071884282 0 0.35583881550077368 -0.44864408143768569 0 0.36593927904035028 -0.47432204071884282 0 0.3733961412993268 -0.45022493016754961 0 0.35583881550077368 -0.44864408143768569 0 0.3733961412993268 -0.45022493016754961 0 0.35583881550077368 -0.44864408143768569 0 0.36905142820508552 -0.42917232846767789 0 0.35583881550077368 -0.44864408143768569 0 0.33540415989768779 -0.44905252560006492 0 0.34573835196119679 -0.42296612215652868 0 0.33760568703239408 -0.47417818032706111 0 0.35583881550077368 -0.44864408143768569 0 0.33540415989768779 -0.44905252560006492 0 0.33760568703239408 -0.47417818032706111 0 0.33540415989768779 -0.44905252560006492 0 0.3189449745883719 -0.46117016543644002 0 0.33540415989768779 -0.44905252560006492 0 0.3189449745883719 -0.46117016543644002 0 0.32126124445813709 -0.43429719032362252 0 0.3189449745883719 -0.46117016543644002 0 0.32126124445813709 -0.43429719032362252 0 0.30480654487456732 -0.44641521679941309 0 0.32126124445813709 -0.43429719032362252 0 0.3193156137706864 -0.40941365839269389 0 0.29937418247959258 -0.41817563384508599 0 0.3193156137706864 -0.40941365839269389 0 0.34573835196119679 -0.42296612215652868 0 0.33563788842162012 -0.39728816287537172 0 0.34573835196119679 -0.42296612215652868 0 0.33563788842162012 -0.39728816287537172 0 0.33540415989768779 -0.44905252560006492 0 0.32126124445813709 -0.43429719032362252 0 0.34573835196119679 -0.42296612215652868 0 0.32126124445813709 -0.43429719032362252 0 0.3193156137706864 -0.40941365839269389 0 0.34573835196119679 -0.42296612215652868 0 0.35583881550077368 -0.44864408143768569 0 0.34573835196119679 -0.42296612215652868 0 0.36905142820508552 -0.42917232846767789 0 0.35583881550077368 -0.44864408143768569 0 0.34573835196119679 -0.42296612215652868 0 0.36905142820508552 -0.42917232846767789 0 0.37241381966677689 -0.417360225696081 0 0.36195200988480669 -0.41065981681110758 0 0.36990343230398692 -0.40830781576793279 0 0.37241381966677689 -0.417360225696081 0 0.36195200988480669 -0.41065981681110758 0 0.37635446215448021 -0.40784891206015261 0 0.36990343230398692 -0.40830781576793279 0 0.37241381966677689 -0.417360225696081 0 0.37505152225636262 -0.40368306209891941 0 0.37635446215448021 -0.40784891206015261 0 0.36990343230398692 -0.40830781576793279 0 0.36990343230398692 -0.40830781576793279 0 0.36195200988480669 -0.41065981681110758 0 0.36876771314038492 -0.40452533678464098 0 0.34573835196119679 -0.42296612215652868 0 0.36195200988480669 -0.41065981681110758 0 0.35211107663302149 -0.40015425695529971 0 0.34573835196119679 -0.42296612215652868 0 0.36905142820508552 -0.42917232846767789 0 0.36195200988480669 -0.41065981681110758 0 0.34573835196119679 -0.42296612215652868 0 0.35211107663302149 -0.40015425695529971 0 0.33563788842162012 -0.39728816287537172 0 0.35211107663302149 -0.40015425695529971 0 0.35352794608594401 -0.38791341326287138 0 0.33563788842162012 -0.39728816287537172 0 0.35211107663302149 -0.40015425695529971 0 0.36816388811638329 -0.39545065246060412 0 0.35352794608594401 -0.38791341326287138 0 0.36195200988480669 -0.41065981681110758 0 0.36816388811638329 -0.39545065246060412 0 0.36876771314038492 -0.40452533678464098 0 0.36195200988480669 -0.41065981681110758 0 0.35211107663302149 -0.40015425695529971 0 0.36816388811638329 -0.39545065246060412 0 0.37505152225636262 -0.40368306209891941 0 0.36816388811638329 -0.39545065246060412 0 0.36876771314038492 -0.40452533678464098 0 0.37799680588164719 -0.40353053649882148 0 0.37505152225636262 -0.40368306209891941 0 0.36816388811638329 -0.39545065246060412 0 0.37505152225636262 -0.40368306209891941 0 0.36990343230398692 -0.40830781576793279 0 0.36876771314038492 -0.40452533678464098 0 0.38601585554704992 -0.38244526212700758 0 0.36816388811638329 -0.39545065246060412 0 0.3689120952668708 -0.37284951495870189 0 0.36816388811638329 -0.39545065246060412 0 0.35352794608594401 -0.38791341326287138 0 0.3689120952668708 -0.37284951495870189 0 0.35352794608594401 -0.38791341326287138 0 0.33563788842162012 -0.39728816287537172 0 0.34467783115022588 -0.37252705130409253 0 0.35352794608594401 -0.38791341326287138 0 0.3689120952668708 -0.37284951495870189 0 0.34467783115022588 -0.37252705130409253 0 0.33563788842162012 -0.39728816287537172 0 0.3255374248820434 -0.37161020359421471 0 0.33563788842162012 -0.39728816287537172 0 0.34467783115022588 -0.37252705130409253 0 0.3255374248820434 -0.37161020359421471 0 0.3193156137706864 -0.40941365839269389 0 0.33563788842162012 -0.39728816287537172 0 0.30534853388527528 -0.38930881101125692 0 0.33563788842162012 -0.39728816287537172 0 0.30534853388527528 -0.38930881101125692 0 0.3255374248820434 -0.37161020359421471 0 0.30534853388527528 -0.38930881101125692 0 0.3255374248820434 -0.37161020359421471 0 0.30525369772634148 -0.37164386163485291 0 0.30534853388527528 -0.38930881101125692 0 0.28783989868818821 -0.37644057584389279 0 0.30525369772634148 -0.37164386163485291 0 0.3193156137706864 -0.40941365839269389 0 0.30534853388527528 -0.38930881101125692 0 0.29937418247959258 -0.41817563384508599 0 0.30534853388527528 -0.38930881101125692 0 0.28922044672054198 -0.39637746652331562 0 0.29937418247959258 -0.41817563384508599 0 0.28922044672054198 -0.39637746652331562 0 0.27510086349567708 -0.39798721671617321 0 0.28320928432356041 -0.41012407252970262 0 0.28922044672054198 -0.39637746652331562 0 0.28783989868818821 -0.37644057584389279 0 0.27924907625512951 -0.38731579260330862 0 0.30534853388527528 -0.38930881101125692 0 0.28922044672054198 -0.39637746652331562 0 0.28783989868818821 -0.37644057584389279 0 0.30534853388527528 -0.38930881101125692 0 0.28783989868818821 -0.37644057584389279 0 0.28783989868818821 -0.37644057584389279 0 0.27447250226623809 -0.37821124143188289 0 0.27924907625512951 -0.38731579260330862 0 0.27447250226623809 -0.37821124143188289 0 0.27924907625512951 -0.38731579260330862 0 0.26961167010500181 -0.38756246250127813 0 0.27447250226623809 -0.37821124143188289 0 0.26961167010500181 -0.38756246250127813 0 0.26423397132697279 -0.37890457124200982 0 0.26961167010500181 -0.38756246250127813 0 0.26423397132697279 -0.37890457124200982 0 0.25687819372407023 -0.38903915957053298 0 0.26423397132697279 -0.37890457124200982 0 0.25687819372407023 -0.38903915957053298 0 0.24987622704845311 -0.37613765202982719 0 0.25108303853213881 -0.40002667887407228 0 0.26390234922262928 -0.39930308446362528 0 0.256136481120742 -0.41447562176841068 0 0.25687819372407023 -0.38903915957053298 0 0.25108303853213881 -0.40002667887407228 0 0.24309899287842279 -0.39271330151873202 0 0.25687819372407023 -0.38903915957053298 0 0.25108303853213881 -0.40002667887407228 0 0.26390234922262928 -0.39930308446362528 0 0.26961167010500181 -0.38756246250127813 0 0.25687819372407023 -0.38903915957053298 0 0.26390234922262928 -0.39930308446362528 0 0.26390234922262928 -0.39930308446362528 0 0.27510086349567708 -0.39798721671617321 0 0.2708804648698091 -0.41009655218672442 0 0.26961167010500181 -0.38756246250127813 0 0.26390234922262928 -0.39930308446362528 0 0.27510086349567708 -0.39798721671617321 0 0.28922044672054198 -0.39637746652331562 0 0.27924907625512951 -0.38731579260330862 0 0.27510086349567708 -0.39798721671617321 0 0.27924907625512951 -0.38731579260330862 0 0.26961167010500181 -0.38756246250127813 0 0.27510086349567708 -0.39798721671617321 0 0.27510086349567708 -0.39798721671617321 0 0.2708804648698091 -0.41009655218672442 0 0.28320928432356041 -0.41012407252970262 0 0.2708804648698091 -0.41009655218672442 0 0.256136481120742 -0.41447562176841068 0 0.27433621812851161 -0.42550461519375637 0 0.2708804648698091 -0.41009655218672442 0 0.27433621812851161 -0.42550461519375637 0 0.28320928432356041 -0.41012407252970262 0 0.26390234922262928 -0.39930308446362528 0 0.2708804648698091 -0.41009655218672442 0 0.256136481120742 -0.41447562176841068 0 0.25108303853213881 -0.40002667887407228 0 0.256136481120742 -0.41447562176841068 0 0.24629253832767661 -0.41022035877505542 0 0.256136481120742 -0.41447562176841068 0 0.25513396950241118 -0.43290986753561628 0 0.2453827316299185 -0.42192330194190181 0 0.256136481120742 -0.41447562176841068 0 0.25513396950241118 -0.43290986753561628 0 0.27433621812851161 -0.42550461519375637 0 0.25513396950241118 -0.43290986753561628 0 0.27433621812851161 -0.42550461519375637 0 0.26752346795397081 -0.44788636482661331 0 0.27433621812851161 -0.42550461519375637 0 0.29937418247959258 -0.41817563384508599 0 0.28546596250580908 -0.44246723239800262 0 0.29937418247959258 -0.41817563384508599 0 0.30480654487456732 -0.44641521679941309 0 0.28546596250580908 -0.44246723239800262 0 0.28922044672054198 -0.39637746652331562 0 0.28320928432356041 -0.41012407252970262 0 0.29937418247959258 -0.41817563384508599 0 0.27433621812851161 -0.42550461519375637 0 0.28320928432356041 -0.41012407252970262 0 0.29937418247959258 -0.41817563384508599 0 0.32126124445813709 -0.43429719032362252 0 0.29937418247959258 -0.41817563384508599 0 0.30480654487456732 -0.44641521679941309 0 0.3189449745883719 -0.46117016543644002 0 0.30480654487456732 -0.44641521679941309 0 0.28880919487484108 -0.4658549053918814 0 0.30480654487456732 -0.44641521679941309 0 0.28880919487484108 -0.4658549053918814 0 0.28546596250580908 -0.44246723239800262 0 0.27433621812851161 -0.42550461519375637 0 0.28546596250580908 -0.44246723239800262 0 0.26752346795397081 -0.44788636482661331 0 0.28880919487484108 -0.4658549053918814 0 0.28546596250580908 -0.44246723239800262 0 0.26752346795397081 -0.44788636482661331 0 0.25513396950241118 -0.43290986753561628 0 0.26752346795397081 -0.44788636482661331 0 0.24480843210435321 -0.45079661158300749 0 0.26752346795397081 -0.44788636482661331 0 0.2588368117714554 -0.46700690363883102 0 0.24480843210435321 -0.45079661158300749 0 0.28880919487484108 -0.4658549053918814 0 0.26752346795397081 -0.44788636482661331 0 0.2588368117714554 -0.46700690363883102 0 0.28880919487484108 -0.4658549053918814 0 0.2588368117714554 -0.46700690363883102 0 0.27227655507569209 -0.48076744006000099 0 0.2588368117714554 -0.46700690363883102 0 0.27227655507569209 -0.48076744006000099 0 0.25270961841775552 -0.48460016746525392 0 0.2588368117714554 -0.46700690363883102 0 0.25270961841775552 -0.48460016746525392 0 0.23949561189523169 -0.47426551941090739 0 0.25270961841775552 -0.48460016746525392 0 0.26826962257648529 -0.5 0 0.2413270925756249 -0.5 0 0.27227655507569209 -0.48076744006000099 0 0.25270961841775552 -0.48460016746525392 0 0.26826962257648529 -0.5 0 0.27227655507569209 -0.48076744006000099 0 0.26826962257648529 -0.5 0 0.29521215257734579 -0.5 0 0.28880919487484108 -0.4658549053918814 0 0.27227655507569209 -0.48076744006000099 0 0.29521215257734579 -0.5 0 0.28880919487484108 -0.4658549053918814 0 0.29521215257734579 -0.5 0 0.31005432530219129 -0.48106067464861729 0 0.3189449745883719 -0.46117016543644002 0 0.28880919487484108 -0.4658549053918814 0 0.31005432530219129 -0.48106067464861729 0 0.32215468257820618 -0.5 0 0.29521215257734579 -0.5 0 0.31005432530219129 -0.48106067464861729 0 0.33463237856908817 -0.28956894479377399 0 0.33485830675890288 -0.30442904333306592 0 0.35657459314761941 -0.2860097891906741 0 0.33463237856908817 -0.28956894479377399 0 0.32894302133540282 -0.28710755170783531 0 0.35195887039823659 -0.28200771363307098 0 0.32894302133540282 -0.28710755170783531 0 0.35195887039823659 -0.28200771363307098 0 0.32894302133540282 -0.28710755170783531 0 0.33255663915089151 -0.29722249741805129 0 0.33463237856908817 -0.28956894479377399 0 0.32894302133540282 -0.28710755170783531 0 0.33255663915089151 -0.29722249741805129 0 0.32894302133540282 -0.28710755170783531 0 0.33255663915089151 -0.29722249741805129 0 0.32301709761150521 -0.2972128627914089 0 0.33485830675890288 -0.30442904333306592 0 0.34824447571033601 -0.30253517369681238 0 0.34533870308018377 -0.31598934501886372 0 0.33485830675890288 -0.30442904333306592 0 0.33255663915089151 -0.29722249741805129 0 0.32434770264142349 -0.30499280498860082 0 0.33463237856908817 -0.28956894479377399 0 0.33485830675890288 -0.30442904333306592 0 0.33255663915089151 -0.29722249741805129 0 0.32301709761150521 -0.2972128627914089 0 0.32434770264142349 -0.30499280498860082 0 0.3171485971304504 -0.30589952111326829 0 0.32434770264142349 -0.30499280498860082 0 0.3171485971304504 -0.30589952111326829 0 0.31314202037018413 -0.32284829747545468 0 0.33485830675890288 -0.30442904333306592 0 0.32434770264142349 -0.30499280498860082 0 0.31314202037018413 -0.32284829747545468 0 0.33255663915089151 -0.29722249741805129 0 0.32301709761150521 -0.2972128627914089 0 0.32434770264142349 -0.30499280498860082 0 0.3171485971304504 -0.30589952111326829 0 0.31208952779935789 -0.2908419387292881 0 0.30833746379913463 -0.30503745501229762 0 0.32301709761150521 -0.2972128627914089 0 0.3171485971304504 -0.30589952111326829 0 0.31208952779935789 -0.2908419387292881 0 0.32894302133540282 -0.28710755170783531 0 0.31611371382327402 -0.28007222207304999 0 0.31208952779935789 -0.2908419387292881 0 0.32894302133540282 -0.28710755170783531 0 0.32301709761150521 -0.2972128627914089 0 0.31208952779935789 -0.2908419387292881 0 0.32894302133540282 -0.28710755170783531 0 0.31208952779935789 -0.2908419387292881 0 0.32894302133540282 -0.28710755170783531 0 0.32245882367699719 -0.26895751187574157 0 0.32894302133540282 -0.28710755170783531 0 0.31611371382327402 -0.28007222207304999 0 0.32245882367699719 -0.26895751187574157 0 0.31611371382327402 -0.28007222207304999 0 0.32245882367699719 -0.26895751187574157 0 0.30706455279928557 -0.27339796693147528 0 0.32245882367699719 -0.26895751187574157 0 0.30981211567343969 -0.26250129009931661 0 0.30706455279928557 -0.27339796693147528 0 0.32245882367699719 -0.26895751187574157 0 0.31597462601859122 -0.25080747204364812 0 0.32245882367699719 -0.26895751187574157 0 0.31597462601859122 -0.25080747204364812 0 0.30981211567343969 -0.26250129009931661 0 0.32245882367699719 -0.26895751187574157 0 0.31597462601859122 -0.25080747204364812 0 0.33396674820841349 -0.26640759283836002 0 0.31597462601859122 -0.25080747204364812 0 0.33396674820841349 -0.26640759283836002 0 0.33517615116993849 -0.24743488902137309 0 0.33396674820841349 -0.26640759283836002 0 0.35185333732921159 -0.25428502110151557 0 0.33517615116993849 -0.24743488902137309 0 0.31597462601859122 -0.25080747204364812 0 0.33396674820841349 -0.26640759283836002 0 0.32894302133540282 -0.28710755170783531 0 0.32245882367699719 -0.26895751187574157 0 0.33396674820841349 -0.26640759283836002 0 0.33396674820841349 -0.26640759283836002 0 0.35195887039823659 -0.28200771363307098 0 0.32894302133540282 -0.28710755170783531 0 0.33396674820841349 -0.26640759283836002 0 0.35195887039823659 -0.28200771363307098 0 0.33396674820841349 -0.26640759283836002 0 0.35159414215374007 -0.26901089914998932 0 0.35195887039823659 -0.28200771363307098 0 0.35159414215374007 -0.26901089914998932 0 0.36459381448795669 -0.2792080702757721 0 0.35195887039823659 -0.28200771363307098 0 0.36459381448795669 -0.2792080702757721 0 0.35195887039823659 -0.28200771363307098 0 0.33396674820841349 -0.26640759283836002 0 0.35159414215374007 -0.26901089914998932 0 0.35185333732921159 -0.25428502110151557 0 0.35159414215374007 -0.26901089914998932 0 0.35185333732921159 -0.25428502110151557 0 0.36435388824524378 -0.26651308148643732 0 0.37477580018058132 -0.24095111383496479 0 0.37683953433427181 -0.26882153263446662 0 0.36563983252638571 -0.25462703483095822 0 0.36075586336603621 -0.2426037127049111 0 0.35185333732921159 -0.25428502110151557 0 0.36563983252638571 -0.25462703483095822 0 0.35185333732921159 -0.25428502110151557 0 0.36563983252638571 -0.25462703483095822 0 0.36435388824524378 -0.26651308148643732 0 0.37683953433427181 -0.26882153263446662 0 0.36563983252638571 -0.25462703483095822 0 0.36435388824524378 -0.26651308148643732 0 0.36459381448795669 -0.2792080702757721 0 0.36308990924476459 -0.28048364807874221 0 0.35195887039823659 -0.28200771363307098 0 0.36459381448795669 -0.2792080702757721 0 0.36308990924476459 -0.28048364807874221 0 0.37273728942595791 -0.27740364396778311 0 0.36459381448795669 -0.2792080702757721 0 0.36308990924476459 -0.28048364807874221 0 0.35159414215374007 -0.26901089914998932 0 0.36459381448795669 -0.2792080702757721 0 0.36435388824524378 -0.26651308148643732 0 0.37683953433427181 -0.26882153263446662 0 0.36459381448795669 -0.2792080702757721 0 0.36435388824524378 -0.26651308148643732 0 0.36459381448795669 -0.2792080702757721 0 0.37273728942595791 -0.27740364396778311 0 0.37683953433427181 -0.26882153263446662 0 0.36459381448795669 -0.2792080702757721 0 0.37273728942595791 -0.27740364396778311 0 0.37683953433427181 -0.26882153263446662 0 0.36459381448795669 -0.2792080702757721 0 0.36308990924476459 -0.28048364807874221 0 0.37273728942595791 -0.27740364396778311 0 0.37795999762798671 -0.28395322059410122 0 0.37273728942595791 -0.27740364396778311 0 0.36936745264149701 -0.28627283508716472 0 0.35657459314761941 -0.2860097891906741 0 0.35620629985463748 -0.30371251724464648 0 0.37101427446782781 -0.29852975601036341 0 0.36308990924476459 -0.28048364807874221 0 0.37273728942595791 -0.27740364396778311 0 0.36936745264149701 -0.28627283508716472 0 0.37519981906117678 -0.29055939022370142 0 0.37795999762798671 -0.28395322059410122 0 0.36936745264149701 -0.28627283508716472 0 0.37519981906117678 -0.29055939022370142 0 0.36936745264149701 -0.28627283508716472 0 0.37101427446782781 -0.29852975601036341 0 0.36936745264149701 -0.28627283508716472 0 0.35657459314761941 -0.2860097891906741 0 0.37101427446782781 -0.29852975601036341 0 0.35657459314761941 -0.2860097891906741 0 0.37101427446782781 -0.29852975601036341 0 0.36308990924476459 -0.28048364807874221 0 0.36936745264149701 -0.28627283508716472 0 0.35657459314761941 -0.2860097891906741 0 0.36308990924476459 -0.28048364807874221 0 0.35657459314761941 -0.2860097891906741 0 0.36308990924476459 -0.28048364807874221 0 0.35366972758071469 -0.28349111722646431 0 0.33463237856908817 -0.28956894479377399 0 0.35366972758071469 -0.28349111722646431 0 0.33463237856908817 -0.28956894479377399 0 0.35366972758071469 -0.28349111722646431 0 0.35195887039823659 -0.28200771363307098 0 0.36308990924476459 -0.28048364807874221 0 0.35366972758071469 -0.28349111722646431 0 0.35195887039823659 -0.28200771363307098 0 0.33485830675890288 -0.30442904333306592 0 0.35657459314761941 -0.2860097891906741 0 0.36308990924476459 -0.28048364807874221 0 0.35366972758071469 -0.28349111722646431 0 0.35657459314761941 -0.2860097891906741 0 0.33463237856908817 -0.28956894479377399 0 0.35366972758071469 -0.28349111722646431 0 0.35657459314761941 -0.2860097891906741 0 0.35366972758071469 -0.28349111722646431 0 0.35657459314761941 -0.2860097891906741 0 0.35366972758071469 -0.28349111722646431 0 0.35195887039823659 -0.28200771363307098 0 0.35620629985463748 -0.30371251724464648 0 0.36380134767337091 -0.31365371592763602 0 0.34533870308018377 -0.31598934501886372 0 0.35657459314761941 -0.2860097891906741 0 0.34824447571033601 -0.30253517369681238 0 0.35620629985463748 -0.30371251724464648 0 0.33485830675890288 -0.30442904333306592 0 0.35657459314761941 -0.2860097891906741 0 0.34824447571033601 -0.30253517369681238 0 0.34824447571033601 -0.30253517369681238 0 0.35620629985463748 -0.30371251724464648 0 0.34533870308018377 -0.31598934501886372 0 0.38545395578803499 -0.31104972283005378 0 0.37101427446782781 -0.29852975601036341 0 0.36380134767337091 -0.31365371592763602 0 0.35620629985463748 -0.30371251724464648 0 0.37101427446782781 -0.29852975601036341 0 0.36380134767337091 -0.31365371592763602 0 0.38545395578803499 -0.31104972283005378 0 0.36380134767337091 -0.31365371592763602 0 0.36945761595668469 -0.32738841673247931 0 0.36380134767337091 -0.31365371592763602 0 0.36945761595668469 -0.32738841673247931 0 0.35533723689285712 -0.32525253772940937 0 0.36945761595668469 -0.32738841673247931 0 0.35618710249729552 -0.34088690244721892 0 0.35533723689285712 -0.32525253772940937 0 0.36945761595668469 -0.32738841673247931 0 0.35618710249729552 -0.34088690244721892 0 0.37368731816096312 -0.34897020548070451 0 0.35618710249729552 -0.34088690244721892 0 0.33810128782584858 -0.35072533414536311 0 0.34064131712366241 -0.33181983138849169 0 0.35618710249729552 -0.34088690244721892 0 0.35533723689285712 -0.32525253772940937 0 0.34064131712366241 -0.33181983138849169 0 0.34533870308018377 -0.31598934501886372 0 0.35533723689285712 -0.32525253772940937 0 0.34064131712366241 -0.33181983138849169 0 0.36380134767337091 -0.31365371592763602 0 0.34533870308018377 -0.31598934501886372 0 0.35533723689285712 -0.32525253772940937 0 0.3689120952668708 -0.37284951495870189 0 0.37368731816096312 -0.34897020548070451 0 0.35738528973841999 -0.35772904562383351 0 0.35618710249729552 -0.34088690244721892 0 0.37368731816096312 -0.34897020548070451 0 0.35738528973841999 -0.35772904562383351 0 0.35618710249729552 -0.34088690244721892 0 0.35738528973841999 -0.35772904562383351 0 0.33810128782584858 -0.35072533414536311 0 0.35738528973841999 -0.35772904562383351 0 0.34467783115022588 -0.37252705130409253 0 0.33810128782584858 -0.35072533414536311 0 0.3689120952668708 -0.37284951495870189 0 0.35738528973841999 -0.35772904562383351 0 0.34467783115022588 -0.37252705130409253 0 0.34467783115022588 -0.37252705130409253 0 0.33810128782584858 -0.35072533414536311 0 0.3255374248820434 -0.37161020359421471 0 0.31543696134246668 -0.34593224431305769 0 0.3255374248820434 -0.37161020359421471 0 0.30900602422585888 -0.35865430802761772 0 0.31543696134246668 -0.34593224431305769 0 0.3255374248820434 -0.37161020359421471 0 0.33810128782584858 -0.35072533414536311 0 0.31543696134246668 -0.34593224431305769 0 0.3255374248820434 -0.37161020359421471 0 0.3255374248820434 -0.37161020359421471 0 0.30525369772634148 -0.37164386163485291 0 0.30900602422585888 -0.35865430802761772 0 0.34533870308018377 -0.31598934501886372 0 0.33130220335757699 -0.32186248444176119 0 0.34064131712366241 -0.33181983138849169 0 0.33485830675890288 -0.30442904333306592 0 0.34533870308018377 -0.31598934501886372 0 0.33130220335757699 -0.32186248444176119 0 0.33810128782584858 -0.35072533414536311 0 0.34064131712366241 -0.33181983138849169 0 0.3268430880468266 -0.33457206034663262 0 0.33130220335757699 -0.32186248444176119 0 0.34064131712366241 -0.33181983138849169 0 0.3268430880468266 -0.33457206034663262 0 0.31543696134246668 -0.34593224431305769 0 0.3268430880468266 -0.33457206034663262 0 0.31314202037018413 -0.32284829747545468 0 0.33810128782584858 -0.35072533414536311 0 0.31543696134246668 -0.34593224431305769 0 0.3268430880468266 -0.33457206034663262 0 0.33130220335757699 -0.32186248444176119 0 0.3268430880468266 -0.33457206034663262 0 0.31314202037018413 -0.32284829747545468 0 0.33485830675890288 -0.30442904333306592 0 0.31314202037018413 -0.32284829747545468 0 0.3171485971304504 -0.30589952111326829 0 0.31314202037018413 -0.32284829747545468 0 0.3109911447756647 -0.31350988965823029 0 0.33485830675890288 -0.30442904333306592 0 0.33130220335757699 -0.32186248444176119 0 0.31314202037018413 -0.32284829747545468 0 0.31314202037018413 -0.32284829747545468 0 0.30533649780288991 -0.32025428503190068 0 0.3109911447756647 -0.31350988965823029 0 0.30533649780288991 -0.32025428503190068 0 0.3109911447756647 -0.31350988965823029 0 0.30833746379913463 -0.30503745501229762 0 0.31543696134246668 -0.34593224431305769 0 0.30533649780288991 -0.32025428503190068 0 0.30314188851555429 -0.3464145030398364 0 0.30533649780288991 -0.32025428503190068 0 0.29792146783109758 -0.32077626486014349 0 0.30314188851555429 -0.3464145030398364 0 0.31543696134246668 -0.34593224431305769 0 0.31314202037018413 -0.32284829747545468 0 0.30533649780288991 -0.32025428503190068 0 0.29792146783109758 -0.32077626486014349 0 0.30314188851555429 -0.3464145030398364 0 0.31543696134246668 -0.34593224431305769 0 0.30533649780288991 -0.32025428503190068 0 0.29792146783109758 -0.32077626486014349 0 0.29422135484035322 -0.33366994296298719 0 0.30314188851555429 -0.3464145030398364 0 0.29422135484035322 -0.33366994296298719 0 0.29546103181119637 -0.34185893253319311 0 0.30314188851555429 -0.3464145030398364 0 0.29422135484035322 -0.33366994296298719 0 0.29546103181119637 -0.34185893253319311 0 0.28827175492889229 -0.34275780055790278 0 0.29546103181119637 -0.34185893253319311 0 0.28827175492889229 -0.34275780055790278 0 0.29811044553331972 -0.34650788457159087 0 0.29422135484035322 -0.33366994296298719 0 0.28827175492889229 -0.34275780055790278 0 0.27955848846152698 -0.33666113426449551 0 0.29422135484035322 -0.33366994296298719 0 0.28744860979629389 -0.32474860906702402 0 0.27955848846152698 -0.33666113426449551 0 0.28744860979629389 -0.32474860906702402 0 0.29019889155513462 -0.31620785207956748 0 0.28097437988070417 -0.31138482246715898 0 0.29792146783109758 -0.32077626486014349 0 0.29019889155513462 -0.31620785207956748 0 0.29244758100571983 -0.32385066724243061 0 0.29422135484035322 -0.33366994296298719 0 0.28744860979629389 -0.32474860906702402 0 0.29244758100571983 -0.32385066724243061 0 0.29792146783109758 -0.32077626486014349 0 0.29422135484035322 -0.33366994296298719 0 0.29244758100571983 -0.32385066724243061 0 0.28744860979629389 -0.32474860906702402 0 0.29019889155513462 -0.31620785207956748 0 0.29244758100571983 -0.32385066724243061 0 0.30525369772634148 -0.37164386163485291 0 0.30031449930387721 -0.36082981960256849 0 0.30900602422585888 -0.35865430802761772 0 0.30525369772634148 -0.37164386163485291 0 0.30031449930387721 -0.36082981960256849 0 0.29483415024835152 -0.36747827247447862 0 0.30080593951138668 -0.35381036279877531 0 0.30900602422585888 -0.35865430802761772 0 0.30314188851555429 -0.3464145030398364 0 0.30080593951138668 -0.35381036279877531 0 0.29811044553331972 -0.34650788457159087 0 0.29345683997832372 -0.35664529875226292 0 0.30031449930387721 -0.36082981960256849 0 0.30080593951138668 -0.35381036279877531 0 0.30900602422585888 -0.35865430802761772 0 0.30031449930387721 -0.36082981960256849 0 0.30080593951138668 -0.35381036279877531 0 0.29345683997832372 -0.35664529875226292 0 0.31543696134246668 -0.34593224431305769 0 0.30900602422585888 -0.35865430802761772 0 0.30314188851555429 -0.3464145030398364 0 0.30080593951138668 -0.35381036279877531 0 0.30314188851555429 -0.3464145030398364 0 0.29811044553331972 -0.34650788457159087 0 0.29546103181119637 -0.34185893253319311 0 0.30314188851555429 -0.3464145030398364 0 0.29811044553331972 -0.34650788457159087 0 0.29811044553331972 -0.34650788457159087 0 0.29345683997832372 -0.35664529875226292 0 0.28122462644821988 -0.35688066365974619 0 0.28827175492889229 -0.34275780055790278 0 0.29811044553331972 -0.34650788457159087 0 0.28122462644821988 -0.35688066365974619 0 0.28827175492889229 -0.34275780055790278 0 0.28122462644821988 -0.35688066365974619 0 0.27955848846152698 -0.33666113426449551 0 0.29811044553331972 -0.34650788457159087 0 0.28122462644821988 -0.35688066365974619 0 0.29345683997832372 -0.35664529875226292 0 0.28676543400443838 -0.36101512068260139 0 0.28122462644821988 -0.35688066365974619 0 0.28676543400443838 -0.36101512068260139 0 0.28122462644821988 -0.35688066365974619 0 0.28783989868818821 -0.37644057584389279 0 0.30525369772634148 -0.37164386163485291 0 0.29483415024835152 -0.36747827247447862 0 0.28783989868818821 -0.37644057584389279 0 0.28676543400443838 -0.36101512068260139 0 0.27033126349110148 -0.36357234067652822 0 0.29357505063040601 -0.36145191270551408 0 0.28676543400443838 -0.36101512068260139 0 0.29483415024835152 -0.36747827247447862 0 0.30031449930387721 -0.36082981960256849 0 0.29357505063040601 -0.36145191270551408 0 0.29483415024835152 -0.36747827247447862 0 0.30031449930387721 -0.36082981960256849 0 0.29345683997832372 -0.35664529875226292 0 0.29357505063040601 -0.36145191270551408 0 0.29345683997832372 -0.35664529875226292 0 0.29357505063040601 -0.36145191270551408 0 0.28676543400443838 -0.36101512068260139 0 0.28783989868818821 -0.37644057584389279 0 0.28676543400443838 -0.36101512068260139 0 0.29483415024835152 -0.36747827247447862 0 0.28783989868818821 -0.37644057584389279 0 0.27033126349110148 -0.36357234067652822 0 0.28783989868818821 -0.37644057584389279 0 0.27447250226623809 -0.37821124143188289 0 0.27033126349110148 -0.36357234067652822 0 0.28676543400443838 -0.36101512068260139 0 0.27033126349110148 -0.36357234067652822 0 0.28122462644821988 -0.35688066365974619 0 0.27447250226623809 -0.37821124143188289 0 0.26423397132697279 -0.37890457124200982 0 0.27033126349110148 -0.36357234067652822 0 0.27033126349110148 -0.36357234067652822 0 0.28122462644821988 -0.35688066365974619 0 0.28122462644821988 -0.35688066365974619 0 0.26082083375001269 -0.34165569813656432 0 0.27033126349110148 -0.36357234067652822 0 0.28122462644821988 -0.35688066365974619 0 0.26082083375001269 -0.34165569813656432 0 0.28122462644821988 -0.35688066365974619 0 0.27955848846152698 -0.33666113426449551 0 0.26082083375001269 -0.34165569813656432 0 0.27033126349110148 -0.36357234067652822 0 0.25099839141978419 -0.34936335514031408 0 0.27033126349110148 -0.36357234067652822 0 0.25099839141978419 -0.34936335514031408 0 0.26082083375001269 -0.34165569813656432 0 0.27033126349110148 -0.36357234067652822 0 0.25099839141978419 -0.34936335514031408 0 0.24534349961555019 -0.36253701182870851 0 0.26423397132697279 -0.37890457124200982 0 0.27033126349110148 -0.36357234067652822 0 0.24987622704845311 -0.37613765202982719 0 0.27033126349110148 -0.36357234067652822 0 0.24534349961555019 -0.36253701182870851 0 0.24987622704845311 -0.37613765202982719 0 0.27033126349110148 -0.36357234067652822 0 0.24987622704845311 -0.37613765202982719 0 0.28744860979629389 -0.32474860906702402 0 0.26598899428458778 -0.32103793389256657 0 0.27955848846152698 -0.33666113426449551 0 0.28744860979629389 -0.32474860906702402 0 0.26598899428458778 -0.32103793389256657 0 0.28097437988070417 -0.31138482246715898 0 0.26598899428458778 -0.32103793389256657 0 0.27955848846152698 -0.33666113426449551 0 0.26082083375001269 -0.34165569813656432 0 0.26082083375001269 -0.34165569813656432 0 0.2404170410518052 -0.32643073261338312 0 0.26598899428458778 -0.32103793389256657 0 0.26082083375001269 -0.34165569813656432 0 0.2404170410518052 -0.32643073261338312 0 0.25099839141978419 -0.34936335514031408 0 0.26082083375001269 -0.34165569813656432 0 0.2404170410518052 -0.32643073261338312 0 0.26598899428458778 -0.32103793389256657 0 0.24423538898563429 -0.30587701823941071 0 0.2404170410518052 -0.32643073261338312 0 0.26846821806613752 -0.30050752245993012 0 0.24423538898563429 -0.30587701823941071 0 0.25301376652256202 -0.2892367573709661 0 0.26846821806613752 -0.30050752245993012 0 0.24423538898563429 -0.30587701823941071 0 0.26598899428458778 -0.32103793389256657 0 0.26846821806613752 -0.30050752245993012 0 0.24423538898563429 -0.30587701823941071 0 0.25301376652256202 -0.2892367573709661 0 0.26500420865911251 -0.28331687632378699 0 0.26846821806613752 -0.30050752245993012 0 0.25301376652256202 -0.2892367573709661 0 0.26500420865911251 -0.28331687632378699 0 0.2507153324002197 -0.27704953531328702 0 0.26500420865911251 -0.28331687632378699 0 0.27805302037335089 -0.28584974436810762 0 0.26846821806613752 -0.30050752245993012 0 0.27805302037335089 -0.28584974436810762 0 0.26846821806613752 -0.30050752245993012 0 0.29270104714664102 -0.29513802668045069 0 0.26500420865911251 -0.28331687632378699 0 0.27805302037335089 -0.28584974436810762 0 0.27342558025451552 -0.27498979272208851 0 0.26598899428458778 -0.32103793389256657 0 0.26846821806613752 -0.30050752245993012 0 0.28097437988070417 -0.31138482246715898 0 0.26846821806613752 -0.30050752245993012 0 0.28097437988070417 -0.31138482246715898 0 0.29270104714664102 -0.29513802668045069 0 0.26846821806613752 -0.30050752245993012 0 0.29270104714664102 -0.29513802668045069 0 0.29792146783109758 -0.32077626486014349 0 0.29270104714664102 -0.29513802668045069 0 0.29019889155513462 -0.31620785207956748 0 0.28097437988070417 -0.31138482246715898 0 0.29270104714664102 -0.29513802668045069 0 0.29792146783109758 -0.32077626486014349 0 0.29019889155513462 -0.31620785207956748 0 0.29270104714664102 -0.29513802668045069 0 0.29792146783109758 -0.32077626486014349 0 0.29270104714664102 -0.29513802668045069 0 0.29523603426331357 -0.29457632575074338 0 0.27805302037335089 -0.28584974436810762 0 0.29026987947112831 -0.28319821192468808 0 0.29270104714664102 -0.29513802668045069 0 0.27805302037335089 -0.28584974436810762 0 0.29026987947112831 -0.28319821192468808 0 0.28863308206368682 -0.27515966401439529 0 0.29026987947112831 -0.28319821192468808 0 0.29523603426331357 -0.29457632575074338 0 0.29026987947112831 -0.28319821192468808 0 0.29523603426331357 -0.29457632575074338 0 0.30320790951940702 -0.28313078900162059 0 0.29026987947112831 -0.28319821192468808 0 0.29270104714664102 -0.29513802668045069 0 0.29523603426331357 -0.29457632575074338 0 0.29026987947112831 -0.28319821192468808 0 0.29270104714664102 -0.29513802668045069 0 0.29270104714664102 -0.29513802668045069 0 0.29523603426331357 -0.29457632575074338 0 0.29523603426331357 -0.29457632575074338 0 0.31208952779935789 -0.2908419387292881 0 0.29523603426331357 -0.29457632575074338 0 0.30320790951940702 -0.28313078900162059 0 0.31208952779935789 -0.2908419387292881 0 0.29523603426331357 -0.29457632575074338 0 0.31208952779935789 -0.2908419387292881 0 0.30833746379913463 -0.30503745501229762 0 0.31611371382327402 -0.28007222207304999 0 0.30320790951940702 -0.28313078900162059 0 0.31208952779935789 -0.2908419387292881 0 0.30533649780288991 -0.32025428503190068 0 0.29523603426331357 -0.29457632575074338 0 0.30833746379913463 -0.30503745501229762 0 0.30533649780288991 -0.32025428503190068 0 0.29792146783109758 -0.32077626486014349 0 0.29523603426331357 -0.29457632575074338 0 0.30533649780288991 -0.32025428503190068 0 0.29523603426331357 -0.29457632575074338 0 0.3171485971304504 -0.30589952111326829 0 0.3109911447756647 -0.31350988965823029 0 0.30833746379913463 -0.30503745501229762 0 0.29812220868357159 -0.26533402464574418 0 0.30111904597271899 -0.2536098058489899 0 0.30981211567343969 -0.26250129009931661 0 0.31597462601859122 -0.25080747204364812 0 0.30111904597271899 -0.2536098058489899 0 0.30981211567343969 -0.26250129009931661 0 0.29812220868357159 -0.26533402464574418 0 0.30981211567343969 -0.26250129009931661 0 0.30706455279928557 -0.27339796693147528 0 0.31611371382327402 -0.28007222207304999 0 0.30320790951940702 -0.28313078900162059 0 0.30706455279928557 -0.27339796693147528 0 0.29026987947112831 -0.28319821192468808 0 0.30320790951940702 -0.28313078900162059 0 0.29755036247591721 -0.27602563541609298 0 0.30320790951940702 -0.28313078900162059 0 0.30706455279928557 -0.27339796693147528 0 0.29755036247591721 -0.27602563541609298 0 0.29812220868357159 -0.26533402464574418 0 0.30706455279928557 -0.27339796693147528 0 0.29755036247591721 -0.27602563541609298 0 0.29812220868357159 -0.26533402464574418 0 0.29755036247591721 -0.27602563541609298 0 0.28863308206368682 -0.27515966401439529 0 0.29026987947112831 -0.28319821192468808 0 0.28863308206368682 -0.27515966401439529 0 0.29026987947112831 -0.28319821192468808 0 0.29755036247591721 -0.27602563541609298 0 0.28863308206368682 -0.27515966401439529 0 0.28863308206368682 -0.27515966401439529 0 0.28456511698073272 -0.25518130134833977 0 0.29812220868357159 -0.26533402464574418 0 0.28863308206368682 -0.27515966401439529 0 0.28456511698073272 -0.25518130134833977 0 0.29812220868357159 -0.26533402464574418 0 0.30111904597271899 -0.2536098058489899 0 0.28456511698073272 -0.25518130134833977 0 0.28863308206368682 -0.27515966401439529 0 0.28456511698073272 -0.25518130134833977 0 0.27223885194073971 -0.26265851400849172 0 0.28456511698073272 -0.25518130134833977 0 0.27223885194073971 -0.26265851400849172 0 0.26629969424128969 -0.25192769388052821 0 0.27223885194073971 -0.26265851400849172 0 0.26629969424128969 -0.25192769388052821 0 0.2629172406837702 -0.26740365320709081 0 0.26500420865911251 -0.28331687632378699 0 0.27342558025451552 -0.27498979272208851 0 0.2629172406837702 -0.26740365320709081 0 0.28863308206368682 -0.27515966401439529 0 0.27223885194073971 -0.26265851400849172 0 0.27342558025451552 -0.27498979272208851 0 0.27805302037335089 -0.28584974436810762 0 0.28863308206368682 -0.27515966401439529 0 0.27342558025451552 -0.27498979272208851 0 0.27223885194073971 -0.26265851400849172 0 0.27342558025451552 -0.27498979272208851 0 0.2629172406837702 -0.26740365320709081 0 0.26500420865911251 -0.28331687632378699 0 0.2629172406837702 -0.26740365320709081 0 0.2507153324002197 -0.27704953531328702 0 0.2629172406837702 -0.26740365320709081 0 0.2507153324002197 -0.27704953531328702 0 0.2466218950091964 -0.26012473444713258 0 0.25037283077400019 -0.2416092145933311 0 0.26629969424128969 -0.25192769388052821 0 0.2466218950091964 -0.26012473444713258 0 0.26629969424128969 -0.25192769388052821 0 0.2629172406837702 -0.26740365320709081 0 0.2466218950091964 -0.26012473444713258 0 0.25037283077400019 -0.2416092145933311 0 0.2466218950091964 -0.26012473444713258 0 0.2339549802858914 -0.24933471903745599 0 0.2466218950091964 -0.26012473444713258 0 0.22717476572977791 -0.26325637954660608 0 0.2339549802858914 -0.24933471903745599 0 0.2466218950091964 -0.26012473444713258 0 0.23628574795648369 -0.27498419313581679 0 0.22717476572977791 -0.26325637954660608 0 0.2507153324002197 -0.27704953531328702 0 0.2466218950091964 -0.26012473444713258 0 0.23628574795648369 -0.27498419313581679 0 0.2507153324002197 -0.27704953531328702 0 0.23628574795648369 -0.27498419313581679 0 0.24044913557019401 -0.28723099739492908 0 0.2247339410531527 -0.27667652802353632 0 0.21554844428562811 -0.26491471108287651 0 0.21653111649902579 -0.28712771180040292 0 0.23628574795648369 -0.27498419313581679 0 0.2247339410531527 -0.27667652802353632 0 0.22717476572977791 -0.26325637954660608 0 0.2247339410531527 -0.27667652802353632 0 0.22717476572977791 -0.26325637954660608 0 0.21554844428562811 -0.26491471108287651 0 0.22717476572977791 -0.26325637954660608 0 0.22331750647786899 -0.25281133177650322 0 0.2339549802858914 -0.24933471903745599 0 0.22717476572977791 -0.26325637954660608 0 0.22331750647786899 -0.25281133177650322 0 0.21554844428562811 -0.26491471108287651 0 0.2084475354763706 -0.25511513831035743 0 0.21554844428562811 -0.26491471108287651 0 0.1982966667633215 -0.26354120971092698 0 0.21554844428562811 -0.26491471108287651 0 0.21456577207223029 -0.24270171036535029 0 0.22331750647786899 -0.25281133177650322 0 0.21554844428562811 -0.26491471108287651 0 0.21456577207223029 -0.24270171036535029 0 0.2084475354763706 -0.25511513831035743 0 0.21554844428562811 -0.26491471108287651 0 0.21336353465090491 -0.24693864317134839 0 0.21554844428562811 -0.26491471108287651 0 0.21336353465090491 -0.24693864317134839 0 0.21456577207223029 -0.24270171036535029 0 0.2084475354763706 -0.25511513831035743 0 0.1982966667633215 -0.26354120971092698 0 0.2080714594183444 -0.2424179483002232 0 0.1982966667633215 -0.26354120971092698 0 0.2080714594183444 -0.2424179483002232 0 0.21554844428562811 -0.26491471108287651 0 0.21653111649902579 -0.28712771180040292 0 0.21554844428562811 -0.26491471108287651 0 0.20859607852913339 -0.28093905456482821 0 0.21653111649902579 -0.28712771180040292 0 0.21554844428562811 -0.26491471108287651 0 0.20859607852913339 -0.28093905456482821 0 0.2011380539128553 -0.27767933622792518 0 0.21554844428562811 -0.26491471108287651 0 0.2011380539128553 -0.27767933622792518 0 0.1982966667633215 -0.26354120971092698 0 0.1982966667633215 -0.26354120971092698 0 0.18852187410829821 -0.28466447112163068 0 0.1982966667633215 -0.26354120971092698 0 0.18852187410829821 -0.28466447112163068 0 0.1845366839674035 -0.26640487959885623 0 0.2011380539128553 -0.27767933622792518 0 0.1982966667633215 -0.26354120971092698 0 0.18852187410829821 -0.28466447112163068 0 0.1982966667633215 -0.26354120971092698 0 0.2080714594183444 -0.2424179483002232 0 0.19254414318066221 -0.24961624770678509 0 0.1982966667633215 -0.26354120971092698 0 0.18706352147094041 -0.25756661524031438 0 0.1845366839674035 -0.26640487959885623 0 0.1982966667633215 -0.26354120971092698 0 0.18706352147094041 -0.25756661524031438 0 0.19254414318066221 -0.24961624770678509 0 0.18706352147094041 -0.25756661524031438 0 0.19254414318066221 -0.24961624770678509 0 0.18399505531774341 -0.24981832115951039 0 0.20249447748908611 -0.29813355613580778 0 0.1976485991634879 -0.30796138879627621 0 0.19462594870140809 -0.30164723750547567 0 0.20249447748908611 -0.29813355613580778 0 0.19462594870140809 -0.30164723750547567 0 0.19392418081794471 -0.29575522021664652 0 0.20249447748908611 -0.29813355613580778 0 0.1976485991634879 -0.30796138879627621 0 0.20782414549410869 -0.30817847155873718 0 0.1976485991634879 -0.30796138879627621 0 0.20782414549410869 -0.30817847155873718 0 0.20282381327660201 -0.31505297042611552 0 0.1976485991634879 -0.30796138879627621 0 0.19009702279388629 -0.3064242775921906 0 0.18802618722583669 -0.31833181955932999 0 0.1976485991634879 -0.30796138879627621 0 0.19009702279388629 -0.3064242775921906 0 0.19462594870140809 -0.30164723750547567 0 0.19009702279388629 -0.3064242775921906 0 0.19462594870140809 -0.30164723750547567 0 0.1880606218677118 -0.30022154946313712 0 0.19462594870140809 -0.30164723750547567 0 0.19110113081553529 -0.29631368747161629 0 0.19392418081794471 -0.29575522021664652 0 0.1880606218677118 -0.30022154946313712 0 0.19110113081553529 -0.29631368747161629 0 0.18734834214976739 -0.29514628785519947 0 0.19462594870140809 -0.30164723750547567 0 0.1880606218677118 -0.30022154946313712 0 0.19110113081553529 -0.29631368747161629 0 0.20249447748908611 -0.29813355613580778 0 0.18747516626574931 -0.28692639975368628 0 0.20249447748908611 -0.29813355613580778 0 0.19392418081794471 -0.29575522021664652 0 0.18747516626574931 -0.28692639975368628 0 0.19110113081553529 -0.29631368747161629 0 0.19392418081794471 -0.29575522021664652 0 0.18747516626574931 -0.28692639975368628 0 0.19110113081553529 -0.29631368747161629 0 0.18747516626574931 -0.28692639975368628 0 0.18734834214976739 -0.29514628785519947 0 0.18852187410829821 -0.28466447112163068 0 0.19787122383615691 -0.29172525818392958 0 0.18852187410829821 -0.28466447112163068 0 0.19731262536099689 -0.28481999283041842 0 0.19787122383615691 -0.29172525818392958 0 0.18852187410829821 -0.28466447112163068 0 0.19787122383615691 -0.29172525818392958 0 0.18747516626574931 -0.28692639975368628 0 0.18852187410829821 -0.28466447112163068 0 0.18747516626574931 -0.28692639975368628 0 0.2011380539128553 -0.27767933622792518 0 0.18852187410829821 -0.28466447112163068 0 0.19731262536099689 -0.28481999283041842 0 0.201719349586677 -0.2852109057881882 0 0.19787122383615691 -0.29172525818392958 0 0.206049533411369 -0.28982701925762389 0 0.19731262536099689 -0.28481999283041842 0 0.201719349586677 -0.2852109057881882 0 0.19787122383615691 -0.29172525818392958 0 0.2011380539128553 -0.27767933622792518 0 0.19731262536099689 -0.28481999283041842 0 0.201719349586677 -0.2852109057881882 0 0.20249447748908611 -0.29813355613580778 0 0.19787122383615691 -0.29172525818392958 0 0.18747516626574931 -0.28692639975368628 0 0.20249447748908611 -0.29813355613580778 0 0.19787122383615691 -0.29172525818392958 0 0.206049533411369 -0.28982701925762389 0 0.20249447748908611 -0.29813355613580778 0 0.206049533411369 -0.28982701925762389 0 0.20903552332543929 -0.29406903275804652 0 0.206049533411369 -0.28982701925762389 0 0.20903552332543929 -0.29406903275804652 0 0.21653111649902579 -0.28712771180040292 0 0.20249447748908611 -0.29813355613580778 0 0.20903552332543929 -0.29406903275804652 0 0.2123558614978226 -0.29827812898856709 0 0.20859607852913339 -0.28093905456482821 0 0.206049533411369 -0.28982701925762389 0 0.21653111649902579 -0.28712771180040292 0 0.20859607852913339 -0.28093905456482821 0 0.201719349586677 -0.2852109057881882 0 0.206049533411369 -0.28982701925762389 0 0.20859607852913339 -0.28093905456482821 0 0.2011380539128553 -0.27767933622792518 0 0.201719349586677 -0.2852109057881882 0 0.20903552332543929 -0.29406903275804652 0 0.21653111649902579 -0.28712771180040292 0 0.2123558614978226 -0.29827812898856709 0 0.21653111649902579 -0.28712771180040292 0 0.2175137887124228 -0.30934071251792922 0 0.21653111649902579 -0.28712771180040292 0 0.2123558614978226 -0.29827812898856709 0 0.2175137887124228 -0.30934071251792922 0 0.20249447748908611 -0.29813355613580778 0 0.2123558614978226 -0.29827812898856709 0 0.2175137887124228 -0.30934071251792922 0 0.20249447748908611 -0.29813355613580778 0 0.2175137887124228 -0.30934071251792922 0 0.20782414549410869 -0.30817847155873718 0 0.2176214393273678 -0.31177412129290383 0 0.20282381327660201 -0.31505297042611552 0 0.20249447748908611 -0.29813355613580778 0 0.20782414549410869 -0.30817847155873718 0 0.2175137887124228 -0.30934071251792922 0 0.20782414549410869 -0.30817847155873718 0 0.2175137887124228 -0.30934071251792922 0 0.2176214393273678 -0.31177412129290383 0 0.2175137887124228 -0.30934071251792922 0 0.2176214393273678 -0.31177412129290383 0 0.2175137887124228 -0.30934071251792922 0 0.2176214393273678 -0.31177412129290383 0 0.21999804566891551 -0.31122614102315033 0 0.21999804566891551 -0.31122614102315033 0 0.24423538898563429 -0.30587701823941071 0 0.2175137887124228 -0.30934071251792922 0 0.21999804566891551 -0.31122614102315033 0 0.22812963079484819 -0.29309964455197901 0 0.21999804566891551 -0.31122614102315033 0 0.22812963079484819 -0.29309964455197901 0 0.21999804566891551 -0.31122614102315033 0 0.22812963079484819 -0.29309964455197901 0 0.24423538898563429 -0.30587701823941071 0 0.2176214393273678 -0.31177412129290383 0 0.21999804566891551 -0.31122614102315033 0 0.2175137887124228 -0.30934071251792922 0 0.21999804566891551 -0.31122614102315033 0 0.23628574795648369 -0.27498419313581679 0 0.22812963079484819 -0.29309964455197901 0 0.2247339410531527 -0.27667652802353632 0 0.21653111649902579 -0.28712771180040292 0 0.22812963079484819 -0.29309964455197901 0 0.23628574795648369 -0.27498419313581679 0 0.2247339410531527 -0.27667652802353632 0 0.22812963079484819 -0.29309964455197901 0 0.21653111649902579 -0.28712771180040292 0 0.2175137887124228 -0.30934071251792922 0 0.22812963079484819 -0.29309964455197901 0 0.23628574795648369 -0.27498419313581679 0 0.22812963079484819 -0.29309964455197901 0 0.24044913557019401 -0.28723099739492908 0 0.25301376652256202 -0.2892367573709661 0 0.24044913557019401 -0.28723099739492908 0 0.24423538898563429 -0.30587701823941071 0 0.22812963079484819 -0.29309964455197901 0 0.24044913557019401 -0.28723099739492908 0 0.24423538898563429 -0.30587701823941071 0 0.25301376652256202 -0.2892367573709661 0 0.2507153324002197 -0.27704953531328702 0 0.24044913557019401 -0.28723099739492908 0 0.21999804566891551 -0.31122614102315033 0 0.24423538898563429 -0.30587701823941071 0 0.2404170410518052 -0.32643073261338312 0 0.25099839141978419 -0.34936335514031408 0 0.2316655193484673 -0.33515436960409939 0 0.25099839141978419 -0.34936335514031408 0 0.2404170410518052 -0.32643073261338312 0 0.2316655193484673 -0.33515436960409939 0 0.2404170410518052 -0.32643073261338312 0 0.2316655193484673 -0.33515436960409939 0 0.2247705650129608 -0.32491873692320528 0 0.2316655193484673 -0.33515436960409939 0 0.22208049410379579 -0.34309390150507102 0 0.22867514261462599 -0.34782526071452929 0 0.2316655193484673 -0.33515436960409939 0 0.22208049410379579 -0.34309390150507102 0 0.220555537226792 -0.33578323097752499 0 0.22208049410379579 -0.34309390150507102 0 0.220555537226792 -0.33578323097752499 0 0.21451162402718699 -0.34512658597487872 0 0.220555537226792 -0.33578323097752499 0 0.2247705650129608 -0.32491873692320528 0 0.21820242441149371 -0.32490710899175251 0 0.2316655193484673 -0.33515436960409939 0 0.220555537226792 -0.33578323097752499 0 0.2247705650129608 -0.32491873692320528 0 0.21999804566891551 -0.31122614102315033 0 0.2404170410518052 -0.32643073261338312 0 0.2247705650129608 -0.32491873692320528 0 0.21999804566891551 -0.31122614102315033 0 0.2404170410518052 -0.32643073261338312 0 0.2247705650129608 -0.32491873692320528 0 0.21780935440599439 -0.31602188338433101 0 0.21820242441149371 -0.32490710899175251 0 0.21999804566891551 -0.31122614102315033 0 0.2247705650129608 -0.32491873692320528 0 0.21780935440599439 -0.31602188338433101 0 0.21999804566891551 -0.31122614102315033 0 0.21780935440599439 -0.31602188338433101 0 0.23679608458568241 -0.3713456781615978 0 0.24534349961555019 -0.36253701182870851 0 0.24987622704845311 -0.37613765202982719 0 0.23679608458568241 -0.3713456781615978 0 0.24534349961555019 -0.36253701182870851 0 0.23133102347449649 -0.35950822589080189 0 0.25099839141978419 -0.34936335514031408 0 0.2316655193484673 -0.33515436960409939 0 0.23760271529458479 -0.35087764463569071 0 0.24534349961555019 -0.36253701182870851 0 0.23760271529458479 -0.35087764463569071 0 0.23133102347449649 -0.35950822589080189 0 0.25099839141978419 -0.34936335514031408 0 0.24534349961555019 -0.36253701182870851 0 0.23760271529458479 -0.35087764463569071 0 0.2316655193484673 -0.33515436960409939 0 0.23760271529458479 -0.35087764463569071 0 0.22867514261462599 -0.34782526071452929 0 0.22208049410379579 -0.34309390150507102 0 0.22076837523631451 -0.35267920974236072 0 0.21451162402718699 -0.34512658597487872 0 0.22208049410379579 -0.34309390150507102 0 0.22867514261462599 -0.34782526071452929 0 0.22076837523631451 -0.35267920974236072 0 0.22076837523631451 -0.35267920974236072 0 0.22341137818785181 -0.36337688942730773 0 0.21609027172906259 -0.36087537471117581 0 0.22076837523631451 -0.35267920974236072 0 0.23133102347449649 -0.35950822589080189 0 0.22341137818785181 -0.36337688942730773 0 0.22867514261462599 -0.34782526071452929 0 0.22076837523631451 -0.35267920974236072 0 0.23133102347449649 -0.35950822589080189 0 0.23760271529458479 -0.35087764463569071 0 0.22867514261462599 -0.34782526071452929 0 0.23133102347449649 -0.35950822589080189 0 0.23133102347449649 -0.35950822589080189 0 0.22341137818785181 -0.36337688942730773 0 0.22699371624108439 -0.37103399677892651 0 0.22341137818785181 -0.36337688942730773 0 0.22699371624108439 -0.37103399677892651 0 0.21663927632257499 -0.37152038636996992 0 0.22699371624108439 -0.37103399677892651 0 0.21663927632257499 -0.37152038636996992 0 0.22189277223980711 -0.38054577212349588 0 0.23679608458568241 -0.3713456781615978 0 0.22699371624108439 -0.37103399677892651 0 0.23010576568282681 -0.37607478874810818 0 0.23679608458568241 -0.3713456781615978 0 0.23133102347449649 -0.35950822589080189 0 0.22699371624108439 -0.37103399677892651 0 0.21663927632257499 -0.37152038636996992 0 0.20683644217058031 -0.36558797855932218 0 0.20576161095015591 -0.37595213443190167 0 0.22341137818785181 -0.36337688942730773 0 0.21663927632257499 -0.37152038636996992 0 0.21609027172906259 -0.36087537471117581 0 0.21609027172906259 -0.36087537471117581 0 0.20683644217058031 -0.36558797855932218 0 0.21089823393406021 -0.35324530101306001 0 0.21663927632257499 -0.37152038636996992 0 0.21609027172906259 -0.36087537471117581 0 0.20683644217058031 -0.36558797855932218 0 0.19940837682496099 -0.35689206815154528 0 0.20777431361625601 -0.33831058893907762 0 0.21089823393406021 -0.35324530101306001 0 0.19940837682496099 -0.35689206815154528 0 0.20777431361625601 -0.33831058893907762 0 0.20683644217058031 -0.36558797855932218 0 0.21089823393406021 -0.35324530101306001 0 0.19940837682496099 -0.35689206815154528 0 0.22076837523631451 -0.35267920974236072 0 0.21609027172906259 -0.36087537471117581 0 0.21089823393406021 -0.35324530101306001 0 0.21089823393406021 -0.35324530101306001 0 0.21451162402718699 -0.34512658597487872 0 0.20777431361625601 -0.33831058893907762 0 0.22076837523631451 -0.35267920974236072 0 0.21089823393406021 -0.35324530101306001 0 0.21451162402718699 -0.34512658597487872 0 0.1971616983813648 -0.34495631128618592 0 0.19940837682496099 -0.35689206815154528 0 0.20777431361625601 -0.33831058893907762 0 0.1971616983813648 -0.34495631128618592 0 0.18787137947787569 -0.35180034780069419 0 0.18864170350563411 -0.33720407153827198 0 0.1971616983813648 -0.34495631128618592 0 0.18787137947787569 -0.35180034780069419 0 0.19940837682496099 -0.35689206815154528 0 0.20683644217058031 -0.36558797855932218 0 0.20576161095015591 -0.37595213443190167 0 0.1910424400336663 -0.37547354736401328 0 0.18787137947787569 -0.35180034780069419 0 0.19940837682496099 -0.35689206815154528 0 0.1910424400336663 -0.37547354736401328 0 0.19940837682496099 -0.35689206815154528 0 0.1910424400336663 -0.37547354736401328 0 0.20683644217058031 -0.36558797855932218 0 0.19940837682496099 -0.35689206815154528 0 0.1910424400336663 -0.37547354736401328 0 0.21780935440599439 -0.31602188338433101 0 0.20777431361625601 -0.33831058893907762 0 0.21780935440599439 -0.31602188338433101 0 0.20777431361625601 -0.33831058893907762 0 0.20282381327660201 -0.31505297042611552 0 0.21780935440599439 -0.31602188338433101 0 0.21820242441149371 -0.32490710899175251 0 0.20777431361625601 -0.33831058893907762 0 0.2176214393273678 -0.31177412129290383 0 0.20282381327660201 -0.31505297042611552 0 0.2176214393273678 -0.31177412129290383 0 0.21780935440599439 -0.31602188338433101 0 0.20282381327660201 -0.31505297042611552 0 0.2176214393273678 -0.31177412129290383 0 0.21780935440599439 -0.31602188338433101 0 0.2176214393273678 -0.31177412129290383 0 0.21999804566891551 -0.31122614102315033 0 0.21780935440599439 -0.31602188338433101 0 0.21780935440599439 -0.31602188338433101 0 0.21820242441149371 -0.32490710899175251 0 0.220555537226792 -0.33578323097752499 0 0.21820242441149371 -0.32490710899175251 0 0.20777431361625601 -0.33831058893907762 0 0.220555537226792 -0.33578323097752499 0 0.21451162402718699 -0.34512658597487872 0 0.20777431361625601 -0.33831058893907762 0 0.21451162402718699 -0.34512658597487872 0 0.20777431361625601 -0.33831058893907762 0 0.1971616983813648 -0.34495631128618592 0 0.20777431361625601 -0.33831058893907762 0 0.18864170350563411 -0.33720407153827198 0 0.20777431361625601 -0.33831058893907762 0 0.18802618722583669 -0.31833181955932999 0 0.20777431361625601 -0.33831058893907762 0 0.18864170350563411 -0.33720407153827198 0 0.18802618722583669 -0.31833181955932999 0 0.20777431361625601 -0.33831058893907762 0 0.20282381327660201 -0.31505297042611552 0 0.18802618722583669 -0.31833181955932999 0 0.20282381327660201 -0.31505297042611552 0 0.18802618722583669 -0.31833181955932999 0 0.1976485991634879 -0.30796138879627621 0 0.20282381327660201 -0.31505297042611552 0 0.18802618722583669 -0.31833181955932999 0 0.18802618722583669 -0.31833181955932999 0 0.1791507244663583 -0.32983729973660558 0 0.16791254130802971 -0.3227885891963716 0 0.18802618722583669 -0.31833181955932999 0 0.17151825735526699 -0.31325416760549368 0 0.16791254130802971 -0.3227885891963716 0 0.18802618722583669 -0.31833181955932999 0 0.16791254130802971 -0.3227885891963716 0 0.18864170350563411 -0.33720407153827198 0 0.18802618722583669 -0.31833181955932999 0 0.1791507244663583 -0.32983729973660558 0 0.17202246582593331 -0.34102471865244838 0 0.1791507244663583 -0.32983729973660558 0 0.16791254130802971 -0.3227885891963716 0 0.18787137947787569 -0.35180034780069419 0 0.18864170350563411 -0.33720407153827198 0 0.17202246582593331 -0.34102471865244838 0 0.18864170350563411 -0.33720407153827198 0 0.17202246582593331 -0.34102471865244838 0 0.1791507244663583 -0.32983729973660558 0 0.17202246582593331 -0.34102471865244838 0 0.1546435437787094 -0.34381338892778002 0 0.1557586906108582 -0.32786840018592928 0 0.17202246582593331 -0.34102471865244838 0 0.16791254130802971 -0.3227885891963716 0 0.1557586906108582 -0.32786840018592928 0 0.16791254130802971 -0.3227885891963716 0 0.1557586906108582 -0.32786840018592928 0 0.1602411687519314 -0.31190927739118429 0 0.17151825735526699 -0.31325416760549368 0 0.16791254130802971 -0.3227885891963716 0 0.1602411687519314 -0.31190927739118429 0 0.18787137947787569 -0.35180034780069419 0 0.17662324672053431 -0.35795823269279659 0 0.1910424400336663 -0.37547354736401328 0 0.17662324672053431 -0.35795823269279659 0 0.17035242753357599 -0.36877211446365682 0 0.1910424400336663 -0.37547354736401328 0 0.17035242753357599 -0.36877211446365682 0 0.1910424400336663 -0.37547354736401328 0 0.1737051017910701 -0.38004230502140057 0 0.18787137947787569 -0.35180034780069419 0 0.17202246582593331 -0.34102471865244838 0 0.17662324672053431 -0.35795823269279659 0 0.17202246582593331 -0.34102471865244838 0 0.17662324672053431 -0.35795823269279659 0 0.16265844046108829 -0.35526087104265458 0 0.17202246582593331 -0.34102471865244838 0 0.16265844046108829 -0.35526087104265458 0 0.1546435437787094 -0.34381338892778002 0 0.17662324672053431 -0.35795823269279659 0 0.16265844046108829 -0.35526087104265458 0 0.17035242753357599 -0.36877211446365682 0 0.16265844046108829 -0.35526087104265458 0 0.1569593121701936 -0.36832063090657668 0 0.17035242753357599 -0.36877211446365682 0 0.1569593121701936 -0.36832063090657668 0 0.17035242753357599 -0.36877211446365682 0 0.16307541855137739 -0.37743582412871929 0 0.14536400873927011 -0.3681220756701501 0 0.1426630499740982 -0.35652090160864008 0 0.13524945632583441 -0.37311377610700652 0 0.16265844046108829 -0.35526087104265458 0 0.1569593121701936 -0.36832063090657668 0 0.1426630499740982 -0.35652090160864008 0 0.14536400873927011 -0.3681220756701501 0 0.13524945632583441 -0.37311377610700652 0 0.14973869037300869 -0.38096853745143089 0 0.1569593121701936 -0.36832063090657668 0 0.14536400873927011 -0.3681220756701501 0 0.14973869037300869 -0.38096853745143089 0 0.1569593121701936 -0.36832063090657668 0 0.14536400873927011 -0.3681220756701501 0 0.1426630499740982 -0.35652090160864008 0 0.1546435437787094 -0.34381338892778002 0 0.1426630499740982 -0.35652090160864008 0 0.1424354920479888 -0.33775294740649747 0 0.16265844046108829 -0.35526087104265458 0 0.1546435437787094 -0.34381338892778002 0 0.1426630499740982 -0.35652090160864008 0 0.13449730155472761 -0.34743155680512378 0 0.12784456261830821 -0.36308533366748658 0 0.123981461538115 -0.35128285539313481 0 0.1426630499740982 -0.35652090160864008 0 0.13449730155472761 -0.34743155680512378 0 0.1424354920479888 -0.33775294740649747 0 0.1426630499740982 -0.35652090160864008 0 0.13449730155472761 -0.34743155680512378 0 0.12784456261830821 -0.36308533366748658 0 0.13449730155472761 -0.34743155680512378 0 0.13051916655351839 -0.33696304048325831 0 0.123981461538115 -0.35128285539313481 0 0.1426630499740982 -0.35652090160864008 0 0.12784456261830821 -0.36308533366748658 0 0.13524945632583441 -0.37311377610700652 0 0.12784456261830821 -0.36308533366748658 0 0.13524945632583441 -0.37311377610700652 0 0.12609635470998201 -0.38402791619100712 0 0.14855409589738661 -0.31441038212804873 0 0.1557586906108582 -0.32786840018592928 0 0.1602411687519314 -0.31190927739118429 0 0.1445015266660287 -0.32337949759917511 0 0.14855409589738661 -0.31441038212804873 0 0.13871327718005111 -0.31332369293528212 0 0.1445015266660287 -0.32337949759917511 0 0.14855409589738661 -0.31441038212804873 0 0.1557586906108582 -0.32786840018592928 0 0.1546435437787094 -0.34381338892778002 0 0.1557586906108582 -0.32786840018592928 0 0.1424354920479888 -0.33775294740649747 0 0.1445015266660287 -0.32337949759917511 0 0.1557586906108582 -0.32786840018592928 0 0.1424354920479888 -0.33775294740649747 0 0.1445015266660287 -0.32337949759917511 0 0.1424354920479888 -0.33775294740649747 0 0.13219802669416811 -0.32498852212276208 0 0.1424354920479888 -0.33775294740649747 0 0.13051916655351839 -0.33696304048325831 0 0.13219802669416811 -0.32498852212276208 0 0.13449730155472761 -0.34743155680512378 0 0.1424354920479888 -0.33775294740649747 0 0.13051916655351839 -0.33696304048325831 0 0.13051916655351839 -0.33696304048325831 0 0.13219802669416811 -0.32498852212276208 0 0.12260601330919629 -0.33072698382653798 0 0.1445015266660287 -0.32337949759917511 0 0.13219802669416811 -0.32498852212276208 0 0.13871327718005111 -0.31332369293528212 0 0.13219802669416811 -0.32498852212276208 0 0.1265219532001009 -0.3124330460259736 0 0.1192961391526948 -0.32261879728377291 0 0.13219802669416811 -0.32498852212276208 0 0.13871327718005111 -0.31332369293528212 0 0.1265219532001009 -0.3124330460259736 0 0.1265219532001009 -0.3124330460259736 0 0.1332586495603032 -0.30031372317270688 0 0.1198701537204314 -0.30089140532399938 0 0.1332586495603032 -0.30031372317270688 0 0.1242383748246253 -0.29131174999725179 0 0.1198701537204314 -0.30089140532399938 0 0.13871327718005111 -0.31332369293528212 0 0.1265219532001009 -0.3124330460259736 0 0.1332586495603032 -0.30031372317270688 0 0.13871327718005111 -0.31332369293528212 0 0.1332586495603032 -0.30031372317270688 0 0.147245411062319 -0.30441698656302629 0 0.14855409589738661 -0.31441038212804873 0 0.13871327718005111 -0.31332369293528212 0 0.147245411062319 -0.30441698656302629 0 0.147245411062319 -0.30441698656302629 0 0.15432967412725099 -0.29846298066074151 0 0.14327492933615671 -0.29425024746867751 0 0.1332586495603032 -0.30031372317270688 0 0.147245411062319 -0.30441698656302629 0 0.14327492933615671 -0.29425024746867751 0 0.147245411062319 -0.30441698656302629 0 0.15432967412725099 -0.29846298066074151 0 0.1602411687519314 -0.31190927739118429 0 0.14855409589738661 -0.31441038212804873 0 0.147245411062319 -0.30441698656302629 0 0.1602411687519314 -0.31190927739118429 0 0.15432967412725099 -0.29846298066074151 0 0.1517600770447052 -0.28164214899084639 0 0.14327492933615671 -0.29425024746867751 0 0.1517600770447052 -0.28164214899084639 0 0.14327492933615671 -0.29425024746867751 0 0.13646338677899769 -0.28546266283427663 0 0.1332586495603032 -0.30031372317270688 0 0.14327492933615671 -0.29425024746867751 0 0.13646338677899769 -0.28546266283427663 0 0.1332586495603032 -0.30031372317270688 0 0.13646338677899769 -0.28546266283427663 0 0.1242383748246253 -0.29131174999725179 0 0.13646338677899769 -0.28546266283427663 0 0.1233023238440631 -0.28097148456094378 0 0.1242383748246253 -0.29131174999725179 0 0.1517600770447052 -0.28164214899084639 0 0.13646338677899769 -0.28546266283427663 0 0.1311170075682456 -0.27142576198599933 0 0.1517600770447052 -0.28164214899084639 0 0.1311170075682456 -0.27142576198599933 0 0.1364827709165429 -0.26618641562940759 0 0.13646338677899769 -0.28546266283427663 0 0.1311170075682456 -0.27142576198599933 0 0.1233023238440631 -0.28097148456094378 0 0.1311170075682456 -0.27142576198599933 0 0.1364827709165429 -0.26618641562940759 0 0.1212054647883809 -0.25073068226796852 0 0.1364827709165429 -0.26618641562940759 0 0.13217397618885759 -0.25462043987800831 0 0.1212054647883809 -0.25073068226796852 0 0.1364827709165429 -0.26618641562940759 0 0.1212054647883809 -0.25073068226796852 0 0.1364827709165429 -0.26618641562940759 0 0.13217397618885759 -0.25462043987800831 0 0.14275904560399111 -0.25945725309375861 0 0.13217397618885759 -0.25462043987800831 0 0.1429630926125974 -0.2502577086919005 0 0.14275904560399111 -0.25945725309375861 0 0.1429630926125974 -0.2502577086919005 0 0.16574248336044761 -0.26746108990676593 0 0.1429630926125974 -0.2502577086919005 0 0.15128247879849499 -0.26292486595599002 0 0.16574248336044761 -0.26746108990676593 0 0.1429630926125974 -0.2502577086919005 0 0.16574248336044761 -0.26746108990676593 0 0.16001236861667459 -0.2513654190734112 0 0.1429630926125974 -0.2502577086919005 0 0.14275904560399111 -0.25945725309375861 0 0.15128247879849499 -0.26292486595599002 0 0.1364827709165429 -0.26618641562940759 0 0.14275904560399111 -0.25945725309375861 0 0.15128247879849499 -0.26292486595599002 0 0.1517600770447052 -0.28164214899084639 0 0.1364827709165429 -0.26618641562940759 0 0.15128247879849499 -0.26292486595599002 0 0.1517600770447052 -0.28164214899084639 0 0.15128247879849499 -0.26292486595599002 0 0.15776774232478771 -0.26956647822523339 0 0.1517600770447052 -0.28164214899084639 0 0.1311170075682456 -0.27142576198599933 0 0.1517600770447052 -0.28164214899084639 0 0.1364827709165429 -0.26618641562940759 0 0.1517600770447052 -0.28164214899084639 0 0.16209364730358741 -0.27452888323759039 0 0.16594555478614451 -0.28284233368471318 0 0.1517600770447052 -0.28164214899084639 0 0.16209364730358741 -0.27452888323759039 0 0.15776774232478771 -0.26956647822523339 0 0.16209364730358741 -0.27452888323759039 0 0.15776774232478771 -0.26956647822523339 0 0.16574248336044761 -0.26746108990676593 0 0.15128247879849499 -0.26292486595599002 0 0.15776774232478771 -0.26956647822523339 0 0.16574248336044761 -0.26746108990676593 0 0.16209364730358741 -0.27452888323759039 0 0.16574248336044761 -0.26746108990676593 0 0.16920230535812411 -0.27329149954452342 0 0.16209364730358741 -0.27452888323759039 0 0.16920230535812411 -0.27329149954452342 0 0.16594555478614451 -0.28284233368471318 0 0.16920230535812411 -0.27329149954452342 0 0.1710222018321049 -0.28124575318360368 0 0.16594555478614451 -0.28284233368471318 0 0.16574248336044761 -0.26746108990676593 0 0.16001236861667459 -0.2513654190734112 0 0.16988601458932601 -0.2589500224365659 0 0.16574248336044761 -0.26746108990676593 0 0.16988601458932601 -0.2589500224365659 0 0.17628584543496439 -0.26683535894776161 0 0.16001236861667459 -0.2513654190734112 0 0.16988601458932601 -0.2589500224365659 0 0.16978669848249819 -0.25098739912941831 0 0.1767458594742066 -0.25730285456071711 0 0.17619278994504239 -0.24587918172992959 0 0.18399505531774341 -0.24981832115951039 0 0.16978669848249819 -0.25098739912941831 0 0.1767458594742066 -0.25730285456071711 0 0.17619278994504239 -0.24587918172992959 0 0.16988601458932601 -0.2589500224365659 0 0.16978669848249819 -0.25098739912941831 0 0.1767458594742066 -0.25730285456071711 0 0.16988601458932601 -0.2589500224365659 0 0.1767458594742066 -0.25730285456071711 0 0.17628584543496439 -0.26683535894776161 0 0.1767458594742066 -0.25730285456071711 0 0.17628584543496439 -0.26683535894776161 0 0.1845366839674035 -0.26640487959885623 0 0.1767458594742066 -0.25730285456071711 0 0.18706352147094041 -0.25756661524031438 0 0.1845366839674035 -0.26640487959885623 0 0.1767458594742066 -0.25730285456071711 0 0.18706352147094041 -0.25756661524031438 0 0.18399505531774341 -0.24981832115951039 0 0.18852187410829821 -0.28466447112163068 0 0.17628584543496439 -0.26683535894776161 0 0.1845366839674035 -0.26640487959885623 0 0.18852187410829821 -0.28466447112163068 0 0.16574248336044761 -0.26746108990676593 0 0.18852187410829821 -0.28466447112163068 0 0.16574248336044761 -0.26746108990676593 0 0.17628584543496439 -0.26683535894776161 0 0.16920230535812411 -0.27329149954452342 0 0.18747516626574931 -0.28692639975368628 0 0.17602993407772211 -0.2832030986568283 0 0.18852187410829821 -0.28466447112163068 0 0.16574248336044761 -0.26746108990676593 0 0.16920230535812411 -0.27329149954452342 0 0.16920230535812411 -0.27329149954452342 0 0.18747516626574931 -0.28692639975368628 0 0.16920230535812411 -0.27329149954452342 0 0.1710222018321049 -0.28124575318360368 0 0.17602993407772211 -0.2832030986568283 0 0.18747516626574931 -0.28692639975368628 0 0.1806905449634813 -0.28832929748571318 0 0.17602993407772211 -0.2832030986568283 0 0.18852187410829821 -0.28466447112163068 0 0.16920230535812411 -0.27329149954452342 0 0.18747516626574931 -0.28692639975368628 0 0.18747516626574931 -0.28692639975368628 0 0.1806905449634813 -0.28832929748571318 0 0.18301660310609241 -0.29114958545392738 0 0.17291101310642881 -0.28564608084835003 0 0.17864991096044419 -0.29495009963706692 0 0.16594555478614451 -0.28284233368471318 0 0.1806905449634813 -0.28832929748571318 0 0.17602993407772211 -0.2832030986568283 0 0.17673138357400531 -0.28840876668861409 0 0.17602993407772211 -0.2832030986568283 0 0.17673138357400531 -0.28840876668861409 0 0.17291101310642881 -0.28564608084835003 0 0.1710222018321049 -0.28124575318360368 0 0.17602993407772211 -0.2832030986568283 0 0.17291101310642881 -0.28564608084835003 0 0.17673138357400531 -0.28840876668861409 0 0.17291101310642881 -0.28564608084835003 0 0.17864991096044419 -0.29495009963706692 0 0.17673138357400531 -0.28840876668861409 0 0.17909088347012619 -0.29088019083727579 0 0.17864991096044419 -0.29495009963706692 0 0.1806905449634813 -0.28832929748571318 0 0.17673138357400531 -0.28840876668861409 0 0.17909088347012619 -0.29088019083727579 0 0.17909088347012619 -0.29088019083727579 0 0.17864991096044419 -0.29495009963706692 0 0.18114425154506539 -0.29221912984395187 0 0.18747516626574931 -0.28692639975368628 0 0.18734834214976739 -0.29514628785519947 0 0.1827564496500734 -0.29712351473235832 0 0.18747516626574931 -0.28692639975368628 0 0.18301660310609241 -0.29114958545392738 0 0.1827564496500734 -0.29712351473235832 0 0.18114425154506539 -0.29221912984395187 0 0.18301660310609241 -0.29114958545392738 0 0.1827564496500734 -0.29712351473235832 0 0.17864991096044419 -0.29495009963706692 0 0.18114425154506539 -0.29221912984395187 0 0.1827564496500734 -0.29712351473235832 0 0.18747516626574931 -0.28692639975368628 0 0.1827564496500734 -0.29712351473235832 0 0.1806905449634813 -0.28832929748571318 0 0.18114425154506539 -0.29221912984395187 0 0.18301660310609241 -0.29114958545392738 0 0.1806905449634813 -0.28832929748571318 0 0.17909088347012619 -0.29088019083727579 0 0.18114425154506539 -0.29221912984395187 0 0.18802618722583669 -0.31833181955932999 0 0.18221347423979239 -0.30458962683289892 0 0.1698931321352706 -0.29998698427508858 0 0.1880606218677118 -0.30022154946313712 0 0.18734834214976739 -0.29514628785519947 0 0.1827564496500734 -0.29712351473235832 0 0.19009702279388629 -0.3064242775921906 0 0.1880606218677118 -0.30022154946313712 0 0.18221347423979239 -0.30458962683289892 0 0.18802618722583669 -0.31833181955932999 0 0.17151825735526699 -0.31325416760549368 0 0.1698931321352706 -0.29998698427508858 0 0.1880606218677118 -0.30022154946313712 0 0.18221347423979239 -0.30458962683289892 0 0.1827564496500734 -0.29712351473235832 0 0.18802618722583669 -0.31833181955932999 0 0.1698931321352706 -0.29998698427508858 0 0.17864991096044419 -0.29495009963706692 0 0.1827564496500734 -0.29712351473235832 0 0.17837824174639511 -0.29916255636935318 0 0.18221347423979239 -0.30458962683289892 0 0.1827564496500734 -0.29712351473235832 0 0.17837824174639511 -0.29916255636935318 0 0.19009702279388629 -0.3064242775921906 0 0.18802618722583669 -0.31833181955932999 0 0.18221347423979239 -0.30458962683289892 0 0.18221347423979239 -0.30458962683289892 0 0.17837824174639511 -0.29916255636935318 0 0.1698931321352706 -0.29998698427508858 0 0.17864991096044419 -0.29495009963706692 0 0.17837824174639511 -0.29916255636935318 0 0.1698931321352706 -0.29998698427508858 0 0.17151825735526699 -0.31325416760549368 0 0.1698931321352706 -0.29998698427508858 0 0.1602411687519314 -0.31190927739118429 0 0.15432967412725099 -0.29846298066074151 0 0.1698931321352706 -0.29998698427508858 0 0.1602411687519314 -0.31190927739118429 0 0.1517600770447052 -0.28164214899084639 0 0.17864991096044419 -0.29495009963706692 0 0.1698931321352706 -0.29998698427508858 0 0.1517600770447052 -0.28164214899084639 0 0.1698931321352706 -0.29998698427508858 0 0.15432967412725099 -0.29846298066074151 0 0.1517600770447052 -0.28164214899084639 0 0.1698931321352706 -0.29998698427508858 0 0.1517600770447052 -0.28164214899084639 0 0.17864991096044419 -0.29495009963706692 0 0.1517600770447052 -0.28164214899084639 0 0.17864991096044419 -0.29495009963706692 0 0.16594555478614451 -0.28284233368471318 0 0.1710222018321049 -0.28124575318360368 0 0.17291101310642881 -0.28564608084835003 0 0.16594555478614451 -0.28284233368471318 0 0.21438456257476449 -0.5 0 0.2048745361024723 -0.48472171768082351 0 0.18744203257390391 -0.5 0 0.19122796324104871 -0.48466606029959602 0 0.2048745361024723 -0.48472171768082351 0 0.18744203257390391 -0.5 0 0.19122796324104871 -0.48466606029959602 0 0.20365346230900849 -0.47086657296764728 0 0.1938641377332887 -0.4633108835168005 0 0.19122796324104871 -0.48466606029959602 0 0.20365346230900849 -0.47086657296764728 0 0.2048745361024723 -0.48472171768082351 0 0.21766866328091511 -0.47157360957620892 0 0.2048745361024723 -0.48472171768082351 0 0.22288060450936709 -0.48400008360299168 0 0.20365346230900849 -0.47086657296764728 0 0.21766866328091511 -0.47157360957620892 0 0.2048745361024723 -0.48472171768082351 0 0.21438456257476449 -0.5 0 0.2048745361024723 -0.48472171768082351 0 0.22288060450936709 -0.48400008360299168 0 0.21438456257476449 -0.5 0 0.23633351028628971 -0.48712361601618398 0 0.2413270925756249 -0.5 0 0.21438456257476449 -0.5 0 0.23633351028628971 -0.48712361601618398 0 0.22288060450936709 -0.48400008360299168 0 0.25270961841775552 -0.48460016746525392 0 0.23633351028628971 -0.48712361601618398 0 0.2413270925756249 -0.5 0 0.25270961841775552 -0.48460016746525392 0 0.23633351028628971 -0.48712361601618398 0 0.23949561189523169 -0.47426551941090739 0 0.23949561189523169 -0.47426551941090739 0 0.22288060450936709 -0.48400008360299168 0 0.22545312399173489 -0.46028769725088831 0 0.21766866328091511 -0.47157360957620892 0 0.22288060450936709 -0.48400008360299168 0 0.22545312399173489 -0.46028769725088831 0 0.23633351028628971 -0.48712361601618398 0 0.23949561189523169 -0.47426551941090739 0 0.22288060450936709 -0.48400008360299168 0 0.22288060450936709 -0.48400008360299168 0 0.22545312399173489 -0.46028769725088831 0 0.21766866328091511 -0.47157360957620892 0 0.22545312399173489 -0.46028769725088831 0 0.2186728293425339 -0.44755637628226819 0 0.2588368117714554 -0.46700690363883102 0 0.23949561189523169 -0.47426551941090739 0 0.2409729068143365 -0.46262444708906358 0 0.22545312399173489 -0.46028769725088831 0 0.2409729068143365 -0.46262444708906358 0 0.24480843210435321 -0.45079661158300749 0 0.2588368117714554 -0.46700690363883102 0 0.2409729068143365 -0.46262444708906358 0 0.24480843210435321 -0.45079661158300749 0 0.23949561189523169 -0.47426551941090739 0 0.22545312399173489 -0.46028769725088831 0 0.2409729068143365 -0.46262444708906358 0 0.24480843210435321 -0.45079661158300749 0 0.22802564347410281 -0.43657531089878487 0 0.2418992233321238 -0.43333026798624508 0 0.25513396950241118 -0.43290986753561628 0 0.24480843210435321 -0.45079661158300749 0 0.2418992233321238 -0.43333026798624508 0 0.22545312399173489 -0.46028769725088831 0 0.22802564347410281 -0.43657531089878487 0 0.2186728293425339 -0.44755637628226819 0 0.21246462128442831 -0.43168381348743168 0 0.22802564347410281 -0.43657531089878487 0 0.22545312399173489 -0.46028769725088831 0 0.2186728293425339 -0.44755637628226819 0 0.22802564347410281 -0.43657531089878487 0 0.22545312399173489 -0.46028769725088831 0 0.24480843210435321 -0.45079661158300749 0 0.22802564347410281 -0.43657531089878487 0 0.20442019459899149 -0.44533796874460208 0 0.2186728293425339 -0.44755637628226819 0 0.21246462128442831 -0.43168381348743168 0 0.21766866328091511 -0.47157360957620892 0 0.20442019459899149 -0.44533796874460208 0 0.21766866328091511 -0.47157360957620892 0 0.20442019459899149 -0.44533796874460208 0 0.2186728293425339 -0.44755637628226819 0 0.20365346230900849 -0.47086657296764728 0 0.21766866328091511 -0.47157360957620892 0 0.20442019459899149 -0.44533796874460208 0 0.20365346230900849 -0.47086657296764728 0 0.20442019459899149 -0.44533796874460208 0 0.1938641377332887 -0.4633108835168005 0 0.20442019459899149 -0.44533796874460208 0 0.18484232774876749 -0.43033534366960768 0 0.18590039067086719 -0.44115637567916172 0 0.20442019459899149 -0.44533796874460208 0 0.18923595964957429 -0.45067509688328122 0 0.18590039067086719 -0.44115637567916172 0 0.20442019459899149 -0.44533796874460208 0 0.1938641377332887 -0.4633108835168005 0 0.18923595964957429 -0.45067509688328122 0 0.20442019459899149 -0.44533796874460208 0 0.1911717259170673 -0.41910232791299562 0 0.20473537155931409 -0.42802668409371708 0 0.20442019459899149 -0.44533796874460208 0 0.1911717259170673 -0.41910232791299562 0 0.20442019459899149 -0.44533796874460208 0 0.1911717259170673 -0.41910232791299562 0 0.18484232774876749 -0.43033534366960768 0 0.1911717259170673 -0.41910232791299562 0 0.21088494443676881 -0.41598262622983972 0 0.20473537155931409 -0.42802668409371708 0 0.18851111772050869 -0.41383358608972459 0 0.208966154163157 -0.40126827473642579 0 0.1911717259170673 -0.41910232791299562 0 0.21088494443676881 -0.41598262622983972 0 0.1911717259170673 -0.41910232791299562 0 0.18851111772050869 -0.41383358608972459 0 0.21088494443676881 -0.41598262622983972 0 0.18851111772050869 -0.41383358608972459 0 0.21088494443676881 -0.41598262622983972 0 0.208966154163157 -0.40126827473642579 0 0.1911717259170673 -0.41910232791299562 0 0.18851111772050869 -0.41383358608972459 0 0.21088494443676881 -0.41598262622983972 0 0.22155668588658281 -0.40529615173032069 0 0.208966154163157 -0.40126827473642579 0 0.21088494443676881 -0.41598262622983972 0 0.20473537155931409 -0.42802668409371708 0 0.21246462128442831 -0.43168381348743168 0 0.21088494443676881 -0.41598262622983972 0 0.21246462128442831 -0.43168381348743168 0 0.21959695705502991 -0.42408781639437282 0 0.20442019459899149 -0.44533796874460208 0 0.20473537155931409 -0.42802668409371708 0 0.21246462128442831 -0.43168381348743168 0 0.21246462128442831 -0.43168381348743168 0 0.21959695705502991 -0.42408781639437282 0 0.22802564347410281 -0.43657531089878487 0 0.22802564347410281 -0.43657531089878487 0 0.23614533994983331 -0.4244462479719151 0 0.23059816295646979 -0.4128629245466815 0 0.22802564347410281 -0.43657531089878487 0 0.23059816295646979 -0.4128629245466815 0 0.21959695705502991 -0.42408781639437282 0 0.22802564347410281 -0.43657531089878487 0 0.23059816295646979 -0.4128629245466815 0 0.22802564347410281 -0.43657531089878487 0 0.2418992233321238 -0.43333026798624508 0 0.23614533994983331 -0.4244462479719151 0 0.2418992233321238 -0.43333026798624508 0 0.23614533994983331 -0.4244462479719151 0 0.2453827316299185 -0.42192330194190181 0 0.25513396950241118 -0.43290986753561628 0 0.2418992233321238 -0.43333026798624508 0 0.2453827316299185 -0.42192330194190181 0 0.256136481120742 -0.41447562176841068 0 0.2453827316299185 -0.42192330194190181 0 0.24629253832767661 -0.41022035877505542 0 0.2453827316299185 -0.42192330194190181 0 0.24629253832767661 -0.41022035877505542 0 0.2366098857920339 -0.41191154353144788 0 0.23614533994983331 -0.4244462479719151 0 0.2366098857920339 -0.41191154353144788 0 0.23059816295646979 -0.4128629245466815 0 0.23614533994983331 -0.4244462479719151 0 0.2453827316299185 -0.42192330194190181 0 0.2366098857920339 -0.41191154353144788 0 0.24629253832767661 -0.41022035877505542 0 0.2366098857920339 -0.41191154353144788 0 0.2422505545635501 -0.40276464775944387 0 0.21088494443676881 -0.41598262622983972 0 0.23059816295646979 -0.4128629245466815 0 0.2366098857920339 -0.41191154353144788 0 0.23059816295646979 -0.4128629245466815 0 0.23156745731421779 -0.4039283829592023 0 0.23059816295646979 -0.4128629245466815 0 0.22155668588658281 -0.40529615173032069 0 0.23156745731421779 -0.4039283829592023 0 0.23059816295646979 -0.4128629245466815 0 0.23156745731421779 -0.4039283829592023 0 0.21088494443676881 -0.41598262622983972 0 0.23059816295646979 -0.4128629245466815 0 0.22155668588658281 -0.40529615173032069 0 0.21088494443676881 -0.41598262622983972 0 0.21959695705502991 -0.42408781639437282 0 0.23059816295646979 -0.4128629245466815 0 0.2366098857920339 -0.41191154353144788 0 0.23059816295646979 -0.4128629245466815 0 0.22155668588658281 -0.40529615173032069 0 0.22942119060580499 -0.38870296338312649 0 0.208966154163157 -0.40126827473642579 0 0.22155668588658281 -0.40529615173032069 0 0.23156745731421779 -0.4039283829592023 0 0.22942119060580499 -0.38870296338312649 0 0.22942119060580499 -0.38870296338312649 0 0.208966154163157 -0.40126827473642579 0 0.23156745731421779 -0.4039283829592023 0 0.24309899287842279 -0.39271330151873202 0 0.2422505545635501 -0.40276464775944387 0 0.2366098857920339 -0.41191154353144788 0 0.23156745731421779 -0.4039283829592023 0 0.2422505545635501 -0.40276464775944387 0 0.23156745731421779 -0.4039283829592023 0 0.24309899287842279 -0.39271330151873202 0 0.22942119060580499 -0.38870296338312649 0 0.25108303853213881 -0.40002667887407228 0 0.24629253832767661 -0.41022035877505542 0 0.2422505545635501 -0.40276464775944387 0 0.25108303853213881 -0.40002667887407228 0 0.24309899287842279 -0.39271330151873202 0 0.2422505545635501 -0.40276464775944387 0 0.24987622704845311 -0.37613765202982719 0 0.22942119060580499 -0.38870296338312649 0 0.24309899287842279 -0.39271330151873202 0 0.24987622704845311 -0.37613765202982719 0 0.22942119060580499 -0.38870296338312649 0 0.24987622704845311 -0.37613765202982719 0 0.23474048966473349 -0.38137370792841258 0 0.22942119060580499 -0.38870296338312649 0 0.25687819372407023 -0.38903915957053298 0 0.24309899287842279 -0.39271330151873202 0 0.24987622704845311 -0.37613765202982719 0 0.23679608458568241 -0.3713456781615978 0 0.24987622704845311 -0.37613765202982719 0 0.23474048966473349 -0.38137370792841258 0 0.23474048966473349 -0.38137370792841258 0 0.23010576568282681 -0.37607478874810818 0 0.22189277223980711 -0.38054577212349588 0 0.23474048966473349 -0.38137370792841258 0 0.22189277223980711 -0.38054577212349588 0 0.20961824525516401 -0.3936281247522696 0 0.23474048966473349 -0.38137370792841258 0 0.22942119060580499 -0.38870296338312649 0 0.20961824525516401 -0.3936281247522696 0 0.23679608458568241 -0.3713456781615978 0 0.23474048966473349 -0.38137370792841258 0 0.23010576568282681 -0.37607478874810818 0 0.23474048966473349 -0.38137370792841258 0 0.20961824525516401 -0.3936281247522696 0 0.22699371624108439 -0.37103399677892651 0 0.23010576568282681 -0.37607478874810818 0 0.22189277223980711 -0.38054577212349588 0 0.21663927632257499 -0.37152038636996992 0 0.22189277223980711 -0.38054577212349588 0 0.21119602619295649 -0.38157571206759561 0 0.21663927632257499 -0.37152038636996992 0 0.21119602619295649 -0.38157571206759561 0 0.20576161095015591 -0.37595213443190167 0 0.21119602619295649 -0.38157571206759561 0 0.20576161095015591 -0.37595213443190167 0 0.20229958674085519 -0.38616776423662919 0 0.21119602619295649 -0.38157571206759561 0 0.20961824525516401 -0.3936281247522696 0 0.20229958674085519 -0.38616776423662919 0 0.22189277223980711 -0.38054577212349588 0 0.21119602619295649 -0.38157571206759561 0 0.20961824525516401 -0.3936281247522696 0 0.22942119060580499 -0.38870296338312649 0 0.208966154163157 -0.40126827473642579 0 0.20961824525516401 -0.3936281247522696 0 0.20961824525516401 -0.3936281247522696 0 0.18449600084559339 -0.40588254157612419 0 0.20961824525516401 -0.3936281247522696 0 0.19262774622386039 -0.39991289132556063 0 0.20229958674085519 -0.38616776423662919 0 0.18851111772050869 -0.41383358608972459 0 0.20961824525516401 -0.3936281247522696 0 0.18449600084559339 -0.40588254157612419 0 0.19262774622386039 -0.39991289132556063 0 0.193172237845981 -0.38760648281860499 0 0.20229958674085519 -0.38616776423662919 0 0.20961824525516401 -0.3936281247522696 0 0.19262774622386039 -0.39991289132556063 0 0.18449600084559339 -0.40588254157612419 0 0.18851111772050869 -0.41383358608972459 0 0.208966154163157 -0.40126827473642579 0 0.20961824525516401 -0.3936281247522696 0 0.19262774622386039 -0.39991289132556063 0 0.18963514604776821 -0.39361523539988952 0 0.193172237845981 -0.38760648281860499 0 0.19262774622386039 -0.39991289132556063 0 0.18963514604776821 -0.39361523539988952 0 0.18221634088723479 -0.40136818287387582 0 0.18963514604776821 -0.39361523539988952 0 0.193172237845981 -0.38760648281860499 0 0.18267650324237161 -0.39405502657648112 0 0.193172237845981 -0.38760648281860499 0 0.1910424400336663 -0.37547354736401328 0 0.18267650324237161 -0.39405502657648112 0 0.20576161095015591 -0.37595213443190167 0 0.1910424400336663 -0.37547354736401328 0 0.20229958674085519 -0.38616776423662919 0 0.193172237845981 -0.38760648281860499 0 0.1910424400336663 -0.37547354736401328 0 0.20229958674085519 -0.38616776423662919 0 0.1910424400336663 -0.37547354736401328 0 0.17822948803450961 -0.38676940160015832 0 0.1737051017910701 -0.38004230502140057 0 0.1910424400336663 -0.37547354736401328 0 0.18267650324237161 -0.39405502657648112 0 0.1910424400336663 -0.37547354736401328 0 0.17822948803450961 -0.38676940160015832 0 0.18267650324237161 -0.39405502657648112 0 0.17822948803450961 -0.38676940160015832 0 0.17910183421640119 -0.39520059623836468 0 0.1646215608890387 -0.38907553280053181 0 0.17822948803450961 -0.38676940160015832 0 0.1737051017910701 -0.38004230502140057 0 0.1646215608890387 -0.38907553280053181 0 0.17822948803450961 -0.38676940160015832 0 0.18267650324237161 -0.39405502657648112 0 0.17910183421640119 -0.39520059623836468 0 0.18221634088723479 -0.40136818287387582 0 0.17910183421640119 -0.39520059623836468 0 0.15805845094365739 -0.40474493864538458 0 0.18963514604776821 -0.39361523539988952 0 0.18267650324237161 -0.39405502657648112 0 0.18221634088723479 -0.40136818287387582 0 0.18267650324237161 -0.39405502657648112 0 0.18221634088723479 -0.40136818287387582 0 0.17910183421640119 -0.39520059623836468 0 0.18221634088723479 -0.40136818287387582 0 0.17910183421640119 -0.39520059623836468 0 0.19262774622386039 -0.39991289132556063 0 0.18221634088723479 -0.40136818287387582 0 0.19262774622386039 -0.39991289132556063 0 0.18449600084559339 -0.40588254157612419 0 0.18221634088723479 -0.40136818287387582 0 0.18449600084559339 -0.40588254157612419 0 0.18221634088723479 -0.40136818287387582 0 0.17910183421640119 -0.39520059623836468 0 0.15805845094365739 -0.40474493864538458 0 0.1646215608890387 -0.38907553280053181 0 0.18221634088723479 -0.40136818287387582 0 0.15805845094365739 -0.40474493864538458 0 0.15805845094365739 -0.40474493864538458 0 0.1646215608890387 -0.38907553280053181 0 0.14706277844018539 -0.39464292458295508 0 0.1737051017910701 -0.38004230502140057 0 0.1646215608890387 -0.38907553280053181 0 0.16307541855137739 -0.37743582412871929 0 0.17035242753357599 -0.36877211446365682 0 0.1737051017910701 -0.38004230502140057 0 0.16307541855137739 -0.37743582412871929 0 0.1569593121701936 -0.36832063090657668 0 0.16307541855137739 -0.37743582412871929 0 0.14973869037300869 -0.38096853745143089 0 0.1646215608890387 -0.38907553280053181 0 0.16307541855137739 -0.37743582412871929 0 0.14973869037300869 -0.38096853745143089 0 0.1646215608890387 -0.38907553280053181 0 0.14973869037300869 -0.38096853745143089 0 0.14706277844018539 -0.39464292458295508 0 0.14973869037300869 -0.38096853745143089 0 0.1375772795987745 -0.38493757303029391 0 0.14706277844018539 -0.39464292458295508 0 0.13524945632583441 -0.37311377610700652 0 0.14973869037300869 -0.38096853745143089 0 0.1375772795987745 -0.38493757303029391 0 0.13524945632583441 -0.37311377610700652 0 0.1375772795987745 -0.38493757303029391 0 0.12609635470998201 -0.38402791619100712 0 0.1375772795987745 -0.38493757303029391 0 0.12609635470998201 -0.38402791619100712 0 0.13569313113510631 -0.39589912548093298 0 0.12645644117523869 -0.39722706905544619 0 0.13569313113510631 -0.39589912548093298 0 0.1339005610000801 -0.40812169441689322 0 0.12645644117523869 -0.39722706905544619 0 0.1339005610000801 -0.40812169441689322 0 0.1250254850364893 -0.40936224001308058 0 0.12609635470998201 -0.38402791619100712 0 0.12645644117523869 -0.39722706905544619 0 0.13569313113510631 -0.39589912548093298 0 0.1375772795987745 -0.38493757303029391 0 0.13569313113510631 -0.39589912548093298 0 0.14706277844018539 -0.39464292458295508 0 0.13569313113510631 -0.39589912548093298 0 0.14706277844018539 -0.39464292458295508 0 0.1339005610000801 -0.40812169441689322 0 0.13569313113510631 -0.39589912548093298 0 0.1339005610000801 -0.40812169441689322 0 0.15805845094365739 -0.40474493864538458 0 0.14706277844018539 -0.39464292458295508 0 0.1339005610000801 -0.40812169441689322 0 0.15805845094365739 -0.40474493864538458 0 0.1339005610000801 -0.40812169441689322 0 0.15805845094365739 -0.40474493864538458 0 0.15398562739609989 -0.414436145328195 0 0.14500783119440661 -0.41410657591589572 0 0.15805845094365739 -0.40474493864538458 0 0.14500783119440661 -0.41410657591589572 0 0.1339005610000801 -0.40812169441689322 0 0.15398562739609989 -0.414436145328195 0 0.15088002640467921 -0.42009116626417142 0 0.14500783119440661 -0.41410657591589572 0 0.15088002640467921 -0.42009116626417142 0 0.15979138776423191 -0.42406840149736191 0 0.15636365466176849 -0.41960526040447821 0 0.15398562739609989 -0.414436145328195 0 0.15088002640467921 -0.42009116626417142 0 0.15636365466176849 -0.41960526040447821 0 0.15088002640467921 -0.42009116626417142 0 0.14500783119440661 -0.41410657591589572 0 0.14354831806896931 -0.42663893719234869 0 0.14500783119440661 -0.41410657591589572 0 0.1339005610000801 -0.40812169441689322 0 0.13212255532719441 -0.42024495614079282 0 0.14500783119440661 -0.41410657591589572 0 0.13212255532719441 -0.42024495614079282 0 0.14354831806896931 -0.42663893719234869 0 0.1339005610000801 -0.40812169441689322 0 0.13212255532719441 -0.42024495614079282 0 0.13212255532719441 -0.42024495614079282 0 0.1250254850364893 -0.40936224001308058 0 0.117866085899093 -0.41583132647739651 0 0.13212255532719441 -0.42024495614079282 0 0.1250254850364893 -0.40936224001308058 0 0.1339005610000801 -0.40812169441689322 0 0.13212255532719441 -0.42024495614079282 0 0.1250254850364893 -0.40936224001308058 0 0.1339005610000801 -0.40812169441689322 0 0.1250254850364893 -0.40936224001308058 0 0.13212255532719441 -0.42024495614079282 0 0.14354831806896931 -0.42663893719234869 0 0.1460535583969573 -0.44160689079445481 0 0.13212255532719441 -0.42024495614079282 0 0.128223579302082 -0.44682997076052833 0 0.13212255532719441 -0.42024495614079282 0 0.128223579302082 -0.44682997076052833 0 0.1159996351348133 -0.43474120747525058 0 0.13212255532719441 -0.42024495614079282 0 0.1460535583969573 -0.44160689079445481 0 0.13212255532719441 -0.42024495614079282 0 0.1460535583969573 -0.44160689079445481 0 0.128223579302082 -0.44682997076052833 0 0.15088002640467921 -0.42009116626417142 0 0.14354831806896931 -0.42663893719234869 0 0.15979138776423191 -0.42406840149736191 0 0.14354831806896931 -0.42663893719234869 0 0.15979138776423191 -0.42406840149736191 0 0.14354831806896931 -0.42663893719234869 0 0.15423293294423909 -0.43386412417913311 0 0.1460535583969573 -0.44160689079445481 0 0.14354831806896931 -0.42663893719234869 0 0.15423293294423909 -0.43386412417913311 0 0.15979138776423191 -0.42406840149736191 0 0.15423293294423909 -0.43386412417913311 0 0.16088991666547389 -0.43196094602310392 0 0.16557730454712019 -0.44172028084172121 0 0.1713980071398 -0.42434598792645378 0 0.15979138776423191 -0.42406840149736191 0 0.1760344574594947 -0.42149786580237669 0 0.15423293294423909 -0.43386412417913311 0 0.16088991666547389 -0.43196094602310392 0 0.15979138776423191 -0.42406840149736191 0 0.15979138776423191 -0.42406840149736191 0 0.1760344574594947 -0.42149786580237669 0 0.16626302434537371 -0.43076979168845952 0 0.17509911994716071 -0.43336510097506958 0 0.16557730454712019 -0.44172028084172121 0 0.16088991666547389 -0.43196094602310392 0 0.16626302434537371 -0.43076979168845952 0 0.16557730454712019 -0.44172028084172121 0 0.16626302434537371 -0.43076979168845952 0 0.1713980071398 -0.42434598792645378 0 0.17509911994716071 -0.43336510097506958 0 0.16626302434537371 -0.43076979168845952 0 0.1713980071398 -0.42434598792645378 0 0.15979138776423191 -0.42406840149736191 0 0.16088991666547389 -0.43196094602310392 0 0.16626302434537371 -0.43076979168845952 0 0.15979138776423191 -0.42406840149736191 0 0.15636365466176849 -0.41960526040447821 0 0.16176651730702801 -0.41283252991975622 0 0.17042982775368151 -0.41274390099030239 0 0.18221634088723479 -0.40136818287387582 0 0.15805845094365739 -0.40474493864538458 0 0.17042982775368151 -0.41274390099030239 0 0.15979138776423191 -0.42406840149736191 0 0.15636365466176849 -0.41960526040447821 0 0.17042982775368151 -0.41274390099030239 0 0.15636365466176849 -0.41960526040447821 0 0.17042982775368151 -0.41274390099030239 0 0.15979138776423191 -0.42406840149736191 0 0.17042982775368151 -0.41274390099030239 0 0.1760344574594947 -0.42149786580237669 0 0.15398562739609989 -0.414436145328195 0 0.15636365466176849 -0.41960526040447821 0 0.16176651730702801 -0.41283252991975622 0 0.15805845094365739 -0.40474493864538458 0 0.15398562739609989 -0.414436145328195 0 0.16176651730702801 -0.41283252991975622 0 0.15805845094365739 -0.40474493864538458 0 0.16176651730702801 -0.41283252991975622 0 0.17042982775368151 -0.41274390099030239 0 0.17042982775368151 -0.41274390099030239 0 0.1760344574594947 -0.42149786580237669 0 0.17986785094481991 -0.4134894736146324 0 0.18449600084559339 -0.40588254157612419 0 0.17042982775368151 -0.41274390099030239 0 0.18449600084559339 -0.40588254157612419 0 0.18221634088723479 -0.40136818287387582 0 0.17042982775368151 -0.41274390099030239 0 0.18449600084559339 -0.40588254157612419 0 0.17042982775368151 -0.41274390099030239 0 0.17986785094481991 -0.4134894736146324 0 0.18851111772050869 -0.41383358608972459 0 0.18449600084559339 -0.40588254157612419 0 0.18851111772050869 -0.41383358608972459 0 0.18449600084559339 -0.40588254157612419 0 0.17986785094481991 -0.4134894736146324 0 0.18851111772050869 -0.41383358608972459 0 0.1760344574594947 -0.42149786580237669 0 0.1911717259170673 -0.41910232791299562 0 0.1760344574594947 -0.42149786580237669 0 0.18851111772050869 -0.41383358608972459 0 0.1760344574594947 -0.42149786580237669 0 0.17986785094481991 -0.4134894736146324 0 0.1911717259170673 -0.41910232791299562 0 0.18851111772050869 -0.41383358608972459 0 0.1760344574594947 -0.42149786580237669 0 0.1911717259170673 -0.41910232791299562 0 0.1760344574594947 -0.42149786580237669 0 0.18484232774876749 -0.43033534366960768 0 0.18484232774876749 -0.43033534366960768 0 0.17509911994716071 -0.43336510097506958 0 0.18590039067086719 -0.44115637567916172 0 0.18484232774876749 -0.43033534366960768 0 0.17509911994716071 -0.43336510097506958 0 0.17653319474121221 -0.42750765242104072 0 0.1713980071398 -0.42434598792645378 0 0.17509911994716071 -0.43336510097506958 0 0.17653319474121221 -0.42750765242104072 0 0.1760344574594947 -0.42149786580237669 0 0.18484232774876749 -0.43033534366960768 0 0.17653319474121221 -0.42750765242104072 0 0.1713980071398 -0.42434598792645378 0 0.1760344574594947 -0.42149786580237669 0 0.17653319474121221 -0.42750765242104072 0 0.1713980071398 -0.42434598792645378 0 0.1760344574594947 -0.42149786580237669 0 0.17791556380287959 -0.4455361086535346 0 0.17376504419967539 -0.46076368888843938 0 0.16557730454712019 -0.44172028084172121 0 0.17509911994716071 -0.43336510097506958 0 0.17791556380287959 -0.4455361086535346 0 0.18590039067086719 -0.44115637567916172 0 0.17509911994716071 -0.43336510097506958 0 0.17791556380287959 -0.4455361086535346 0 0.16557730454712019 -0.44172028084172121 0 0.18923595964957429 -0.45067509688328122 0 0.17791556380287959 -0.4455361086535346 0 0.18590039067086719 -0.44115637567916172 0 0.18923595964957429 -0.45067509688328122 0 0.17791556380287959 -0.4455361086535346 0 0.17376504419967539 -0.46076368888843938 0 0.1938641377332887 -0.4633108835168005 0 0.18923595964957429 -0.45067509688328122 0 0.17376504419967539 -0.46076368888843938 0 0.1938641377332887 -0.4633108835168005 0 0.17376504419967539 -0.46076368888843938 0 0.17718182015316611 -0.48165544175840053 0 0.17376504419967539 -0.46076368888843938 0 0.15550290350416551 -0.45157236434768988 0 0.1539044029471725 -0.46809795184702829 0 0.17376504419967539 -0.46076368888843938 0 0.16557730454712019 -0.44172028084172121 0 0.15550290350416551 -0.45157236434768988 0 0.15423293294423909 -0.43386412417913311 0 0.16557730454712019 -0.44172028084172121 0 0.15550290350416551 -0.45157236434768988 0 0.15423293294423909 -0.43386412417913311 0 0.15550290350416551 -0.45157236434768988 0 0.1460535583969573 -0.44160689079445481 0 0.15550290350416551 -0.45157236434768988 0 0.1460535583969573 -0.44160689079445481 0 0.14153074802588431 -0.45654190970348868 0 0.1460535583969573 -0.44160689079445481 0 0.128223579302082 -0.44682997076052833 0 0.14153074802588431 -0.45654190970348868 0 0.128223579302082 -0.44682997076052833 0 0.12432460327697011 -0.47341498538026422 0 0.128223579302082 -0.44682997076052833 0 0.14153074802588431 -0.45654190970348868 0 0.12432460327697011 -0.47341498538026422 0 0.1539044029471725 -0.46809795184702829 0 0.14153074802588431 -0.45654190970348868 0 0.12432460327697011 -0.47341498538026422 0 0.15550290350416551 -0.45157236434768988 0 0.1539044029471725 -0.46809795184702829 0 0.14153074802588431 -0.45654190970348868 0 0.1539044029471725 -0.46809795184702829 0 0.15048103374274721 -0.48484579871078243 0 0.12432460327697011 -0.47341498538026422 0 0.1404625649124509 -0.5 0 0.15048103374274721 -0.48484579871078243 0 0.12432460327697011 -0.47341498538026422 0 0.1404625649124509 -0.5 0 0.12042562725185831 -0.49999999999999989 0 0.12432460327697011 -0.47341498538026422 0 0.1404625649124509 -0.5 0 0.15048103374274721 -0.48484579871078243 0 0.16049950257304349 -0.50000000000000033 0 0.16049950257304349 -0.50000000000000033 0 0.17718182015316611 -0.48165544175840053 0 0.15048103374274721 -0.48484579871078243 0 0.16049950257304349 -0.50000000000000033 0 0.17718182015316611 -0.48165544175840053 0 0.17376504419967539 -0.46076368888843938 0 0.1539044029471725 -0.46809795184702829 0 0.17718182015316611 -0.48165544175840053 0 0.1539044029471725 -0.46809795184702829 0 0.15048103374274721 -0.48484579871078243 0 0.17718182015316611 -0.48165544175840053 0 0.1938641377332887 -0.4633108835168005 0 0.17718182015316611 -0.48165544175840053 0 0.19122796324104871 -0.48466606029959602 0 0.1938641377332887 -0.4633108835168005 0 0.17718182015316611 -0.48165544175840053 0 0.16049950257304349 -0.50000000000000033 0 0.17718182015316611 -0.48165544175840053 0 0.18744203257390391 -0.5 0 0.19122796324104871 -0.48466606029959602 0 0.17718182015316611 -0.48165544175840053 0 0.18744203257390391 -0.5 0 0.072018957471098571 -0.48629524479662273 0 0.069142552082564368 -0.5 0 0.082735946582200875 -0.4892045976485363 0 0.072018957471098571 -0.48629524479662273 0 0.079568506083734697 -0.4785915255016745 0 0.082735946582200875 -0.4892045976485363 0 0.072018957471098571 -0.48629524479662273 0 0.062670741706174135 -0.48944359682069549 0 0.064881374578912687 -0.4815757870058418 0 0.072018957471098571 -0.48629524479662273 0 0.069142552082564368 -0.5 0 0.062670741706174135 -0.48944359682069549 0 0.073180054077148754 -0.46968413697177741 0 0.079568506083734697 -0.4785915255016745 0 0.081395248040860374 -0.46160025678040811 0 0.067447632246636219 -0.45716428258124142 0 0.05849497948899289 -0.47642287528831911 0 0.061758178687080389 -0.47580514524370598 0 0.072018957471098571 -0.48629524479662273 0 0.064881374578912687 -0.4815757870058418 0 0.070673492561877091 -0.4782128222507579 0 0.064881374578912687 -0.4815757870058418 0 0.066280053791524171 -0.47680462027284459 0 0.061758178687080389 -0.47580514524370598 0 0.064881374578912687 -0.4815757870058418 0 0.066280053791524171 -0.47680462027284459 0 0.070673492561877091 -0.4782128222507579 0 0.066280053791524171 -0.47680462027284459 0 0.067807169338226503 -0.47162472659107291 0 0.061758178687080389 -0.47580514524370598 0 0.066280053791524171 -0.47680462027284459 0 0.067807169338226503 -0.47162472659107291 0 0.070673492561877091 -0.4782128222507579 0 0.067807169338226503 -0.47162472659107291 0 0.073180054077148754 -0.46968413697177741 0 0.070673492561877091 -0.4782128222507579 0 0.073180054077148754 -0.46968413697177741 0 0.070673492561877091 -0.4782128222507579 0 0.079568506083734697 -0.4785915255016745 0 0.072018957471098571 -0.48629524479662273 0 0.070673492561877091 -0.4782128222507579 0 0.079568506083734697 -0.4785915255016745 0 0.096876661376123455 -0.48080012839020431 0 0.081395248040860374 -0.46160025678040811 0 0.096876661376123455 -0.48080012839020431 0 0.095349939854524335 -0.46404107218864848 0 0.081395248040860374 -0.46160025678040811 0 0.079568506083734697 -0.4785915255016745 0 0.082735946582200875 -0.4892045976485363 0 0.096876661376123455 -0.48080012839020431 0 0.079568506083734697 -0.4785915255016745 0 0.096876661376123455 -0.48080012839020431 0 0.081395248040860374 -0.46160025678040811 0 0.090750313396975479 -0.5 0 0.082735946582200875 -0.4892045976485363 0 0.096876661376123455 -0.48080012839020431 0 0.069142552082564368 -0.5 0 0.090750313396975479 -0.5 0 0.082735946582200875 -0.4892045976485363 0 0.1123580747113867 -0.50000000000000033 0 0.1124728586670535 -0.48406595427175642 0 0.096876661376123455 -0.48080012839020431 0 0.090750313396975479 -0.5 0 0.1123580747113867 -0.50000000000000033 0 0.096876661376123455 -0.48080012839020431 0 0.1123580747113867 -0.50000000000000033 0 0.096876661376123455 -0.48080012839020431 0 0.1123580747113867 -0.50000000000000033 0 0.12042562725185831 -0.49999999999999989 0 0.1124728586670535 -0.48406595427175642 0 0.12042562725185831 -0.49999999999999989 0 0.1124728586670535 -0.48406595427175642 0 0.12432460327697011 -0.47341498538026422 0 0.12042562725185831 -0.49999999999999989 0 0.12432460327697011 -0.47341498538026422 0 0.1124728586670535 -0.48406595427175642 0 0.12432460327697011 -0.47341498538026422 0 0.1082250197838846 -0.46311527911574241 0 0.096876661376123455 -0.48080012839020431 0 0.095349939854524335 -0.46404107218864848 0 0.1082250197838846 -0.46311527911574241 0 0.1124728586670535 -0.48406595427175642 0 0.096876661376123455 -0.48080012839020431 0 0.1082250197838846 -0.46311527911574241 0 0.095349939854524335 -0.46404107218864848 0 0.1082250197838846 -0.46311527911574241 0 0.094902830217228867 -0.45064862446823939 0 0.128223579302082 -0.44682997076052833 0 0.12432460327697011 -0.47341498538026422 0 0.1082250197838846 -0.46311527911574241 0 0.128223579302082 -0.44682997076052833 0 0.1069391861142964 -0.44299064961396012 0 0.1159996351348133 -0.43474120747525058 0 0.128223579302082 -0.44682997076052833 0 0.1082250197838846 -0.46311527911574241 0 0.1069391861142964 -0.44299064961396012 0 0.1082250197838846 -0.46311527911574241 0 0.1069391861142964 -0.44299064961396012 0 0.094902830217228867 -0.45064862446823939 0 0.1069391861142964 -0.44299064961396012 0 0.091812697424993442 -0.4386357446441016 0 0.098414951810672224 -0.43233268446502993 0 0.1069391861142964 -0.44299064961396012 0 0.094902830217228867 -0.45064862446823939 0 0.091812697424993442 -0.4386357446441016 0 0.094902830217228867 -0.45064862446823939 0 0.091812697424993442 -0.4386357446441016 0 0.082434724511159588 -0.44537142502386151 0 0.094902830217228867 -0.45064862446823939 0 0.082434724511159588 -0.44537142502386151 0 0.081395248040860374 -0.46160025678040811 0 0.091812697424993442 -0.4386357446441016 0 0.082434724511159588 -0.44537142502386151 0 0.078149012167117934 -0.43357211405594609 0 0.095349939854524335 -0.46404107218864848 0 0.094902830217228867 -0.45064862446823939 0 0.081395248040860374 -0.46160025678040811 0 0.067447632246636219 -0.45716428258124142 0 0.065913834705597293 -0.44240038517061198 0 0.057068655694905858 -0.46015288389510001 0 0.067447632246636219 -0.45716428258124142 0 0.05849497948899289 -0.47642287528831911 0 0.067807169338226503 -0.47162472659107291 0 0.067447632246636219 -0.45716428258124142 0 0.061758178687080389 -0.47580514524370598 0 0.081395248040860374 -0.46160025678040811 0 0.067447632246636219 -0.45716428258124142 0 0.065913834705597293 -0.44240038517061198 0 0.073180054077148754 -0.46968413697177741 0 0.081395248040860374 -0.46160025678040811 0 0.067447632246636219 -0.45716428258124142 0 0.067807169338226503 -0.47162472659107291 0 0.073180054077148754 -0.46968413697177741 0 0.067447632246636219 -0.45716428258124142 0 0.081395248040860374 -0.46160025678040811 0 0.065913834705597293 -0.44240038517061198 0 0.082434724511159588 -0.44537142502386151 0 0.081395248040860374 -0.46160025678040811 0 0.065913834705597293 -0.44240038517061198 0 0.082434724511159588 -0.44537142502386151 0 0.065913834705597293 -0.44240038517061198 0 0.078149012167117934 -0.43357211405594609 0 0.065921365320016911 -0.4273577277455588 0 0.073982485551444349 -0.42005290588181732 0 0.078149012167117934 -0.43357211405594609 0 0.065913834705597293 -0.44240038517061198 0 0.065921365320016911 -0.4273577277455588 0 0.078149012167117934 -0.43357211405594609 0 0.073982485551444349 -0.42005290588181732 0 0.069775570718114244 -0.40426700169235308 0 0.060774245729122177 -0.41691050055794487 0 0.065921365320016911 -0.4273577277455588 0 0.073982485551444349 -0.42005290588181732 0 0.060774245729122177 -0.41691050055794487 0 0.073982485551444349 -0.42005290588181732 0 0.086447448161059384 -0.41120764722282821 0 0.069775570718114244 -0.40426700169235308 0 0.073982485551444349 -0.42005290588181732 0 0.086447448161059384 -0.41120764722282821 0 0.088692331433278357 -0.42535053834926723 0 0.086447448161059384 -0.41120764722282821 0 0.093827427438274241 -0.41775801958915132 0 0.099702730965631758 -0.41290181884877419 0 0.086447448161059384 -0.41120764722282821 0 0.088692331433278357 -0.42535053834926723 0 0.093827427438274241 -0.41775801958915132 0 0.088692331433278357 -0.42535053834926723 0 0.097645949564215143 -0.42435504664253748 0 0.093827427438274241 -0.41775801958915132 0 0.073982485551444349 -0.42005290588181732 0 0.088692331433278357 -0.42535053834926723 0 0.078149012167117934 -0.43357211405594609 0 0.091812697424993442 -0.4386357446441016 0 0.088692331433278357 -0.42535053834926723 0 0.078149012167117934 -0.43357211405594609 0 0.091812697424993442 -0.4386357446441016 0 0.088692331433278357 -0.42535053834926723 0 0.098414951810672224 -0.43233268446502993 0 0.098414951810672224 -0.43233268446502993 0 0.097645949564215143 -0.42435504664253748 0 0.1061961683754654 -0.43004895598907111 0 0.088692331433278357 -0.42535053834926723 0 0.098414951810672224 -0.43233268446502993 0 0.097645949564215143 -0.42435504664253748 0 0.1061961683754654 -0.43004895598907111 0 0.11152958735588871 -0.42539382439527612 0 0.1045809803654715 -0.42051706085107571 0 0.097645949564215143 -0.42435504664253748 0 0.1061961683754654 -0.43004895598907111 0 0.1045809803654715 -0.42051706085107571 0 0.1069391861142964 -0.44299064961396012 0 0.098414951810672224 -0.43233268446502993 0 0.1061961683754654 -0.43004895598907111 0 0.1061961683754654 -0.43004895598907111 0 0.1159996351348133 -0.43474120747525058 0 0.11152958735588871 -0.42539382439527612 0 0.13212255532719441 -0.42024495614079282 0 0.1159996351348133 -0.43474120747525058 0 0.11851153239627241 -0.42275952171654291 0 0.1069391861142964 -0.44299064961396012 0 0.1061961683754654 -0.43004895598907111 0 0.1159996351348133 -0.43474120747525058 0 0.1159996351348133 -0.43474120747525058 0 0.11152958735588871 -0.42539382439527612 0 0.11851153239627241 -0.42275952171654291 0 0.11152958735588871 -0.42539382439527612 0 0.11851153239627241 -0.42275952171654291 0 0.1123596205074209 -0.41890237594444008 0 0.1250254850364893 -0.40936224001308058 0 0.117866085899093 -0.41583132647739651 0 0.1096180349996463 -0.41151587164058129 0 0.1250254850364893 -0.40936224001308058 0 0.1096180349996463 -0.41151587164058129 0 0.13212255532719441 -0.42024495614079282 0 0.11851153239627241 -0.42275952171654291 0 0.117866085899093 -0.41583132647739651 0 0.117866085899093 -0.41583132647739651 0 0.1123596205074209 -0.41890237594444008 0 0.1096180349996463 -0.41151587164058129 0 0.11851153239627241 -0.42275952171654291 0 0.117866085899093 -0.41583132647739651 0 0.1123596205074209 -0.41890237594444008 0 0.11152958735588871 -0.42539382439527612 0 0.1123596205074209 -0.41890237594444008 0 0.1045809803654715 -0.42051706085107571 0 0.1123596205074209 -0.41890237594444008 0 0.1096180349996463 -0.41151587164058129 0 0.1065506547415149 -0.41613106226330793 0 0.1096180349996463 -0.41151587164058129 0 0.1065506547415149 -0.41613106226330793 0 0.099702730965631758 -0.41290181884877419 0 0.1096180349996463 -0.41151587164058129 0 0.099702730965631758 -0.41290181884877419 0 0.1096180349996463 -0.41151587164058129 0 0.099702730965631758 -0.41290181884877419 0 0.1041447551606165 -0.40305668800175581 0 0.1123596205074209 -0.41890237594444008 0 0.1065506547415149 -0.41613106226330793 0 0.1045809803654715 -0.42051706085107571 0 0.1065506547415149 -0.41613106226330793 0 0.1045809803654715 -0.42051706085107571 0 0.099702730965631758 -0.41290181884877419 0 0.1045809803654715 -0.42051706085107571 0 0.093827427438274241 -0.41775801958915132 0 0.099702730965631758 -0.41290181884877419 0 0.097645949564215143 -0.42435504664253748 0 0.1045809803654715 -0.42051706085107571 0 0.093827427438274241 -0.41775801958915132 0 0.086447448161059384 -0.41120764722282821 0 0.099702730965631758 -0.41290181884877419 0 0.095691580682652475 -0.39908469234235189 0 0.095691580682652475 -0.39908469234235189 0 0.1041447551606165 -0.40305668800175581 0 0.1115666739945345 -0.38872436917531578 0 0.099702730965631758 -0.41290181884877419 0 0.095691580682652475 -0.39908469234235189 0 0.1041447551606165 -0.40305668800175581 0 0.1096180349996463 -0.41151587164058129 0 0.1041447551606165 -0.40305668800175581 0 0.1115666739945345 -0.38872436917531578 0 0.1250254850364893 -0.40936224001308058 0 0.1115666739945345 -0.38872436917531578 0 0.1096180349996463 -0.41151587164058129 0 0.1115666739945345 -0.38872436917531578 0 0.1250254850364893 -0.40936224001308058 0 0.1096180349996463 -0.41151587164058129 0 0.1115666739945345 -0.38872436917531578 0 0.12645644117523869 -0.39722706905544619 0 0.1250254850364893 -0.40936224001308058 0 0.1115666739945345 -0.38872436917531578 0 0.12609635470998201 -0.38402791619100712 0 0.1115666739945345 -0.38872436917531578 0 0.113745377556003 -0.36324200547299851 0 0.1115666739945345 -0.38872436917531578 0 0.113745377556003 -0.36324200547299851 0 0.12609635470998201 -0.38402791619100712 0 0.12645644117523869 -0.39722706905544619 0 0.1115666739945345 -0.38872436917531578 0 0.1115666739945345 -0.38872436917531578 0 0.096372132326470572 -0.36542491223168638 0 0.1115666739945345 -0.38872436917531578 0 0.089853218628298884 -0.38394717958202601 0 0.096372132326470572 -0.36542491223168638 0 0.095691580682652475 -0.39908469234235189 0 0.1115666739945345 -0.38872436917531578 0 0.089853218628298884 -0.38394717958202601 0 0.089853218628298884 -0.38394717958202601 0 0.082924844884061683 -0.39714926844771359 0 0.072939106935086151 -0.38728773006234168 0 0.089853218628298884 -0.38394717958202601 0 0.072939106935086151 -0.38728773006234168 0 0.07582030708563034 -0.37256671738353597 0 0.095691580682652475 -0.39908469234235189 0 0.089853218628298884 -0.38394717958202601 0 0.082924844884061683 -0.39714926844771359 0 0.086447448161059384 -0.41120764722282821 0 0.082924844884061683 -0.39714926844771359 0 0.069775570718114244 -0.40426700169235308 0 0.086447448161059384 -0.41120764722282821 0 0.095691580682652475 -0.39908469234235189 0 0.082924844884061683 -0.39714926844771359 0 0.069775570718114244 -0.40426700169235308 0 0.072939106935086151 -0.38728773006234168 0 0.058313699768321348 -0.39007371912844929 0 0.082924844884061683 -0.39714926844771359 0 0.069775570718114244 -0.40426700169235308 0 0.072939106935086151 -0.38728773006234168 0 0.072939106935086151 -0.38728773006234168 0 0.05933500968155693 -0.37671477575793533 0 0.058313699768321348 -0.39007371912844929 0 0.072939106935086151 -0.38728773006234168 0 0.05933500968155693 -0.37671477575793533 0 0.07582030708563034 -0.37256671738353597 0 0.05933500968155693 -0.37671477575793533 0 0.043300396670470892 -0.38581293046691678 0 0.039079294002052851 -0.37065651216905859 0 0.05933500968155693 -0.37671477575793533 0 0.058313699768321348 -0.39007371912844929 0 0.043300396670470892 -0.38581293046691678 0 0.058313699768321348 -0.39007371912844929 0 0.0466875803122518 -0.39705513158652528 0 0.054373060569327003 -0.40663711634463268 0 0.069775570718114244 -0.40426700169235308 0 0.058313699768321348 -0.39007371912844929 0 0.054373060569327003 -0.40663711634463268 0 0.058313699768321348 -0.39007371912844929 0 0.054373060569327003 -0.40663711634463268 0 0.0466875803122518 -0.39705513158652528 0 0.042121557959679479 -0.40689397827368962 0 0.054373060569327003 -0.40663711634463268 0 0.058313699768321348 -0.39007371912844929 0 0.0466875803122518 -0.39705513158652528 0 0.043300396670470892 -0.38581293046691678 0 0.0466875803122518 -0.39705513158652528 0 0.032645317368698572 -0.39721328630736241 0 0.043300396670470892 -0.38581293046691678 0 0.0466875803122518 -0.39705513158652528 0 0.032645317368698572 -0.39721328630736241 0 0.042121557959679479 -0.40689397827368962 0 0.032645317368698572 -0.39721328630736241 0 0.043300396670470892 -0.38581293046691678 0 0.025542853711361019 -0.38384675294920401 0 0.043300396670470892 -0.38581293046691678 0 0.025542853711361019 -0.38384675294920401 0 0.039079294002052851 -0.37065651216905859 0 0.025542853711361019 -0.38384675294920401 0 0.009690974369139977 -0.39295199195252922 0 0.016784443680880379 -0.36713146693108112 0 -0.0064694903547723136 -0.38059021958606692 0 0.009690974369139977 -0.39295199195252922 0 0.016784443680880379 -0.36713146693108112 0 0.032645317368698572 -0.39721328630736241 0 0.009690974369139977 -0.39295199195252922 0 0.030062121183744069 -0.41560348860952728 0 0.032645317368698572 -0.39721328630736241 0 0.025542853711361019 -0.38384675294920401 0 0.009690974369139977 -0.39295199195252922 0 0.009690974369139977 -0.39295199195252922 0 0.030062121183744069 -0.41560348860952728 0 0.01224976062295041 -0.42183763890738629 0 -0.0080625817845775948 -0.40608726553411861 0 0.009690974369139977 -0.39295199195252922 0 0.01224976062295041 -0.42183763890738629 0 0.009690974369139977 -0.39295199195252922 0 0.01224976062295041 -0.42183763890738629 0 0.01224976062295041 -0.42183763890738629 0 0.01480854687676085 -0.45072328586224342 0 0.030062121183744069 -0.41560348860952728 0 0.01224976062295041 -0.42183763890738629 0 0.028535899264767479 -0.43733174884408438 0 0.01224976062295041 -0.42183763890738629 0 0.028535899264767479 -0.43733174884408438 0 0.01480854687676085 -0.45072328586224342 0 0.030062121183744069 -0.41560348860952728 0 0.028535899264767479 -0.43733174884408438 0 0.039909128579099777 -0.42893709763038412 0 0.039909128579099777 -0.42893709763038412 0 0.050432421370333713 -0.42320051356081623 0 0.04400553312424714 -0.45021417746364167 0 0.039909128579099777 -0.42893709763038412 0 0.046509667952406512 -0.41833555967385072 0 0.050432421370333713 -0.42320051356081623 0 0.032645317368698572 -0.39721328630736241 0 0.030062121183744069 -0.41560348860952728 0 0.042121557959679479 -0.40689397827368962 0 0.030062121183744069 -0.41560348860952728 0 0.039909128579099777 -0.42893709763038412 0 0.046509667952406512 -0.41833555967385072 0 0.030062121183744069 -0.41560348860952728 0 0.042121557959679479 -0.40689397827368962 0 0.046509667952406512 -0.41833555967385072 0 0.054373060569327003 -0.40663711634463268 0 0.050432421370333713 -0.42320051356081623 0 0.046509667952406512 -0.41833555967385072 0 0.054373060569327003 -0.40663711634463268 0 0.050432421370333713 -0.42320051356081623 0 0.054373060569327003 -0.40663711634463268 0 0.060774245729122177 -0.41691050055794487 0 0.050432421370333713 -0.42320051356081623 0 0.046509667952406512 -0.41833555967385072 0 0.050432421370333713 -0.42320051356081623 0 0.042121557959679479 -0.40689397827368962 0 0.046509667952406512 -0.41833555967385072 0 0.054373060569327003 -0.40663711634463268 0 0.069775570718114244 -0.40426700169235308 0 0.054373060569327003 -0.40663711634463268 0 0.060774245729122177 -0.41691050055794487 0 0.050432421370333713 -0.42320051356081623 0 0.04400553312424714 -0.45021417746364167 0 0.065913834705597293 -0.44240038517061198 0 0.050432421370333713 -0.42320051356081623 0 0.065913834705597293 -0.44240038517061198 0 0.065921365320016911 -0.4273577277455588 0 0.050432421370333713 -0.42320051356081623 0 0.065921365320016911 -0.4273577277455588 0 0.060774245729122177 -0.41691050055794487 0 0.050432421370333713 -0.42320051356081623 0 0.065913834705597293 -0.44240038517061198 0 0.050432421370333713 -0.42320051356081623 0 0.04400553312424714 -0.45021417746364167 0 0.065913834705597293 -0.44240038517061198 0 0.057068655694905858 -0.46015288389510001 0 0.04400553312424714 -0.45021417746364167 0 0.057068655694905858 -0.46015288389510001 0 0.048043393468649283 -0.46676160836513853 0 0.04400553312424714 -0.45021417746364167 0 0.067447632246636219 -0.45716428258124142 0 0.057068655694905858 -0.46015288389510001 0 0.05849497948899289 -0.47642287528831911 0 0.057068655694905858 -0.46015288389510001 0 0.048043393468649283 -0.46676160836513853 0 0.052635520687858477 -0.47072247146996382 0 0.04400553312424714 -0.45021417746364167 0 0.037578644878161642 -0.47722784136646751 0 0.048043393468649283 -0.46676160836513853 0 0.04400553312424714 -0.45021417746364167 0 0.037578644878161642 -0.47722784136646751 0 0.04400553312424714 -0.45021417746364167 0 0.030366658319331299 -0.45781827645911538 0 0.037578644878161642 -0.47722784136646751 0 0.028535899264767479 -0.43733174884408438 0 0.039909128579099777 -0.42893709763038412 0 0.04400553312424714 -0.45021417746364167 0 0.028535899264767479 -0.43733174884408438 0 0.04400553312424714 -0.45021417746364167 0 0.030366658319331299 -0.45781827645911538 0 0.028535899264767479 -0.43733174884408438 0 0.01480854687676085 -0.45072328586224342 0 0.030366658319331299 -0.45781827645911538 0 -0.008216644178786571 -0.4466179140804285 0 0.01224976062295041 -0.42183763890738629 0 0.01480854687676085 -0.45072328586224342 0 0.01480854687676085 -0.45072328586224342 0 0.017367333130571299 -0.47960893281710049 0 0.0084119176919832291 -0.471974008478943 0 -0.0021957942935651631 -0.46571035637089769 0 0.01480854687676085 -0.45072328586224342 0 0.0084119176919832291 -0.471974008478943 0 -0.008216644178786571 -0.4466179140804285 0 -0.0021957942935651631 -0.46571035637089769 0 0.01480854687676085 -0.45072328586224342 0 0.01480854687676085 -0.45072328586224342 0 0.017367333130571299 -0.47960893281710049 0 0.01480854687676085 -0.45072328586224342 0 0.030366658319331299 -0.45781827645911538 0 0.0269046674527194 -0.47359432875914009 0 0.01480854687676085 -0.45072328586224342 0 0.0269046674527194 -0.47359432875914009 0 0.017367333130571299 -0.47960893281710049 0 0.017367333130571299 -0.47960893281710049 0 0.012735562036971701 -0.48508522326900949 0 0.035615270762982369 -0.48075404927866472 0 0.012735562036971701 -0.48508522326900949 0 0.035615270762982369 -0.48075404927866472 0 0.0269046674527194 -0.47359432875914009 0 0.017367333130571299 -0.47960893281710049 0 0.035615270762982369 -0.48075404927866472 0 0.017367333130571299 -0.47960893281710049 0 0.0084119176919832291 -0.471974008478943 0 0.012735562036971701 -0.48508522326900949 0 -0.00065605929082254884 -0.47874224407546379 0 0.0084119176919832291 -0.471974008478943 0 0.012735562036971701 -0.48508522326900949 0 -0.0021957942935651631 -0.46571035637089769 0 -0.00065605929082254884 -0.47874224407546379 0 0.0084119176919832291 -0.471974008478943 0 -0.010144146689038991 -0.48941639725935437 0 -0.00065605929082254884 -0.47874224407546379 0 0.012735562036971701 -0.48508522326900949 0 -0.010144146689038991 -0.48941639725935437 0 0.012735562036971701 -0.48508522326900949 0 -0.011489863113854141 -0.5 0 0.012735562036971701 -0.48508522326900949 0 0.01802246382714956 -0.5 0 0.01802246382714956 -0.5 0 0.025329369399590369 -0.48901546815995378 0 0.047534790768153173 -0.50000000000000044 0 0.012735562036971701 -0.48508522326900949 0 0.025329369399590369 -0.48901546815995378 0 0.035615270762982369 -0.48075404927866472 0 0.012735562036971701 -0.48508522326900949 0 0.01802246382714956 -0.5 0 0.025329369399590369 -0.48901546815995378 0 0.025329369399590369 -0.48901546815995378 0 0.035615270762982369 -0.48075404927866472 0 0.047534790768153173 -0.50000000000000044 0 0.030366658319331299 -0.45781827645911538 0 0.0269046674527194 -0.47359432875914009 0 0.037578644878161642 -0.47722784136646751 0 0.0269046674527194 -0.47359432875914009 0 0.037578644878161642 -0.47722784136646751 0 0.035615270762982369 -0.48075404927866472 0 0.048043393468649283 -0.46676160836513853 0 0.037578644878161642 -0.47722784136646751 0 0.046296380844488463 -0.47463440362945558 0 0.035615270762982369 -0.48075404927866472 0 0.046296380844488463 -0.47463440362945558 0 0.049693011087844949 -0.4756354888466594 0 0.037578644878161642 -0.47722784136646751 0 0.035615270762982369 -0.48075404927866472 0 0.046296380844488463 -0.47463440362945558 0 0.057068655694905858 -0.46015288389510001 0 0.052635520687858477 -0.47072247146996382 0 0.05849497948899289 -0.47642287528831911 0 0.035615270762982369 -0.48075404927866472 0 0.049693011087844949 -0.4756354888466594 0 0.05849497948899289 -0.47642287528831911 0 0.035615270762982369 -0.48075404927866472 0 0.05849497948899289 -0.47642287528831911 0 0.048043393468649283 -0.46676160836513853 0 0.046296380844488463 -0.47463440362945558 0 0.052635520687858477 -0.47072247146996382 0 0.049693011087844949 -0.4756354888466594 0 0.052635520687858477 -0.47072247146996382 0 0.05849497948899289 -0.47642287528831911 0 0.046296380844488463 -0.47463440362945558 0 0.049693011087844949 -0.4756354888466594 0 0.052635520687858477 -0.47072247146996382 0 0.05849497948899289 -0.47642287528831911 0 0.061758178687080389 -0.47580514524370598 0 0.062670741706174135 -0.48944359682069549 0 0.064881374578912687 -0.4815757870058418 0 0.05849497948899289 -0.47642287528831911 0 0.064881374578912687 -0.4815757870058418 0 0.05849497948899289 -0.47642287528831911 0 0.061758178687080389 -0.47580514524370598 0 0.069142552082564368 -0.5 0 0.062670741706174135 -0.48944359682069549 0 0.047534790768153173 -0.50000000000000044 0 0.05849497948899289 -0.47642287528831911 0 0.047534790768153173 -0.50000000000000044 0 0.035615270762982369 -0.48075404927866472 0 0.05849497948899289 -0.47642287528831911 0 0.047534790768153173 -0.50000000000000044 0 0.062670741706174135 -0.48944359682069549 0 0.05849497948899289 -0.47642287528831911 0 0.047534790768153173 -0.50000000000000044 0 0.089727975817252392 -0.29646224842349211 0 0.069967983226982527 -0.30495776272600778 0 0.075483032258224086 -0.28815868119130272 0 0.089727975817252392 -0.29646224842349211 0 0.088503230311337153 -0.27716835087377989 0 0.101883582619993 -0.28460947857741209 0 0.089727975817252392 -0.29646224842349211 0 0.075483032258224086 -0.28815868119130272 0 0.088503230311337153 -0.27716835087377989 0 0.089727975817252392 -0.29646224842349211 0 0.086214248119208581 -0.31193359067875348 0 0.069967983226982527 -0.30495776272600778 0 0.089727975817252392 -0.29646224842349211 0 0.086214248119208581 -0.31193359067875348 0 0.10049372866807189 -0.31082656242210721 0 0.069967983226982527 -0.30495776272600778 0 0.075483032258224086 -0.28815868119130272 0 0.059449054433483903 -0.28956707473318272 0 0.075483032258224086 -0.28815868119130272 0 0.0646939085167762 -0.2722383315448984 0 0.059449054433483903 -0.28956707473318272 0 0.0646939085167762 -0.2722383315448984 0 0.077350866508299074 -0.27549126298099152 0 0.080723294946858856 -0.26439968831398508 0 0.075483032258224086 -0.28815868119130272 0 0.0646939085167762 -0.2722383315448984 0 0.077350866508299074 -0.27549126298099152 0 0.0646939085167762 -0.2722383315448984 0 0.070005134957367529 -0.25889031236374099 0 0.080723294946858856 -0.26439968831398508 0 0.070005134957367529 -0.25889031236374099 0 0.061490933840310687 -0.25382890142296882 0 0.070069103552599196 -0.24823964670048029 0 0.0646939085167762 -0.2722383315448984 0 0.070005134957367529 -0.25889031236374099 0 0.060614126731859473 -0.2624009925450973 0 0.070005134957367529 -0.25889031236374099 0 0.061490933840310687 -0.25382890142296882 0 0.060614126731859473 -0.2624009925450973 0 0.070005134957367529 -0.25889031236374099 0 0.080071368274292315 -0.25145738896057979 0 0.080723294946858856 -0.26439968831398508 0 0.070005134957367529 -0.25889031236374099 0 0.080071368274292315 -0.25145738896057979 0 0.070069103552599196 -0.24823964670048029 0 0.080071368274292315 -0.25145738896057979 0 0.080723294946858856 -0.26439968831398508 0 0.090706365013478091 -0.25245448435890872 0 0.080723294946858856 -0.26439968831398508 0 0.090706365013478091 -0.25245448435890872 0 0.095060577752172304 -0.26241188567384149 0 0.075483032258224086 -0.28815868119130272 0 0.077350866508299074 -0.27549126298099152 0 0.088503230311337153 -0.27716835087377989 0 0.077350866508299074 -0.27549126298099152 0 0.080723294946858856 -0.26439968831398508 0 0.088503230311337153 -0.27716835087377989 0 0.080723294946858856 -0.26439968831398508 0 0.088503230311337153 -0.27716835087377989 0 0.095060577752172304 -0.26241188567384149 0 0.088503230311337153 -0.27716835087377989 0 0.1016952336099234 -0.27235330725820578 0 0.101883582619993 -0.28460947857741209 0 0.088503230311337153 -0.27716835087377989 0 0.1016952336099234 -0.27235330725820578 0 0.095060577752172304 -0.26241188567384149 0 0.1016952336099234 -0.27235330725820578 0 0.1104739380917857 -0.2612093749811526 0 0.1125548392743288 -0.27636744618484282 0 0.1016952336099234 -0.27235330725820578 0 0.1125548392743288 -0.27636744618484282 0 0.101883582619993 -0.28460947857741209 0 0.090706365013478091 -0.25245448435890872 0 0.099550463170151926 -0.25262580003909579 0 0.095060577752172304 -0.26241188567384149 0 0.1016952336099234 -0.27235330725820578 0 0.095060577752172304 -0.26241188567384149 0 0.1104739380917857 -0.2612093749811526 0 0.099550463170151926 -0.25262580003909579 0 0.095060577752172304 -0.26241188567384149 0 0.1104739380917857 -0.2612093749811526 0 0.099550463170151926 -0.25262580003909579 0 0.1104739380917857 -0.2612093749811526 0 0.1078238037173969 -0.24832262031645649 0 0.1311170075682456 -0.27142576198599933 0 0.1104739380917857 -0.2612093749811526 0 0.1212054647883809 -0.25073068226796852 0 0.1104739380917857 -0.2612093749811526 0 0.1212054647883809 -0.25073068226796852 0 0.1078238037173969 -0.24832262031645649 0 0.1311170075682456 -0.27142576198599933 0 0.1104739380917857 -0.2612093749811526 0 0.1311170075682456 -0.27142576198599933 0 0.1104739380917857 -0.2612093749811526 0 0.1193620271946058 -0.27249351692823448 0 0.1104739380917857 -0.2612093749811526 0 0.1125548392743288 -0.27636744618484282 0 0.1193620271946058 -0.27249351692823448 0 0.1125548392743288 -0.27636744618484282 0 0.1193620271946058 -0.27249351692823448 0 0.1233023238440631 -0.28097148456094378 0 0.1311170075682456 -0.27142576198599933 0 0.1193620271946058 -0.27249351692823448 0 0.1233023238440631 -0.28097148456094378 0 0.1233023238440631 -0.28097148456094378 0 0.1242383748246253 -0.29131174999725179 0 0.1141297936923768 -0.28878453930630188 0 0.1242383748246253 -0.29131174999725179 0 0.1141297936923768 -0.28878453930630188 0 0.1198701537204314 -0.30089140532399938 0 0.1141297936923768 -0.28878453930630188 0 0.10622170970645189 -0.29895353846799488 0 0.1198701537204314 -0.30089140532399938 0 0.1125548392743288 -0.27636744618484282 0 0.1233023238440631 -0.28097148456094378 0 0.1141297936923768 -0.28878453930630188 0 0.1125548392743288 -0.27636744618484282 0 0.1141297936923768 -0.28878453930630188 0 0.101883582619993 -0.28460947857741209 0 0.089727975817252392 -0.29646224842349211 0 0.101883582619993 -0.28460947857741209 0 0.10622170970645189 -0.29895353846799488 0 0.1141297936923768 -0.28878453930630188 0 0.101883582619993 -0.28460947857741209 0 0.10622170970645189 -0.29895353846799488 0 0.089727975817252392 -0.29646224842349211 0 0.10049372866807189 -0.31082656242210721 0 0.10622170970645189 -0.29895353846799488 0 0.10049372866807189 -0.31082656242210721 0 0.10622170970645189 -0.29895353846799488 0 0.1134387524627216 -0.31086840579325631 0 0.10622170970645189 -0.29895353846799488 0 0.1134387524627216 -0.31086840579325631 0 0.1198701537204314 -0.30089140532399938 0 0.1265219532001009 -0.3124330460259736 0 0.1134387524627216 -0.31086840579325631 0 0.1198701537204314 -0.30089140532399938 0 0.1265219532001009 -0.3124330460259736 0 0.1134387524627216 -0.31086840579325631 0 0.1192961391526948 -0.32261879728377291 0 0.1134387524627216 -0.31086840579325631 0 0.1192961391526948 -0.32261879728377291 0 0.1082288303285789 -0.31948708523568958 0 0.1192961391526948 -0.32261879728377291 0 0.1093748658769356 -0.32997486192450581 0 0.1082288303285789 -0.31948708523568958 0 0.1192961391526948 -0.32261879728377291 0 0.1168506625355451 -0.3296807312869221 0 0.1093748658769356 -0.32997486192450581 0 0.1192961391526948 -0.32261879728377291 0 0.12260601330919629 -0.33072698382653798 0 0.1168506625355451 -0.3296807312869221 0 0.13219802669416811 -0.32498852212276208 0 0.1192961391526948 -0.32261879728377291 0 0.12260601330919629 -0.33072698382653798 0 0.13051916655351839 -0.33696304048325831 0 0.12260601330919629 -0.33072698382653798 0 0.1159240811174677 -0.33775964177068091 0 0.12260601330919629 -0.33072698382653798 0 0.1159240811174677 -0.33775964177068091 0 0.1161256318033537 -0.33540228211287182 0 0.12260601330919629 -0.33072698382653798 0 0.1168506625355451 -0.3296807312869221 0 0.1161256318033537 -0.33540228211287182 0 0.13051916655351839 -0.33696304048325831 0 0.1159240811174677 -0.33775964177068091 0 0.13051916655351839 -0.33696304048325831 0 0.1159240811174677 -0.33775964177068091 0 0.123981461538115 -0.35128285539313481 0 0.1159240811174677 -0.33775964177068091 0 0.1161256318033537 -0.33540228211287182 0 0.1168506625355451 -0.3296807312869221 0 0.1161256318033537 -0.33540228211287182 0 0.1093748658769356 -0.32997486192450581 0 0.1159240811174677 -0.33775964177068091 0 0.1161256318033537 -0.33540228211287182 0 0.1093748658769356 -0.32997486192450581 0 0.1159240811174677 -0.33775964177068091 0 0.092335912071574502 -0.33904708650077298 0 0.1159240811174677 -0.33775964177068091 0 0.1093748658769356 -0.32997486192450581 0 0.092335912071574502 -0.33904708650077298 0 0.1093748658769356 -0.32997486192450581 0 0.096347407600029022 -0.32440529872184809 0 0.092335912071574502 -0.33904708650077298 0 0.1159240811174677 -0.33775964177068091 0 0.10211321446004019 -0.35101158716873732 0 0.092335912071574502 -0.33904708650077298 0 0.086214248119208581 -0.31193359067875348 0 0.10049372866807189 -0.31082656242210721 0 0.096347407600029022 -0.32440529872184809 0 0.10049372866807189 -0.31082656242210721 0 0.1134387524627216 -0.31086840579325631 0 0.1082288303285789 -0.31948708523568958 0 0.10049372866807189 -0.31082656242210721 0 0.096347407600029022 -0.32440529872184809 0 0.1082288303285789 -0.31948708523568958 0 0.1093748658769356 -0.32997486192450581 0 0.096347407600029022 -0.32440529872184809 0 0.1082288303285789 -0.31948708523568958 0 0.12784456261830821 -0.36308533366748658 0 0.12609635470998201 -0.38402791619100712 0 0.113745377556003 -0.36324200547299851 0 0.1159240811174677 -0.33775964177068091 0 0.113745377556003 -0.36324200547299851 0 0.123981461538115 -0.35128285539313481 0 0.1159240811174677 -0.33775964177068091 0 0.113745377556003 -0.36324200547299851 0 0.1159240811174677 -0.33775964177068091 0 0.113745377556003 -0.36324200547299851 0 0.10211321446004019 -0.35101158716873732 0 0.12784456261830821 -0.36308533366748658 0 0.113745377556003 -0.36324200547299851 0 0.123981461538115 -0.35128285539313481 0 0.1115666739945345 -0.38872436917531578 0 0.113745377556003 -0.36324200547299851 0 0.096372132326470572 -0.36542491223168638 0 0.113745377556003 -0.36324200547299851 0 0.10211321446004019 -0.35101158716873732 0 0.096372132326470572 -0.36542491223168638 0 0.089853218628298884 -0.38394717958202601 0 0.096372132326470572 -0.36542491223168638 0 0.07582030708563034 -0.37256671738353597 0 0.096372132326470572 -0.36542491223168638 0 0.082110249222110576 -0.35466523699539548 0 0.07582030708563034 -0.37256671738353597 0 0.10211321446004019 -0.35101158716873732 0 0.096372132326470572 -0.36542491223168638 0 0.082110249222110576 -0.35466523699539548 0 0.082110249222110576 -0.35466523699539548 0 0.092335912071574502 -0.33904708650077298 0 0.068747743025681235 -0.34033453123086538 0 0.10211321446004019 -0.35101158716873732 0 0.082110249222110576 -0.35466523699539548 0 0.092335912071574502 -0.33904708650077298 0 0.082110249222110576 -0.35466523699539548 0 0.068747743025681235 -0.34033453123086538 0 0.057272186363266697 -0.35960658745677498 0 0.082110249222110576 -0.35466523699539548 0 0.07582030708563034 -0.37256671738353597 0 0.057272186363266697 -0.35960658745677498 0 0.05933500968155693 -0.37671477575793533 0 0.07582030708563034 -0.37256671738353597 0 0.057272186363266697 -0.35960658745677498 0 0.086214248119208581 -0.31193359067875348 0 0.096347407600029022 -0.32440529872184809 0 0.078030795921920637 -0.32434601069550512 0 0.092335912071574502 -0.33904708650077298 0 0.068747743025681235 -0.34033453123086538 0 0.078030795921920637 -0.32434601069550512 0 0.092335912071574502 -0.33904708650077298 0 0.068747743025681235 -0.34033453123086538 0 0.096347407600029022 -0.32440529872184809 0 0.092335912071574502 -0.33904708650077298 0 0.078030795921920637 -0.32434601069550512 0 0.068747743025681235 -0.34033453123086538 0 0.078030795921920637 -0.32434601069550512 0 0.053863538987460123 -0.3232816795844588 0 0.069967983226982527 -0.30495776272600778 0 0.078030795921920637 -0.32434601069550512 0 0.053863538987460123 -0.3232816795844588 0 0.086214248119208581 -0.31193359067875348 0 0.069967983226982527 -0.30495776272600778 0 0.078030795921920637 -0.32434601069550512 0 0.068747743025681235 -0.34033453123086538 0 0.045159573979787898 -0.34162197596095778 0 0.068747743025681235 -0.34033453123086538 0 0.053863538987460123 -0.3232816795844588 0 0.045159573979787898 -0.34162197596095778 0 0.053863538987460123 -0.3232816795844588 0 0.034832013842728909 -0.33032259781876938 0 0.045159573979787898 -0.34162197596095778 0 0.034832013842728909 -0.33032259781876938 0 0.045159573979787898 -0.34162197596095778 0 0.02157140493389462 -0.34290942069105018 0 0.045159573979787898 -0.34162197596095778 0 0.02157140493389462 -0.34290942069105018 0 0.053863538987460123 -0.3232816795844588 0 0.034832013842728909 -0.33032259781876938 0 0.03621734991660093 -0.31670946998547028 0 0.053863538987460123 -0.3232816795844588 0 0.03621734991660093 -0.31670946998547028 0 0.048768037075517537 -0.30442990221103089 0 0.05933500968155693 -0.37671477575793533 0 0.057272186363266697 -0.35960658745677498 0 0.039079294002052851 -0.37065651216905859 0 0.068747743025681235 -0.34033453123086538 0 0.045159573979787898 -0.34162197596095778 0 0.057272186363266697 -0.35960658745677498 0 0.045159573979787898 -0.34162197596095778 0 0.034512899630155462 -0.3545258348651717 0 0.02157140493389462 -0.34290942069105018 0 0.045159573979787898 -0.34162197596095778 0 0.057272186363266697 -0.35960658745677498 0 0.034512899630155462 -0.3545258348651717 0 0.057272186363266697 -0.35960658745677498 0 0.034512899630155462 -0.3545258348651717 0 0.039079294002052851 -0.37065651216905859 0 0.025542853711361019 -0.38384675294920401 0 0.039079294002052851 -0.37065651216905859 0 0.016784443680880379 -0.36713146693108112 0 0.034512899630155462 -0.3545258348651717 0 0.039079294002052851 -0.37065651216905859 0 0.016784443680880379 -0.36713146693108112 0 0.034512899630155462 -0.3545258348651717 0 0.016784443680880379 -0.36713146693108112 0 0.02157140493389462 -0.34290942069105018 0 -0.0043130761299947744 -0.35643483176966217 0 0.016784443680880379 -0.36713146693108112 0 0.02157140493389462 -0.34290942069105018 0 -0.0038616663111063101 -0.33241552487502413 0 -0.0043130761299947744 -0.35643483176966217 0 0.02157140493389462 -0.34290942069105018 0 -0.0043130761299947744 -0.35643483176966217 0 -0.0064694903547723136 -0.38059021958606692 0 0.016784443680880379 -0.36713146693108112 0 0.03621734991660093 -0.31670946998547028 0 0.020048637459846991 -0.32439583124448262 0 0.029165048793799431 -0.30349547286963757 0 0.034832013842728909 -0.33032259781876938 0 0.03621734991660093 -0.31670946998547028 0 0.020048637459846991 -0.32439583124448262 0 0.020048637459846991 -0.32439583124448262 0 0.0094652366165251054 -0.31053241408104548 0 0.029165048793799431 -0.30349547286963757 0 0.034832013842728909 -0.33032259781876938 0 0.020048637459846991 -0.32439583124448262 0 0.02157140493389462 -0.34290942069105018 0 -0.0038616663111063101 -0.33241552487502413 0 0.020048637459846991 -0.32439583124448262 0 0.02157140493389462 -0.34290942069105018 0 -0.0038616663111063101 -0.33241552487502413 0 0.020048637459846991 -0.32439583124448262 0 0.0094652366165251054 -0.31053241408104548 0 -0.01007927323019326 -0.3103345258507364 0 0.0094652366165251054 -0.31053241408104548 0 0.0017563221397047381 -0.2997067901486577 0 0.0094652366165251054 -0.31053241408104548 0 0.0017563221397047381 -0.2997067901486577 0 0.017453688627786131 -0.29322190620108468 0 0.0017563221397047381 -0.2997067901486577 0 0.0066437179820165657 -0.2861171845936395 0 0.017453688627786131 -0.29322190620108468 0 -0.0080748459131490501 -0.2914060437848453 0 0.0017563221397047381 -0.2997067901486577 0 0.0066437179820165657 -0.2861171845936395 0 0.0066437179820165657 -0.2861171845936395 0 0.017453688627786131 -0.29322190620108468 0 0.01908241754038794 -0.28073467218482329 0 0.017453688627786131 -0.29322190620108468 0 0.029398966714908509 -0.28692964748338379 0 0.029165048793799431 -0.30349547286963757 0 0.017453688627786131 -0.29322190620108468 0 0.029398966714908509 -0.28692964748338379 0 0.01908241754038794 -0.28073467218482329 0 0.0094652366165251054 -0.31053241408104548 0 0.017453688627786131 -0.29322190620108468 0 0.029165048793799431 -0.30349547286963757 0 0.03621734991660093 -0.31670946998547028 0 0.029165048793799431 -0.30349547286963757 0 0.048768037075517537 -0.30442990221103089 0 0.029165048793799431 -0.30349547286963757 0 0.043029943860180789 -0.28970337243015992 0 0.048768037075517537 -0.30442990221103089 0 0.029398966714908509 -0.28692964748338379 0 0.029165048793799431 -0.30349547286963757 0 0.043029943860180789 -0.28970337243015992 0 0.029398966714908509 -0.28692964748338379 0 0.043029943860180789 -0.28970337243015992 0 0.038396769586432553 -0.27977596087564799 0 0.043029943860180789 -0.28970337243015992 0 0.051749435803858171 -0.27840569125857739 0 0.038396769586432553 -0.27977596087564799 0 0.043029943860180789 -0.28970337243015992 0 0.059449054433483903 -0.28956707473318272 0 0.051749435803858171 -0.27840569125857739 0 0.043029943860180789 -0.28970337243015992 0 0.059449054433483903 -0.28956707473318272 0 0.048768037075517537 -0.30442990221103089 0 0.069967983226982527 -0.30495776272600778 0 0.059449054433483903 -0.28956707473318272 0 0.048768037075517537 -0.30442990221103089 0 0.069967983226982527 -0.30495776272600778 0 0.053863538987460123 -0.3232816795844588 0 0.048768037075517537 -0.30442990221103089 0 0.053380735395516472 -0.25867595766617779 0 0.04428054005230446 -0.26275141268032309 0 0.045372505498807933 -0.25408090721008542 0 0.053380735395516472 -0.25867595766617779 0 0.053158010572478251 -0.26777612517812432 0 0.04428054005230446 -0.26275141268032309 0 0.053380735395516472 -0.25867595766617779 0 0.045372505498807933 -0.25408090721008542 0 0.05268811686830014 -0.24901610311096159 0 0.053380735395516472 -0.25867595766617779 0 0.061490933840310687 -0.25382890142296882 0 0.05268811686830014 -0.24901610311096159 0 0.053380735395516472 -0.25867595766617779 0 0.060614126731859473 -0.2624009925450973 0 0.053158010572478251 -0.26777612517812432 0 0.053380735395516472 -0.25867595766617779 0 0.061490933840310687 -0.25382890142296882 0 0.060614126731859473 -0.2624009925450973 0 0.0646939085167762 -0.2722383315448984 0 0.060614126731859473 -0.2624009925450973 0 0.053158010572478251 -0.26777612517812432 0 0.0646939085167762 -0.2722383315448984 0 0.059449054433483903 -0.28956707473318272 0 0.051749435803858171 -0.27840569125857739 0 0.0646939085167762 -0.2722383315448984 0 0.051749435803858171 -0.27840569125857739 0 0.053158010572478251 -0.26777612517812432 0 0.053158010572478251 -0.26777612517812432 0 0.044229316934554799 -0.27218436537367241 0 0.04428054005230446 -0.26275141268032309 0 0.051749435803858171 -0.27840569125857739 0 0.053158010572478251 -0.26777612517812432 0 0.044229316934554799 -0.27218436537367241 0 0.044229316934554799 -0.27218436537367241 0 0.031885251388666561 -0.26470215361104171 0 0.04428054005230446 -0.26275141268032309 0 0.051749435803858171 -0.27840569125857739 0 0.044229316934554799 -0.27218436537367241 0 0.038396769586432553 -0.27977596087564799 0 0.044229316934554799 -0.27218436537367241 0 0.038396769586432553 -0.27977596087564799 0 0.029696712261103771 -0.27487286106778819 0 0.029398966714908509 -0.28692964748338379 0 0.038396769586432553 -0.27977596087564799 0 0.029696712261103771 -0.27487286106778819 0 0.044229316934554799 -0.27218436537367241 0 0.031885251388666561 -0.26470215361104171 0 0.029696712261103771 -0.27487286106778819 0 0.037315510146954597 -0.25849363249326118 0 0.031885251388666561 -0.26470215361104171 0 0.04428054005230446 -0.26275141268032309 0 0.037315510146954597 -0.25849363249326118 0 0.031885251388666561 -0.26470215361104171 0 0.03069464768829987 -0.25176037071845259 0 0.037315510146954597 -0.25849363249326118 0 0.04428054005230446 -0.26275141268032309 0 0.045372505498807933 -0.25408090721008542 0 0.045372505498807933 -0.25408090721008542 0 0.03069464768829987 -0.25176037071845259 0 0.042588116356466379 -0.2448823624008481 0 0.037315510146954597 -0.25849363249326118 0 0.045372505498807933 -0.25408090721008542 0 0.03069464768829987 -0.25176037071845259 0 0.031885251388666561 -0.26470215361104171 0 0.021199614426200629 -0.26114166245967918 0 0.019908913466960752 -0.27058631964059482 0 0.031885251388666561 -0.26470215361104171 0 0.03069464768829987 -0.25176037071845259 0 0.021199614426200629 -0.26114166245967918 0 0.03069464768829987 -0.25176037071845259 0 0.021199614426200629 -0.26114166245967918 0 0.016145176335298529 -0.25210595968411048 0 0.029398966714908509 -0.28692964748338379 0 0.029696712261103771 -0.27487286106778819 0 0.01908241754038794 -0.28073467218482329 0 0.031885251388666561 -0.26470215361104171 0 0.029696712261103771 -0.27487286106778819 0 0.019908913466960752 -0.27058631964059482 0 0.019908913466960752 -0.27058631964059482 0 0.01908241754038794 -0.28073467218482329 0 0.01128192931255503 -0.27464126756021451 0 0.029696712261103771 -0.27487286106778819 0 0.019908913466960752 -0.27058631964059482 0 0.01908241754038794 -0.28073467218482329 0 -0.01145854626600548 -0.26602311564559261 0 0.01128192931255503 -0.27464126756021451 0 0.0057158633005241696 -0.26337829885565528 0 0.0066437179820165657 -0.2861171845936395 0 0.01908241754038794 -0.28073467218482329 0 0.01128192931255503 -0.27464126756021451 0 0.019908913466960752 -0.27058631964059482 0 0.01128192931255503 -0.27464126756021451 0 0.0057158633005241696 -0.26337829885565528 0 -0.002848760243290064 -0.27761611820401882 0 0.0066437179820165657 -0.2861171845936395 0 0.01128192931255503 -0.27464126756021451 0 0.016145176335298529 -0.25210595968411048 0 0.0057158633005241696 -0.26337829885565528 0 0.0054759062840018038 -0.25064707341720888 0 0.021199614426200629 -0.26114166245967918 0 0.019908913466960752 -0.27058631964059482 0 0.0057158633005241696 -0.26337829885565528 0 0.021199614426200629 -0.26114166245967918 0 0.016145176335298529 -0.25210595968411048 0 0.0057158633005241696 -0.26337829885565528 0 -0.0009620894167222515 -0.25496392916579452 0 0.0057158633005241696 -0.26337829885565528 0 0.0054759062840018038 -0.25064707341720888 0 -0.0009620894167222515 -0.25496392916579452 0 -0.0029313858115674811 -0.24854412401401971 0 0.0054759062840018038 -0.25064707341720888 0 0.0054759062840018038 -0.25064707341720888 0 0.0026199421412959989 -0.2430643023623929 0 0.011589873569895199 -0.24127835128668559 0 -0.0029313858115674811 -0.24854412401401971 0 0.0054759062840018038 -0.25064707341720888 0 0.0026199421412959989 -0.2430643023623929 0 0.016145176335298529 -0.25210595968411048 0 0.0054759062840018038 -0.25064707341720888 0 0.011589873569895199 -0.24127835128668559 0 0.011589873569895199 -0.24127835128668559 0 0.010668172172219499 -0.2272828987723072 0 0.020574075722817331 -0.2351284197632682 0 0.0026199421412959989 -0.2430643023623929 0 0.011589873569895199 -0.24127835128668559 0 0.0017465435191736189 -0.23378549097037141 0 -0.00080535468136348092 -0.21995366459000901 0 0.010668172172219499 -0.2272828987723072 0 0.01016515501406726 -0.20926501301563591 0 -0.00080535468136348092 -0.21995366459000901 0 0.0017465435191736189 -0.23378549097037141 0 0.010668172172219499 -0.2272828987723072 0 0.010668172172219499 -0.2272828987723072 0 0.02170661161633574 -0.22145314359659171 0 0.01016515501406726 -0.20926501301563591 0 0.011589873569895199 -0.24127835128668559 0 0.0017465435191736189 -0.23378549097037141 0 0.010668172172219499 -0.2272828987723072 0 0.010668172172219499 -0.2272828987723072 0 0.02170661161633574 -0.22145314359659171 0 0.020574075722817331 -0.2351284197632682 0 0.02170661161633574 -0.22145314359659171 0 0.02866695829179056 -0.22960637228307629 0 0.036392787169896093 -0.22322562645731159 0 0.02170661161633574 -0.22145314359659171 0 0.02866695829179056 -0.22960637228307629 0 0.020574075722817331 -0.2351284197632682 0 0.02866695829179056 -0.22960637228307629 0 0.020574075722817331 -0.2351284197632682 0 0.032071787069821417 -0.24054619649286721 0 0.022195152742869501 -0.2444300013669817 0 0.020574075722817331 -0.2351284197632682 0 0.032071787069821417 -0.24054619649286721 0 0.03069464768829987 -0.25176037071845259 0 0.022195152742869501 -0.2444300013669817 0 0.032071787069821417 -0.24054619649286721 0 0.03069464768829987 -0.25176037071845259 0 0.016145176335298529 -0.25210595968411048 0 0.022195152742869501 -0.2444300013669817 0 0.016145176335298529 -0.25210595968411048 0 0.011589873569895199 -0.24127835128668559 0 0.022195152742869501 -0.2444300013669817 0 0.011589873569895199 -0.24127835128668559 0 0.022195152742869501 -0.2444300013669817 0 0.020574075722817331 -0.2351284197632682 0 -0.003739977245034012 -0.19168309442994089 0 0.010514116253606281 -0.1925853606064957 0 0.01016515501406726 -0.20926501301563591 0 0.010514116253606281 -0.1925853606064957 0 0.01016515501406726 -0.20926501301563591 0 0.018596641755985681 -0.20049862993462389 0 0.02170661161633574 -0.22145314359659171 0 0.01016515501406726 -0.20926501301563591 0 0.028304225500431591 -0.20785134554231141 0 0.01016515501406726 -0.20926501301563591 0 0.028304225500431591 -0.20785134554231141 0 0.018596641755985681 -0.20049862993462389 0 0.02170661161633574 -0.22145314359659171 0 0.028304225500431591 -0.20785134554231141 0 0.036392787169896093 -0.22322562645731159 0 0.028304225500431591 -0.20785134554231141 0 0.018596641755985681 -0.20049862993462389 0 0.02540307025583758 -0.19229280057405279 0 0.010514116253606281 -0.1925853606064957 0 0.018596641755985681 -0.20049862993462389 0 0.02540307025583758 -0.19229280057405279 0 0.010514116253606281 -0.1925853606064957 0 0.02540307025583758 -0.19229280057405279 0 0.015764016274472759 -0.1812646672695073 0 0.02540307025583758 -0.19229280057405279 0 0.041440672425083092 -0.19607701236864419 0 0.030421272951226121 -0.1778391783376792 0 0.028304225500431591 -0.20785134554231141 0 0.02540307025583758 -0.19229280057405279 0 0.041440672425083092 -0.19607701236864419 0 0.041440672425083092 -0.19607701236864419 0 0.042310424588804782 -0.2140630995529598 0 0.055497750511994078 -0.2086068857692274 0 0.028304225500431591 -0.20785134554231141 0 0.041440672425083092 -0.19607701236864419 0 0.042310424588804782 -0.2140630995529598 0 0.028304225500431591 -0.20785134554231141 0 0.042310424588804782 -0.2140630995529598 0 0.036392787169896093 -0.22322562645731159 0 0.042310424588804782 -0.2140630995529598 0 0.055497750511994078 -0.2086068857692274 0 0.052955454276687589 -0.2198291654371925 0 0.062338921595789062 -0.21792006704763969 0 0.055497750511994078 -0.2086068857692274 0 0.052955454276687589 -0.2198291654371925 0 0.062338921595789062 -0.21792006704763969 0 0.055497750511994078 -0.2086068857692274 0 0.067863046951983474 -0.20503048868511209 0 0.055497750511994078 -0.2086068857692274 0 0.056257937900538298 -0.19577788601322099 0 0.067863046951983474 -0.20503048868511209 0 0.041440672425083092 -0.19607701236864419 0 0.056257937900538298 -0.19577788601322099 0 0.051449240160577621 -0.1762857105508405 0 0.041440672425083092 -0.19607701236864419 0 0.055497750511994078 -0.2086068857692274 0 0.056257937900538298 -0.19577788601322099 0 0.040491861427302538 -0.2355872617630255 0 0.042588116356466379 -0.2448823624008481 0 0.052307832003780613 -0.23884346229351339 0 0.040491861427302538 -0.2355872617630255 0 0.045866106706223042 -0.22907627795895011 0 0.052307832003780613 -0.23884346229351339 0 0.03069464768829987 -0.25176037071845259 0 0.042588116356466379 -0.2448823624008481 0 0.032071787069821417 -0.24054619649286721 0 0.040491861427302538 -0.2355872617630255 0 0.042588116356466379 -0.2448823624008481 0 0.032071787069821417 -0.24054619649286721 0 0.02866695829179056 -0.22960637228307629 0 0.040491861427302538 -0.2355872617630255 0 0.032071787069821417 -0.24054619649286721 0 0.02866695829179056 -0.22960637228307629 0 0.040491861427302538 -0.2355872617630255 0 0.036392787169896093 -0.22322562645731159 0 0.042310424588804782 -0.2140630995529598 0 0.036392787169896093 -0.22322562645731159 0 0.045866106706223042 -0.22907627795895011 0 0.040491861427302538 -0.2355872617630255 0 0.036392787169896093 -0.22322562645731159 0 0.045866106706223042 -0.22907627795895011 0 0.045866106706223042 -0.22907627795895011 0 0.058764067980626958 -0.22947949685718549 0 0.052307832003780613 -0.23884346229351339 0 0.045866106706223042 -0.22907627795895011 0 0.052955454276687589 -0.2198291654371925 0 0.058764067980626958 -0.22947949685718549 0 0.042310424588804782 -0.2140630995529598 0 0.045866106706223042 -0.22907627795895011 0 0.052955454276687589 -0.2198291654371925 0 0.062338921595789062 -0.21792006704763969 0 0.058764067980626958 -0.22947949685718549 0 0.065719467571416057 -0.22489822263154319 0 0.062338921595789062 -0.21792006704763969 0 0.052955454276687589 -0.2198291654371925 0 0.058764067980626958 -0.22947949685718549 0 0.058764067980626958 -0.22947949685718549 0 0.062159259289524899 -0.2368834247622158 0 0.052307832003780613 -0.23884346229351339 0 0.062159259289524899 -0.2368834247622158 0 0.052307832003780613 -0.23884346229351339 0 0.061229972926465738 -0.2445427902389527 0 0.045372505498807933 -0.25408090721008542 0 0.042588116356466379 -0.2448823624008481 0 0.05268811686830014 -0.24901610311096159 0 0.042588116356466379 -0.2448823624008481 0 0.052307832003780613 -0.23884346229351339 0 0.05268811686830014 -0.24901610311096159 0 0.061490933840310687 -0.25382890142296882 0 0.05268811686830014 -0.24901610311096159 0 0.061229972926465738 -0.2445427902389527 0 0.052307832003780613 -0.23884346229351339 0 0.05268811686830014 -0.24901610311096159 0 0.061229972926465738 -0.2445427902389527 0 0.061490933840310687 -0.25382890142296882 0 0.061229972926465738 -0.2445427902389527 0 0.070069103552599196 -0.24823964670048029 0 0.061229972926465738 -0.2445427902389527 0 0.070069103552599196 -0.24823964670048029 0 0.069856411684105391 -0.23913895996007839 0 0.062159259289524899 -0.2368834247622158 0 0.061229972926465738 -0.2445427902389527 0 0.069856411684105391 -0.23913895996007839 0 0.062159259289524899 -0.2368834247622158 0 0.069856411684105391 -0.23913895996007839 0 0.067142239376285745 -0.23139328163069281 0 0.069856411684105391 -0.23913895996007839 0 0.077788170153509889 -0.24196191377257101 0 0.076767606518392539 -0.23187249677345001 0 0.080071368274292315 -0.25145738896057979 0 0.070069103552599196 -0.24823964670048029 0 0.077788170153509889 -0.24196191377257101 0 0.070069103552599196 -0.24823964670048029 0 0.069856411684105391 -0.23913895996007839 0 0.077788170153509889 -0.24196191377257101 0 0.080071368274292315 -0.25145738896057979 0 0.090706365013478091 -0.25245448435890872 0 0.085906732882507178 -0.24385162082211831 0 0.080071368274292315 -0.25145738896057979 0 0.077788170153509889 -0.24196191377257101 0 0.085906732882507178 -0.24385162082211831 0 0.077788170153509889 -0.24196191377257101 0 0.085906732882507178 -0.24385162082211831 0 0.083256636250354649 -0.23616880796388259 0 0.077788170153509889 -0.24196191377257101 0 0.083256636250354649 -0.23616880796388259 0 0.076767606518392539 -0.23187249677345001 0 0.085906732882507178 -0.24385162082211831 0 0.089657973372422345 -0.23730775202069579 0 0.094006026236525903 -0.2441335510050745 0 0.085906732882507178 -0.24385162082211831 0 0.083256636250354649 -0.23616880796388259 0 0.089657973372422345 -0.23730775202069579 0 0.083256636250354649 -0.23616880796388259 0 0.089657973372422345 -0.23730775202069579 0 0.089763789457938253 -0.2306791647953326 0 0.089657973372422345 -0.23730775202069579 0 0.089763789457938253 -0.2306791647953326 0 0.096012267649498176 -0.23702186761809721 0 0.089657973372422345 -0.23730775202069579 0 0.094006026236525903 -0.2441335510050745 0 0.096012267649498176 -0.23702186761809721 0 0.090706365013478091 -0.25245448435890872 0 0.085906732882507178 -0.24385162082211831 0 0.094006026236525903 -0.2441335510050745 0 0.086446736705125371 -0.22420087797706609 0 0.091303359373345411 -0.22339335178318359 0 0.089763789457938253 -0.2306791647953326 0 0.086446736705125371 -0.22420087797706609 0 0.091303359373345411 -0.22339335178318359 0 0.086853981468707001 -0.2185547472363609 0 0.091303359373345411 -0.22339335178318359 0 0.086853981468707001 -0.2185547472363609 0 0.09077468002378962 -0.21857675351640271 0 0.091303359373345411 -0.22339335178318359 0 0.09077468002378962 -0.21857675351640271 0 0.094530837428433365 -0.22086489816084981 0 0.091303359373345411 -0.22339335178318359 0 0.089763789457938253 -0.2306791647953326 0 0.098670227838192195 -0.22970514568366851 0 0.086446736705125371 -0.22420087797706609 0 0.089763789457938253 -0.2306791647953326 0 0.083020570332336119 -0.22791650227557511 0 0.083256636250354649 -0.23616880796388259 0 0.083020570332336119 -0.22791650227557511 0 0.076767606518392539 -0.23187249677345001 0 0.083256636250354649 -0.23616880796388259 0 0.089763789457938253 -0.2306791647953326 0 0.083020570332336119 -0.22791650227557511 0 0.083020570332336119 -0.22791650227557511 0 0.077930889523722374 -0.22519622511208121 0 0.076767606518392539 -0.23187249677345001 0 0.083020570332336119 -0.22791650227557511 0 0.081291982893300085 -0.22046062379487821 0 0.077930889523722374 -0.22519622511208121 0 0.086446736705125371 -0.22420087797706609 0 0.083020570332336119 -0.22791650227557511 0 0.081291982893300085 -0.22046062379487821 0 0.086446736705125371 -0.22420087797706609 0 0.081291982893300085 -0.22046062379487821 0 0.086853981468707001 -0.2185547472363609 0 0.081291982893300085 -0.22046062379487821 0 0.077930889523722374 -0.22519622511208121 0 0.073706539318973169 -0.21796036257100029 0 0.072234091795087663 -0.22574485878751241 0 0.065719467571416057 -0.22489822263154319 0 0.073706539318973169 -0.21796036257100029 0 0.077930889523722374 -0.22519622511208121 0 0.072234091795087663 -0.22574485878751241 0 0.073706539318973169 -0.21796036257100029 0 0.069856411684105391 -0.23913895996007839 0 0.076767606518392539 -0.23187249677345001 0 0.067142239376285745 -0.23139328163069281 0 0.072234091795087663 -0.22574485878751241 0 0.076767606518392539 -0.23187249677345001 0 0.067142239376285745 -0.23139328163069281 0 0.077930889523722374 -0.22519622511208121 0 0.072234091795087663 -0.22574485878751241 0 0.076767606518392539 -0.23187249677345001 0 0.058764067980626958 -0.22947949685718549 0 0.062159259289524899 -0.2368834247622158 0 0.067142239376285745 -0.23139328163069281 0 0.058764067980626958 -0.22947949685718549 0 0.067142239376285745 -0.23139328163069281 0 0.065719467571416057 -0.22489822263154319 0 0.072234091795087663 -0.22574485878751241 0 0.067142239376285745 -0.23139328163069281 0 0.065719467571416057 -0.22489822263154319 0 0.062338921595789062 -0.21792006704763969 0 0.065719467571416057 -0.22489822263154319 0 0.073706539318973169 -0.21796036257100029 0 0.062338921595789062 -0.21792006704763969 0 0.067863046951983474 -0.20503048868511209 0 0.073706539318973169 -0.21796036257100029 0 0.067863046951983474 -0.20503048868511209 0 0.073706539318973169 -0.21796036257100029 0 0.079094442607528917 -0.20913243433380641 0 0.067863046951983474 -0.20503048868511209 0 0.081482512553192915 -0.1953056794767786 0 0.079094442607528917 -0.20913243433380641 0 0.056257937900538298 -0.19577788601322099 0 0.067863046951983474 -0.20503048868511209 0 0.066040058368007956 -0.18964665730407451 0 0.067863046951983474 -0.20503048868511209 0 0.066040058368007956 -0.18964665730407451 0 0.081482512553192915 -0.1953056794767786 0 0.081482512553192915 -0.1953056794767786 0 0.095454742848087734 -0.19451486061966669 0 0.093505174579280592 -0.1731787749771625 0 0.081482512553192915 -0.1953056794767786 0 0.08833530696517819 -0.21036332105093219 0 0.095454742848087734 -0.19451486061966669 0 0.08833530696517819 -0.21036332105093219 0 0.097404311116896569 -0.21585094626217091 0 0.095454742848087734 -0.19451486061966669 0 0.081291982893300085 -0.22046062379487821 0 0.073706539318973169 -0.21796036257100029 0 0.082946926161669862 -0.2149195339015407 0 0.082946926161669862 -0.2149195339015407 0 0.079094442607528917 -0.20913243433380641 0 0.08833530696517819 -0.21036332105093219 0 0.073706539318973169 -0.21796036257100029 0 0.082946926161669862 -0.2149195339015407 0 0.079094442607528917 -0.20913243433380641 0 0.081291982893300085 -0.22046062379487821 0 0.082946926161669862 -0.2149195339015407 0 0.086853981468707001 -0.2185547472363609 0 0.081482512553192915 -0.1953056794767786 0 0.079094442607528917 -0.20913243433380641 0 0.08833530696517819 -0.21036332105093219 0 0.082946926161669862 -0.2149195339015407 0 0.08833530696517819 -0.21036332105093219 0 0.086853981468707001 -0.2185547472363609 0 0.08833530696517819 -0.21036332105093219 0 0.086853981468707001 -0.2185547472363609 0 0.09077468002378962 -0.21857675351640271 0 0.08833530696517819 -0.21036332105093219 0 0.09077468002378962 -0.21857675351640271 0 0.092213447725184278 -0.21529843562297729 0 0.08833530696517819 -0.21036332105093219 0 0.092213447725184278 -0.21529843562297729 0 0.097404311116896569 -0.21585094626217091 0 0.09077468002378962 -0.21857675351640271 0 0.094501608789943028 -0.21679829355882299 0 0.094530837428433365 -0.22086489816084981 0 0.09077468002378962 -0.21857675351640271 0 0.092213447725184278 -0.21529843562297729 0 0.094501608789943028 -0.21679829355882299 0 0.094501608789943028 -0.21679829355882299 0 0.097404311116896569 -0.21585094626217091 0 0.094530837428433365 -0.22086489816084981 0 0.092213447725184278 -0.21529843562297729 0 0.094501608789943028 -0.21679829355882299 0 0.097404311116896569 -0.21585094626217091 0 0.097404311116896569 -0.21585094626217091 0 0.095454742848087734 -0.19451486061966669 0 0.097404311116896569 -0.21585094626217091 0 0.1059898830346106 -0.20430933332548051 0 0.095454742848087734 -0.19451486061966669 0 0.097404311116896569 -0.21585094626217091 0 0.1089347031997706 -0.21297733173581901 0 0.1146171121197104 -0.21980430615730401 0 0.097404311116896569 -0.21585094626217091 0 0.1059898830346106 -0.20430933332548051 0 0.1089347031997706 -0.21297733173581901 0 0.095454742848087734 -0.19451486061966669 0 0.1128143282819509 -0.19216489626002589 0 0.10772522460311169 -0.17968171223372481 0 0.1059898830346106 -0.20430933332548051 0 0.095454742848087734 -0.19451486061966669 0 0.1128143282819509 -0.19216489626002589 0 0.1128143282819509 -0.19216489626002589 0 0.1237689835273371 -0.19605207676116951 0 0.1178461100078927 -0.20838697738218431 0 0.1059898830346106 -0.20430933332548051 0 0.1128143282819509 -0.19216489626002589 0 0.1178461100078927 -0.20838697738218431 0 0.1128143282819509 -0.19216489626002589 0 0.1237689835273371 -0.19605207676116951 0 0.1232013989280239 -0.1819146573535104 0 0.1089347031997706 -0.21297733173581901 0 0.1178461100078927 -0.20838697738218431 0 0.1146171121197104 -0.21980430615730401 0 0.1059898830346106 -0.20430933332548051 0 0.1089347031997706 -0.21297733173581901 0 0.1178461100078927 -0.20838697738218431 0 0.1178461100078927 -0.20838697738218431 0 0.1146171121197104 -0.21980430615730401 0 0.12895394136930069 -0.22163642029703709 0 0.1146171121197104 -0.21980430615730401 0 0.12018370186474731 -0.23305432747703519 0 0.12895394136930069 -0.22163642029703709 0 0.097404311116896569 -0.21585094626217091 0 0.1146171121197104 -0.21980430615730401 0 0.12018370186474731 -0.23305432747703519 0 0.1212054647883809 -0.25073068226796852 0 0.12018370186474731 -0.23305432747703519 0 0.1059281586602189 -0.23527494890652931 0 0.13217397618885759 -0.25462043987800831 0 0.1212054647883809 -0.25073068226796852 0 0.12018370186474731 -0.23305432747703519 0 0.1212054647883809 -0.25073068226796852 0 0.1059281586602189 -0.23527494890652931 0 0.1078238037173969 -0.24832262031645649 0 0.1212054647883809 -0.25073068226796852 0 0.1059281586602189 -0.23527494890652931 0 0.099550463170151926 -0.25262580003909579 0 0.1078238037173969 -0.24832262031645649 0 0.10103467245524091 -0.24298905409433241 0 0.1059281586602189 -0.23527494890652931 0 0.1078238037173969 -0.24832262031645649 0 0.10103467245524091 -0.24298905409433241 0 0.099550463170151926 -0.25262580003909579 0 0.10103467245524091 -0.24298905409433241 0 0.094006026236525903 -0.2441335510050745 0 0.090706365013478091 -0.25245448435890872 0 0.099550463170151926 -0.25262580003909579 0 0.094006026236525903 -0.2441335510050745 0 0.1059281586602189 -0.23527494890652931 0 0.10103467245524091 -0.24298905409433241 0 0.096012267649498176 -0.23702186761809721 0 0.10103467245524091 -0.24298905409433241 0 0.094006026236525903 -0.2441335510050745 0 0.096012267649498176 -0.23702186761809721 0 0.1059281586602189 -0.23527494890652931 0 0.096012267649498176 -0.23702186761809721 0 0.098670227838192195 -0.22970514568366851 0 0.089763789457938253 -0.2306791647953326 0 0.096012267649498176 -0.23702186761809721 0 0.098670227838192195 -0.22970514568366851 0 0.097404311116896569 -0.21585094626217091 0 0.12018370186474731 -0.23305432747703519 0 0.097404311116896569 -0.21585094626217091 0 0.12018370186474731 -0.23305432747703519 0 0.1059281586602189 -0.23527494890652931 0 0.097404311116896569 -0.21585094626217091 0 0.1059281586602189 -0.23527494890652931 0 0.098670227838192195 -0.22970514568366851 0 0.091303359373345411 -0.22339335178318359 0 0.098670227838192195 -0.22970514568366851 0 0.094530837428433365 -0.22086489816084981 0 0.097404311116896569 -0.21585094626217091 0 0.098670227838192195 -0.22970514568366851 0 0.094530837428433365 -0.22086489816084981 0 0.097404311116896569 -0.21585094626217091 0 0.098670227838192195 -0.22970514568366851 0 0.1071373084330472 -0.14482826815459701 0 0.1035248479174861 -0.15311019857333261 0 0.098760878024456711 -0.14050656481393209 0 0.1071373084330472 -0.14482826815459701 0 0.1035248479174861 -0.15311019857333261 0 0.1121477659277255 -0.1503271840913511 0 0.1035248479174861 -0.15311019857333261 0 0.098760878024456711 -0.14050656481393209 0 0.091560400862706559 -0.15189516094014111 0 0.098760878024456711 -0.14050656481393209 0 0.099399694252258627 -0.1328638184600745 0 0.089615627146132512 -0.13061154690311971 0 0.099399694252258627 -0.1328638184600745 0 0.099525338641528904 -0.12611341339503321 0 0.089615627146132512 -0.13061154690311971 0 0.099525338641528904 -0.12611341339503321 0 0.1096969331969164 -0.13422374872821319 0 0.1121708616464093 -0.1216807098986791 0 0.099399694252258627 -0.1328638184600745 0 0.099525338641528904 -0.12611341339503321 0 0.1096969331969164 -0.13422374872821319 0 0.098760878024456711 -0.14050656481393209 0 0.099399694252258627 -0.1328638184600745 0 0.1096969331969164 -0.13422374872821319 0 0.1071373084330472 -0.14482826815459701 0 0.098760878024456711 -0.14050656481393209 0 0.1096969331969164 -0.13422374872821319 0 0.1096969331969164 -0.13422374872821319 0 0.1155243526086871 -0.14484298486410191 0 0.12532898621889721 -0.13663811256420449 0 0.1096969331969164 -0.13422374872821319 0 0.11997683785091839 -0.1276371159963853 0 0.12532898621889721 -0.13663811256420449 0 0.1096969331969164 -0.13422374872821319 0 0.11997683785091839 -0.1276371159963853 0 0.1121708616464093 -0.1216807098986791 0 0.1217036921304827 -0.1482443959076799 0 0.1155243526086871 -0.14484298486410191 0 0.12532898621889721 -0.13663811256420449 0 0.1217036921304827 -0.1482443959076799 0 0.1155243526086871 -0.14484298486410191 0 0.1179114041550178 -0.15136128022523329 0 0.1071373084330472 -0.14482826815459701 0 0.1155243526086871 -0.14484298486410191 0 0.1121477659277255 -0.1503271840913511 0 0.1071373084330472 -0.14482826815459701 0 0.1096969331969164 -0.13422374872821319 0 0.1155243526086871 -0.14484298486410191 0 0.1035248479174861 -0.15311019857333261 0 0.1121477659277255 -0.1503271840913511 0 0.1169082366172023 -0.15609331882735419 0 0.1155243526086871 -0.14484298486410191 0 0.1121477659277255 -0.1503271840913511 0 0.1179114041550178 -0.15136128022523329 0 0.1121477659277255 -0.1503271840913511 0 0.1169082366172023 -0.15609331882735419 0 0.1179114041550178 -0.15136128022523329 0 0.1169082366172023 -0.15609331882735419 0 0.1179114041550178 -0.15136128022523329 0 0.12324902196630889 -0.15465793599018671 0 0.1217036921304827 -0.1482443959076799 0 0.1179114041550178 -0.15136128022523329 0 0.12324902196630889 -0.15465793599018671 0 0.1217036921304827 -0.1482443959076799 0 0.12324902196630889 -0.15465793599018671 0 0.12831016946945831 -0.1492440347933528 0 0.1035248479174861 -0.15311019857333261 0 0.12443417021765769 -0.1709717485187108 0 0.1227471198665283 -0.15880086614903269 0 0.12098675462827781 -0.16200852072179159 0 0.1290045142054978 -0.1612372837293575 0 0.1035248479174861 -0.15311019857333261 0 0.12443417021765769 -0.1709717485187108 0 0.12083528946942131 -0.1711597280255607 0 0.1035248479174861 -0.15311019857333261 0 0.12098675462827781 -0.16200852072179159 0 0.12443417021765769 -0.1709717485187108 0 0.1035248479174861 -0.15311019857333261 0 0.1169082366172023 -0.15609331882735419 0 0.12098675462827781 -0.16200852072179159 0 0.1169082366172023 -0.15609331882735419 0 0.1227471198665283 -0.15880086614903269 0 0.12098675462827781 -0.16200852072179159 0 0.1169082366172023 -0.15609331882735419 0 0.12324902196630889 -0.15465793599018671 0 0.1227471198665283 -0.15880086614903269 0 0.12098675462827781 -0.16200852072179159 0 0.12443417021765769 -0.1709717485187108 0 0.12715697753007521 -0.16591248018761531 0 0.1128143282819509 -0.19216489626002589 0 0.1232013989280239 -0.1819146573535104 0 0.1157139550245927 -0.18029465614444529 0 0.12083528946942131 -0.1711597280255607 0 0.1232013989280239 -0.1819146573535104 0 0.1157139550245927 -0.18029465614444529 0 0.12443417021765769 -0.1709717485187108 0 0.12083528946942131 -0.1711597280255607 0 0.1232013989280239 -0.1819146573535104 0 0.12083528946942131 -0.1711597280255607 0 0.1157139550245927 -0.18029465614444529 0 0.10772522460311169 -0.17968171223372481 0 0.1128143282819509 -0.19216489626002589 0 0.1157139550245927 -0.18029465614444529 0 0.10772522460311169 -0.17968171223372481 0 0.095454742848087734 -0.19451486061966669 0 0.10772522460311169 -0.17968171223372481 0 0.093505174579280592 -0.1731787749771625 0 0.12083528946942131 -0.1711597280255607 0 0.093505174579280592 -0.1731787749771625 0 0.095454742848087734 -0.19451486061966669 0 0.093505174579280592 -0.1731787749771625 0 0.12083528946942131 -0.1711597280255607 0 0.10772522460311169 -0.17968171223372481 0 0.093505174579280592 -0.1731787749771625 0 0.1035248479174861 -0.15311019857333261 0 0.093505174579280592 -0.1731787749771625 0 0.091560400862706559 -0.15189516094014111 0 0.1035248479174861 -0.15311019857333261 0 0.12083528946942131 -0.1711597280255607 0 0.093505174579280592 -0.1731787749771625 0 0.078133883947979807 -0.15717501910519549 0 0.093505174579280592 -0.1731787749771625 0 0.091560400862706559 -0.15189516094014111 0 0.078133883947979807 -0.15717501910519549 0 0.093505174579280592 -0.1731787749771625 0 0.072477207369929117 -0.17473224276400179 0 0.093505174579280592 -0.1731787749771625 0 0.091560400862706559 -0.15189516094014111 0 0.081482512553192915 -0.1953056794767786 0 0.093505174579280592 -0.1731787749771625 0 0.072477207369929117 -0.17473224276400179 0 0.093505174579280592 -0.1731787749771625 0 0.072477207369929117 -0.17473224276400179 0 0.066040058368007956 -0.18964665730407451 0 0.072477207369929117 -0.17473224276400179 0 0.051449240160577621 -0.1762857105508405 0 0.066040058368007956 -0.18964665730407451 0 0.081482512553192915 -0.1953056794767786 0 0.072477207369929117 -0.17473224276400179 0 0.078133883947979807 -0.15717501910519549 0 0.072477207369929117 -0.17473224276400179 0 0.063878974636528515 -0.16401540189567099 0 0.072477207369929117 -0.17473224276400179 0 0.063878974636528515 -0.16401540189567099 0 0.051449240160577621 -0.1762857105508405 0 0.078133883947979807 -0.15717501910519549 0 0.063878974636528515 -0.16401540189567099 0 0.06522271263887458 -0.15305574504012881 0 0.06522271263887458 -0.15305574504012881 0 0.069316279952888193 -0.14186668388360371 0 0.075278834721760557 -0.14616760919767161 0 0.06522271263887458 -0.15305574504012881 0 0.069316279952888193 -0.14186668388360371 0 0.05757515479497001 -0.1486962131740798 0 0.069316279952888193 -0.14186668388360371 0 0.075278834721760557 -0.14616760919767161 0 0.079765110473415279 -0.13788087003968491 0 0.078133883947979807 -0.15717501910519549 0 0.06522271263887458 -0.15305574504012881 0 0.075278834721760557 -0.14616760919767161 0 0.098760878024456711 -0.14050656481393209 0 0.091560400862706559 -0.15189516094014111 0 0.089615627146132512 -0.13061154690311971 0 0.078133883947979807 -0.15717501910519549 0 0.083611330147541921 -0.14459745320402559 0 0.091560400862706559 -0.15189516094014111 0 0.091560400862706559 -0.15189516094014111 0 0.089615627146132512 -0.13061154690311971 0 0.078133883947979807 -0.15717501910519549 0 0.075278834721760557 -0.14616760919767161 0 0.083611330147541921 -0.14459745320402559 0 0.083611330147541921 -0.14459745320402559 0 0.091560400862706559 -0.15189516094014111 0 0.089615627146132512 -0.13061154690311971 0 0.075278834721760557 -0.14616760919767161 0 0.083611330147541921 -0.14459745320402559 0 0.079765110473415279 -0.13788087003968491 0 0.099525338641528904 -0.12611341339503321 0 0.089615627146132512 -0.13061154690311971 0 0.081894058627025895 -0.12584863130967919 0 0.083611330147541921 -0.14459745320402559 0 0.089615627146132512 -0.13061154690311971 0 0.079765110473415279 -0.13788087003968491 0 0.089615627146132512 -0.13061154690311971 0 0.079765110473415279 -0.13788087003968491 0 0.081894058627025895 -0.12584863130967919 0 0.081894058627025895 -0.12584863130967919 0 0.065576399090336079 -0.13067912082877309 0 0.057907204523981459 -0.13951585418161591 0 0.081894058627025895 -0.12584863130967919 0 0.057907204523981459 -0.13951585418161591 0 0.069316279952888193 -0.14186668388360371 0 0.081894058627025895 -0.12584863130967919 0 0.057907204523981459 -0.13951585418161591 0 0.081894058627025895 -0.12584863130967919 0 0.068207364780656948 -0.12563827965844471 0 0.065576399090336079 -0.13067912082877309 0 0.069316279952888193 -0.14186668388360371 0 0.079765110473415279 -0.13788087003968491 0 0.081894058627025895 -0.12584863130967919 0 0.068207364780656948 -0.12563827965844471 0 0.065576399090336079 -0.13067912082877309 0 0.054296968429680029 -0.13171371816535249 0 0.054296968429680029 -0.13171371816535249 0 0.057907204523981459 -0.13951585418161591 0 0.034849001543539322 -0.1503583031021323 0 0.054296968429680029 -0.13171371816535249 0 0.045553716665441668 -0.12681104972785159 0 0.052448498866582129 -0.1166826243517366 0 0.065576399090336079 -0.13067912082877309 0 0.054296968429680029 -0.13171371816535249 0 0.057907204523981459 -0.13951585418161591 0 0.069316279952888193 -0.14186668388360371 0 0.057907204523981459 -0.13951585418161591 0 0.05757515479497001 -0.1486962131740798 0 0.06522271263887458 -0.15305574504012881 0 0.05757515479497001 -0.1486962131740798 0 0.052111829065281459 -0.15882829201818821 0 0.046808539919221563 -0.15014413002933799 0 0.052111829065281459 -0.15882829201818821 0 0.043031393960321331 -0.1571354857308308 0 0.05757515479497001 -0.1486962131740798 0 0.046808539919221563 -0.15014413002933799 0 0.052111829065281459 -0.15882829201818821 0 0.057907204523981459 -0.13951585418161591 0 0.05757515479497001 -0.1486962131740798 0 0.046808539919221563 -0.15014413002933799 0 0.057907204523981459 -0.13951585418161591 0 0.046808539919221563 -0.15014413002933799 0 0.033920350420936912 -0.1531830770535528 0 0.057907204523981459 -0.13951585418161591 0 0.034849001543539322 -0.1503583031021323 0 0.033920350420936912 -0.1531830770535528 0 0.054296968429680029 -0.13171371816535249 0 0.034849001543539322 -0.1503583031021323 0 0.038558521200612962 -0.14006542407622449 0 0.054296968429680029 -0.13171371816535249 0 0.034849001543539322 -0.1503583031021323 0 0.057907204523981459 -0.13951585418161591 0 0.033920350420936912 -0.1531830770535528 0 0.046808539919221563 -0.15014413002933799 0 0.040219483271594643 -0.15466785876887121 0 0.033920350420936912 -0.1531830770535528 0 0.046808539919221563 -0.15014413002933799 0 0.040219483271594643 -0.15466785876887121 0 0.043031393960321331 -0.1571354857308308 0 0.040219483271594643 -0.15466785876887121 0 0.033920350420936912 -0.1531830770535528 0 0.037117648785898759 -0.15820874226176301 0 0.034849001543539322 -0.1503583031021323 0 0.031672068294339203 -0.14528428076340441 0 0.030051573782975471 -0.15027594372919439 0 0.034849001543539322 -0.1503583031021323 0 0.033920350420936912 -0.1531830770535528 0 0.030051573782975471 -0.15027594372919439 0 0.034849001543539322 -0.1503583031021323 0 0.031672068294339203 -0.14528428076340441 0 0.038558521200612962 -0.14006542407622449 0 0.031672068294339203 -0.14528428076340441 0 0.038558521200612962 -0.14006542407622449 0 0.030566093298411881 -0.13865773310914861 0 0.054296968429680029 -0.13171371816535249 0 0.038558521200612962 -0.14006542407622449 0 0.040644455285911409 -0.1338393175667463 0 0.038558521200612962 -0.14006542407622449 0 0.040644455285911409 -0.1338393175667463 0 0.030566093298411881 -0.13865773310914861 0 0.034824944079593127 -0.12500853882757099 0 0.040644455285911409 -0.1338393175667463 0 0.030566093298411881 -0.13865773310914861 0 0.034824944079593127 -0.12500853882757099 0 0.045553716665441668 -0.12681104972785159 0 0.040644455285911409 -0.1338393175667463 0 0.054296968429680029 -0.13171371816535249 0 0.045553716665441668 -0.12681104972785159 0 0.040644455285911409 -0.1338393175667463 0 0.072477207369929117 -0.17473224276400179 0 0.051449240160577621 -0.1762857105508405 0 0.056257937900538298 -0.19577788601322099 0 0.066040058368007956 -0.18964665730407451 0 0.051449240160577621 -0.1762857105508405 0 0.063878974636528515 -0.16401540189567099 0 0.051449240160577621 -0.1762857105508405 0 0.052111829065281459 -0.15882829201818821 0 0.051449240160577621 -0.1762857105508405 0 0.052111829065281459 -0.15882829201818821 0 0.040502396519655252 -0.1663673850483231 0 0.063878974636528515 -0.16401540189567099 0 0.06522271263887458 -0.15305574504012881 0 0.052111829065281459 -0.15882829201818821 0 0.043031393960321331 -0.1571354857308308 0 0.037117648785898759 -0.15820874226176301 0 0.040502396519655252 -0.1663673850483231 0 0.052111829065281459 -0.15882829201818821 0 0.043031393960321331 -0.1571354857308308 0 0.040502396519655252 -0.1663673850483231 0 0.040219483271594643 -0.15466785876887121 0 0.043031393960321331 -0.1571354857308308 0 0.037117648785898759 -0.15820874226176301 0 0.033920350420936912 -0.1531830770535528 0 0.033509818979212957 -0.15868168045615499 0 0.027465449436243041 -0.1628752445715565 0 0.037117648785898759 -0.15820874226176301 0 0.034071859908748191 -0.1623715567021686 0 0.040502396519655252 -0.1663673850483231 0 0.033920350420936912 -0.1531830770535528 0 0.037117648785898759 -0.15820874226176301 0 0.033509818979212957 -0.15868168045615499 0 0.037117648785898759 -0.15820874226176301 0 0.033509818979212957 -0.15868168045615499 0 0.034071859908748191 -0.1623715567021686 0 0.033509818979212957 -0.15868168045615499 0 0.034071859908748191 -0.1623715567021686 0 0.027465449436243041 -0.1628752445715565 0 0.031586668938662611 -0.1691709391612749 0 0.040502396519655252 -0.1663673850483231 0 0.030421272951226121 -0.1778391783376792 0 0.034071859908748191 -0.1623715567021686 0 0.031586668938662611 -0.1691709391612749 0 0.040502396519655252 -0.1663673850483231 0 0.051449240160577621 -0.1762857105508405 0 0.040502396519655252 -0.1663673850483231 0 0.030421272951226121 -0.1778391783376792 0 0.041440672425083092 -0.19607701236864419 0 0.051449240160577621 -0.1762857105508405 0 0.030421272951226121 -0.1778391783376792 0 0.051449240160577621 -0.1762857105508405 0 0.030421272951226121 -0.1778391783376792 0 0.02540307025583758 -0.19229280057405279 0 0.015764016274472759 -0.1812646672695073 0 0.030421272951226121 -0.1778391783376792 0 0.031586668938662611 -0.1691709391612749 0 0.030421272951226121 -0.1778391783376792 0 0.021575687727073561 -0.1734893605992324 0 0.015764016274472759 -0.1812646672695073 0 0.021575687727073561 -0.1734893605992324 0 0.012676990919703311 -0.16924925594887871 0 0.015764016274472759 -0.1812646672695073 0 0.030421272951226121 -0.1778391783376792 0 0.021575687727073561 -0.1734893605992324 0 0.033920350420936912 -0.1531830770535528 0 0.009933496317892726 -0.16685029992549011 0 0.02294500892830088 -0.1542832107784407 0 0.033920350420936912 -0.1531830770535528 0 0.027465449436243041 -0.1628752445715565 0 0.009933496317892726 -0.16685029992549011 0 0.019596439448784399 -0.16744493330375371 0 0.027465449436243041 -0.1628752445715565 0 0.009933496317892726 -0.16685029992549011 0 0.033920350420936912 -0.1531830770535528 0 0.009933496317892726 -0.16685029992549011 0 0.021575687727073561 -0.1734893605992324 0 0.019596439448784399 -0.16744493330375371 0 0.012676990919703311 -0.16924925594887871 0 0.021575687727073561 -0.1734893605992324 0 0.019596439448784399 -0.16744493330375371 0 0.025540403417393751 -0.1677775419388785 0 0.031586668938662611 -0.1691709391612749 0 0.021575687727073561 -0.1734893605992324 0 0.025540403417393751 -0.1677775419388785 0 0.019596439448784399 -0.16744493330375371 0 0.025540403417393751 -0.1677775419388785 0 0.027465449436243041 -0.1628752445715565 0 0.034071859908748191 -0.1623715567021686 0 0.031586668938662611 -0.1691709391612749 0 0.027465449436243041 -0.1628752445715565 0 0.031586668938662611 -0.1691709391612749 0 0.025540403417393751 -0.1677775419388785 0 0.027465449436243041 -0.1628752445715565 0 0.009933496317892726 -0.16685029992549011 0 0.01648447247354291 -0.15404273338364399 0 0.02294500892830088 -0.1542832107784407 0 0.009933496317892726 -0.16685029992549011 0 0.01648447247354291 -0.15404273338364399 0 0.0068311679390763679 -0.1533437069849535 0 0.019596439448784399 -0.16744493330375371 0 0.009933496317892726 -0.16685029992549011 0 0.012676990919703311 -0.16924925594887871 0 0.009933496317892726 -0.16685029992549011 0 0.012676990919703311 -0.16924925594887871 0 0.0034571977838801569 -0.17702496179755631 0 0.009933496317892726 -0.16685029992549011 0 0.012676990919703311 -0.16924925594887871 0 -0.0085976242789068957 -0.177408956520272 0 0.009933496317892726 -0.16685029992549011 0 -0.0085976242789068957 -0.177408956520272 0 0.009933496317892726 -0.16685029992549011 0 0.0034571977838801569 -0.17702496179755631 0 0.015764016274472759 -0.1812646672695073 0 0.012676990919703311 -0.16924925594887871 0 0.0034571977838801569 -0.17702496179755631 0 -0.003739977245034012 -0.19168309442994089 0 0.010514116253606281 -0.1925853606064957 0 0.0034571977838801569 -0.17702496179755631 0 0.010514116253606281 -0.1925853606064957 0 0.015764016274472759 -0.1812646672695073 0 0.0034571977838801569 -0.17702496179755631 0 0.02166725362828328 -0.1398342401410575 0 0.019282665512654749 -0.1297026577714144 0 0.01241268948209219 -0.14437852502616319 0 0.034824944079593127 -0.12500853882757099 0 0.019282665512654749 -0.1297026577714144 0 0.030566093298411881 -0.13865773310914861 0 0.02166725362828328 -0.1398342401410575 0 0.019282665512654749 -0.1297026577714144 0 0.030566093298411881 -0.13865773310914861 0 0.031672068294339203 -0.14528428076340441 0 0.030566093298411881 -0.13865773310914861 0 0.024335151646156381 -0.14706399980032239 0 0.02166725362828328 -0.1398342401410575 0 0.030566093298411881 -0.13865773310914861 0 0.024335151646156381 -0.14706399980032239 0 0.031672068294339203 -0.14528428076340441 0 0.024335151646156381 -0.14706399980032239 0 0.030051573782975471 -0.15027594372919439 0 0.033920350420936912 -0.1531830770535528 0 0.030051573782975471 -0.15027594372919439 0 0.02294500892830088 -0.1542832107784407 0 0.024335151646156381 -0.14706399980032239 0 0.030051573782975471 -0.15027594372919439 0 0.02294500892830088 -0.1542832107784407 0 0.024335151646156381 -0.14706399980032239 0 0.01648447247354291 -0.15404273338364399 0 0.01241268948209219 -0.14437852502616319 0 0.024335151646156381 -0.14706399980032239 0 0.01648447247354291 -0.15404273338364399 0 0.02294500892830088 -0.1542832107784407 0 0.02166725362828328 -0.1398342401410575 0 0.024335151646156381 -0.14706399980032239 0 0.01241268948209219 -0.14437852502616319 0 -0.011505986517222349 -0.14810326960451681 0 0.01241268948209219 -0.14437852502616319 0 0.0068311679390763679 -0.1533437069849535 0 -0.011505986517222349 -0.14810326960451681 0 0.009933496317892726 -0.16685029992549011 0 0.0068311679390763679 -0.1533437069849535 0 -0.011505986517222349 -0.14810326960451681 0 0.01241268948209219 -0.14437852502616319 0 0.0027021066240326768 -0.1317064378292063 0 0.01648447247354291 -0.15404273338364399 0 0.01241268948209219 -0.14437852502616319 0 0.0068311679390763679 -0.1533437069849535 0 0.019282665512654749 -0.1297026577714144 0 0.01241268948209219 -0.14437852502616319 0 0.0027021066240326768 -0.1317064378292063 0 0.019282665512654749 -0.1297026577714144 0 0.0027021066240326768 -0.1317064378292063 0 0.005085065621477718 -0.1151057880332567 0 0.019282665512654749 -0.1297026577714144 0 0.005085065621477718 -0.1151057880332567 0 0.024129304522527751 -0.1089818526354679 0 0.034824944079593127 -0.12500853882757099 0 0.019282665512654749 -0.1297026577714144 0 0.024129304522527751 -0.1089818526354679 0 0.024129304522527751 -0.1089818526354679 0 0.01380815825635252 -0.094132232187142617 0 0.031293966725895003 -0.08518965294817829 0 -0.00044729776891663488 -0.1011528385718463 0 0.005085065621477718 -0.1151057880332567 0 0.01380815825635252 -0.094132232187142617 0 0.005085065621477718 -0.1151057880332567 0 0.024129304522527751 -0.1089818526354679 0 0.01380815825635252 -0.094132232187142617 0 0.01380815825635252 -0.094132232187142617 0 0.0042106568376920582 -0.081118225430045127 0 0.020039989671696231 -0.071989185162356889 0 -0.00044729776891663488 -0.1011528385718463 0 0.01380815825635252 -0.094132232187142617 0 0.0042106568376920582 -0.081118225430045127 0 0.0042106568376920582 -0.081118225430045127 0 0.0052181775422467033 -0.064346337314722044 0 0.020039989671696231 -0.071989185162356889 0 -0.0043762627118289626 -0.071729097412358583 0 0.0042106568376920582 -0.081118225430045127 0 0.0052181775422467033 -0.064346337314722044 0 0.0052181775422467033 -0.064346337314722044 0 0.020039989671696231 -0.071989185162356889 0 0.0052181775422467033 -0.064346337314722044 0 0.020039989671696231 -0.071989185162356889 0 0.017880224012190679 -0.058506375123621113 0 0.020039989671696231 -0.071989185162356889 0 0.017880224012190679 -0.058506375123621113 0 0.035073137211611732 -0.060365082031122411 0 0.020039989671696231 -0.071989185162356889 0 0.031293966725895003 -0.08518965294817829 0 0.035073137211611732 -0.060365082031122411 0 0.01380815825635252 -0.094132232187142617 0 0.020039989671696231 -0.071989185162356889 0 0.031293966725895003 -0.08518965294817829 0 0.031293966725895003 -0.08518965294817829 0 0.050629459546369923 -0.074776417317023003 0 0.042727201812981508 -0.099892478072297022 0 0.050629459546369923 -0.074776417317023003 0 0.042727201812981508 -0.099892478072297022 0 0.031293966725895003 -0.08518965294817829 0 0.050629459546369923 -0.074776417317023003 0 0.035073137211611732 -0.060365082031122411 0 0.050629459546369923 -0.074776417317023003 0 0.058531717279758283 -0.049660356561749108 0 0.072219385832792832 -0.066659644627356851 0 0.050629459546369923 -0.074776417317023003 0 0.042727201812981508 -0.099892478072297022 0 0.069701838591585213 -0.089386546866783212 0 0.059655618646742382 -0.10475769562984739 0 0.052448498866582129 -0.1166826243517366 0 0.042727201812981508 -0.099892478072297022 0 0.059655618646742382 -0.10475769562984739 0 0.042727201812981508 -0.099892478072297022 0 0.069701838591585213 -0.089386546866783212 0 0.054296968429680029 -0.13171371816535249 0 0.052448498866582129 -0.1166826243517366 0 0.073744935315820714 -0.1130691332285727 0 0.059655618646742382 -0.10475769562984739 0 0.052448498866582129 -0.1166826243517366 0 0.073744935315820714 -0.1130691332285727 0 0.034824944079593127 -0.12500853882757099 0 0.045553716665441668 -0.12681104972785159 0 0.052448498866582129 -0.1166826243517366 0 0.034824944079593127 -0.12500853882757099 0 0.052448498866582129 -0.1166826243517366 0 0.042727201812981508 -0.099892478072297022 0 0.034824944079593127 -0.12500853882757099 0 0.024129304522527751 -0.1089818526354679 0 0.042727201812981508 -0.099892478072297022 0 0.034824944079593127 -0.12500853882757099 0 0.042727201812981508 -0.099892478072297022 0 0.024129304522527751 -0.1089818526354679 0 0.031293966725895003 -0.08518965294817829 0 0.042727201812981508 -0.099892478072297022 0 0.034885408484197772 0.0062912350017927032 0 0.01265631079038235 -0.01012693536007268 0 0.042517259973231587 -0.011683923625132649 0 -0.00118246574067416 -0.01324232368796026 0 0.0012074066645448821 -0.00065723147797176382 0 0.01265631079038235 -0.01012693536007268 0 0.01265631079038235 -0.01012693536007268 0 0.02406773205363014 -0.026959444655171291 0 0.0015263381015913891 -0.033415212413580753 0 0.01265631079038235 -0.01012693536007268 0 0.0015263381015913891 -0.033415212413580753 0 -0.00118246574067416 -0.01324232368796026 0 0.01265631079038235 -0.01012693536007268 0 0.0015263381015913891 -0.033415212413580753 0 0.01265631079038235 -0.01012693536007268 0 0.02406773205363014 -0.026959444655171291 0 0.042517259973231587 -0.011683923625132649 0 0.02406773205363014 -0.026959444655171291 0 0.021771409900077709 -0.044354063799483319 0 0.04186734150286768 -0.035217088077587062 0 0.02406773205363014 -0.026959444655171291 0 0.021771409900077709 -0.044354063799483319 0 0.0015263381015913891 -0.033415212413580753 0 0.021771409900077709 -0.044354063799483319 0 0.0015263381015913891 -0.033415212413580753 0 0.007298405735321048 -0.051477207310420908 0 -0.0096036345872028556 -0.056703489467087059 0 0.0052181775422467033 -0.064346337314722044 0 0.007298405735321048 -0.051477207310420908 0 0.0052181775422467033 -0.064346337314722044 0 0.007298405735321048 -0.051477207310420908 0 0.017880224012190679 -0.058506375123621113 0 0.021771409900077709 -0.044354063799483319 0 0.017880224012190679 -0.058506375123621113 0 0.035073137211611732 -0.060365082031122411 0 0.021771409900077709 -0.044354063799483319 0 0.007298405735321048 -0.051477207310420908 0 0.017880224012190679 -0.058506375123621113 0 0.035073137211611732 -0.060365082031122411 0 0.058531717279758283 -0.049660356561749108 0 0.04186734150286768 -0.035217088077587062 0 0.050629459546369923 -0.074776417317023003 0 0.058531717279758283 -0.049660356561749108 0 0.050629459546369923 -0.074776417317023003 0 0.035073137211611732 -0.060365082031122411 0 0.058531717279758283 -0.049660356561749108 0 0.058531717279758283 -0.049660356561749108 0 0.066433975013146629 -0.02454429580647528 0 0.058531717279758283 -0.049660356561749108 0 0.04186734150286768 -0.035217088077587062 0 0.066433975013146629 -0.02454429580647528 0 0.021771409900077709 -0.044354063799483319 0 0.035073137211611732 -0.060365082031122411 0 0.04186734150286768 -0.035217088077587062 0 0.02406773205363014 -0.026959444655171291 0 0.04186734150286768 -0.035217088077587062 0 0.042517259973231587 -0.011683923625132649 0 0.04186734150286768 -0.035217088077587062 0 0.042517259973231587 -0.011683923625132649 0 0.066433975013146629 -0.02454429580647528 0 0.052968053050369737 0.0090809173488315582 0 0.042517259973231587 -0.011683923625132649 0 0.067492943165135169 -0.0019794682467893379 0 0.042517259973231587 -0.011683923625132649 0 0.067492943165135169 -0.0019794682467893379 0 0.066433975013146629 -0.02454429580647528 0 0.087040675587819916 -0.0096101539263870796 0 0.066433975013146629 -0.02454429580647528 0 0.098032226742104309 -0.02831505409649597 0 0.083930998993742512 0.0059737405228527038 0 0.087040675587819916 -0.0096101539263870796 0 0.067492943165135169 -0.0019794682467893379 0 0.083930998993742512 0.0059737405228527038 0 0.098495163759696414 0.0029673617968291321 0 0.087040675587819916 -0.0096101539263870796 0 0.087040675587819916 -0.0096101539263870796 0 0.067492943165135169 -0.0019794682467893379 0 0.066433975013146629 -0.02454429580647528 0 0.066433975013146629 -0.02454429580647528 0 0.080663194565618018 -0.042742664855397232 0 0.098032226742104309 -0.02831505409649597 0 0.080663194565618018 -0.042742664855397232 0 0.099119978598511321 -0.045144617550746849 0 0.098032226742104309 -0.02831505409649597 0 0.058531717279758283 -0.049660356561749108 0 0.066433975013146629 -0.02454429580647528 0 0.080663194565618018 -0.042742664855397232 0 0.058531717279758283 -0.049660356561749108 0 0.080663194565618018 -0.042742664855397232 0 0.072219385832792832 -0.066659644627356851 0 0.080663194565618018 -0.042742664855397232 0 0.091985945990252393 -0.059557823171565508 0 0.072219385832792832 -0.066659644627356851 0 0.080663194565618018 -0.042742664855397232 0 0.091985945990252393 -0.059557823171565508 0 0.099119978598511321 -0.045144617550746849 0 0.091985945990252393 -0.059557823171565508 0 0.109385226414503 -0.056941989317685793 0 0.099119978598511321 -0.045144617550746849 0 0.109385226414503 -0.056941989317685793 0 0.1174221699598199 -0.069046986946925279 0 0.12664898879935529 -0.055605769639440771 0 0.109385226414503 -0.056941989317685793 0 0.1155332992800789 -0.038165556312589707 0 0.12664898879935529 -0.055605769639440771 0 0.1155332992800789 -0.038165556312589707 0 0.12954193793015309 -0.041748568408345607 0 0.12664898879935529 -0.055605769639440771 0 0.1155332992800789 -0.038165556312589707 0 0.1294320674019063 -0.023146095115484211 0 0.12954193793015309 -0.041748568408345607 0 0.109385226414503 -0.056941989317685793 0 0.1155332992800789 -0.038165556312589707 0 0.099119978598511321 -0.045144617550746849 0 0.1155332992800789 -0.038165556312589707 0 0.099119978598511321 -0.045144617550746849 0 0.098032226742104309 -0.02831505409649597 0 0.1155332992800789 -0.038165556312589707 0 0.098032226742104309 -0.02831505409649597 0 0.1112777463759113 -0.012222875866518469 0 0.087040675587819916 -0.0096101539263870796 0 0.098032226742104309 -0.02831505409649597 0 0.1112777463759113 -0.012222875866518469 0 0.1155332992800789 -0.038165556312589707 0 0.1112777463759113 -0.012222875866518469 0 0.1294320674019063 -0.023146095115484211 0 0.1158546052028349 0.0064685721448778594 0 0.13464870039648349 0.00080453217212592717 0 0.1112777463759113 -0.012222875866518469 0 0.098495163759696414 0.0029673617968291321 0 0.087040675587819916 -0.0096101539263870796 0 0.1112777463759113 -0.012222875866518469 0 0.1158546052028349 0.0064685721448778594 0 0.098495163759696414 0.0029673617968291321 0 0.1112777463759113 -0.012222875866518469 0 0.093192902201961414 -0.094424548291792879 0 0.088899626305776192 -0.1113374325741409 0 0.073744935315820714 -0.1130691332285727 0 0.093192902201961414 -0.094424548291792879 0 0.073744935315820714 -0.1130691332285727 0 0.069701838591585213 -0.089386546866783212 0 0.093192902201961414 -0.094424548291792879 0 0.073744935315820714 -0.1130691332285727 0 0.081894058627025895 -0.12584863130967919 0 0.088899626305776192 -0.1113374325741409 0 0.09397493983509804 -0.11322330148444169 0 0.081894058627025895 -0.12584863130967919 0 0.079920122843727764 -0.11786127252462281 0 0.075141871126288284 -0.1211898929860986 0 0.081894058627025895 -0.12584863130967919 0 0.088899626305776192 -0.1113374325741409 0 0.079920122843727764 -0.11786127252462281 0 0.088899626305776192 -0.1113374325741409 0 0.079920122843727764 -0.11786127252462281 0 0.073744935315820714 -0.1130691332285727 0 0.068207364780656948 -0.12563827965844471 0 0.054296968429680029 -0.13171371816535249 0 0.073744935315820714 -0.1130691332285727 0 0.054296968429680029 -0.13171371816535249 0 0.073744935315820714 -0.1130691332285727 0 0.068207364780656948 -0.12563827965844471 0 0.073744935315820714 -0.1130691332285727 0 0.075141871126288284 -0.1211898929860986 0 0.079920122843727764 -0.11786127252462281 0 0.073744935315820714 -0.1130691332285727 0 0.075141871126288284 -0.1211898929860986 0 0.081894058627025895 -0.12584863130967919 0 0.068207364780656948 -0.12563827965844471 0 0.075141871126288284 -0.1211898929860986 0 0.059655618646742382 -0.10475769562984739 0 0.073744935315820714 -0.1130691332285727 0 0.069701838591585213 -0.089386546866783212 0 0.050629459546369923 -0.074776417317023003 0 0.069701838591585213 -0.089386546866783212 0 0.072219385832792832 -0.066659644627356851 0 0.069701838591585213 -0.089386546866783212 0 0.072219385832792832 -0.066659644627356851 0 0.089711563165187497 -0.078251462936863553 0 0.091985945990252393 -0.059557823171565508 0 0.072219385832792832 -0.066659644627356851 0 0.089711563165187497 -0.078251462936863553 0 0.093192902201961414 -0.094424548291792879 0 0.069701838591585213 -0.089386546866783212 0 0.089711563165187497 -0.078251462936863553 0 0.093192902201961414 -0.094424548291792879 0 0.089711563165187497 -0.078251462936863553 0 0.1048667032735431 -0.089595599910983495 0 0.089711563165187497 -0.078251462936863553 0 0.1048667032735431 -0.089595599910983495 0 0.1056935618466131 -0.072691272791708894 0 0.1048667032735431 -0.089595599910983495 0 0.1056935618466131 -0.072691272791708894 0 0.11564058922802831 -0.08068930143821873 0 0.091985945990252393 -0.059557823171565508 0 0.089711563165187497 -0.078251462936863553 0 0.1056935618466131 -0.072691272791708894 0 0.091985945990252393 -0.059557823171565508 0 0.109385226414503 -0.056941989317685793 0 0.1056935618466131 -0.072691272791708894 0 0.1174221699598199 -0.069046986946925279 0 0.12840026197867099 -0.078951386265116219 0 0.12664898879935529 -0.055605769639440771 0 0.109385226414503 -0.056941989317685793 0 0.1056935618466131 -0.072691272791708894 0 0.1174221699598199 -0.069046986946925279 0 0.1056935618466131 -0.072691272791708894 0 0.1174221699598199 -0.069046986946925279 0 0.11564058922802831 -0.08068930143821873 0 0.1174221699598199 -0.069046986946925279 0 0.11564058922802831 -0.08068930143821873 0 0.12840026197867099 -0.078951386265116219 0 0.1048667032735431 -0.089595599910983495 0 0.11564058922802831 -0.08068930143821873 0 0.1191358060176364 -0.092450830711447801 0 0.1191358060176364 -0.092450830711447801 0 0.12840026197867099 -0.078951386265116219 0 0.11564058922802831 -0.08068930143821873 0 0.1191358060176364 -0.092450830711447801 0 0.12840026197867099 -0.078951386265116219 0 0.1058809127300703 -0.11218140843774239 0 0.12023297736745781 -0.1110263554770618 0 0.12986776683311119 -0.098514185565799078 0 0.1058809127300703 -0.11218140843774239 0 0.12986776683311119 -0.098514185565799078 0 0.1048667032735431 -0.089595599910983495 0 0.1191358060176364 -0.092450830711447801 0 0.10987135005660249 -0.1059502751577799 0 0.10987135005660249 -0.1059502751577799 0 0.1058809127300703 -0.11218140843774239 0 0.12986776683311119 -0.098514185565799078 0 0.1191358060176364 -0.092450830711447801 0 0.10987135005660249 -0.1059502751577799 0 0.12986776683311119 -0.098514185565799078 0 0.1191358060176364 -0.092450830711447801 0 0.10987135005660249 -0.1059502751577799 0 0.093192902201961414 -0.094424548291792879 0 0.088899626305776192 -0.1113374325741409 0 0.099225161677519755 -0.1035257336162041 0 0.1048667032735431 -0.089595599910983495 0 0.10987135005660249 -0.1059502751577799 0 0.099225161677519755 -0.1035257336162041 0 0.10987135005660249 -0.1059502751577799 0 0.099225161677519755 -0.1035257336162041 0 0.1058809127300703 -0.11218140843774239 0 0.088899626305776192 -0.1113374325741409 0 0.099225161677519755 -0.1035257336162041 0 0.09397493983509804 -0.11322330148444169 0 0.093192902201961414 -0.094424548291792879 0 0.1048667032735431 -0.089595599910983495 0 0.099225161677519755 -0.1035257336162041 0 0.081894058627025895 -0.12584863130967919 0 0.1058809127300703 -0.11218140843774239 0 0.099525338641528904 -0.12611341339503321 0 0.081894058627025895 -0.12584863130967919 0 0.1058809127300703 -0.11218140843774239 0 0.081894058627025895 -0.12584863130967919 0 0.09397493983509804 -0.11322330148444169 0 0.1058809127300703 -0.11218140843774239 0 0.099225161677519755 -0.1035257336162041 0 0.09397493983509804 -0.11322330148444169 0 0.1058809127300703 -0.11218140843774239 0 0.099525338641528904 -0.12611341339503321 0 0.1058809127300703 -0.11218140843774239 0 0.1121708616464093 -0.1216807098986791 0 0.1058809127300703 -0.11218140843774239 0 0.1121708616464093 -0.1216807098986791 0 0.12023297736745781 -0.1110263554770618 0 0.11997683785091839 -0.1276371159963853 0 0.121067612134044 -0.1214532534018402 0 0.13188977167139071 -0.12546883223523481 0 0.12023297736745781 -0.1110263554770618 0 0.121067612134044 -0.1214532534018402 0 0.13188977167139071 -0.12546883223523481 0 0.11997683785091839 -0.1276371159963853 0 0.1121708616464093 -0.1216807098986791 0 0.121067612134044 -0.1214532534018402 0 0.1121708616464093 -0.1216807098986791 0 0.12023297736745781 -0.1110263554770618 0 0.121067612134044 -0.1214532534018402 0 0.12023297736745781 -0.1110263554770618 0 0.12986776683311119 -0.098514185565799078 0 0.13188977167139071 -0.12546883223523481 0 0.12986776683311119 -0.098514185565799078 0 0.13188977167139071 -0.12546883223523481 0 0.14925441928633251 -0.10969288085116551 0 0.13995942417209239 -0.1034127274713456 0 0.13188977167139071 -0.12546883223523481 0 0.14724036225017881 -0.1245170930860646 0 0.14925441928633251 -0.10969288085116551 0 0.13188977167139071 -0.12546883223523481 0 0.14925441928633251 -0.10969288085116551 0 0.15485465026004211 -0.11932571079310079 0 0.15999890680388329 -0.1096406796162286 0 0.14724036225017881 -0.1245170930860646 0 0.15485465026004211 -0.11932571079310079 0 0.15557261582888751 -0.13003178131142151 0 0.14724036225017881 -0.1245170930860646 0 0.14925441928633251 -0.10969288085116551 0 0.15485465026004211 -0.11932571079310079 0 0.14925441928633251 -0.10969288085116551 0 0.14348993397904131 -0.092765062884646393 0 0.1620153957752187 -0.097165399419701551 0 0.14348993397904131 -0.092765062884646393 0 0.1620153957752187 -0.097165399419701551 0 0.14925441928633251 -0.10969288085116551 0 0.13995942417209239 -0.1034127274713456 0 0.14348993397904131 -0.092765062884646393 0 0.13995942417209239 -0.1034127274713456 0 0.12986776683311119 -0.098514185565799078 0 0.13188977167139071 -0.12546883223523481 0 0.13995942417209239 -0.1034127274713456 0 0.12986776683311119 -0.098514185565799078 0 0.14348993397904131 -0.092765062884646393 0 0.12986776683311119 -0.098514185565799078 0 0.12840026197867099 -0.078951386265116219 0 0.1428482005174804 -0.076716741777837147 0 0.1191358060176364 -0.092450830711447801 0 0.12986776683311119 -0.098514185565799078 0 0.12840026197867099 -0.078951386265116219 0 0.12986776683311119 -0.098514185565799078 0 0.12840026197867099 -0.078951386265116219 0 0.12840026197867099 -0.078951386265116219 0 0.12664898879935529 -0.055605769639440771 0 0.12840026197867099 -0.078951386265116219 0 0.12664898879935529 -0.055605769639440771 0 0.14464694777039611 -0.055277979731059648 0 0.12840026197867099 -0.078951386265116219 0 0.1428482005174804 -0.076716741777837147 0 0.14464694777039611 -0.055277979731059648 0 0.12840026197867099 -0.078951386265116219 0 0.14464694777039611 -0.055277979731059648 0 0.1428482005174804 -0.076716741777837147 0 0.15680899227989839 -0.06637062400294011 0 0.14464694777039611 -0.055277979731059648 0 0.1428482005174804 -0.076716741777837147 0 0.15451703372532541 -0.084469533324270707 0 0.15680899227989839 -0.06637062400294011 0 0.12986776683311119 -0.098514185565799078 0 0.15451703372532541 -0.084469533324270707 0 0.12986776683311119 -0.098514185565799078 0 0.14348993397904131 -0.092765062884646393 0 0.15451703372532541 -0.084469533324270707 0 0.14348993397904131 -0.092765062884646393 0 0.15451703372532541 -0.084469533324270707 0 0.1620153957752187 -0.097165399419701551 0 0.12986776683311119 -0.098514185565799078 0 0.1428482005174804 -0.076716741777837147 0 0.15451703372532541 -0.084469533324270707 0 0.15451703372532541 -0.084469533324270707 0 0.1674193516126988 -0.088794767656503876 0 0.1620153957752187 -0.097165399419701551 0 0.15451703372532541 -0.084469533324270707 0 0.1674193516126988 -0.088794767656503876 0 0.16389165652408541 -0.076485311925560115 0 0.1674193516126988 -0.088794767656503876 0 0.16389165652408541 -0.076485311925560115 0 0.17613181446746839 -0.084287857658230353 0 0.15451703372532541 -0.084469533324270707 0 0.15680899227989839 -0.06637062400294011 0 0.16389165652408541 -0.076485311925560115 0 0.16389165652408541 -0.076485311925560115 0 0.1717227713635387 -0.067009979361705274 0 0.17613181446746839 -0.084287857658230353 0 0.15680899227989839 -0.06637062400294011 0 0.16389165652408541 -0.076485311925560115 0 0.1717227713635387 -0.067009979361705274 0 0.15680899227989839 -0.06637062400294011 0 0.1717227713635387 -0.067009979361705274 0 0.1652446184022294 -0.054500080927008407 0 0.1717227713635387 -0.067009979361705274 0 0.17613181446746839 -0.084287857658230353 0 0.1717227713635387 -0.067009979361705274 0 0.18346211879182289 -0.064955309332027283 0 0.18137547142311691 -0.085525622921553163 0 0.18346211879182289 -0.064955309332027283 0 0.18137547142311691 -0.085525622921553163 0 0.1952329782378138 -0.068464889048657496 0 0.1717227713635387 -0.067009979361705274 0 0.18137547142311691 -0.085525622921553163 0 0.1717227713635387 -0.067009979361705274 0 0.18346211879182289 -0.064955309332027283 0 0.1746283364613696 -0.057560297553190053 0 0.18137547142311691 -0.085525622921553163 0 0.17613181446746839 -0.084287857658230353 0 0.18054085757139629 -0.1015657359547559 0 0.17613181446746839 -0.084287857658230353 0 0.18054085757139629 -0.1015657359547559 0 0.1674193516126988 -0.088794767656503876 0 0.17613181446746839 -0.084287857658230353 0 0.18054085757139629 -0.1015657359547559 0 0.1717227713635387 -0.067009979361705274 0 0.18137547142311691 -0.085525622921553163 0 0.17613181446746839 -0.084287857658230353 0 0.18137547142311691 -0.085525622921553163 0 0.19100769245097829 -0.1040519139747048 0 0.18137547142311691 -0.085525622921553163 0 0.18054085757139629 -0.1015657359547559 0 0.19100769245097829 -0.1040519139747048 0 0.18054085757139629 -0.1015657359547559 0 0.1749190978293893 -0.1165979942053425 0 0.16884250162088479 -0.1080310140379921 0 0.18054085757139629 -0.1015657359547559 0 0.19100769245097829 -0.1040519139747048 0 0.18054085757139629 -0.1015657359547559 0 0.1862357176231304 -0.1238823921021804 0 0.1749190978293893 -0.1165979942053425 0 0.18054085757139629 -0.1015657359547559 0 0.1862357176231304 -0.1238823921021804 0 0.19100769245097829 -0.1040519139747048 0 0.18054085757139629 -0.1015657359547559 0 0.1862357176231304 -0.1238823921021804 0 0.1862357176231304 -0.1238823921021804 0 0.1749190978293893 -0.1165979942053425 0 0.17324983187337631 -0.13165498831909611 0 0.1749190978293893 -0.1165979942053425 0 0.16471491079178111 -0.1205264202314431 0 0.16884250162088479 -0.1080310140379921 0 0.16471491079178111 -0.1205264202314431 0 0.15999890680388329 -0.1096406796162286 0 0.16884250162088479 -0.1080310140379921 0 0.1749190978293893 -0.1165979942053425 0 0.16471491079178111 -0.1205264202314431 0 0.17324983187337631 -0.13165498831909611 0 0.15485465026004211 -0.11932571079310079 0 0.16471491079178111 -0.1205264202314431 0 0.15557261582888751 -0.13003178131142151 0 0.15485465026004211 -0.11932571079310079 0 0.16471491079178111 -0.1205264202314431 0 0.15999890680388329 -0.1096406796162286 0 0.18054085757139629 -0.1015657359547559 0 0.1620153957752187 -0.097165399419701551 0 0.1674193516126988 -0.088794767656503876 0 0.18054085757139629 -0.1015657359547559 0 0.1620153957752187 -0.097165399419701551 0 0.14925441928633251 -0.10969288085116551 0 0.15999890680388329 -0.1096406796162286 0 0.1620153957752187 -0.097165399419701551 0 0.15999890680388329 -0.1096406796162286 0 0.1620153957752187 -0.097165399419701551 0 0.16884250162088479 -0.1080310140379921 0 0.18054085757139629 -0.1015657359547559 0 0.1620153957752187 -0.097165399419701551 0 0.16884250162088479 -0.1080310140379921 0 0.13464870039648349 0.00080453217212592717 0 0.15480995508657039 -0.001084596553268768 0 0.14892696920713289 -0.018041582065753459 0 0.13464870039648349 0.00080453217212592717 0 0.1294320674019063 -0.023146095115484211 0 0.14892696920713289 -0.018041582065753459 0 0.13464870039648349 0.00080453217212592717 0 0.1112777463759113 -0.012222875866518469 0 0.1294320674019063 -0.023146095115484211 0 0.1294320674019063 -0.023146095115484211 0 0.14892696920713289 -0.018041582065753459 0 0.14270131340979469 -0.036531096068384838 0 0.14892696920713289 -0.018041582065753459 0 0.14270131340979469 -0.036531096068384838 0 0.16089363356212191 -0.031604573197003549 0 0.14270131340979469 -0.036531096068384838 0 0.14464694777039611 -0.055277979731059648 0 0.16089363356212191 -0.031604573197003549 0 0.14464694777039611 -0.055277979731059648 0 0.15561449558007559 -0.051164132387281437 0 0.16089363356212191 -0.031604573197003549 0 0.14464694777039611 -0.055277979731059648 0 0.16089363356212191 -0.031604573197003549 0 0.14270131340979469 -0.036531096068384838 0 0.12954193793015309 -0.041748568408345607 0 0.14464694777039611 -0.055277979731059648 0 0.1294320674019063 -0.023146095115484211 0 0.14270131340979469 -0.036531096068384838 0 0.12954193793015309 -0.041748568408345607 0 0.12954193793015309 -0.041748568408345607 0 0.12664898879935529 -0.055605769639440771 0 0.14464694777039611 -0.055277979731059648 0 0.15680899227989839 -0.06637062400294011 0 0.14464694777039611 -0.055277979731059648 0 0.15561449558007559 -0.051164132387281437 0 0.15680899227989839 -0.06637062400294011 0 0.15561449558007559 -0.051164132387281437 0 0.1652446184022294 -0.054500080927008407 0 0.15561449558007559 -0.051164132387281437 0 0.1652446184022294 -0.054500080927008407 0 0.1617942405007988 -0.043199732881276223 0 0.1652446184022294 -0.054500080927008407 0 0.1746283364613696 -0.057560297553190053 0 0.1617942405007988 -0.043199732881276223 0 0.1717227713635387 -0.067009979361705274 0 0.1652446184022294 -0.054500080927008407 0 0.1717227713635387 -0.067009979361705274 0 0.1652446184022294 -0.054500080927008407 0 0.1746283364613696 -0.057560297553190053 0 0.1746283364613696 -0.057560297553190053 0 0.1828119860636557 -0.050363577362968731 0 0.1617942405007988 -0.043199732881276223 0 0.18346211879182289 -0.064955309332027283 0 0.1746283364613696 -0.057560297553190053 0 0.1828119860636557 -0.050363577362968731 0 0.18346211879182289 -0.064955309332027283 0 0.1828119860636557 -0.050363577362968731 0 0.19188844298534441 -0.056659859735039647 0 0.1617942405007988 -0.043199732881276223 0 0.18853740735089011 -0.033706188378118708 0 0.1828119860636557 -0.050363577362968731 0 0.1617942405007988 -0.043199732881276223 0 0.18853740735089011 -0.033706188378118708 0 0.15561449558007559 -0.051164132387281437 0 0.16089363356212191 -0.031604573197003549 0 0.1617942405007988 -0.043199732881276223 0 0.16089363356212191 -0.031604573197003549 0 0.1617942405007988 -0.043199732881276223 0 0.18853740735089011 -0.033706188378118708 0 0.16089363356212191 -0.031604573197003549 0 0.17714031935384769 -0.0079311666629475405 0 0.14892696920713289 -0.018041582065753459 0 0.16089363356212191 -0.031604573197003549 0 0.17714031935384769 -0.0079311666629475405 0 0.16089363356212191 -0.031604573197003549 0 0.17714031935384769 -0.0079311666629475405 0 0.18853740735089011 -0.033706188378118708 0 0.1657030786406338 0.0084270166623369204 0 0.15480995508657039 -0.001084596553268768 0 0.17714031935384769 -0.0079311666629475405 0 0.15480995508657039 -0.001084596553268768 0 0.14892696920713289 -0.018041582065753459 0 0.17714031935384769 -0.0079311666629475405 0 0.21351355446813719 -0.0021103410187178909 0 0.2110126965438916 -0.012672932103663791 0 0.2228246624943325 -0.0092295053444410857 0 0.2110126965438916 -0.012672932103663791 0 0.21911622703360889 -0.015650702578479541 0 0.2228246624943325 -0.0092295053444410857 0 0.21351355446813719 -0.0021103410187178909 0 0.2110126965438916 -0.012672932103663791 0 0.19836939172364151 -0.01016904411482358 0 0.1998105265397013 0.00335350757378736 0 0.21351355446813719 -0.0021103410187178909 0 0.19836939172364151 -0.01016904411482358 0 0.1998105265397013 0.00335350757378736 0 0.17714031935384769 -0.0079311666629475405 0 0.19836939172364151 -0.01016904411482358 0 0.17714031935384769 -0.0079311666629475405 0 0.19836939172364151 -0.01016904411482358 0 0.18853740735089011 -0.033706188378118708 0 0.2110126965438916 -0.012672932103663791 0 0.19836939172364151 -0.01016904411482358 0 0.18853740735089011 -0.033706188378118708 0 0.21528057420098159 -0.024212643874961401 0 0.18853740735089011 -0.033706188378118708 0 0.2110126965438916 -0.012672932103663791 0 0.21528057420098159 -0.024212643874961401 0 0.18853740735089011 -0.033706188378118708 0 0.21528057420098159 -0.024212643874961401 0 0.20886364623554921 -0.031523512657201581 0 0.18853740735089011 -0.033706188378118708 0 0.2110126965438916 -0.012672932103663791 0 0.21528057420098159 -0.024212643874961401 0 0.21911622703360889 -0.015650702578479541 0 0.21528057420098159 -0.024212643874961401 0 0.2158000993154765 -0.027276596113623111 0 0.21360323626451261 -0.02858374534336202 0 0.21528057420098159 -0.024212643874961401 0 0.2158000993154765 -0.027276596113623111 0 0.21995729679401421 -0.029331280632926501 0 0.2158000993154765 -0.027276596113623111 0 0.21503400689837671 -0.030930810510401429 0 0.21995729679401421 -0.029331280632926501 0 0.2158000993154765 -0.027276596113623111 0 0.21503400689837671 -0.030930810510401429 0 0.21360323626451261 -0.02858374534336202 0 0.21528057420098159 -0.024212643874961401 0 0.21360323626451261 -0.02858374534336202 0 0.20886364623554921 -0.031523512657201581 0 0.21503400689837671 -0.030930810510401429 0 0.21360323626451261 -0.02858374534336202 0 0.20886364623554921 -0.031523512657201581 0 0.2128060919330283 -0.035124071741943173 0 0.2180191377477218 -0.035203133534298187 0 0.2167024847658664 -0.043974661413588162 0 0.21503400689837671 -0.030930810510401429 0 0.2128060919330283 -0.035124071741943173 0 0.20886364623554921 -0.031523512657201581 0 0.21503400689837671 -0.030930810510401429 0 0.2128060919330283 -0.035124071741943173 0 0.2180191377477218 -0.035203133534298187 0 0.21503400689837671 -0.030930810510401429 0 0.2180191377477218 -0.035203133534298187 0 0.21995729679401421 -0.029331280632926501 0 0.2167024847658664 -0.043974661413588162 0 0.20890374551960481 -0.040729144831228678 0 0.20897987019450001 -0.050060865146210963 0 0.2128060919330283 -0.035124071741943173 0 0.2167024847658664 -0.043974661413588162 0 0.20890374551960481 -0.040729144831228678 0 0.20890374551960481 -0.040729144831228678 0 0.19655169947710091 -0.043788383486002072 0 0.20897987019450001 -0.050060865146210963 0 0.2128060919330283 -0.035124071741943173 0 0.20890374551960481 -0.040729144831228678 0 0.20886364623554921 -0.031523512657201581 0 0.20890374551960481 -0.040729144831228678 0 0.20886364623554921 -0.031523512657201581 0 0.19655169947710091 -0.043788383486002072 0 0.1828119860636557 -0.050363577362968731 0 0.18853740735089011 -0.033706188378118708 0 0.19655169947710091 -0.043788383486002072 0 0.20886364623554921 -0.031523512657201581 0 0.18853740735089011 -0.033706188378118708 0 0.19655169947710091 -0.043788383486002072 0 0.19655169947710091 -0.043788383486002072 0 0.20138343235632811 -0.055727139445542639 0 0.20897987019450001 -0.050060865146210963 0 0.19655169947710091 -0.043788383486002072 0 0.19188844298534441 -0.056659859735039647 0 0.20138343235632811 -0.055727139445542639 0 0.1828119860636557 -0.050363577362968731 0 0.19655169947710091 -0.043788383486002072 0 0.19188844298534441 -0.056659859735039647 0 0.19188844298534441 -0.056659859735039647 0 0.20138343235632811 -0.055727139445542639 0 0.1952329782378138 -0.068464889048657496 0 0.20138343235632811 -0.055727139445542639 0 0.22670270369963491 -0.067064047377793826 0 0.20138343235632811 -0.055727139445542639 0 0.21577564808412511 -0.056666161138016313 0 0.22670270369963491 -0.067064047377793826 0 0.20138343235632811 -0.055727139445542639 0 0.20897987019450001 -0.050060865146210963 0 0.21577564808412511 -0.056666161138016313 0 0.2167024847658664 -0.043974661413588162 0 0.20897987019450001 -0.050060865146210963 0 0.21577564808412511 -0.056666161138016313 0 0.21577564808412511 -0.056666161138016313 0 0.23694359709532001 -0.061394592404840097 0 0.22670270369963491 -0.067064047377793826 0 0.21577564808412511 -0.056666161138016313 0 0.22648325856373289 -0.049317463857355977 0 0.23694359709532001 -0.061394592404840097 0 0.21577564808412511 -0.056666161138016313 0 0.23694359709532001 -0.061394592404840097 0 0.2167024847658664 -0.043974661413588162 0 0.21577564808412511 -0.056666161138016313 0 0.22648325856373289 -0.049317463857355977 0 0.22648325856373289 -0.049317463857355977 0 0.23694359709532001 -0.061394592404840097 0 0.23716366819637241 -0.046229271507985323 0 0.25811154610651499 -0.066123023671663908 0 0.23694359709532001 -0.061394592404840097 0 0.24870160087168189 -0.052882304334001928 0 0.23694359709532001 -0.061394592404840097 0 0.24870160087168189 -0.052882304334001928 0 0.23716366819637241 -0.046229271507985323 0 0.24870160087168189 -0.052882304334001928 0 0.23716366819637241 -0.046229271507985323 0 0.24731406762381819 -0.035960341631652723 0 0.23716366819637241 -0.046229271507985323 0 0.24731406762381819 -0.035960341631652723 0 0.23342582712955959 -0.033308149953783547 0 0.23342582712955959 -0.033308149953783547 0 0.2258308946769807 -0.038322632822349968 0 0.22548915127375299 -0.027513718828695861 0 0.22648325856373289 -0.049317463857355977 0 0.23716366819637241 -0.046229271507985323 0 0.2258308946769807 -0.038322632822349968 0 0.23716366819637241 -0.046229271507985323 0 0.23342582712955959 -0.033308149953783547 0 0.2258308946769807 -0.038322632822349968 0 0.2180191377477218 -0.035203133534298187 0 0.2167024847658664 -0.043974661413588162 0 0.2258308946769807 -0.038322632822349968 0 0.2167024847658664 -0.043974661413588162 0 0.22648325856373289 -0.049317463857355977 0 0.2258308946769807 -0.038322632822349968 0 0.2180191377477218 -0.035203133534298187 0 0.2258308946769807 -0.038322632822349968 0 0.21995729679401421 -0.029331280632926501 0 0.2258308946769807 -0.038322632822349968 0 0.22548915127375299 -0.027513718828695861 0 0.21995729679401421 -0.029331280632926501 0 0.21528057420098159 -0.024212643874961401 0 0.2313313538768734 -0.018514784978234038 0 0.22829619310998309 -0.01520182636873813 0 0.21528057420098159 -0.024212643874961401 0 0.2313313538768734 -0.018514784978234038 0 0.21528057420098159 -0.024212643874961401 0 0.22548915127375299 -0.027513718828695861 0 0.2313313538768734 -0.018514784978234038 0 0.21528057420098159 -0.024212643874961401 0 0.22548915127375299 -0.027513718828695861 0 0.21995729679401421 -0.029331280632926501 0 0.21528057420098159 -0.024212643874961401 0 0.22829619310998309 -0.01520182636873813 0 0.21528057420098159 -0.024212643874961401 0 0.21911622703360889 -0.015650702578479541 0 0.22829619310998309 -0.01520182636873813 0 0.2313313538768734 -0.018514784978234038 0 0.22829619310998309 -0.01520182636873813 0 0.23342582712955959 -0.033308149953783547 0 0.22548915127375299 -0.027513718828695861 0 0.2313313538768734 -0.018514784978234038 0 0.25508119948702751 -0.010083838205662381 0 0.2313313538768734 -0.018514784978234038 0 0.2482857443068576 -0.021714794414400052 0 0.24731406762381819 -0.035960341631652723 0 0.2313313538768734 -0.018514784978234038 0 0.2482857443068576 -0.021714794414400052 0 0.24731406762381819 -0.035960341631652723 0 0.23342582712955959 -0.033308149953783547 0 0.2313313538768734 -0.018514784978234038 0 0.24731406762381819 -0.035960341631652723 0 0.2313313538768734 -0.018514784978234038 0 0.25508119948702751 -0.010083838205662381 0 0.2313313538768734 -0.018514784978234038 0 0.24138147174972829 -0.0061427828714447699 0 0.25508119948702751 -0.010083838205662381 0 0.2313313538768734 -0.018514784978234038 0 0.24138147174972829 -0.0061427828714447699 0 0.22829619310998309 -0.01520182636873813 0 0.25446675038947358 0.0029162606258486688 0 0.2541426920980116 -0.0036136263454906951 0 0.24138147174972829 -0.0061427828714447699 0 0.25446675038947358 0.0029162606258486688 0 0.24138147174972829 -0.0061427828714447699 0 0.22999165343287109 0.0038227322559807589 0 0.24138147174972829 -0.0061427828714447699 0 0.23189167676904729 -0.0064153040848911828 0 0.22999165343287109 0.0038227322559807589 0 0.23189167676904729 -0.0064153040848911828 0 0.2228246624943325 -0.0092295053444410857 0 0.22999165343287109 0.0038227322559807589 0 0.21351355446813719 -0.0021103410187178909 0 0.2228246624943325 -0.0092295053444410857 0 0.23189167676904729 -0.0064153040848911828 0 0.22829619310998309 -0.01520182636873813 0 0.2228246624943325 -0.0092295053444410857 0 0.2313313538768734 -0.018514784978234038 0 0.24138147174972829 -0.0061427828714447699 0 0.22829619310998309 -0.01520182636873813 0 0.24138147174972829 -0.0061427828714447699 0 0.23189167676904729 -0.0064153040848911828 0 0.22829619310998309 -0.01520182636873813 0 0.21911622703360889 -0.015650702578479541 0 0.22829619310998309 -0.01520182636873813 0 0.2228246624943325 -0.0092295053444410857 0 0.22829619310998309 -0.01520182636873813 0 0.2228246624943325 -0.0092295053444410857 0 0.2084634723971549 -0.097930235578601213 0 0.21737999015654699 -0.1103161024944793 0 0.2275791846540145 -0.10054182369239011 0 0.21737999015654699 -0.1103161024944793 0 0.19100769245097829 -0.1040519139747048 0 0.2084634723971549 -0.097930235578601213 0 0.21140608144591419 -0.084503356370523836 0 0.2275791846540145 -0.10054182369239011 0 0.2084634723971549 -0.097930235578601213 0 0.21737999015654699 -0.1103161024944793 0 0.19100769245097829 -0.1040519139747048 0 0.21737999015654699 -0.1103161024944793 0 0.21277072480774051 -0.1248863227998855 0 0.20025029595199689 -0.1218288277367077 0 0.21737999015654699 -0.1103161024944793 0 0.21277072480774051 -0.1248863227998855 0 0.2239597136694004 -0.1277946194696456 0 0.1862357176231304 -0.1238823921021804 0 0.20025029595199689 -0.1218288277367077 0 0.19100769245097829 -0.1040519139747048 0 0.21737999015654699 -0.1103161024944793 0 0.20025029595199689 -0.1218288277367077 0 0.19100769245097829 -0.1040519139747048 0 0.20025029595199689 -0.1218288277367077 0 0.19100769245097829 -0.1040519139747048 0 0.2084634723971549 -0.097930235578601213 0 0.19100769245097829 -0.1040519139747048 0 0.19624682445825681 -0.08914472739044943 0 0.18137547142311691 -0.085525622921553163 0 0.19100769245097829 -0.1040519139747048 0 0.19624682445825681 -0.08914472739044943 0 0.19624682445825681 -0.08914472739044943 0 0.1952329782378138 -0.068464889048657496 0 0.21140608144591419 -0.084503356370523836 0 0.18137547142311691 -0.085525622921553163 0 0.19624682445825681 -0.08914472739044943 0 0.1952329782378138 -0.068464889048657496 0 0.20138343235632811 -0.055727139445542639 0 0.1952329782378138 -0.068464889048657496 0 0.21149591893834541 -0.070957707586151192 0 0.18346211879182289 -0.064955309332027283 0 0.19188844298534441 -0.056659859735039647 0 0.1952329782378138 -0.068464889048657496 0 0.1952329782378138 -0.068464889048657496 0 0.21140608144591419 -0.084503356370523836 0 0.20138343235632811 -0.055727139445542639 0 0.21149591893834541 -0.070957707586151192 0 0.22670270369963491 -0.067064047377793826 0 0.1952329782378138 -0.068464889048657496 0 0.21149591893834541 -0.070957707586151192 0 0.21140608144591419 -0.084503356370523836 0 0.2084634723971549 -0.097930235578601213 0 0.19624682445825681 -0.08914472739044943 0 0.21140608144591419 -0.084503356370523836 0 0.21149591893834541 -0.070957707586151192 0 0.21140608144591419 -0.084503356370523836 0 0.2227543989520358 -0.079029105688238177 0 0.21140608144591419 -0.084503356370523836 0 0.2275791846540145 -0.10054182369239011 0 0.2227543989520358 -0.079029105688238177 0 0.23449163343577681 -0.083610487294907485 0 0.2275791846540145 -0.10054182369239011 0 0.21140608144591419 -0.084503356370523836 0 0.2227543989520358 -0.079029105688238177 0 0.2275791846540145 -0.10054182369239011 0 0.2227543989520358 -0.079029105688238177 0 0.22670270369963491 -0.067064047377793826 0 0.23449163343577681 -0.083610487294907485 0 0.21149591893834541 -0.070957707586151192 0 0.2227543989520358 -0.079029105688238177 0 0.22670270369963491 -0.067064047377793826 0 0.25202197504294188 -0.078400955310045109 0 0.25811154610651499 -0.066123023671663908 0 0.23694359709532001 -0.061394592404840097 0 0.25202197504294188 -0.078400955310045109 0 0.22670270369963491 -0.067064047377793826 0 0.25202197504294188 -0.078400955310045109 0 0.22670270369963491 -0.067064047377793826 0 0.23449163343577681 -0.083610487294907485 0 0.25202197504294188 -0.078400955310045109 0 0.23694359709532001 -0.061394592404840097 0 0.22670270369963491 -0.067064047377793826 0 0.25811154610651499 -0.066123023671663908 0 0.23694359709532001 -0.061394592404840097 0 0.25202197504294188 -0.078400955310045109 0 0.23449163343577681 -0.083610487294907485 0 0.24624903761231479 -0.086847438891893419 0 0.23449163343577681 -0.083610487294907485 0 0.24292322406264641 -0.096552741650977186 0 0.2275791846540145 -0.10054182369239011 0 0.23449163343577681 -0.083610487294907485 0 0.24624903761231479 -0.086847438891893419 0 0.24292322406264641 -0.096552741650977186 0 0.25304747237378489 -0.090741332181114118 0 0.24624903761231479 -0.086847438891893419 0 0.24292322406264641 -0.096552741650977186 0 0.2275791846540145 -0.10054182369239011 0 0.24375228786211539 -0.116580291014256 0 0.24292322406264641 -0.096552741650977186 0 0.2275791846540145 -0.10054182369239011 0 0.24375228786211539 -0.116580291014256 0 0.25771864553297669 -0.099620140202181948 0 0.24292322406264641 -0.096552741650977186 0 0.24375228786211539 -0.116580291014256 0 0.21737999015654699 -0.1103161024944793 0 0.2275791846540145 -0.10054182369239011 0 0.24375228786211539 -0.116580291014256 0 0.21737999015654699 -0.1103161024944793 0 0.24375228786211539 -0.116580291014256 0 0.2239597136694004 -0.1277946194696456 0 0.21737999015654699 -0.1103161024944793 0 0.24375228786211539 -0.116580291014256 0 0.24375228786211539 -0.116580291014256 0 0.235054631712311 -0.13955626642273861 0 0.24955680073527009 -0.143898101237383 0 0.235054631712311 -0.13955626642273861 0 0.24955680073527009 -0.143898101237383 0 0.23627457688356679 -0.15840319400941011 0 0.25449645062408999 -0.16331052089379791 0 0.24955680073527009 -0.143898101237383 0 0.23627457688356679 -0.15840319400941011 0 0.235054631712311 -0.13955626642273861 0 0.22199130801810529 -0.1478171468904442 0 0.23627457688356679 -0.15840319400941011 0 0.24375228786211539 -0.116580291014256 0 0.235054631712311 -0.13955626642273861 0 0.2239597136694004 -0.1277946194696456 0 0.235054631712311 -0.13955626642273861 0 0.22199130801810529 -0.1478171468904442 0 0.2239597136694004 -0.1277946194696456 0 0.20025029595199689 -0.1218288277367077 0 0.20949289945301761 -0.1396057414987095 0 0.22199130801810529 -0.1478171468904442 0 0.2239597136694004 -0.1277946194696456 0 0.20949289945301761 -0.1396057414987095 0 0.21277072480774051 -0.1248863227998855 0 0.20025029595199689 -0.1218288277367077 0 0.20949289945301761 -0.1396057414987095 0 0.21277072480774051 -0.1248863227998855 0 0.2239597136694004 -0.1277946194696456 0 0.20949289945301761 -0.1396057414987095 0 0.22199130801810529 -0.1478171468904442 0 0.20949289945301761 -0.1396057414987095 0 0.2069794531536403 -0.1537888919124783 0 0.20949289945301761 -0.1396057414987095 0 0.2069794531536403 -0.1537888919124783 0 0.1919305776748628 -0.1461990482496055 0 0.2069794531536403 -0.1537888919124783 0 0.1919305776748628 -0.1461990482496055 0 0.19225769977326759 -0.16432491474026781 0 0.1862357176231304 -0.1238823921021804 0 0.1919305776748628 -0.1461990482496055 0 0.19714487019074359 -0.1333469628700395 0 0.20025029595199689 -0.1218288277367077 0 0.20949289945301761 -0.1396057414987095 0 0.19714487019074359 -0.1333469628700395 0 0.20949289945301761 -0.1396057414987095 0 0.1919305776748628 -0.1461990482496055 0 0.19714487019074359 -0.1333469628700395 0 0.1862357176231304 -0.1238823921021804 0 0.1919305776748628 -0.1461990482496055 0 0.1862357176231304 -0.1238823921021804 0 0.20025029595199689 -0.1218288277367077 0 0.19714487019074359 -0.1333469628700395 0 0.19629081049063871 -0.1815365299480412 0 0.19225769977326759 -0.16432491474026781 0 0.17982600751226671 -0.1762593337595659 0 0.19629081049063871 -0.1815365299480412 0 0.19225769977326759 -0.16432491474026781 0 0.22018657323669569 -0.16775416802968299 0 0.2069794531536403 -0.1537888919124783 0 0.19225769977326759 -0.16432491474026781 0 0.22018657323669569 -0.16775416802968299 0 0.22199130801810529 -0.1478171468904442 0 0.2069794531536403 -0.1537888919124783 0 0.22018657323669569 -0.16775416802968299 0 0.19629081049063871 -0.1815365299480412 0 0.22018657323669569 -0.16775416802968299 0 0.21237941264848451 -0.18810475376770611 0 0.22018657323669569 -0.16775416802968299 0 0.23934418379307471 -0.18436482883247621 0 0.22018657323669569 -0.16775416802968299 0 0.23934418379307471 -0.18436482883247621 0 0.21237941264848451 -0.18810475376770611 0 0.22018657323669569 -0.16775416802968299 0 0.23627457688356679 -0.15840319400941011 0 0.23934418379307471 -0.18436482883247621 0 0.22199130801810529 -0.1478171468904442 0 0.22018657323669569 -0.16775416802968299 0 0.23627457688356679 -0.15840319400941011 0 0.25449645062408999 -0.16331052089379791 0 0.23627457688356679 -0.15840319400941011 0 0.23934418379307471 -0.18436482883247621 0 0.25850179434945381 -0.20097548963526929 0 0.23934418379307471 -0.18436482883247621 0 0.25850179434945381 -0.20097548963526929 0 0.23934418379307471 -0.18436482883247621 0 0.23907695871134879 -0.21289681242661959 0 0.23907695871134879 -0.21289681242661959 0 0.22308479462261119 -0.20217133576560289 0 0.21722062693650279 -0.2226466586169516 0 0.23934418379307471 -0.18436482883247621 0 0.22308479462261119 -0.20217133576560289 0 0.21237941264848451 -0.18810475376770611 0 0.23934418379307471 -0.18436482883247621 0 0.23907695871134879 -0.21289681242661959 0 0.22308479462261119 -0.20217133576560289 0 0.25037283077400019 -0.2416092145933311 0 0.23239962387573149 -0.2337287944253621 0 0.2339549802858914 -0.24933471903745599 0 0.25658827463044448 -0.2222138965281123 0 0.23907695871134879 -0.21289681242661959 0 0.2446094219978813 -0.2276121794933563 0 0.25037283077400019 -0.2416092145933311 0 0.2446094219978813 -0.2276121794933563 0 0.23239962387573149 -0.2337287944253621 0 0.23907695871134879 -0.21289681242661959 0 0.2446094219978813 -0.2276121794933563 0 0.23239962387573149 -0.2337287944253621 0 0.23907695871134879 -0.21289681242661959 0 0.23239962387573149 -0.2337287944253621 0 0.21722062693650279 -0.2226466586169516 0 0.23239962387573149 -0.2337287944253621 0 0.2194561222393229 -0.23682627783696539 0 0.21722062693650279 -0.2226466586169516 0 0.23239962387573149 -0.2337287944253621 0 0.22502312889380549 -0.2426362774769398 0 0.2339549802858914 -0.24933471903745599 0 0.2194561222393229 -0.23682627783696539 0 0.22502312889380549 -0.2426362774769398 0 0.21456577207223029 -0.24270171036535029 0 0.23239962387573149 -0.2337287944253621 0 0.2194561222393229 -0.23682627783696539 0 0.22502312889380549 -0.2426362774769398 0 0.22331750647786899 -0.25281133177650322 0 0.22502312889380549 -0.2426362774769398 0 0.21456577207223029 -0.24270171036535029 0 0.22331750647786899 -0.25281133177650322 0 0.22502312889380549 -0.2426362774769398 0 0.2339549802858914 -0.24933471903745599 0 0.2084475354763706 -0.25511513831035743 0 0.2080714594183444 -0.2424179483002232 0 0.21336353465090491 -0.24693864317134839 0 0.2080714594183444 -0.2424179483002232 0 0.21336353465090491 -0.24693864317134839 0 0.2080714594183444 -0.2424179483002232 0 0.21336353465090491 -0.24693864317134839 0 0.21456577207223029 -0.24270171036535029 0 0.2194561222393229 -0.23682627783696539 0 0.2080714594183444 -0.2424179483002232 0 0.21456577207223029 -0.24270171036535029 0 0.21722062693650279 -0.2226466586169516 0 0.20244123733496699 -0.2260211367091485 0 0.19848523837712481 -0.2136299623964425 0 0.2080714594183444 -0.2424179483002232 0 0.21722062693650279 -0.2226466586169516 0 0.2194561222393229 -0.23682627783696539 0 0.2080714594183444 -0.2424179483002232 0 0.21722062693650279 -0.2226466586169516 0 0.2080714594183444 -0.2424179483002232 0 0.21722062693650279 -0.2226466586169516 0 0.20244123733496699 -0.2260211367091485 0 0.2080714594183444 -0.2424179483002232 0 0.18716213711817259 -0.22455639835484539 0 0.2080714594183444 -0.2424179483002232 0 0.20244123733496699 -0.2260211367091485 0 0.18716213711817259 -0.22455639835484539 0 0.20244123733496699 -0.2260211367091485 0 0.19848523837712481 -0.2136299623964425 0 0.18716213711817259 -0.22455639835484539 0 0.2080714594183444 -0.2424179483002232 0 0.19254414318066221 -0.24961624770678509 0 0.1866817818972302 -0.23981118877977231 0 0.2080714594183444 -0.2424179483002232 0 0.1866817818972302 -0.23981118877977231 0 0.18716213711817259 -0.22455639835484539 0 0.19254414318066221 -0.24961624770678509 0 0.18399505531774341 -0.24981832115951039 0 0.1866817818972302 -0.23981118877977231 0 0.21237941264848451 -0.18810475376770611 0 0.20793523744788639 -0.20366419955677639 0 0.19447652973028121 -0.19759128756789451 0 0.22308479462261119 -0.20217133576560289 0 0.21237941264848451 -0.18810475376770611 0 0.20793523744788639 -0.20366419955677639 0 0.22308479462261119 -0.20217133576560289 0 0.21722062693650279 -0.2226466586169516 0 0.20793523744788639 -0.20366419955677639 0 0.21722062693650279 -0.2226466586169516 0 0.20793523744788639 -0.20366419955677639 0 0.19848523837712481 -0.2136299623964425 0 0.19848523837712481 -0.2136299623964425 0 0.19447652973028121 -0.19759128756789451 0 0.1831457957419608 -0.2071674304332729 0 0.20793523744788639 -0.20366419955677639 0 0.19848523837712481 -0.2136299623964425 0 0.19447652973028121 -0.19759128756789451 0 0.19848523837712481 -0.2136299623964425 0 0.1831457957419608 -0.2071674304332729 0 0.18716213711817259 -0.22455639835484539 0 0.19629081049063871 -0.1815365299480412 0 0.19447652973028121 -0.19759128756789451 0 0.1840061663436266 -0.1900566622106199 0 0.19629081049063871 -0.1815365299480412 0 0.21237941264848451 -0.18810475376770611 0 0.19447652973028121 -0.19759128756789451 0 0.19447652973028121 -0.19759128756789451 0 0.1840061663436266 -0.1900566622106199 0 0.1831457957419608 -0.2071674304332729 0 0.1840061663436266 -0.1900566622106199 0 0.1831457957419608 -0.2071674304332729 0 0.16486725365112659 -0.18785963188663279 0 0.1831457957419608 -0.2071674304332729 0 0.16486725365112659 -0.18785963188663279 0 0.1831457957419608 -0.2071674304332729 0 0.16625281481800089 -0.2066948484094672 0 0.18716213711817259 -0.22455639835484539 0 0.16625281481800089 -0.2066948484094672 0 0.18716213711817259 -0.22455639835484539 0 0.16625281481800089 -0.2066948484094672 0 0.18716213711817259 -0.22455639835484539 0 0.16937657335138201 -0.22198425569814831 0 0.16625281481800089 -0.2066948484094672 0 0.15661990237239229 -0.21733625041789439 0 0.14909823278687431 -0.20687378182447139 0 0.16625281481800089 -0.2066948484094672 0 0.15661990237239229 -0.21733625041789439 0 0.16937657335138201 -0.22198425569814831 0 0.1831457957419608 -0.2071674304332729 0 0.16625281481800089 -0.2066948484094672 0 0.16486725365112659 -0.18785963188663279 0 0.16625281481800089 -0.2066948484094672 0 0.16486725365112659 -0.18785963188663279 0 0.14534349251782941 -0.188833298464089 0 0.17619278994504239 -0.24587918172992959 0 0.18399505531774341 -0.24981832115951039 0 0.1866817818972302 -0.23981118877977231 0 0.17619278994504239 -0.24587918172992959 0 0.17450151464944069 -0.23276490516368609 0 0.16609645978724119 -0.24143951784646769 0 0.17619278994504239 -0.24587918172992959 0 0.1866817818972302 -0.23981118877977231 0 0.17450151464944069 -0.23276490516368609 0 0.17450151464944069 -0.23276490516368609 0 0.18716213711817259 -0.22455639835484539 0 0.16937657335138201 -0.22198425569814831 0 0.1866817818972302 -0.23981118877977231 0 0.17450151464944069 -0.23276490516368609 0 0.18716213711817259 -0.22455639835484539 0 0.15661990237239229 -0.21733625041789439 0 0.1623464977989032 -0.22856887614484861 0 0.15090654410468329 -0.22688320449844629 0 0.15661990237239229 -0.21733625041789439 0 0.16937657335138201 -0.22198425569814831 0 0.1623464977989032 -0.22856887614484861 0 0.17450151464944069 -0.23276490516368609 0 0.1623464977989032 -0.22856887614484861 0 0.16609645978724119 -0.24143951784646769 0 0.17450151464944069 -0.23276490516368609 0 0.16937657335138201 -0.22198425569814831 0 0.1623464977989032 -0.22856887614484861 0 0.1623464977989032 -0.22856887614484861 0 0.16609645978724119 -0.24143951784646769 0 0.1528270009437688 -0.23836283418195289 0 0.16001236861667459 -0.2513654190734112 0 0.16609645978724119 -0.24143951784646769 0 0.1528270009437688 -0.23836283418195289 0 0.16978669848249819 -0.25098739912941831 0 0.17619278994504239 -0.24587918172992959 0 0.16609645978724119 -0.24143951784646769 0 0.16001236861667459 -0.2513654190734112 0 0.16978669848249819 -0.25098739912941831 0 0.16609645978724119 -0.24143951784646769 0 0.1429630926125974 -0.2502577086919005 0 0.16001236861667459 -0.2513654190734112 0 0.1528270009437688 -0.23836283418195289 0 0.1429630926125974 -0.2502577086919005 0 0.1528270009437688 -0.23836283418195289 0 0.13988621804673579 -0.23152362256679451 0 0.1528270009437688 -0.23836283418195289 0 0.15090654410468329 -0.22688320449844629 0 0.13988621804673579 -0.23152362256679451 0 0.1623464977989032 -0.22856887614484861 0 0.1528270009437688 -0.23836283418195289 0 0.15090654410468329 -0.22688320449844629 0 0.15661990237239229 -0.21733625041789439 0 0.15090654410468329 -0.22688320449844629 0 0.1428531013616163 -0.21862443918074129 0 0.15090654410468329 -0.22688320449844629 0 0.13988621804673579 -0.23152362256679451 0 0.1428531013616163 -0.21862443918074129 0 0.12018370186474731 -0.23305432747703519 0 0.12895394136930069 -0.22163642029703709 0 0.13988621804673579 -0.23152362256679451 0 0.12895394136930069 -0.22163642029703709 0 0.13988621804673579 -0.23152362256679451 0 0.1428531013616163 -0.21862443918074129 0 0.1429630926125974 -0.2502577086919005 0 0.12018370186474731 -0.23305432747703519 0 0.1429630926125974 -0.2502577086919005 0 0.12018370186474731 -0.23305432747703519 0 0.13988621804673579 -0.23152362256679451 0 0.13217397618885759 -0.25462043987800831 0 0.1429630926125974 -0.2502577086919005 0 0.12018370186474731 -0.23305432747703519 0 0.16625281481800089 -0.2066948484094672 0 0.14534349251782941 -0.188833298464089 0 0.16625281481800089 -0.2066948484094672 0 0.14534349251782941 -0.188833298464089 0 0.14909823278687431 -0.20687378182447139 0 0.14534349251782941 -0.188833298464089 0 0.14909823278687431 -0.20687378182447139 0 0.1346280568372662 -0.20359450925845249 0 0.15661990237239229 -0.21733625041789439 0 0.14909823278687431 -0.20687378182447139 0 0.1428531013616163 -0.21862443918074129 0 0.14909823278687431 -0.20687378182447139 0 0.1428531013616163 -0.21862443918074129 0 0.1346280568372662 -0.20359450925845249 0 0.1178461100078927 -0.20838697738218431 0 0.12895394136930069 -0.22163642029703709 0 0.1346280568372662 -0.20359450925845249 0 0.12895394136930069 -0.22163642029703709 0 0.1428531013616163 -0.21862443918074129 0 0.1346280568372662 -0.20359450925845249 0 0.14534349251782941 -0.188833298464089 0 0.1346280568372662 -0.20359450925845249 0 0.13128332926409281 -0.18787359724935929 0 0.1237689835273371 -0.19605207676116951 0 0.1178461100078927 -0.20838697738218431 0 0.1346280568372662 -0.20359450925845249 0 0.1237689835273371 -0.19605207676116951 0 0.1346280568372662 -0.20359450925845249 0 0.13128332926409281 -0.18787359724935929 0 0.1237689835273371 -0.19605207676116951 0 0.1232013989280239 -0.1819146573535104 0 0.13128332926409281 -0.18787359724935929 0 0.12443417021765769 -0.1709717485187108 0 0.14534349251782941 -0.188833298464089 0 0.12443417021765769 -0.1709717485187108 0 0.1232013989280239 -0.1819146573535104 0 0.13128332926409281 -0.18787359724935929 0 0.12443417021765769 -0.1709717485187108 0 0.14534349251782941 -0.188833298464089 0 0.13128332926409281 -0.18787359724935929 0 0.12443417021765769 -0.1709717485187108 0 0.14534349251782941 -0.188833298464089 0 0.13540865390058859 -0.1688207667960602 0 0.14534349251782941 -0.188833298464089 0 0.14658871156029241 -0.16855183333999291 0 0.13540865390058859 -0.1688207667960602 0 0.16486725365112659 -0.18785963188663279 0 0.14658871156029241 -0.16855183333999291 0 0.16486725365112659 -0.18785963188663279 0 0.14534349251782941 -0.188833298464089 0 0.14658871156029241 -0.16855183333999291 0 0.14658871156029241 -0.16855183333999291 0 0.13391177650968769 -0.15242347890466901 0 0.14971917460686079 -0.1530450482394467 0 0.14658871156029241 -0.16855183333999291 0 0.14971917460686079 -0.1530450482394467 0 0.16192904395431579 -0.15800089119817939 0 0.14658871156029241 -0.16855183333999291 0 0.13391177650968769 -0.15242347890466901 0 0.12831016946945831 -0.1492440347933528 0 0.14658871156029241 -0.16855183333999291 0 0.12831016946945831 -0.1492440347933528 0 0.14658871156029241 -0.16855183333999291 0 0.13540865390058859 -0.1688207667960602 0 0.1290045142054978 -0.1612372837293575 0 0.14658871156029241 -0.16855183333999291 0 0.1290045142054978 -0.1612372837293575 0 0.12831016946945831 -0.1492440347933528 0 0.13540865390058859 -0.1688207667960602 0 0.12715697753007521 -0.16591248018761531 0 0.1290045142054978 -0.1612372837293575 0 0.12443417021765769 -0.1709717485187108 0 0.13540865390058859 -0.1688207667960602 0 0.12715697753007521 -0.16591248018761531 0 0.12098675462827781 -0.16200852072179159 0 0.12715697753007521 -0.16591248018761531 0 0.1290045142054978 -0.1612372837293575 0 0.12324902196630889 -0.15465793599018671 0 0.1227471198665283 -0.15880086614903269 0 0.1290045142054978 -0.1612372837293575 0 0.13391177650968769 -0.15242347890466901 0 0.12831016946945831 -0.1492440347933528 0 0.12532898621889721 -0.13663811256420449 0 0.12324902196630889 -0.15465793599018671 0 0.1290045142054978 -0.1612372837293575 0 0.12831016946945831 -0.1492440347933528 0 0.1217036921304827 -0.1482443959076799 0 0.12831016946945831 -0.1492440347933528 0 0.12532898621889721 -0.13663811256420449 0 0.13391177650968769 -0.15242347890466901 0 0.13188977167139071 -0.12546883223523481 0 0.13391177650968769 -0.15242347890466901 0 0.13188977167139071 -0.12546883223523481 0 0.1446303542042412 -0.1380662602394005 0 0.13391177650968769 -0.15242347890466901 0 0.13188977167139071 -0.12546883223523481 0 0.12532898621889721 -0.13663811256420449 0 0.11997683785091839 -0.1276371159963853 0 0.13188977167139071 -0.12546883223523481 0 0.12532898621889721 -0.13663811256420449 0 0.1446303542042412 -0.1380662602394005 0 0.15557261582888751 -0.13003178131142151 0 0.1621281360659286 -0.14191921566573409 0 0.14724036225017881 -0.1245170930860646 0 0.13188977167139071 -0.12546883223523481 0 0.1446303542042412 -0.1380662602394005 0 0.14724036225017881 -0.1245170930860646 0 0.1446303542042412 -0.1380662602394005 0 0.15557261582888751 -0.13003178131142151 0 0.13391177650968769 -0.15242347890466901 0 0.1446303542042412 -0.1380662602394005 0 0.14971917460686079 -0.1530450482394467 0 0.1446303542042412 -0.1380662602394005 0 0.14971917460686079 -0.1530450482394467 0 0.1621281360659286 -0.14191921566573409 0 0.1621281360659286 -0.14191921566573409 0 0.17324983187337631 -0.13165498831909611 0 0.17651024624945799 -0.1485415537171802 0 0.14971917460686079 -0.1530450482394467 0 0.1621281360659286 -0.14191921566573409 0 0.16192904395431579 -0.15800089119817939 0 0.1621281360659286 -0.14191921566573409 0 0.17651024624945799 -0.1485415537171802 0 0.16192904395431579 -0.15800089119817939 0 0.16471491079178111 -0.1205264202314431 0 0.15557261582888751 -0.13003178131142151 0 0.1639163736399934 -0.1310331013819237 0 0.15557261582888751 -0.13003178131142151 0 0.1621281360659286 -0.14191921566573409 0 0.1639163736399934 -0.1310331013819237 0 0.1621281360659286 -0.14191921566573409 0 0.1639163736399934 -0.1310331013819237 0 0.17324983187337631 -0.13165498831909611 0 0.16471491079178111 -0.1205264202314431 0 0.1639163736399934 -0.1310331013819237 0 0.17324983187337631 -0.13165498831909611 0 0.1862357176231304 -0.1238823921021804 0 0.1919305776748628 -0.1461990482496055 0 0.17324983187337631 -0.13165498831909611 0 0.1919305776748628 -0.1461990482496055 0 0.17324983187337631 -0.13165498831909611 0 0.17651024624945799 -0.1485415537171802 0 0.1919305776748628 -0.1461990482496055 0 0.19225769977326759 -0.16432491474026781 0 0.17651024624945799 -0.1485415537171802 0 0.19225769977326759 -0.16432491474026781 0 0.17526083145963689 -0.16308053239281189 0 0.17982600751226671 -0.1762593337595659 0 0.19225769977326759 -0.16432491474026781 0 0.17651024624945799 -0.1485415537171802 0 0.17526083145963689 -0.16308053239281189 0 0.17526083145963689 -0.16308053239281189 0 0.17982600751226671 -0.1762593337595659 0 0.16627328335530381 -0.17069773137902189 0 0.1840061663436266 -0.1900566622106199 0 0.16486725365112659 -0.18785963188663279 0 0.17982600751226671 -0.1762593337595659 0 0.19629081049063871 -0.1815365299480412 0 0.1840061663436266 -0.1900566622106199 0 0.17982600751226671 -0.1762593337595659 0 0.16486725365112659 -0.18785963188663279 0 0.14658871156029241 -0.16855183333999291 0 0.16627328335530381 -0.17069773137902189 0 0.16486725365112659 -0.18785963188663279 0 0.17982600751226671 -0.1762593337595659 0 0.16627328335530381 -0.17069773137902189 0 0.14658871156029241 -0.16855183333999291 0 0.16192904395431579 -0.15800089119817939 0 0.16627328335530381 -0.17069773137902189 0 0.17526083145963689 -0.16308053239281189 0 0.16192904395431579 -0.15800089119817939 0 0.16627328335530381 -0.17069773137902189 0 0.17651024624945799 -0.1485415537171802 0 0.17526083145963689 -0.16308053239281189 0 0.16192904395431579 -0.15800089119817939 0 
</DataArray>
</Points>
<Cells>
<DataArray type="UInt32" Name="connectivity" format="ascii">
0 1 2 3 4 5 6 7 8 9 10 11 12 13 14 15 16 17 18 19 20 21 22 23 24 25 26 27 28 29 30 31 32 33 34 35 36 37 38 39 40 41 42 43 44 45 46 47 48 49 50 51 52 53 54 55 56 57 58 59 60 61 62 63 64 65 66 67 68 69 70 71 72 73 74 75 76 77 78 79 80 81 82 83 84 85 86 87 88 89 90 91 92 93 94 95 96 97 98 99 100 101 102 103 104 105 106 107 108 109 110 111 112 113 114 115 116 117 118 119 120 121 122 123 124 125 126 127 128 129 130 131 132 133 134 135 136 137 138 139 140 141 142 143 144 145 146 147 148 149 150 151 152 153 154 155 156 157 158 159 160 161 162 163 164 165 166 167 168 169 170 171 172 173 174 175 176 177 178 179 180 181 182 183 184 185 186 187 188 189 190 191 192 193 194 195 196 197 198 199 200 201 202 203 204 205 206 207 208 209 210 211 212 213 214 215 216 217 218 219 220 221 222 223 224 225 226 227 228 229 230 231 232 233 234 235 236 237 238 239 240 241 242 243 244 245 246 247 248 249 250 251 252 253 254 255 256 257 258 259 260 261 262 263 264 265 266 267 268 269 270 271 272 273 274 275 276 277 278 279 280 281 282 283 284 285 286 287 288 289 290 291 292 293 294 295 296 297 298 299 300 301 302 303 304 305 306 307 308 309 310 311 312 313 314 315 316 317 318 319 320 321 322 323 324 325 326 327 328 329 330 331 332 333 334 335 336 337 338 339 340 341 342 343 344 345 346 347 348 349 350 351 352 353 354 355 356 357 358 359 360 361 362 363 364 365 366 367 368 369 370 371 372 373 374 375 376 377 378 379 380 381 382 383 384 385 386 387 388 389 390 391 392 393 394 395 396 397 398 399 400 401 402 403 404 405 406 407 408 409 410 411 412 413 414 415 416 417 418 419 420 421 422 423 424 425 426 427 428 429 430 431 432 433 434 435 436 437 438 439 440 441 442 443 444 445 446 447 448 449 450 451 452 453 454 455 456 457 458 459 460 461 462 463 464 465 466 467 468 469 470 471 472 473 474 475 476 477 478 479 480 481 482 483 484 485 486 487 488 489 490 491 492 493 494 495 496 497 498 499 500 501 502 503 504 505 506 507 508 509 510 511 512 513 514 515 516 517 518 519 520 521 522 523 524 525 526 527 528 529 530 531 532 533 534 535 536 537 538 539 540 541 542 543 544 545 546 547 548 549 550 551 552 553 554 555 556 557 558 559 560 561 562 563 564 565 566 567 568 569 570 571 572 573 574 575 576 577 578 579 580 581 582 583 584 585 586 587 588 589 590 591 592 593 594 595 596 597 598 599 600 601 602 603 604 605 606 607 608 609 610 611 612 613 614 615 616 617 618 619 620 621 622 623 624 625 626 627 628 629 630 631 632 633 634 635 636 637 638 639 640 641 642 643 644 645 646 647 648 649 650 651 652 653 654 655 656 657 658 659 660 661 662 663 664 665 666 667 668 669 670 671 672 673 674 675 676 677 678 679 680 681 682 683 684 685 686 687 688 689 690 691 692 693 694 695 696 697 698 699 700 701 702 703 704 705 706 707 708 709 710 711 712 713 714 715 716 717 718 719 720 721 722 723 724 725 726 727 728 729 730 731 732 733 734 735 736 737 738 739 740 741 742 743 744 745 746 747 748 749 750 751 752 753 754 755 756 757 758 759 760 761 762 763 764 765 766 767 768 769 770 771 772 773 774 775 776 777 778 779 780 781 782 783 784 785 786 787 788 789 790 791 792 793 794 795 796 797 798 799 800 801 802 803 804 805 806 807 808 809 810 811 812 813 814 815 816 817 818 819 820 821 822 823 824 825 826 827 828 829 830 831 832 833 834 835 836 837 838 839 840 841 842 843 844 845 846 847 848 849 850 851 852 853 854 855 856 857 858 859 860 861 862 863 864 865 866 867 868 869 870 871 872 873 874 875 876 877 878 879 880 881 882 883 884 885 886 887 888 889 890 891 892 893 894 895 896 897 898 899 900 901 902 903 904 905 906 907 908 909 910 911 912 913 914 915 916 917 918 919 920 921 922 923 924 925 926 927 928 929 930 931 932 933 934 935 936 937 938 939 940 941 942 943 944 945 946 947 948 949 950 951 952 953 954 955 956 957 958 959 960 961 962 963 964 965 966 967 968 969 970 971 972 973 974 975 976 977 978 979 980 981 982 983 984 985 986 987 988 989 990 991 992 993 994 995 996 997 998 999 1000 1001 1002 1003 1004 1005 1006 1007 1008 1009 1010 1011 1012 1013 1014 1015 1016 1017 1018 1019 1020 1021 1022 1023 1024 1025 1026 1027 1028 1029 1030 1031 1032 1033 1034 1035 1036 1037 1038 1039 1040 1041 1042 1043 1044 1045 1046 1047 1048 1049 1050 1051 1052 1053 1054 1055 1056 1057 1058 1059 1060 1061 1062 1063 1064 1065 1066 1067 1068 1069 1070 1071 1072 1073 1074 1075 1076 1077 1078 1079 1080 1081 1082 1083 1084 1085 1086 1087 1088 1089 1090 1091 1092 1093 1094 1095 1096 1097 1098 1099 1100 1101 1102 1103 1104 1105 1106 1107 1108 1109 1110 1111 1112 1113 1114 1115 1116 1117 1118 1119 1120 1121 1122 1123 1124 1125 1126 1127 1128 1129 1130 1131 1132 1133 1134 1135 1136 1137 1138 1139 1140 1141 1142 1143 1144 1145 1146 1147 1148 1149 1150 1151 1152 1153 1154 1155 1156 1157 1158 1159 1160 1161 1162 1163 1164 1165 1166 1167 1168 1169 1170 1171 1172 1173 1174 1175 1176 1177 1178 1179 1180 1181 1182 1183 1184 1185 1186 1187 1188 1189 1190 1191 1192 1193 1194 1195 1196 1197 1198 1199 1200 1201 1202 1203 1204 1205 1206 1207 1208 1209 1210 1211 1212 1213 1214 1215 1216 1217 1218 1219 1220 1221 1222 1223 1224 1225 1226 1227 1228 1229 1230 1231 1232 1233 1234 1235 1236 1237 1238 1239 1240 1241 1242 1243 1244 1245 1246 1247 1248 1249 1250 1251 1252 1253 1254 1255 1256 1257 1258 1259 1260 1261 1262 1263 1264 1265 1266 1267 1268 1269 1270 1271 1272 1273 1274 1275 1276 1277 1278 1279 1280 1281 1282 1283 1284 1285 1286 1287 1288 1289 1290 1291 1292 1293 1294 1295 1296 1297 1298 1299 1300 1301 1302 1303 1304 1305 1306 1307 1308 1309 1310 1311 1312 1313 1314 1315 1316 1317 1318 1319 1320 1321 1322 1323 1324 1325 1326 1327 1328 1329 1330 1331 1332 1333 1334 1335 1336 1337 1338 1339 1340 1341 1342 1343 1344 1345 1346 1347 1348 1349 1350 1351 1352 1353 1354 1355 1356 1357 1358 1359 1360 1361 1362 1363 1364 1365 1366 1367 1368 1369 1370 1371 1372 1373 1374 1375 1376 1377 1378 1379 1380 1381 1382 1383 1384 1385 1386 1387 1388 1389 1390 1391 1392 1393 1394 1395 1396 1397 1398 1399 1400 1401 1402 1403 1404 1405 1406 1407 1408 1409 1410 1411 1412 1413 1414 1415 1416 1417 1418 1419 1420 1421 1422 1423 1424 1425 1426 1427 1428 1429 1430 1431 1432 1433 1434 1435 1436 1437 1438 1439 1440 1441 1442 1443 1444 1445 1446 1447 1448 1449 1450 1451 1452 1453 1454 1455 1456 1457 1458 1459 1460 1461 1462 1463 1464 1465 1466 1467 1468 1469 1470 1471 1472 1473 1474 1475 1476 1477 1478 1479 1480 1481 1482 1483 1484 1485 1486 1487 1488 1489 1490 1491 1492 1493 1494 1495 1496 1497 1498 1499 1500 1501 1502 1503 1504 1505 1506 1507 1508 1509 1510 1511 1512 1513 1514 1515 1516 1517 1518 1519 1520 1521 1522 1523 1524 1525 1526 1527 1528 1529 1530 1531 1532 1533 1534 1535 1536 1537 1538 1539 1540 1541 1542 1543 1544 1545 1546 1547 1548 1549 1550 1551 1552 1553 1554 1555 1556 1557 1558 1559 1560 1561 1562 1563 1564 1565 1566 1567 1568 1569 1570 1571 1572 1573 1574 1575 1576 1577 1578 1579 1580 1581 1582 1583 1584 1585 1586 1587 1588 1589 1590 1591 1592 1593 1594 1595 1596 1597 1598 1599 1600 1601 1602 1603 1604 1605 1606 1607 1608 1609 1610 1611 1612 1613 1614 1615 1616 1617 1618 1619 1620 1621 1622 1623 1624 1625 1626 1627 1628 1629 1630 1631 1632 1633 1634 1635 1636 1637 1638 1639 1640 1641 1642 1643 1644 1645 1646 1647 1648 1649 1650 1651 1652 1653 1654 1655 1656 1657 1658 1659 1660 1661 1662 1663 1664 1665 1666 1667 1668 1669 1670 1671 1672 1673 1674 1675 1676 1677 1678 1679 1680 1681 1682 1683 1684 1685 1686 1687 1688 1689 1690 1691 1692 1693 1694 1695 1696 1697 1698 1699 1700 1701 1702 1703 1704 1705 1706 1707 1708 1709 1710 1711 1712 1713 1714 1715 1716 1717 1718 1719 1720 1721 1722 1723 1724 1725 1726 1727 1728 1729 1730 1731 1732 1733 1734 1735 1736 1737 1738 1739 1740 1741 1742 1743 1744 1745 1746 1747 1748 1749 1750 1751 1752 1753 1754 1755 1756 1757 1758 1759 1760 1761 1762 1763 1764 1765 1766 1767 1768 1769 1770 1771 1772 1773 1774 1775 1776 1777 1778 1779 1780 1781 1782 1783 1784 1785 1786 1787 1788 1789 1790 1791 1792 1793 1794 1795 1796 1797 1798 1799 1800 1801 1802 1803 1804 1805 1806 1807 1808 1809 1810 1811 1812 1813 1814 1815 1816 1817 1818 1819 1820 1821 1822 1823 1824 1825 1826 1827 1828 1829 1830 1831 1832 1833 1834 1835 1836 1837 1838 1839 1840 1841 1842 1843 1844 1845 1846 1847 1848 1849 1850 1851 1852 1853 1854 1855 1856 1857 1858 1859 1860 1861 1862 1863 1864 1865 1866 1867 1868 1869 1870 1871 1872 1873 1874 1875 1876 1877 1878 1879 1880 1881 1882 1883 1884 1885 1886 1887 1888 1889 1890 1891 1892 1893 1894 1895 1896 1897 1898 1899 1900 1901 1902 1903 1904 1905 1906 1907 1908 1909 1910 1911 1912 1913 1914 1915 1916 1917 1918 1919 1920 1921 1922 1923 1924 1925 1926 1927 1928 1929 1930 1931 1932 1933 1934 1935 1936 1937 1938 1939 1940 1941 1942 1943 1944 1945 1946 1947 1948 1949 1950 1951 1952 1953 1954 1955 1956 1957 1958 1959 1960 1961 1962 1963 1964 1965 1966 1967 1968 1969 1970 1971 1972 1973 1974 1975 1976 1977 1978 1979 1980 1981 1982 1983 1984 1985 1986 1987 1988 1989 1990 1991 1992 1993 1994 1995 1996 1997 1998 1999 2000 2001 2002 2003 2004 2005 2006 2007 2008 2009 2010 2011 2012 2013 2014 2015 2016 2017 2018 2019 2020 2021 2022 2023 2024 2025 2026 2027 2028 2029 2030 2031 2032 2033 2034 2035 2036 2037 2038 2039 2040 2041 2042 2043 2044 2045 2046 2047 2048 2049 2050 2051 2052 2053 2054 2055 2056 2057 2058 2059 2060 2061 2062 2063 2064 2065 2066 2067 2068 2069 2070 2071 2072 2073 2074 2075 2076 2077 2078 2079 2080 2081 2082 2083 2084 2085 2086 2087 2088 2089 2090 2091 2092 2093 2094 2095 2096 2097 2098 2099 2100 2101 2102 2103 2104 2105 2106 2107 2108 2109 2110 2111 2112 2113 2114 2115 2116 2117 2118 2119 2120 2121 2122 2123 2124 2125 2126 2127 2128 2129 2130 2131 2132 2133 2134 2135 2136 2137 2138 2139 2140 2141 2142 2143 2144 2145 2146 2147 2148 2149 2150 2151 2152 2153 2154 2155 2156 2157 2158 2159 2160 2161 2162 2163 2164 2165 2166 2167 2168 2169 2170 2171 2172 2173 2174 2175 2176 2177 2178 2179 2180 2181 2182 2183 2184 2185 2186 2187 2188 2189 2190 2191 2192 2193 2194 2195 2196 2197 2198 2199 2200 2201 2202 2203 2204 2205 2206 2207 2208 2209 2210 2211 2212 2213 2214 2215 2216 2217 2218 2219 2220 2221 2222 2223 2224 2225 2226 2227 2228 2229 2230 2231 2232 2233 2234 2235 2236 2237 2238 2239 2240 2241 2242 2243 2244 2245 2246 2247 2248 2249 2250 2251 2252 2253 2254 2255 2256 2257 2258 2259 2260 2261 2262 2263 2264 2265 2266 2267 2268 2269 2270 2271 2272 2273 2274 2275 2276 2277 2278 2279 2280 2281 2282 2283 2284 2285 2286 2287 2288 2289 2290 2291 2292 2293 2294 2295 2296 2297 2298 2299 2300 2301 2302 2303 2304 2305 2306 2307 2308 2309 2310 2311 2312 2313 2314 2315 2316 2317 2318 2319 2320 2321 2322 2323 2324 2325 2326 2327 2328 2329 2330 2331 2332 2333 2334 2335 2336 2337 2338 2339 2340 2341 2342 2343 2344 2345 2346 2347 2348 2349 2350 2351 2352 2353 2354 2355 2356 2357 2358 2359 2360 2361 2362 2363 2364 2365 2366 2367 2368 2369 2370 2371 2372 2373 2374 2375 2376 2377 2378 2379 2380 2381 2382 2383 2384 2385 2386 2387 2388 2389 2390 2391 2392 2393 2394 2395 2396 2397 2398 2399 2400 2401 2402 2403 2404 2405 2406 2407 2408 2409 2410 2411 2412 2413 2414 2415 2416 2417 2418 2419 2420 2421 2422 2423 2424 2425 2426 2427 2428 2429 2430 2431 2432 2433 2434 2435 2436 2437 2438 2439 2440 2441 2442 2443 2444 2445 2446 2447 2448 2449 2450 2451 2452 2453 2454 2455 2456 2457 2458 2459 2460 2461 2462 2463 2464 2465 2466 2467 2468 2469 2470 2471 2472 2473 2474 2475 2476 2477 2478 2479 2480 2481 2482 2483 2484 2485 2486 2487 2488 2489 2490 2491 2492 2493 2494 2495 2496 2497 2498 2499 2500 2501 2502 2503 2504 2505 2506 2507 2508 2509 2510 2511 2512 2513 2514 2515 2516 2517 2518 2519 2520 2521 2522 2523 2524 2525 2526 2527 2528 2529 2530 2531 2532 2533 2534 2535 2536 2537 2538 2539 2540 2541 2542 2543 2544 2545 2546 2547 2548 2549 2550 2551 2552 2553 2554 2555 2556 2557 2558 2559 2560 2561 2562 2563 2564 2565 2566 2567 2568 2569 2570 2571 2572 2573 2574 2575 2576 2577 2578 2579 2580 2581 2582 2583 2584 2585 2586 2587 2588 2589 2590 2591 2592 2593 2594 2595 2596 2597 2598 2599 2600 2601 2602 2603 2604 2605 2606 2607 2608 2609 2610 2611 2612 2613 2614 2615 2616 2617 2618 2619 2620 2621 2622 2623 2624 2625 2626 2627 2628 2629 2630 2631 2632 2633 2634 2635 2636 2637 2638 2639 2640 2641 2642 2643 2644 2645 2646 2647 2648 2649 2650 2651 2652 2653 2654 2655 2656 2657 2658 2659 2660 2661 2662 2663 2664 2665 2666 2667 2668 2669 2670 2671 2672 2673 2674 2675 2676 2677 2678 2679 2680 2681 2682 2683 2684 2685 2686 2687 2688 2689 2690 2691 2692 2693 2694 2695 2696 2697 2698 2699 2700 2701 2702 2703 2704 2705 2706 2707 2708 2709 2710 2711 2712 2713 2714 2715 2716 2717 2718 2719 2720 2721 2722 2723 2724 2725 2726 2727 2728 2729 2730 2731 2732 2733 2734 2735 2736 2737 2738 2739 2740 2741 2742 2743 2744 2745 2746 2747 2748 2749 2750 2751 2752 2753 2754 2755 2756 2757 2758 2759 2760 2761 2762 2763 2764 2765 2766 2767 2768 2769 2770 2771 2772 2773 2774 2775 2776 2777 2778 2779 2780 2781 2782 2783 2784 2785 2786 2787 2788 2789 2790 2791 2792 2793 2794 2795 2796 2797 2798 2799 2800 2801 2802 2803 2804 2805 2806 2807 2808 2809 2810 2811 2812 2813 2814 2815 2816 2817 2818 2819 2820 2821 2822 2823 2824 2825 2826 2827 2828 2829 2830 2831 2832 2833 2834 2835 2836 2837 2838 2839 2840 2841 2842 2843 2844 2845 2846 2847 2848 2849 2850 2851 2852 2853 2854 2855 2856 2857 2858 2859 2860 2861 2862 2863 2864 2865 2866 2867 2868 2869 2870 2871 2872 2873 2874 2875 2876 2877 2878 2879 2880 2881 2882 2883 2884 2885 2886 2887 2888 2889 2890 2891 2892 2893 2894 2895 2896 2897 2898 2899 2900 2901 2902 2903 2904 2905 2906 2907 2908 2909 2910 2911 2912 2913 2914 2915 2916 2917 2918 2919 2920 2921 2922 2923 2924 2925 2926 2927 2928 2929 2930 2931 2932 2933 2934 2935 2936 2937 2938 2939 2940 2941 2942 2943 2944 2945 2946 2947 2948 2949 2950 2951 2952 2953 2954 2955 2956 2957 2958 2959 2960 2961 2962 2963 2964 2965 2966 2967 2968 2969 2970 2971 2972 2973 2974 2975 2976 2977 2978 2979 2980 2981 2982 2983 2984 2985 2986 2987 2988 2989 2990 2991 2992 2993 2994 2995 2996 2997 2998 2999 3000 3001 3002 3003 3004 3005 3006 3007 3008 3009 3010 3011 3012 3013 3014 3015 3016 3017 3018 3019 3020 3021 3022 3023 3024 3025 3026 3027 3028 3029 3030 3031 3032 3033 3034 3035 3036 3037 3038 3039 3040 3041 3042 3043 3044 3045 3046 3047 3048 3049 3050 3051 3052 3053 3054 3055 3056 3057 3058 3059 3060 3061 3062 3063 3064 3065 3066 3067 3068 3069 3070 3071 3072 3073 3074 3075 3076 3077 3078 3079 3080 3081 3082 3083 3084 3085 3086 3087 3088 3089 3090 3091 3092 3093 3094 3095 3096 3097 3098 3099 3100 3101 3102 3103 3104 3105 3106 3107 3108 3109 3110 3111 3112 3113 3114 3115 3116 3117 3118 3119 3120 3121 3122 3123 3124 3125 3126 3127 3128 3129 3130 3131 3132 3133 3134 3135 3136 3137 3138 3139 3140 3141 3142 3143 3144 3145 3146 3147 3148 3149 3150 3151 3152 3153 3154 3155 3156 3157 3158 3159 3160 3161 3162 3163 3164 3165 3166 3167 3168 3169 3170 3171 3172 3173 3174 3175 3176 3177 3178 3179 3180 3181 3182 3183 3184 3185 3186 3187 3188 3189 3190 3191 3192 3193 3194 3195 3196 3197 3198 3199 3200 3201 3202 3203 3204 3205 3206 3207 3208 3209 3210 3211 3212 3213 3214 3215 3216 3217 3218 3219 3220 3221 3222 3223 3224 3225 3226 3227 3228 3229 3230 3231 3232 3233 3234 3235 3236 3237 3238 3239 3240 3241 3242 3243 3244 3245 3246 3247 3248 3249 3250 3251 3252 3253 3254 3255 3256 3257 3258 3259 3260 3261 3262 3263 3264 3265 3266 3267 3268 3269 3270 3271 3272 3273 3274 3275 3276 3277 3278 3279 3280 3281 3282 3283 3284 3285 3286 3287 3288 3289 3290 3291 3292 3293 3294 3295 3296 3297 3298 3299 3300 3301 3302 3303 3304 3305 3306 3307 3308 3309 3310 3311 3312 3313 3314 3315 3316 3317 3318 3319 3320 3321 3322 3323 3324 3325 3326 3327 3328 3329 3330 3331 3332 3333 3334 3335 3336 3337 3338 3339 3340 3341 3342 3343 3344 3345 3346 3347 3348 3349 3350 3351 3352 3353 3354 3355 3356 3357 3358 3359 3360 3361 3362 3363 3364 3365 3366 3367 3368 3369 3370 3371 3372 3373 3374 3375 3376 3377 3378 3379 3380 3381 3382 3383 3384 3385 3386 3387 3388 3389 3390 3391 3392 3393 3394 3395 3396 3397 3398 3399 3400 3401 3402 3403 3404 3405 3406 3407 3408 3409 3410 3411 3412 3413 3414 3415 3416 3417 3418 3419 3420 3421 3422 3423 3424 3425 3426 3427 3428 3429 3430 3431 3432 3433 3434 3435 3436 3437 3438 3439 3440 3441 3442 3443 3444 3445 3446 3447 3448 3449 3450 3451 3452 3453 3454 3455 3456 3457 3458 3459 3460 3461 3462 3463 3464 3465 3466 3467 3468 3469 3470 3471 3472 3473 3474 3475 3476 3477 3478 3479 3480 3481 3482 3483 3484 3485 3486 3487 3488 3489 3490 3491 3492 3493 3494 3495 3496 3497 3498 3499 3500 3501 3502 3503 3504 3505 3506 3507 3508 3509 3510 3511 3512 3513 3514 3515 3516 3517 3518 3519 3520 3521 3522 3523 3524 3525 3526 3527 3528 3529 3530 3531 3532 3533 3534 3535 3536 3537 3538 3539 3540 3541 3542 3543 3544 3545 3546 3547 3548 3549 3550 3551 3552 3553 3554 3555 3556 3557 3558 3559 3560 3561 3562 3563 3564 3565 3566 3567 3568 3569 3570 3571 3572 3573 3574 3575 3576 3577 3578 3579 3580 3581 3582 3583 3584 3585 3586 3587 3588 3589 3590 3591 3592 3593 3594 3595 3596 3597 3598 3599 3600 3601 3602 3603 3604 3605 3606 3607 3608 3609 3610 3611 3612 3613 3614 3615 3616 3617 3618 3619 3620 3621 3622 3623 3624 3625 3626 3627 3628 3629 3630 3631 3632 3633 3634 3635 3636 3637 3638 3639 3640 3641 3642 3643 3644 3645 3646 3647 3648 3649 3650 3651 3652 3653 3654 3655 3656 3657 3658 3659 3660 3661 3662 3663 3664 3665 3666 3667 3668 3669 3670 3671 3672 3673 3674 3675 3676 3677 3678 3679 3680 3681 3682 3683 3684 3685 3686 3687 3688 3689 3690 3691 3692 3693 3694 3695 3696 3697 3698 3699 3700 3701 3702 3703 3704 3705 3706 3707 3708 3709 3710 3711 3712 3713 3714 3715 3716 3717 3718 3719 3720 3721 3722 3723 3724 3725 3726 3727 3728 3729 3730 3731 3732 3733 3734 3735 3736 3737 3738 3739 3740 3741 3742 3743 3744 3745 3746 3747 3748 3749 3750 3751 3752 3753 3754 3755 3756 3757 3758 3759 3760 3761 3762 3763 3764 3765 3766 3767 3768 3769 3770 3771 3772 3773 3774 3775 3776 3777 3778 3779 3780 3781 3782 3783 3784 3785 3786 3787 3788 3789 3790 3791 3792 3793 3794 3795 3796 3797 3798 3799 3800 3801 3802 3803 3804 3805 3806 3807 3808 3809 3810 3811 3812 3813 3814 3815 3816 3817 3818 3819 3820 3821 3822 3823 3824 3825 3826 3827 3828 3829 3830 3831 3832 3833 3834 3835 3836 3837 3838 3839 3840 3841 3842 3843 3844 3845 3846 3847 3848 3849 3850 3851 3852 3853 3854 3855 3856 3857 3858 3859 3860 3861 3862 3863 3864 3865 3866 3867 3868 3869 3870 3871 3872 3873 3874 3875 3876 3877 3878 3879 3880 3881 3882 3883 3884 3885 3886 3887 3888 3889 3890 3891 3892 3893 3894 3895 3896 3897 3898 3899 3900 3901 3902 3903 3904 3905 3906 3907 3908 3909 3910 3911 3912 3913 3914 3915 3916 3917 3918 3919 3920 3921 3922 3923 3924 3925 3926 3927 3928 3929 3930 3931 3932 3933 3934 3935 3936 3937 3938 3939 3940 3941 3942 3943 3944 3945 3946 3947 3948 3949 3950 3951 3952 3953 3954 3955 3956 3957 3958 3959 3960 3961 3962 3963 3964 3965 3966 3967 3968 3969 3970 3971 3972 3973 3974 3975 3976 3977 3978 3979 3980 3981 3982 3983 3984 3985 3986 3987 3988 3989 3990 3991 3992 3993 3994 3995 3996 3997 3998 3999 4000 4001 4002 4003 4004 4005 4006 4007 4008 4009 4010 4011 4012 4013 4014 4015 4016 4017 4018 4019 4020 4021 4022 4023 4024 4025 4026 4027 4028 4029 4030 4031 4032 4033 4034 4035 4036 4037 4038 4039 4040 4041 4042 4043 4044 4045 4046 4047 4048 4049 4050 4051 4052 4053 4054 4055 4056 4057 4058 4059 4060 4061 4062 4063 4064 4065 4066 4067 4068 4069 4070 4071 4072 4073 4074 4075 4076 4077 4078 4079 4080 4081 4082 4083 4084 4085 4086 4087 4088 4089 4090 4091 4092 4093 4094 4095 4096 4097 4098 4099 4100 4101 4102 4103 4104 4105 4106 4107 4108 4109 4110 4111 4112 4113 4114 4115 4116 4117 4118 4119 4120 4121 4122 4123 4124 4125 4126 4127 4128 4129 4130 4131 4132 4133 4134 4135 4136 4137 4138 4139 4140 4141 4142 4143 4144 4145 4146 4147 4148 4149 4150 4151 4152 4153 4154 4155 4156 4157 4158 4159 4160 4161 4162 4163 4164 4165 4166 4167 4168 4169 4170 4171 4172 4173 4174 4175 4176 4177 4178 4179 4180 4181 4182 4183 4184 4185 4186 4187 4188 4189 4190 4191 4192 4193 4194 4195 4196 4197 4198 4199 4200 4201 4202 4203 4204 4205 4206 4207 4208 4209 4210 4211 4212 4213 4214 4215 4216 4217 4218 4219 4220 4221 4222 4223 4224 4225 4226 4227 4228 4229 4230 4231 4232 4233 4234 4235 4236 4237 4238 4239 4240 4241 4242 4243 4244 4245 4246 4247 4248 4249 4250 4251 4252 4253 4254 4255 4256 4257 4258 4259 4260 4261 4262 4263 4264 4265 4266 4267 4268 4269 4270 4271 4272 4273 4274 4275 4276 4277 4278 4279 4280 4281 4282 4283 4284 4285 4286 4287 4288 4289 4290 4291 4292 4293 4294 4295 4296 4297 4298 4299 4300 4301 4302 4303 4304 4305 4306 4307 4308 4309 4310 4311 4312 4313 4314 4315 4316 4317 4318 4319 4320 4321 4322 4323 4324 4325 4326 4327 4328 4329 4330 4331 4332 4333 4334 4335 4336 4337 4338 4339 4340 4341 4342 4343 4344 4345 4346 4347 4348 4349 4350 4351 4352 4353 4354 4355 4356 4357 4358 4359 4360 4361 4362 4363 4364 4365 4366 4367 4368 4369 4370 4371 4372 4373 4374 4375 4376 4377 4378 4379 4380 4381 4382 4383 4384 4385 4386 4387 4388 4389 4390 4391 4392 4393 4394 4395 4396 4397 4398 4399 4400 4401 4402 4403 4404 4405 4406 4407 4408 4409 4410 4411 4412 4413 4414 4415 4416 4417 4418 4419 4420 4421 4422 4423 4424 4425 4426 4427 4428 4429 4430 4431 4432 4433 4434 4435 4436 4437 4438 4439 4440 4441 4442 4443 4444 4445 4446 4447 4448 4449 4450 4451 4452 4453 4454 4455 4456 4457 4458 4459 4460 4461 4462 4463 4464 4465 4466 4467 4468 4469 4470 4471 4472 4473 4474 4475 4476 4477 4478 4479 4480 4481 4482 4483 4484 4485 4486 4487 4488 4489 4490 4491 4492 4493 4494 4495 4496 4497 4498 4499 4500 4501 4502 4503 4504 4505 4506 4507 4508 4509 4510 4511 4512 4513 4514 4515 4516 4517 4518 4519 4520 4521 4522 4523 4524 4525 4526 4527 4528 4529 4530 4531 4532 4533 4534 4535 4536 4537 4538 4539 4540 4541 4542 4543 4544 4545 4546 4547 4548 4549 4550 4551 4552 4553 4554 4555 4556 4557 4558 4559 4560 4561 4562 4563 4564 4565 4566 4567 4568 4569 4570 4571 4572 4573 4574 4575 4576 4577 4578 4579 4580 4581 4582 4583 4584 4585 4586 4587 4588 4589 4590 4591 4592 4593 4594 4595 4596 4597 4598 4599 4600 4601 4602 4603 4604 4605 4606 4607 4608 4609 4610 4611 4612 4613 4614 4615 4616 4617 4618 4619 4620 4621 4622 4623 4624 4625 4626 4627 4628 4629 4630 4631 4632 4633 4634 4635 4636 4637 4638 4639 4640 4641 4642 4643 4644 4645 4646 4647 4648 4649 4650 4651 4652 4653 4654 4655 4656 4657 4658 4659 4660 4661 4662 4663 4664 4665 4666 4667 4668 4669 4670 4671 4672 4673 4674 4675 4676 4677 4678 4679 4680 4681 4682 4683 4684 4685 4686 4687 4688 4689 4690 4691 4692 4693 4694 4695 4696 4697 4698 4699 4700 4701 4702 4703 4704 4705 4706 4707 4708 4709 4710 4711 4712 4713 4714 4715 4716 4717 4718 4719 4720 4721 4722 4723 4724 4725 4726 4727 4728 4729 4730 4731 4732 4733 4734 4735 4736 4737 4738 4739 4740 4741 4742 4743 4744 4745 4746 4747 4748 4749 4750 4751 4752 4753 4754 4755 4756 4757 4758 4759 4760 4761 4762 4763 4764 4765 4766 4767 4768 4769 4770 4771 4772 4773 4774 4775 4776 4777 4778 4779 4780 4781 4782 4783 4784 4785 4786 4787 4788 4789 4790 4791 4792 4793 4794 4795 4796 4797 4798 4799 4800 4801 4802 4803 4804 4805 4806 4807 4808 4809 4810 4811 4812 4813 4814 4815 4816 4817 4818 4819 4820 4821 4822 4823 4824 4825 4826 4827 4828 4829 4830 4831 4832 4833 4834 4835 4836 4837 4838 4839 4840 4841 4842 4843 4844 4845 4846 4847 4848 4849 4850 4851 4852 4853 4854 4855 4856 4857 4858 4859 4860 4861 4862 4863 4864 4865 4866 4867 4868 4869 4870 4871 4872 4873 4874 4875 4876 4877 4878 4879 4880 4881 4882 4883 4884 4885 4886 4887 4888 4889 4890 4891 4892 4893 4894 4895 4896 4897 4898 4899 4900 4901 4902 4903 4904 4905 4906 4907 4908 4909 4910 4911 4912 4913 4914 4915 4916 4917 4918 4919 4920 4921 4922 4923 4924 4925 4926 4927 4928 4929 4930 4931 4932 4933 4934 4935 4936 4937 4938 4939 4940 4941 4942 4943 4944 4945 4946 4947 4948 4949 4950 4951 4952 4953 4954 4955 4956 4957 4958 4959 4960 4961 4962 4963 4964 4965 4966 4967 4968 4969 4970 4971 4972 4973 4974 4975 4976 4977 4978 4979 4980 4981 4982 4983 4984 4985 4986 4987 4988 4989 4990 4991 4992 4993 4994 4995 4996 4997 4998 4999 5000 5001 5002 5003 5004 5005 5006 5007 5008 5009 5010 5011 5012 5013 5014 5015 5016 5017 5018 5019 5020 5021 5022 5023 5024 5025 5026 5027 5028 5029 5030 5031 5032 5033 5034 5035 5036 5037 5038 5039 5040 5041 5042 5043 5044 5045 5046 5047 5048 5049 5050 5051 5052 5053 5054 5055 5056 5057 5058 5059 5060 5061 5062 5063 5064 5065 5066 5067 5068 5069 5070 5071 5072 5073 5074 5075 5076 5077 5078 5079 5080 5081 5082 5083 5084 5085 5086 5087 5088 5089 5090 5091 5092 5093 5094 5095 5096 5097 5098 5099 5100 5101 5102 5103 5104 5105 5106 5107 5108 5109 5110 5111 5112 5113 5114 5115 5116 5117 5118 5119 5120 5121 5122 5123 5124 5125 5126 5127 5128 5129 5130 5131 5132 5133 5134 5135 5136 5137 5138 5139 5140 5141 5142 5143 5144 5145 5146 5147 5148 5149 5150 5151 5152 5153 5154 5155 5156 5157 5158 5159 5160 5161 5162 5163 5164 5165 5166 5167 5168 5169 5170 5171 5172 5173 5174 5175 5176 5177 5178 5179 5180 5181 5182 5183 5184 5185 5186 5187 5188 5189 5190 5191 5192 5193 5194 5195 5196 5197 5198 5199 5200 5201 5202 5203 5204 5205 5206 5207 5208 5209 5210 5211 5212 5213 5214 5215 5216 5217 5218 5219 5220 5221 5222 5223 5224 5225 5226 5227 5228 5229 5230 5231 5232 5233 5234 5235 5236 5237 5238 5239 5240 5241 5242 5243 5244 5245 5246 5247 5248 5249 5250 5251 5252 5253 5254 5255 5256 5257 5258 5259 5260 5261 5262 5263 5264 5265 5266 5267 5268 5269 5270 5271 5272 5273 5274 5275 5276 5277 5278 5279 5280 5281 5282 5283 5284 5285 5286 5287 5288 5289 5290 5291 5292 5293 5294 5295 5296 5297 5298 5299 5300 5301 5302 5303 5304 5305 5306 5307 5308 5309 5310 5311 5312 5313 5314 5315 5316 5317 5318 5319 5320 5321 5322 5323 5324 5325 5326 5327 5328 5329 5330 5331 5332 5333 5334 5335 5336 5337 5338 5339 5340 5341 5342 5343 5344 5345 5346 5347 5348 5349 5350 5351 5352 5353 5354 5355 5356 5357 5358 5359 5360 5361 5362 5363 5364 5365 5366 5367 5368 5369 5370 5371 5372 5373 5374 5375 5376 5377 5378 5379 5380 5381 5382 5383 5384 5385 5386 5387 5388 5389 5390 5391 5392 5393 5394 5395 5396 5397 5398 5399 5400 5401 5402 5403 5404 5405 5406 5407 5408 5409 5410 5411 5412 5413 5414 5415 5416 5417 5418 5419 5420 5421 5422 5423 5424 5425 5426 5427 5428 5429 5430 5431 5432 5433 5434 5435 5436 5437 5438 5439 5440 5441 5442 5443 5444 5445 5446 5447 5448 5449 5450 5451 5452 5453 5454 5455 5456 5457 5458 5459 5460 5461 5462 5463 5464 5465 5466 5467 5468 5469 5470 5471 5472 5473 5474 5475 5476 5477 5478 5479 5480 5481 5482 5483 5484 5485 5486 5487 5488 5489 5490 5491 5492 5493 5494 5495 5496 5497 5498 5499 5500 5501 5502 5503 5504 5505 5506 5507 5508 5509 5510 5511 5512 5513 5514 5515 5516 5517 5518 5519 5520 5521 5522 5523 5524 5525 5526 5527 5528 5529 5530 5531 5532 5533 5534 5535 5536 5537 5538 5539 5540 5541 5542 5543 5544 5545 5546 5547 5548 5549 5550 5551 5552 5553 5554 5555 5556 5557 5558 5559 5560 5561 5562 5563 5564 5565 5566 5567 5568 5569 5570 5571 5572 5573 5574 5575 5576 5577 5578 5579 5580 5581 5582 5583 5584 5585 5586 5587 5588 5589 5590 5591 5592 5593 5594 5595 5596 5597 5598 5599 5600 5601 5602 5603 5604 5605 5606 5607 5608 5609 5610 5611 5612 5613 5614 5615 5616 5617 5618 5619 5620 5621 5622 5623 5624 5625 5626 5627 5628 5629 5630 5631 5632 5633 5634 5635 5636 5637 5638 5639 5640 5641 5642 5643 5644 5645 5646 5647 5648 5649 5650 5651 5652 5653 5654 5655 5656 5657 5658 5659 5660 5661 5662 5663 5664 5665 5666 5667 5668 5669 5670 5671 5672 5673 5674 5675 5676 5677 5678 5679 5680 5681 5682 5683 5684 5685 5686 5687 5688 5689 5690 5691 5692 5693 5694 5695 5696 5697 5698 5699 5700 5701 5702 5703 5704 5705 5706 5707 5708 5709 5710 5711 5712 5713 5714 5715 5716 5717 5718 5719 5720 5721 5722 5723 5724 5725 5726 5727 5728 5729 5730 5731 5732 5733 5734 5735 5736 5737 5738 5739 5740 5741 5742 5743 5744 5745 5746 5747 5748 5749 5750 5751 5752 5753 5754 5755 5756 5757 5758 5759 5760 5761 5762 5763 5764 5765 5766 5767 5768 5769 5770 5771 5772 5773 5774 5775 5776 5777 5778 5779 5780 5781 5782 5783 5784 5785 5786 5787 5788 5789 5790 5791 5792 5793 5794 5795 5796 5797 5798 5799 5800 5801 5802 5803 5804 5805 5806 5807 5808 5809 5810 5811 5812 5813 5814 5815 5816 5817 5818 5819 5820 5821 5822 5823 5824 5825 5826 5827 5828 5829 5830 5831 5832 5833 5834 5835 5836 5837 5838 5839 5840 5841 5842 5843 5844 5845 5846 5847 5848 5849 5850 5851 5852 5853 5854 5855 5856 5857 5858 5859 5860 5861 5862 5863 5864 5865 5866 5867 5868 5869 5870 5871 5872 5873 5874 5875 5876 5877 5878 5879 5880 5881 5882 5883 5884 5885 5886 5887 5888 5889 5890 5891 5892 5893 5894 5895 5896 5897 5898 5899 5900 5901 5902 5903 5904 5905 5906 5907 5908 5909 5910 5911 5912 5913 5914 5915 5916 5917 5918 5919 5920 5921 5922 5923 5924 5925 5926 5927 5928 5929 5930 5931 5932 5933 5934 5935 5936 5937 5938 5939 5940 5941 5942 5943 5944 5945 5946 5947 5948 5949 5950 5951 5952 5953 5954 5955 5956 5957 5958 5959 5960 5961 5962 5963 5964 5965 5966 5967 5968 5969 5970 5971 5972 5973 5974 5975 5976 5977 5978 5979 5980 5981 5982 5983 5984 5985 5986 5987 5988 5989 5990 5991 5992 5993 5994 5995 5996 5997 5998 5999 6000 6001 6002 6003 6004 6005 6006 6007 6008 6009 6010 6011 6012 6013 6014 6015 6016 6017 6018 6019 6020 6021 6022 6023 6024 6025 6026 6027 6028 6029 6030 6031 6032 6033 6034 6035 6036 6037 6038 6039 6040 6041 6042 6043 6044 6045 6046 6047 6048 6049 6050 6051 6052 6053 6054 6055 6056 6057 6058 6059 6060 6061 6062 6063 6064 6065 6066 6067 6068 6069 6070 6071 6072 6073 6074 6075 6076 6077 6078 6079 6080 6081 6082 6083 6084 6085 6086 6087 6088 6089 6090 6091 6092 6093 6094 6095 6096 6097 6098 6099 6100 6101 6102 6103 6104 6105 6106 6107 6108 6109 6110 6111 6112 6113 6114 6115 6116 6117 6118 6119 6120 6121 6122 6123 6124 6125 6126 6127 6128 6129 6130 6131 6132 6133 6134 6135 6136 6137 6138 6139 6140 6141 6142 6143 6144 6145 6146 6147 6148 6149 6150 6151 6152 6153 6154 6155 6156 6157 6158 6159 6160 6161 6162 6163 6164 6165 6166 6167 6168 6169 6170 6171 6172 6173 6174 6175 6176 6177 6178 6179 6180 6181 6182 6183 6184 6185 6186 6187 6188 6189 6190 6191 6192 6193 6194 6195 6196 6197 6198 6199 6200 6201 6202 6203 6204 6205 6206 6207 6208 6209 6210 6211 6212 6213 6214 6215 6216 6217 6218 6219 6220 6221 6222 6223 6224 6225 6226 6227 6228 6229 6230 6231 6232 6233 6234 6235 6236 6237 6238 6239 6240 6241 6242 6243 6244 6245 6246 6247 6248 6249 6250 6251 6252 6253 6254 6255 6256 6257 6258 6259 6260 6261 6262 6263 6264 6265 6266 6267 6268 6269 6270 6271 6272 6273 6274 6275 6276 6277 6278 6279 6280 6281 6282 6283 6284 6285 6286 6287 6288 6289 6290 6291 6292 6293 6294 6295 6296 6297 6298 6299 6300 6301 6302 6303 6304 6305 6306 6307 6308 6309 6310 6311 6312 6313 6314 6315 6316 6317 6318 6319 6320 6321 6322 6323 6324 6325 6326 6327 6328 6329 6330 6331 6332 6333 6334 6335 6336 6337 6338 6339 6340 6341 6342 6343 6344 6345 6346 6347 6348 6349 6350 6351 6352 6353 6354 6355 6356 6357 6358 6359 6360 6361 6362 6363 6364 6365 6366 6367 6368 6369 6370 6371 6372 6373 6374 6375 6376 6377 6378 6379 6380 6381 6382 6383 6384 6385 6386 6387 6388 6389 6390 6391 6392 6393 6394 6395 6396 6397 6398 6399 6400 6401 6402 6403 6404 6405 6406 6407 6408 6409 6410 6411 6412 6413 6414 6415 6416 6417 6418 6419 6420 6421 6422 6423 6424 6425 6426 6427 6428 6429 6430 6431 6432 6433 6434 6435 6436 6437 6438 6439 6440 6441 6442 6443 6444 6445 6446 6447 6448 6449 6450 6451 6452 6453 6454 6455 6456 6457 6458 6459 6460 6461 6462 6463 6464 6465 6466 6467 6468 6469 6470 6471 6472 6473 6474 6475 6476 6477 6478 6479 6480 6481 6482 6483 6484 6485 6486 6487 6488 6489 6490 6491 6492 6493 6494 6495 6496 6497 6498 6499 6500 6501 6502 6503 6504 6505 6506 6507 6508 6509 6510 6511 6512 6513 6514 6515 6516 6517 6518 6519 6520 6521 6522 6523 6524 6525 6526 6527 6528 6529 6530 6531 6532 6533 6534 6535 6536 6537 6538 6539 6540 6541 6542 6543 6544 6545 6546 6547 6548 6549 6550 6551 6552 6553 6554 6555 6556 6557 6558 6559 6560 6561 6562 6563 6564 6565 6566 6567 6568 6569 6570 6571 6572 6573 6574 6575 6576 6577 6578 6579 6580 6581 6582 6583 6584 6585 6586 6587 6588 6589 6590 6591 6592 6593 6594 6595 6596 6597 6598 6599 6600 6601 6602 6603 6604 6605 6606 6607 6608 6609 6610 6611 6612 6613 6614 6615 6616 6617 6618 6619 6620 6621 6622 6623 6624 6625 6626 6627 6628 6629 6630 6631 6632 6633 6634 6635 6636 6637 6638 6639 6640 6641 6642 6643 6644 6645 6646 6647 6648 6649 6650 6651 6652 6653 6654 6655 6656 6657 6658 6659 6660 6661 6662 6663 6664 6665 6666 6667 6668 6669 6670 6671 6672 6673 6674 6675 6676 6677 6678 6679 6680 6681 6682 6683 6684 6685 6686 6687 6688 6689 6690 6691 6692 6693 6694 6695 6696 6697 6698 6699 6700 6701 6702 6703 6704 6705 6706 6707 6708 6709 6710 6711 6712 6713 6714 6715 6716 6717 6718 6719 6720 6721 6722 6723 6724 6725 6726 6727 6728 6729 6730 6731 6732 6733 6734 6735 6736 6737 6738 6739 6740 6741 6742 6743 6744 6745 6746 6747 6748 6749 6750 6751 6752 6753 6754 6755 6756 6757 6758 6759 6760 6761 6762 6763 6764 6765 6766 6767 6768 6769 6770 6771 6772 6773 6774 6775 6776 6777 6778 6779 6780 6781 6782 6783 6784 6785 6786 6787 6788 6789 6790 6791 6792 6793 6794 6795 6796 6797 6798 6799 6800 6801 6802 6803 6804 6805 6806 6807 6808 6809 6810 6811 6812 6813 6814 6815 6816 6817 6818 6819 6820 6821 6822 6823 6824 6825 6826 6827 6828 6829 6830 6831 6832 6833 6834 6835 6836 6837 6838 6839 6840 6841 6842 6843 6844 6845 6846 6847 6848 6849 6850 6851 6852 6853 6854 6855 6856 6857 6858 6859 6860 6861 6862 6863 6864 6865 6866 6867 6868 6869 6870 6871 6872 6873 6874 6875 6876 6877 6878 6879 6880 6881 6882 6883 6884 6885 6886 6887 6888 6889 6890 6891 6892 6893 6894 6895 6896 6897 6898 6899 6900 6901 6902 6903 6904 6905 6906 6907 6908 6909 6910 6911 6912 6913 6914 6915 6916 6917 6918 6919 6920 6921 6922 6923 6924 6925 6926 6927 6928 6929 6930 6931 6932 6933 6934 6935 6936 6937 6938 6939 6940 6941 6942 6943 6944 6945 6946 6947 6948 6949 6950 6951 6952 6953 6954 6955 6956 6957 6958 6959 6960 6961 6962 6963 6964 6965 6966 6967 6968 6969 6970 6971 6972 6973 6974 6975 6976 6977 6978 6979 6980 6981 6982 6983 6984 6985 6986 6987 6988 6989 6990 6991 6992 6993 6994 6995 6996 6997 6998 6999 7000 7001 7002 7003 7004 7005 7006 7007 7008 7009 7010 7011 7012 7013 7014 7015 7016 7017 7018 7019 7020 7021 7022 7023 7024 7025 7026 7027 7028 7029 7030 7031 7032 7033 7034 7035 7036 7037 7038 7039 7040 7041 7042 7043 7044 7045 7046 7047 7048 7049 7050 7051 7052 7053 7054 7055 7056 7057 7058 7059 7060 7061 7062 7063 7064 7065 7066 7067 7068 7069 7070 7071 7072 7073 7074 7075 7076 7077 7078 7079 7080 7081 7082 7083 7084 7085 7086 7087 7088 7089 7090 7091 7092 7093 7094 7095 7096 7097 7098 7099 7100 7101 7102 7103 7104 7105 7106 7107 7108 7109 7110 7111 7112 7113 7114 7115 7116 7117 7118 7119 7120 7121 7122 7123 7124 7125 7126 7127 7128 7129 7130 7131 7132 7133 7134 7135 7136 7137 7138 7139 7140 7141 7142 7143 7144 7145 7146 7147 7148 7149 7150 7151 7152 7153 7154 7155 7156 7157 7158 7159 7160 7161 7162 7163 7164 7165 7166 7167 7168 7169 7170 7171 7172 7173 7174 7175 7176 7177 7178 7179 7180 7181 7182 7183 7184 7185 7186 7187 7188 7189 7190 7191 7192 7193 7194 7195 7196 7197 7198 7199 7200 7201 7202 7203 7204 7205 7206 7207 7208 7209 7210 7211 7212 7213 7214 7215 7216 7217 7218 7219 7220 7221 7222 7223 7224 7225 7226 7227 7228 7229 7230 7231 7232 7233 7234 7235 7236 7237 7238 7239 7240 7241 7242 7243 7244 7245 7246 7247 7248 7249 7250 7251 7252 7253 7254 7255 7256 7257 7258 7259 7260 7261 7262 7263 7264 7265 7266 7267 7268 7269 7270 7271 7272 7273 7274 7275 7276 7277 7278 7279 7280 7281 7282 7283 7284 7285 7286 7287 7288 7289 7290 7291 7292 7293 7294 7295 7296 7297 7298 7299 7300 7301 7302 7303 7304 7305 7306 7307 7308 7309 7310 7311 7312 7313 7314 7315 7316 7317 7318 7319 7320 7321 7322 7323 7324 7325 7326 7327 7328 7329 7330 7331 7332 7333 7334 7335 7336 7337 7338 7339 7340 7341 7342 7343 7344 7345 7346 7347 7348 7349 7350 7351 7352 7353 7354 7355 7356 7357 7358 7359 7360 7361 7362 7363 7364 7365 7366 7367 7368 7369 7370 7371 7372 7373 7374 7375 7376 7377 7378 7379 7380 7381 7382 7383 7384 7385 7386 7387 7388 7389 7390 7391 7392 7393 7394 7395 7396 7397 7398 7399 7400 7401 7402 7403 7404 7405 7406 7407 7408 7409 7410 7411 7412 7413 7414 7415 7416 7417 7418 7419 7420 7421 7422 7423 7424 7425 7426 7427 7428 7429 7430 7431 7432 7433 7434 7435 7436 7437 7438 7439 7440 7441 7442 7443 7444 7445 7446 7447 7448 7449 7450 7451 7452 7453 7454 7455 7456 7457 7458 7459 7460 7461 7462 7463 7464 7465 7466 7467 7468 7469 7470 7471 7472 7473 7474 7475 7476 7477 7478 7479 7480 7481 7482 7483 7484 7485 7486 7487 7488 7489 7490 7491 7492 7493 7494 7495 7496 7497 7498 7499 7500 7501 7502 7503 7504 7505 7506 7507 7508 7509 7510 7511 7512 7513 7514 7515 7516 7517 7518 7519 7520 7521 7522 7523 7524 7525 7526 7527 7528 7529 7530 7531 7532 7533 7534 7535 7536 7537 7538 7539 7540 7541 7542 7543 7544 7545 7546 7547 7548 7549 7550 7551 7552 7553 7554 7555 7556 7557 7558 7559 7560 7561 7562 7563 7564 7565 7566 7567 7568 7569 7570 7571 7572 7573 7574 7575 7576 7577 7578 7579 7580 7581 7582 7583 7584 7585 7586 7587 7588 7589 7590 7591 7592 7593 7594 7595 7596 7597 7598 7599 7600 7601 7602 7603 7604 7605 7606 7607 7608 7609 7610 7611 7612 7613 7614 7615 7616 7617 7618 7619 7620 7621 7622 7623 7624 7625 7626 7627 7628 7629 7630 7631 7632 7633 7634 7635 7636 7637 7638 7639 7640 7641 7642 7643 7644 7645 7646 7647 7648 7649 7650 7651 7652 7653 7654 7655 7656 7657 7658 7659 7660 7661 7662 7663 7664 7665 7666 7667 7668 7669 7670 7671 7672 7673 7674 7675 7676 7677 7678 7679 7680 7681 7682 7683 7684 7685 7686 7687 7688 7689 7690 7691 7692 7693 7694 7695 7696 7697 7698 7699 7700 7701 7702 7703 7704 7705 7706 7707 7708 7709 7710 7711 7712 7713 7714 7715 7716 7717 7718 7719 7720 7721 7722 7723 7724 7725 7726 7727 7728 7729 7730 7731 7732 7733 7734 7735 7736 7737 7738 7739 7740 7741 7742 7743 7744 7745 7746 7747 7748 7749 7750 7751 7752 7753 7754 7755 7756 7757 7758 7759 7760 7761 7762 7763 7764 7765 7766 7767 7768 7769 7770 7771 7772 7773 7774 7775 7776 7777 7778 7779 7780 7781 7782 7783 7784 7785 7786 7787 7788 7789 7790 7791 7792 7793 7794 7795 7796 7797 7798 7799 7800 7801 7802 7803 7804 7805 7806 7807 7808 7809 7810 7811 7812 7813 7814 7815 7816 7817 7818 7819 7820 7821 7822 7823 7824 7825 7826 7827 7828 7829 7830 7831 7832 7833 7834 7835 7836 7837 7838 7839 7840 7841 7842 7843 7844 7845 7846 7847 7848 7849 7850 7851 7852 7853 7854 7855 7856 7857 7858 7859 7860 7861 7862 7863 7864 7865 7866 7867 7868 7869 7870 7871 7872 7873 7874 7875 7876 7877 7878 7879 7880 7881 7882 7883 7884 7885 7886 7887 7888 7889 7890 7891 7892 7893 7894 7895 7896 7897 7898 7899 7900 7901 7902 7903 7904 7905 7906 7907 7908 7909 7910 7911 7912 7913 7914 7915 7916 7917 7918 7919 7920 7921 7922 7923 7924 7925 7926 7927 7928 7929 7930 7931 7932 7933 7934 7935 7936 7937 7938 7939 7940 7941 7942 7943 7944 7945 7946 7947 7948 7949 7950 7951 7952 7953 7954 7955 7956 7957 7958 7959 7960 7961 7962 7963 7964 7965 7966 7967 7968 7969 7970 7971 7972 7973 7974 7975 7976 7977 7978 7979 7980 7981 7982 7983 7984 7985 7986 7987 7988 7989 7990 7991 7992 7993 7994 7995 7996 7997 7998 7999 8000 8001 8002 8003 8004 8005 8006 8007 8008 8009 8010 8011 8012 8013 8014 8015 8016 8017 8018 8019 8020 8021 8022 8023 8024 8025 8026 8027 8028 8029 8030 8031 8032 8033 8034 8035 8036 8037 8038 8039 8040 8041 8042 8043 8044 8045 8046 8047 8048 8049 8050 8051 8052 8053 8054 8055 8056 8057 8058 8059 8060 8061 8062 8063 8064 8065 8066 8067 8068 8069 8070 8071 8072 8073 8074 8075 8076 8077 8078 8079 8080 8081 8082 8083 8084 8085 8086 8087 8088 8089 8090 8091 8092 8093 8094 8095 8096 8097 8098 8099 8100 8101 8102 8103 8104 8105 8106 8107 8108 8109 8110 8111 8112 8113 8114 8115 8116 8117 8118 8119 8120 8121 8122 8123 8124 8125 8126 8127 8128 8129 8130 8131 8132 8133 8134 8135 8136 8137 8138 8139 8140 8141 8142 8143 8144 8145 8146 8147 8148 8149 8150 8151 8152 8153 8154 8155 8156 8157 8158 8159 8160 8161 8162 8163 8164 8165 8166 8167 8168 8169 8170 8171 8172 8173 8174 8175 8176 8177 8178 8179 8180 8181 8182 8183 8184 8185 8186 8187 8188 8189 8190 8191 8192 8193 8194 8195 8196 8197 8198 8199 8200 8201 8202 8203 8204 8205 8206 8207 8208 8209 8210 8211 8212 8213 8214 8215 8216 8217 8218 8219 8220 8221 8222 8223 8224 8225 8226 8227 8228 8229 8230 8231 8232 8233 8234 8235 8236 8237 8238 8239 8240 8241 8242 8243 8244 8245 8246 8247 8248 8249 8250 8251 8252 8253 8254 8255 8256 8257 8258 8259 8260 8261 8262 8263 8264 8265 8266 8267 8268 8269 8270 8271 8272 8273 8274 8275 8276 8277 8278 8279 8280 8281 8282 8283 8284 8285 8286 8287 8288 8289 8290 8291 8292 8293 8294 8295 8296 8297 8298 8299 8300 8301 8302 8303 8304 8305 8306 8307 8308 8309 8310 8311 8312 8313 8314 8315 8316 8317 8318 8319 8320 8321 8322 8323 8324 8325 8326 8327 8328 8329 8330 8331 8332 8333 8334 8335 8336 8337 8338 8339 8340 8341 8342 8343 8344 8345 8346 8347 8348 8349 8350 8351 8352 8353 8354 8355 8356 8357 8358 8359 8360 8361 8362 8363 8364 8365 8366 8367 8368 8369 8370 8371 8372 8373 8374 8375 8376 8377 8378 8379 8380 8381 8382 8383 8384 8385 8386 8387 8388 8389 8390 8391 8392 8393 8394 8395 8396 8397 8398 8399 8400 8401 8402 8403 8404 8405 8406 8407 8408 8409 8410 8411 8412 8413 8414 8415 8416 8417 8418 8419 8420 8421 8422 8423 8424 8425 8426 8427 8428 8429 8430 8431 8432 8433 8434 8435 8436 8437 8438 8439 8440 8441 8442 8443 8444 8445 8446 8447 8448 8449 8450 8451 8452 8453 8454 8455 8456 8457 8458 8459 8460 8461 8462 8463 8464 8465 8466 8467 8468 8469 8470 8471 8472 8473 8474 8475 8476 8477 8478 8479 8480 8481 8482 8483 8484 8485 8486 8487 8488 8489 8490 8491 8492 8493 8494 8495 8496 8497 8498 8499 8500 8501 8502 8503 8504 8505 8506 8507 8508 8509 8510 8511 8512 8513 8514 8515 8516 8517 8518 8519 8520 8521 8522 8523 8524 8525 8526 8527 8528 8529 8530 8531 8532 8533 8534 8535 8536 8537 8538 8539 8540 8541 8542 8543 8544 8545 8546 8547 8548 8549 8550 8551 8552 8553 8554 8555 8556 8557 8558 8559 8560 8561 8562 8563 8564 8565 8566 8567 8568 8569 8570 8571 8572 8573 8574 8575 8576 8577 8578 8579 8580 8581 8582 8583 8584 8585 8586 8587 8588 8589 8590 8591 8592 8593 8594 8595 8596 8597 8598 8599 8600 8601 8602 8603 8604 8605 8606 8607 8608 8609 8610 8611 8612 8613 8614 8615 8616 8617 8618 8619 8620 8621 8622 8623 8624 8625 8626 8627 8628 8629 8630 8631 8632 8633 8634 8635 8636 8637 8638 8639 8640 8641 8642 8643 8644 8645 8646 8647 8648 8649 8650 8651 8652 8653 8654 8655 8656 8657 8658 8659 8660 8661 8662 8663 8664 8665 8666 8667 8668 8669 8670 8671 8672 8673 8674 8675 8676 8677 8678 8679 8680 8681 8682 8683 8684 8685 8686 8687 8688 8689 8690 8691 8692 8693 8694 8695 8696 8697 8698 8699 8700 8701 8702 8703 8704 8705 8706 8707 8708 8709 8710 8711 8712 8713 8714 8715 8716 8717 8718 8719 8720 8721 8722 8723 8724 8725 8726 8727 8728 8729 8730 8731 8732 8733 8734 8735 8736 8737 8738 8739 8740 8741 8742 8743 8744 8745 8746 8747 8748 8749 8750 8751 8752 8753 8754 8755 8756 8757 8758 8759 8760 8761 8762 8763 8764 8765 8766 8767 8768 8769 8770 8771 8772 8773 8774 8775 8776 8777 8778 8779 8780 8781 8782 8783 8784 8785 8786 8787 8788 8789 8790 8791 8792 8793 8794 8795 8796 8797 8798 8799 8800 8801 8802 8803 8804 8805 8806 8807 8808 8809 8810 8811 8812 8813 8814 8815 8816 8817 8818 8819 8820 8821 8822 8823 8824 8825 8826 8827 8828 8829 8830 8831 8832 8833 8834 8835 8836 8837 8838 8839 8840 8841 8842 8843 8844 8845 8846 8847 8848 8849 8850 8851 8852 8853 8854 8855 8856 8857 8858 8859 8860 8861 8862 8863 8864 8865 8866 8867 8868 8869 8870 8871 8872 8873 8874 8875 8876 8877 8878 8879 8880 8881 8882 8883 8884 8885 8886 8887 8888 8889 8890 8891 8892 8893 8894 8895 8896 8897 8898 8899 8900 8901 8902 8903 8904 8905 8906 8907 8908 8909 8910 8911 8912 8913 8914 8915 8916 8917 8918 8919 8920 8921 8922 8923 8924 8925 8926 8927 8928 8929 8930 8931 8932 8933 8934 8935 8936 8937 8938 8939 8940 8941 8942 8943 8944 8945 8946 8947 8948 8949 8950 8951 8952 8953 8954 8955 8956 8957 8958 8959 8960 8961 8962 8963 8964 8965 8966 8967 8968 8969 8970 8971 8972 8973 8974 8975 8976 8977 8978 8979 8980 8981 8982 8983 8984 8985 8986 8987 8988 8989 8990 8991 8992 8993 8994 8995 8996 8997 8998 8999 9000 9001 9002 9003 9004 9005 9006 9007 9008 9009 9010 9011 9012 9013 9014 9015 9016 9017 9018 9019 9020 9021 9022 9023 9024 9025 9026 9027 9028 9029 9030 9031 9032 9033 9034 9035 9036 9037 9038 9039 9040 9041 9042 9043 9044 9045 9046 9047 9048 9049 9050 9051 9052 9053 9054 9055 9056 9057 9058 9059 9060 9061 9062 9063 9064 9065 9066 9067 9068 9069 9070 9071 9072 9073 9074 9075 9076 9077 9078 9079 9080 9081 9082 9083 9084 9085 9086 9087 9088 9089 9090 9091 9092 9093 9094 9095 9096 9097 9098 9099 9100 9101 9102 9103 9104 9105 9106 9107 9108 9109 9110 9111 9112 9113 9114 9115 9116 9117 9118 9119 9120 9121 9122 9123 9124 9125 9126 9127 9128 9129 9130 9131 9132 9133 9134 9135 9136 9137 9138 9139 9140 9141 9142 9143 9144 9145 9146 9147 9148 9149 9150 9151 9152 9153 9154 9155 9156 9157 9158 9159 9160 9161 9162 9163 9164 9165 9166 9167 9168 9169 9170 9171 9172 9173 9174 9175 9176 9177 9178 9179 9180 9181 9182 9183 9184 9185 9186 9187 9188 9189 9190 9191 9192 9193 9194 9195 9196 9197 9198 9199 9200 9201 9202 9203 9204 9205 9206 9207 9208 9209 9210 9211 9212 9213 9214 9215 9216 9217 9218 9219 9220 9221 9222 9223 9224 9225 9226 9227 9228 9229 9230 9231 9232 9233 9234 9235 9236 9237 9238 9239 9240 9241 9242 9243 9244 9245 9246 9247 9248 9249 9250 9251 9252 9253 9254 9255 9256 9257 9258 9259 9260 9261 9262 9263 9264 9265 9266 9267 9268 9269 9270 9271 9272 9273 9274 9275 9276 9277 9278 9279 9280 9281 9282 9283 9284 9285 9286 9287 9288 9289 9290 9291 9292 9293 9294 9295 9296 9297 9298 9299 9300 9301 9302 9303 9304 9305 9306 9307 9308 9309 9310 9311 9312 9313 9314 9315 9316 9317 9318 9319 9320 9321 9322 9323 9324 9325 9326 9327 9328 9329 9330 9331 9332 9333 9334 9335 9336 9337 9338 9339 9340 9341 9342 9343 9344 9345 9346 9347 9348 9349 9350 9351 9352 9353 9354 9355 9356 9357 9358 9359 9360 9361 9362 9363 9364 9365 9366 9367 9368 9369 9370 9371 9372 9373 9374 9375 9376 9377 9378 9379 9380 9381 9382 9383 9384 9385 9386 9387 9388 9389 9390 9391 9392 9393 9394 9395 9396 9397 9398 9399 9400 9401 9402 9403 9404 9405 9406 9407 9408 9409 9410 9411 9412 9413 9414 9415 9416 9417 9418 9419 9420 9421 9422 9423 9424 9425 9426 9427 9428 9429 9430 9431 9432 9433 9434 9435 9436 9437 9438 9439 9440 9441 9442 9443 9444 9445 9446 9447 9448 9449 9450 9451 9452 9453 9454 9455 9456 9457 9458 9459 9460 9461 9462 9463 9464 9465 9466 9467 9468 9469 9470 9471 9472 9473 9474 9475 9476 9477 9478 9479 9480 9481 9482 9483 9484 9485 9486 9487 9488 9489 9490 9491 9492 9493 9494 9495 9496 9497 9498 9499 9500 9501 9502 9503 9504 9505 9506 9507 9508 9509 9510 9511 9512 9513 9514 9515 9516 9517 9518 9519 9520 9521 9522 9523 9524 9525 9526 9527 9528 9529 9530 9531 9532 9533 9534 9535 9536 9537 9538 9539 9540 9541 9542 9543 9544 9545 9546 9547 9548 9549 9550 9551 9552 9553 9554 9555 9556 9557 9558 9559 9560 9561 9562 9563 9564 9565 9566 9567 9568 9569 9570 9571 9572 9573 9574 9575 9576 9577 9578 9579 9580 9581 9582 9583 9584 9585 9586 9587 9588 9589 9590 9591 9592 9593 9594 9595 9596 9597 9598 9599 9600 9601 9602 9603 9604 9605 9606 9607 9608 9609 9610 9611 9612 9613 9614 9615 9616 9617 9618 9619 9620 9621 9622 9623 9624 9625 9626 9627 9628 9629 9630 9631 9632 9633 9634 9635 9636 9637 9638 9639 9640 9641 9642 9643 9644 9645 9646 9647 9648 9649 9650 9651 9652 9653 9654 9655 9656 9657 9658 9659 9660 9661 9662 9663 9664 9665 9666 9667 9668 9669 9670 9671 9672 9673 9674 9675 9676 9677 9678 9679 9680 9681 9682 9683 9684 9685 9686 9687 9688 9689 9690 9691 9692 9693 9694 9695 9696 9697 9698 9699 9700 9701 9702 9703 9704 9705 9706 9707 9708 9709 9710 9711 9712 9713 9714 9715 9716 9717 9718 9719 9720 9721 9722 9723 9724 9725 9726 9727 9728 9729 9730 9731 9732 9733 9734 9735 9736 9737 9738 9739 9740 9741 9742 9743 9744 9745 9746 9747 9748 9749 9750 9751 9752 9753 9754 9755 9756 9757 9758 9759 9760 9761 9762 9763 9764 9765 9766 9767 9768 9769 9770 9771 9772 9773 9774 9775 9776 9777 9778 9779 9780 9781 9782 9783 9784 9785 9786 9787 9788 9789 9790 9791 9792 9793 9794 9795 9796 9797 9798 9799 9800 9801 9802 9803 9804 9805 9806 9807 9808 9809 9810 9811 9812 9813 9814 9815 9816 9817 9818 9819 9820 9821 9822 9823 9824 9825 9826 9827 9828 9829 9830 9831 9832 9833 9834 9835 9836 9837 9838 9839 9840 9841 9842 9843 9844 9845 9846 9847 9848 9849 9850 9851 9852 9853 9854 9855 9856 9857 9858 9859 9860 9861 9862 9863 9864 9865 9866 9867 9868 9869 9870 9871 9872 9873 9874 9875 9876 9877 9878 9879 9880 9881 9882 9883 9884 9885 9886 9887 9888 9889 9890 9891 9892 9893 9894 9895 9896 9897 9898 9899 9900 9901 9902 9903 9904 9905 9906 9907 9908 9909 9910 9911 9912 9913 9914 9915 9916 9917 9918 9919 9920 9921 9922 9923 9924 9925 9926 9927 9928 9929 9930 9931 9932 9933 9934 9935 9936 9937 9938 9939 9940 9941 9942 9943 9944 9945 9946 9947 9948 9949 9950 9951 9952 9953 9954 9955 9956 9957 9958 9959 9960 9961 9962 9963 9964 9965 9966 9967 9968 9969 9970 9971 9972 9973 9974 9975 9976 9977 9978 9979 9980 9981 9982 9983 9984 9985 9986 9987 9988 9989 9990 9991 9992 9993 9994 9995 9996 9997 9998 9999 10000 10001 10002 10003 10004 10005 10006 10007 10008 10009 10010 10011 10012 10013 10014 10015 10016 10017 10018 10019 10020 10021 10022 10023 10024 10025 10026 10027 10028 10029 10030 10031 10032 10033 10034 10035 10036 10037 10038 10039 10040 10041 10042 10043 10044 10045 10046 10047 10048 10049 10050 10051 10052 10053 10054 10055 10056 10057 10058 10059 10060 10061 10062 10063 10064 10065 10066 10067 10068 10069 10070 10071 10072 10073 10074 10075 10076 10077 10078 10079 10080 10081 10082 10083 10084 10085 10086 10087 10088 10089 10090 10091 10092 10093 10094 10095 10096 10097 10098 10099 10100 10101 10102 10103 10104 10105 10106 10107 10108 10109 10110 10111 10112 10113 10114 10115 10116 10117 10118 10119 10120 10121 10122 10123 10124 10125 10126 10127 10128 10129 10130 10131 10132 10133 10134 10135 10136 10137 10138 10139 10140 10141 10142 10143 10144 10145 10146 10147 10148 10149 10150 10151 10152 10153 10154 10155 10156 10157 10158 10159 10160 10161 10162 10163 10164 10165 10166 10167 10168 10169 10170 10171 10172 10173 10174 10175 10176 10177 10178 10179 10180 10181 10182 10183 10184 10185 10186 10187 10188 10189 10190 10191 10192 10193 10194 10195 10196 10197 10198 10199 10200 10201 10202 10203 10204 10205 10206 10207 10208 10209 10210 10211 10212 10213 10214 10215 10216 10217 10218 10219 10220 10221 10222 10223 10224 10225 10226 10227 10228 10229 10230 10231 10232 10233 10234 10235 10236 10237 10238 10239 10240 10241 10242 10243 10244 10245 10246 10247 10248 10249 10250 10251 10252 10253 10254 10255 10256 10257 10258 10259 10260 10261 10262 10263 10264 10265 10266 10267 10268 10269 10270 10271 10272 10273 10274 10275 10276 10277 10278 10279 10280 10281 10282 10283 10284 10285 10286 10287 10288 10289 10290 10291 10292 10293 10294 10295 10296 10297 10298 10299 10300 10301 10302 10303 10304 10305 10306 10307 10308 10309 10310 10311 10312 10313 10314 10315 10316 10317 10318 10319 10320 10321 10322 10323 10324 10325 10326 10327 10328 10329 10330 10331 10332 10333 10334 10335 10336 10337 10338 10339 10340 10341 10342 10343 10344 10345 10346 10347 10348 10349 10350 10351 10352 10353 10354 10355 10356 10357 10358 10359 10360 10361 10362 10363 10364 10365 10366 10367 10368 10369 10370 10371 10372 10373 10374 10375 10376 10377 10378 10379 10380 10381 10382 10383 10384 10385 10386 10387 10388 10389 10390 10391 10392 10393 10394 10395 10396 10397 10398 10399 10400 10401 10402 10403 10404 10405 10406 10407 10408 10409 10410 10411 10412 10413 10414 10415 10416 10417 10418 10419 10420 10421 10422 10423 10424 10425 10426 10427 10428 10429 10430 10431 10432 10433 10434 10435 10436 10437 10438 10439 10440 10441 10442 10443 10444 10445 10446 10447 10448 10449 10450 10451 10452 10453 10454 10455 10456 10457 10458 10459 10460 10461 10462 10463 10464 10465 10466 10467 10468 10469 10470 10471 10472 10473 10474 10475 10476 10477 10478 10479 10480 10481 10482 10483 10484 10485 10486 10487 10488 10489 10490 10491 10492 10493 10494 10495 10496 10497 10498 10499 10500 10501 10502 10503 10504 10505 10506 10507 10508 10509 10510 10511 10512 10513 10514 10515 10516 10517 10518 10519 10520 10521 10522 10523 10524 10525 10526 10527 10528 10529 10530 10531 10532 10533 10534 10535 10536 10537 10538 10539 10540 10541 10542 10543 10544 10545 10546 10547 10548 10549 10550 10551 10552 10553 10554 10555 10556 10557 10558 10559 10560 10561 10562 10563 10564 10565 10566 10567 10568 10569 10570 10571 10572 10573 10574 10575 10576 10577 10578 10579 10580 10581 10582 10583 10584 10585 10586 10587 10588 10589 10590 10591 10592 10593 10594 10595 10596 10597 10598 10599 10600 10601 10602 10603 10604 10605 10606 10607 10608 10609 10610 10611 10612 10613 10614 10615 10616 10617 10618 10619 10620 10621 10622 10623 10624 10625 10626 10627 10628 10629 10630 10631 10632 10633 10634 10635 10636 10637 10638 10639 10640 10641 10642 10643 10644 10645 10646 10647 10648 10649 10650 10651 10652 10653 10654 10655 10656 10657 10658 10659 10660 10661 10662 10663 10664 10665 10666 10667 10668 10669 10670 10671 10672 10673 10674 10675 10676 10677 10678 10679 10680 10681 10682 10683 10684 10685 10686 10687 10688 10689 10690 10691 10692 10693 10694 10695 10696 10697 10698 10699 10700 10701 10702 10703 10704 10705 10706 10707 10708 10709 10710 10711 10712 10713 10714 10715 10716 10717 10718 10719 10720 10721 10722 10723 10724 10725 10726 10727 10728 10729 10730 10731 10732 10733 10734 10735 10736 10737 10738 10739 10740 10741 10742 10743 10744 10745 10746 10747 10748 10749 10750 10751 10752 10753 10754 10755 10756 10757 10758 10759 10760 10761 10762 10763 10764 10765 10766 10767 10768 10769 10770 10771 10772 10773 10774 10775 10776 10777 10778 10779 10780 10781 10782 10783 10784 10785 10786 10787 10788 10789 10790 10791 10792 10793 10794 10795 10796 10797 10798 10799 10800 10801 10802 10803 10804 10805 10806 10807 10808 10809 10810 10811 10812 10813 10814 10815 10816 10817 10818 10819 10820 10821 10822 10823 10824 10825 10826 10827 10828 10829 10830 10831 10832 10833 10834 10835 10836 10837 10838 10839 10840 10841 10842 10843 10844 10845 10846 10847 10848 10849 10850 10851 10852 10853 10854 10855 10856 10857 10858 10859 10860 10861 10862 10863 10864 10865 10866 10867 10868 10869 10870 10871 10872 10873 10874 10875 10876 10877 10878 10879 10880 10881 10882 10883 10884 10885 10886 10887 10888 10889 10890 10891 10892 10893 10894 10895 10896 10897 10898 10899 10900 10901 10902 10903 10904 10905 10906 10907 10908 10909 10910 10911 10912 10913 10914 10915 10916 10917 10918 10919 10920 10921 10922 10923 10924 10925 10926 10927 10928 10929 10930 10931 10932 10933 10934 10935 10936 10937 10938 10939 10940 10941 10942 10943 10944 10945 10946 10947 10948 10949 10950 10951 10952 10953 10954 10955 10956 10957 10958 10959 10960 10961 10962 10963 10964 10965 10966 10967 10968 10969 10970 10971 10972 10973 10974 10975 10976 10977 10978 10979 10980 10981 10982 10983 10984 10985 10986 10987 10988 10989 10990 10991 10992 10993 10994 10995 10996 10997 10998 10999 11000 11001 11002 11003 11004 11005 11006 11007 11008 11009 11010 11011 11012 11013 11014 11015 11016 11017 11018 11019 11020 11021 11022 11023 11024 11025 11026 11027 11028 11029 11030 11031 11032 11033 11034 11035 11036 11037 11038 11039 11040 11041 11042 11043 11044 11045 11046 11047 11048 11049 11050 11051 11052 11053 11054 11055 11056 11057 11058 11059 11060 11061 11062 11063 11064 11065 11066 11067 11068 11069 11070 11071 11072 11073 11074 11075 11076 11077 11078 11079 11080 11081 11082 11083 11084 11085 11086 11087 11088 11089 11090 11091 11092 11093 11094 11095 11096 11097 11098 11099 11100 11101 11102 11103 11104 11105 11106 11107 11108 11109 11110 11111 11112 11113 11114 11115 11116 11117 11118 11119 11120 11121 11122 11123 11124 11125 11126 11127 11128 11129 11130 11131 11132 11133 11134 11135 11136 11137 11138 11139 11140 11141 11142 11143 11144 11145 11146 11147 11148 11149 11150 11151 11152 11153 11154 11155 11156 11157 11158 11159 11160 11161 11162 11163 11164 11165 11166 11167 11168 11169 11170 11171 11172 11173 11174 11175 11176 11177 11178 11179 11180 11181 11182 11183 11184 11185 11186 11187 11188 11189 11190 11191 11192 11193 11194 11195 11196 11197 11198 11199 11200 11201 11202 11203 11204 11205 11206 11207 11208 11209 11210 11211 11212 11213 11214 11215 11216 11217 11218 11219 11220 11221 11222 11223 11224 11225 11226 11227 11228 11229 11230 11231 11232 11233 11234 11235 11236 11237 11238 11239 11240 11241 11242 11243 11244 11245 11246 11247 11248 11249 11250 11251 11252 11253 11254 11255 11256 11257 11258 11259 11260 11261 11262 11263 11264 11265 11266 11267 11268 11269 11270 11271 11272 11273 11274 11275 11276 11277 11278 11279 11280 11281 11282 11283 11284 11285 11286 11287 11288 11289 11290 11291 11292 11293 11294 11295 11296 11297 11298 11299 11300 11301 11302 11303 11304 11305 11306 11307 11308 11309 11310 11311 11312 11313 11314 11315 11316 11317 11318 11319 11320 11321 11322 11323 11324 11325 11326 11327 11328 11329 11330 11331 11332 11333 11334 11335 11336 11337 11338 11339 11340 11341 11342 11343 11344 11345 11346 11347 11348 11349 11350 11351 11352 11353 11354 11355 11356 11357 11358 11359 11360 11361 11362 11363 11364 11365 11366 11367 11368 11369 11370 11371 11372 11373 11374 11375 11376 11377 11378 11379 11380 11381 11382 11383 11384 11385 11386 11387 11388 11389 11390 11391 11392 11393 11394 11395 11396 11397 11398 11399 11400 11401 11402 11403 11404 11405 11406 11407 11408 11409 11410 11411 11412 11413 11414 11415 11416 11417 11418 11419 11420 11421 11422 11423 11424 11425 11426 11427 11428 11429 11430 11431 11432 11433 11434 11435 11436 11437 11438 11439 11440 11441 11442 11443 11444 11445 11446 11447 11448 11449 11450 11451 11452 11453 11454 11455 11456 11457 11458 11459 11460 11461 11462 11463 11464 11465 11466 11467 11468 11469 11470 11471 11472 11473 11474 11475 11476 11477 11478 11479 11480 11481 11482 11483 11484 11485 11486 11487 11488 11489 11490 11491 11492 11493 11494 11495 11496 11497 11498 11499 11500 11501 11502 11503 11504 11505 11506 11507 11508 11509 11510 11511 11512 11513 11514 11515 11516 11517 11518 11519 11520 11521 11522 11523 11524 11525 11526 11527 11528 11529 11530 11531 11532 11533 11534 11535 11536 11537 11538 11539 11540 11541 11542 11543 11544 11545 11546 11547 11548 11549 11550 11551 11552 11553 11554 11555 11556 11557 11558 11559 11560 11561 11562 11563 11564 11565 11566 11567 11568 11569 11570 11571 11572 11573 11574 11575 11576 11577 11578 11579 11580 11581 11582 11583 11584 11585 11586 11587 11588 11589 11590 11591 11592 11593 11594 11595 11596 11597 11598 11599 11600 11601 11602 11603 11604 11605 11606 11607 11608 11609 11610 11611 11612 11613 11614 11615 11616 11617 11618 11619 11620 11621 11622 11623 11624 11625 11626 11627 11628 11629 11630 11631 11632 11633 11634 11635 11636 11637 11638 11639 11640 11641 11642 11643 11644 11645 11646 11647 11648 11649 11650 11651 11652 11653 11654 11655 11656 11657 11658 11659 11660 11661 11662 11663 11664 11665 11666 11667 11668 11669 11670 11671 11672 11673 11674 11675 11676 11677 11678 11679 11680 11681 11682 11683 11684 11685 11686 11687 11688 11689 11690 11691 11692 11693 11694 11695 11696 11697 11698 11699 11700 11701 11702 11703 11704 11705 11706 11707 11708 11709 11710 11711 11712 11713 11714 11715 11716 11717 11718 11719 11720 11721 11722 11723 11724 11725 11726 11727 11728 11729 11730 11731 11732 11733 11734 11735 11736 11737 11738 11739 11740 11741 11742 11743 11744 11745 11746 11747 11748 11749 11750 11751 11752 11753 11754 11755 11756 11757 11758 11759 11760 11761 11762 11763 11764 11765 11766 11767 11768 11769 11770 11771 11772 11773 11774 11775 11776 11777 11778 11779 11780 11781 11782 11783 11784 11785 11786 11787 11788 11789 11790 11791 11792 11793 11794 11795 11796 11797 11798 11799 11800 11801 11802 11803 11804 11805 11806 11807 11808 11809 11810 11811 11812 11813 11814 11815 11816 11817 11818 11819 11820 11821 11822 11823 11824 11825 11826 11827 11828 11829 11830 11831 11832 11833 11834 11835 11836 11837 11838 11839 11840 11841 11842 11843 11844 11845 11846 11847 11848 11849 11850 11851 11852 11853 11854 11855 11856 11857 11858 11859 11860 11861 11862 11863 11864 11865 11866 11867 11868 11869 11870 11871 11872 11873 11874 11875 11876 11877 11878 11879 11880 11881 11882 11883 11884 11885 11886 11887 11888 11889 11890 11891 11892 11893 11894 11895 11896 11897 11898 11899 11900 11901 11902 11903 11904 11905 11906 11907 11908 11909 11910 11911 11912 11913 11914 11915 11916 11917 11918 11919 11920 11921 11922 11923 11924 11925 11926 11927 11928 11929 11930 11931 11932 11933 11934 11935 11936 11937 11938 11939 11940 11941 11942 11943 11944 11945 11946 11947 11948 11949 11950 11951 11952 11953 11954 11955 11956 11957 11958 11959 11960 11961 11962 11963 11964 11965 11966 11967 11968 11969 11970 11971 11972 11973 11974 11975 11976 11977 11978 11979 11980 11981 11982 11983 11984 11985 11986 11987 11988 11989 11990 11991 11992 11993 11994 11995 11996 11997 11998 11999 12000 12001 12002 12003 12004 12005 12006 12007 12008 12009 12010 12011 12012 12013 12014 12015 12016 12017 12018 12019 12020 12021 12022 12023 12024 12025 12026 12027 12028 12029 12030 12031 12032 12033 12034 12035 12036 12037 12038 12039 12040 12041 12042 12043 12044 12045 12046 12047 12048 12049 12050 12051 12052 12053 12054 12055 12056 12057 12058 12059 12060 12061 12062 12063 12064 12065 12066 12067 12068 12069 12070 12071 12072 12073 12074 12075 12076 12077 12078 12079 12080 12081 12082 12083 12084 12085 12086 12087 12088 12089 12090 12091 12092 12093 12094 12095 12096 12097 12098 12099 12100 12101 12102 12103 12104 12105 12106 12107 12108 12109 12110 12111 12112 12113 12114 12115 12116 12117 12118 12119 12120 12121 12122 12123 12124 12125 12126 12127 12128 12129 12130 12131 12132 12133 12134 12135 12136 12137 12138 12139 12140 12141 12142 12143 12144 12145 12146 12147 12148 12149 12150 12151 12152 12153 12154 12155 12156 12157 12158 12159 12160 12161 12162 12163 12164 12165 12166 12167 12168 12169 12170 12171 12172 12173 12174 12175 12176 12177 12178 12179 12180 12181 12182 12183 12184 12185 12186 12187 12188 12189 12190 12191 12192 12193 12194 12195 12196 12197 12198 12199 12200 12201 12202 12203 12204 12205 12206 12207 12208 12209 12210 12211 12212 12213 12214 12215 12216 12217 12218 12219 12220 12221 12222 12223 12224 12225 12226 12227 12228 12229 12230 12231 12232 12233 12234 12235 12236 12237 12238 12239 12240 12241 12242 12243 12244 12245 12246 12247 12248 12249 12250 12251 12252 12253 12254 12255 12256 12257 12258 12259 12260 12261 12262 12263 12264 12265 12266 12267 12268 12269 12270 12271 12272 12273 12274 12275 12276 12277 12278 12279 12280 12281 12282 12283 12284 12285 12286 12287 12288 12289 12290 12291 12292 12293 12294 12295 12296 12297 12298 12299 12300 12301 12302 12303 12304 12305 12306 12307 12308 12309 12310 12311 12312 12313 12314 12315 12316 12317 12318 12319 12320 12321 12322 12323 12324 12325 12326 12327 12328 12329 12330 12331 12332 12333 12334 12335 12336 12337 12338 12339 12340 12341 12342 12343 12344 12345 12346 12347 12348 12349 12350 12351 12352 12353 12354 12355 12356 12357 12358 12359 12360 12361 12362 12363 12364 12365 12366 12367 12368 12369 12370 12371 12372 12373 12374 12375 12376 12377 12378 12379 12380 12381 12382 12383 12384 12385 12386 12387 12388 12389 12390 12391 12392 12393 12394 12395 12396 12397 12398 12399 12400 12401 12402 12403 12404 12405 12406 12407 12408 12409 12410 12411 12412 12413 12414 12415 12416 12417 12418 12419 12420 12421 12422 12423 12424 12425 12426 12427 12428 12429 12430 12431 12432 12433 12434 12435 12436 12437 12438 12439 12440 12441 12442 12443 12444 12445 12446 12447 12448 12449 12450 12451 12452 12453 12454 12455 12456 12457 12458 12459 12460 12461 12462 12463 12464 12465 12466 12467 12468 12469 12470 12471 12472 12473 12474 12475 12476 12477 12478 12479 12480 12481 12482 12483 12484 12485 12486 12487 12488 12489 12490 12491 12492 12493 12494 12495 12496 12497 12498 12499 12500 12501 12502 12503 12504 12505 12506 12507 12508 12509 12510 12511 12512 12513 12514 12515 12516 12517 12518 12519 12520 12521 12522 12523 12524 12525 12526 12527 12528 12529 12530 12531 12532 12533 12534 12535 12536 12537 12538 12539 12540 12541 12542 12543 12544 12545 12546 12547 12548 12549 12550 12551 12552 12553 12554 12555 12556 12557 12558 12559 12560 12561 12562 12563 12564 12565 12566 12567 12568 12569 12570 12571 12572 12573 12574 12575 12576 12577 12578 12579 12580 12581 12582 12583 12584 12585 12586 12587 12588 12589 12590 12591 12592 12593 12594 12595 12596 12597 12598 12599 12600 12601 12602 12603 12604 12605 12606 12607 12608 12609 12610 12611 12612 12613 12614 12615 12616 12617 12618 12619 12620 12621 12622 12623 12624 12625 12626 12627 12628 12629 12630 12631 12632 12633 12634 12635 12636 12637 12638 12639 12640 12641 12642 12643 12644 12645 12646 12647 12648 12649 12650 12651 12652 12653 12654 12655 12656 12657 12658 12659 12660 12661 12662 12663 12664 12665 12666 12667 12668 12669 12670 12671 12672 12673 12674 12675 12676 12677 12678 12679 12680 12681 12682 12683 12684 12685 12686 12687 12688 12689 12690 12691 12692 12693 12694 12695 12696 12697 12698 12699 12700 12701 12702 12703 12704 12705 12706 12707 12708 12709 12710 12711 12712 12713 12714 12715 12716 12717 12718 12719 12720 12721 12722 12723 12724 12725 12726 12727 12728 12729 12730 12731 12732 12733 12734 12735 12736 12737 12738 12739 12740 12741 12742 12743 12744 12745 12746 12747 12748 12749 12750 12751 12752 12753 12754 12755 12756 12757 12758 12759 12760 12761 12762 12763 12764 12765 12766 12767 12768 12769 12770 12771 12772 12773 12774 12775 12776 12777 12778 12779 12780 12781 12782 12783 12784 12785 12786 12787 12788 12789 12790 12791 12792 12793 12794 12795 12796 12797 12798 12799 12800 12801 12802 12803 12804 12805 12806 12807 12808 12809 12810 12811 12812 12813 12814 12815 12816 12817 12818 12819 12820 12821 12822 12823 12824 12825 12826 12827 12828 12829 12830 12831 12832 12833 12834 12835 12836 12837 12838 12839 12840 12841 12842 12843 12844 12845 12846 12847 12848 12849 12850 12851 12852 12853 12854 12855 12856 12857 12858 12859 12860 12861 12862 12863 12864 12865 12866 12867 12868 12869 12870 12871 12872 12873 12874 12875 12876 12877 12878 12879 12880 12881 12882 12883 12884 12885 12886 12887 12888 12889 12890 12891 12892 12893 12894 12895 12896 12897 12898 12899 12900 12901 12902 12903 12904 12905 12906 12907 12908 12909 12910 12911 12912 12913 12914 12915 12916 12917 12918 12919 12920 12921 12922 12923 12924 12925 12926 12927 12928 12929 12930 12931 12932 12933 12934 12935 12936 12937 12938 12939 12940 12941 12942 12943 12944 12945 12946 12947 12948 12949 12950 12951 12952 12953 12954 12955 12956 12957 12958 12959 12960 12961 12962 12963 12964 12965 12966 12967 12968 12969 12970 12971 12972 12973 12974 12975 12976 12977 12978 12979 12980 12981 12982 12983 12984 12985 12986 12987 12988 12989 12990 12991 12992 12993 12994 12995 12996 12997 12998 12999 13000 13001 13002 13003 13004 13005 13006 13007 13008 13009 13010 13011 13012 13013 13014 13015 13016 13017 13018 13019 13020 13021 13022 13023 13024 13025 13026 13027 13028 13029 13030 13031 13032 13033 13034 13035 13036 13037 13038 13039 13040 13041 13042 13043 13044 13045 13046 13047 13048 13049 13050 13051 13052 13053 13054 13055 13056 13057 13058 13059 13060 13061 13062 13063 13064 13065 13066 13067 13068 13069 13070 13071 13072 13073 13074 13075 13076 13077 13078 13079 13080 13081 13082 13083 13084 13085 13086 13087 13088 13089 13090 13091 13092 13093 13094 13095 13096 13097 13098 13099 13100 13101 13102 13103 13104 13105 13106 13107 13108 13109 13110 13111 13112 13113 13114 13115 13116 13117 13118 13119 13120 13121 13122 13123 13124 13125 13126 13127 13128 13129 13130 13131 13132 13133 13134 13135 13136 13137 13138 13139 13140 13141 13142 13143 13144 13145 13146 13147 13148 13149 13150 13151 13152 13153 13154 13155 13156 13157 13158 13159 13160 13161 13162 13163 13164 13165 13166 13167 13168 13169 13170 13171 13172 13173 13174 13175 13176 13177 13178 13179 13180 13181 13182 13183 13184 13185 13186 13187 13188 13189 13190 13191 13192 13193 13194 13195 13196 13197 13198 13199 13200 13201 13202 13203 13204 13205 13206 13207 13208 13209 13210 13211 13212 13213 13214 13215 13216 13217 13218 13219 13220 13221 13222 13223 13224 13225 13226 13227 13228 13229 13230 13231 13232 13233 13234 13235 13236 13237 13238 13239 13240 13241 13242 13243 13244 13245 13246 13247 13248 13249 13250 13251 13252 13253 13254 13255 13256 13257 13258 13259 13260 13261 13262 13263 13264 13265 13266 13267 13268 13269 13270 13271 13272 13273 13274 13275 13276 13277 13278 13279 13280 13281 13282 13283 13284 13285 13286 13287 13288 13289 13290 13291 13292 13293 13294 13295 13296 13297 13298 13299 13300 13301 13302 13303 13304 13305 13306 13307 13308 13309 13310 13311 13312 13313 13314 13315 13316 13317 13318 13319 13320 13321 13322 13323 13324 13325 13326 13327 13328 13329 13330 13331 13332 13333 13334 13335 13336 13337 13338 13339 13340 13341 13342 13343 13344 13345 13346 13347 13348 13349 13350 13351 13352 13353 13354 13355 13356 13357 13358 13359 13360 13361 13362 13363 13364 13365 13366 13367 13368 13369 13370 13371 13372 13373 13374 13375 13376 13377 13378 13379 13380 13381 13382 13383 13384 13385 13386 13387 13388 13389 13390 13391 13392 13393 13394 13395 13396 13397 13398 13399 13400 13401 13402 13403 13404 13405 13406 13407 13408 13409 13410 13411 13412 13413 13414 13415 13416 13417 13418 13419 13420 13421 13422 13423 13424 13425 13426 13427 13428 13429 13430 13431 13432 13433 13434 13435 13436 13437 13438 13439 13440 13441 13442 13443 13444 13445 13446 13447 13448 13449 13450 13451 13452 13453 13454 13455 13456 13457 13458 13459 13460 13461 13462 13463 13464 13465 13466 13467 13468 13469 13470 13471 13472 13473 13474 13475 13476 13477 13478 13479 13480 13481 13482 13483 13484 13485 13486 13487 13488 13489 13490 13491 13492 13493 13494 13495 13496 13497 13498 13499 13500 13501 13502 13503 13504 13505 13506 13507 13508 13509 13510 13511 13512 13513 13514 13515 13516 13517 13518 13519 13520 13521 13522 13523 13524 13525 13526 13527 13528 13529 13530 13531 13532 13533 13534 13535 13536 13537 13538 13539 13540 13541 13542 13543 13544 13545 13546 13547 13548 13549 13550 13551 13552 13553 13554 13555 13556 13557 13558 13559 13560 13561 13562 13563 13564 13565 13566 13567 13568 13569 13570 13571 13572 13573 13574 13575 13576 13577 13578 13579 13580 13581 13582 13583 13584 13585 13586 13587 13588 13589 13590 13591 13592 13593 13594 13595 13596 13597 13598 13599 13600 13601 13602 13603 13604 13605 13606 13607 13608 13609 13610 13611 13612 13613 13614 13615 13616 13617 13618 13619 13620 13621 13622 13623 13624 13625 13626 13627 13628 13629 13630 13631 13632 13633 13634 13635 13636 13637 13638 13639 13640 13641 13642 13643 13644 13645 13646 13647 13648 13649 13650 13651 13652 13653 13654 13655 13656 13657 13658 13659 13660 13661 13662 13663 13664 13665 13666 13667 13668 13669 13670 13671 13672 13673 13674 13675 13676 13677 13678 13679 13680 13681 13682 13683 13684 13685 13686 13687 13688 13689 13690 13691 13692 13693 13694 13695 13696 13697 13698 13699 13700 13701 13702 13703 13704 13705 13706 13707 13708 13709 13710 13711 13712 13713 13714 13715 13716 13717 13718 13719 13720 13721 13722 13723 13724 13725 13726 13727 13728 13729 13730 13731 13732 13733 13734 13735 13736 13737 13738 13739 13740 13741 13742 13743 13744 13745 13746 13747 13748 13749 13750 13751 13752 13753 13754 13755 13756 13757 13758 13759 13760 13761 13762 13763 13764 13765 13766 13767 13768 13769 13770 13771 13772 13773 13774 13775 13776 13777 13778 13779 13780 13781 13782 13783 13784 13785 13786 13787 13788 13789 13790 13791 13792 13793 13794 13795 13796 13797 13798 13799 13800 13801 13802 13803 13804 13805 13806 13807 13808 13809 13810 13811 13812 13813 13814 13815 13816 13817 13818 13819 13820 13821 13822 13823 13824 13825 13826 13827 13828 13829 13830 13831 13832 13833 13834 13835 13836 13837 13838 13839 13840 13841 13842 13843 13844 13845 13846 13847 13848 13849 13850 13851 13852 13853 13854 13855 13856 13857 13858 13859 13860 13861 13862 13863 13864 13865 13866 13867 13868 13869 13870 13871 13872 13873 13874 13875 13876 13877 13878 13879 13880 13881 13882 13883 13884 13885 13886 13887 13888 13889 13890 13891 13892 13893 13894 13895 13896 13897 13898 13899 13900 13901 13902 13903 13904 13905 13906 13907 13908 13909 13910 13911 13912 13913 13914 13915 13916 13917 13918 13919 13920 13921 13922 13923 13924 13925 13926 13927 13928 13929 13930 13931 13932 13933 13934 13935 13936 13937 13938 13939 13940 13941 13942 13943 13944 13945 13946 13947 13948 13949 13950 13951 13952 13953 13954 13955 13956 13957 13958 13959 13960 13961 13962 13963 13964 13965 13966 13967 13968 13969 13970 13971 13972 13973 13974 13975 13976 13977 13978 13979 13980 13981 13982 13983 13984 13985 13986 13987 13988 13989 13990 13991 13992 13993 13994 13995 13996 13997 13998 13999 14000 14001 14002 14003 14004 14005 14006 14007 14008 14009 14010 14011 14012 14013 14014 14015 14016 14017 14018 14019 14020 14021 14022 14023 14024 14025 14026 14027 14028 14029 14030 14031 14032 14033 14034 14035 14036 14037 14038 14039 14040 14041 14042 14043 14044 14045 14046 14047 14048 14049 14050 14051 14052 14053 14054 14055 14056 14057 14058 14059 14060 14061 14062 14063 14064 14065 14066 14067 14068 14069 14070 14071 14072 14073 14074 14075 14076 14077 14078 14079 14080 14081 14082 14083 14084 14085 14086 14087 14088 14089 14090 14091 14092 14093 14094 14095 14096 14097 14098 14099 14100 14101 14102 14103 14104 14105 14106 14107 14108 14109 14110 14111 14112 14113 14114 14115 14116 14117 14118 14119 14120 14121 14122 14123 14124 14125 14126 14127 14128 14129 14130 14131 14132 14133 14134 14135 14136 14137 14138 14139 14140 14141 14142 14143 14144 14145 14146 14147 14148 14149 14150 14151 14152 14153 14154 14155 14156 14157 14158 14159 14160 14161 14162 14163 14164 14165 14166 14167 14168 14169 14170 14171 14172 14173 14174 14175 14176 14177 14178 14179 14180 14181 14182 14183 14184 14185 14186 14187 14188 14189 14190 14191 14192 14193 14194 14195 14196 14197 14198 14199 14200 14201 14202 14203 14204 14205 14206 14207 14208 14209 14210 14211 14212 14213 14214 14215 14216 14217 14218 14219 14220 14221 14222 14223 14224 14225 14226 14227 14228 14229 14230 14231 14232 14233 14234 14235 14236 14237 14238 14239 14240 14241 14242 14243 14244 14245 14246 14247 14248 14249 14250 14251 14252 14253 14254 14255 14256 14257 14258 14259 14260 14261 14262 14263 14264 14265 14266 14267 14268 14269 14270 14271 14272 14273 14274 14275 14276 14277 14278 14279 14280 14281 14282 14283 14284 14285 14286 14287 14288 14289 14290 14291 14292 14293 14294 14295 14296 14297 14298 14299 14300 14301 14302 14303 14304 14305 14306 14307 14308 14309 14310 14311 14312 14313 14314 14315 14316 14317 14318 14319 14320 14321 14322 14323 14324 14325 14326 14327 14328 14329 14330 14331 14332 14333 14334 14335 14336 14337 14338 14339 14340 14341 14342 14343 14344 14345 14346 14347 14348 14349 14350 14351 14352 14353 14354 14355 14356 14357 14358 14359 14360 14361 14362 14363 14364 14365 14366 14367 14368 14369 14370 14371 14372 14373 14374 14375 14376 14377 14378 14379 14380 14381 14382 14383 14384 14385 14386 14387 14388 14389 14390 14391 14392 14393 14394 14395 14396 14397 14398 14399 14400 14401 14402 14403 14404 14405 14406 14407 14408 14409 14410 14411 14412 14413 14414 14415 14416 14417 14418 14419 14420 14421 14422 14423 14424 14425 14426 14427 14428 14429 14430 14431 14432 14433 14434 14435 14436 14437 14438 14439 14440 14441 14442 14443 14444 14445 14446 14447 14448 14449 14450 14451 14452 14453 14454 14455 14456 14457 14458 14459 14460 14461 14462 14463 14464 14465 14466 14467 14468 14469 14470 14471 14472 14473 14474 14475 14476 14477 14478 14479 14480 14481 14482 14483 14484 14485 14486 14487 14488 14489 14490 14491 14492 14493 14494 14495 14496 14497 14498 14499 14500 14501 14502 14503 14504 14505 14506 14507 14508 14509 14510 14511 14512 14513 14514 14515 14516 14517 14518 14519 14520 14521 14522 14523 14524 14525 14526 14527 14528 14529 14530 14531 14532 14533 14534 14535 14536 14537 14538 14539 14540 14541 14542 14543 14544 14545 14546 14547 14548 14549 14550 14551 14552 14553 14554 14555 14556 14557 14558 14559 14560 14561 14562 14563 14564 14565 14566 14567 14568 14569 14570 14571 14572 14573 14574 14575 14576 14577 14578 14579 14580 14581 14582 14583 14584 14585 14586 14587 14588 14589 14590 14591 14592 14593 14594 14595 14596 14597 14598 14599 14600 14601 14602 14603 14604 14605 14606 14607 14608 14609 14610 14611 14612 14613 14614 14615 14616 14617 14618 14619 14620 14621 14622 14623 14624 14625 14626 14627 14628 14629 14630 14631 14632 14633 14634 14635 14636 14637 14638 14639 14640 14641 14642 14643 14644 14645 14646 14647 14648 14649 14650 14651 14652 14653 14654 14655 14656 14657 14658 14659 14660 14661 14662 14663 14664 14665 14666 14667 14668 14669 14670 14671 14672 14673 14674 14675 14676 14677 14678 14679 14680 14681 14682 14683 14684 14685 14686 14687 14688 14689 14690 14691 14692 14693 14694 14695 14696 14697 14698 14699 14700 14701 14702 14703 14704 14705 14706 14707 14708 14709 14710 14711 14712 14713 14714 14715 14716 14717 14718 14719 14720 14721 14722 14723 14724 14725 14726 14727 14728 14729 14730 14731 14732 14733 14734 14735 14736 14737 14738 14739 14740 14741 14742 14743 14744 14745 14746 14747 14748 14749 14750 14751 14752 14753 14754 14755 14756 14757 14758 14759 14760 14761 14762 14763 14764 14765 14766 14767 14768 14769 14770 14771 14772 14773 14774 14775 14776 14777 14778 14779 14780 14781 14782 14783 14784 14785 14786 14787 14788 14789 14790 14791 14792 14793 14794 14795 14796 14797 14798 14799 14800 14801 14802 14803 14804 14805 14806 14807 14808 14809 14810 14811 14812 14813 14814 14815 14816 14817 14818 14819 14820 14821 14822 14823 14824 14825 14826 14827 14828 14829 14830 14831 14832 14833 14834 14835 14836 14837 14838 14839 14840 14841 14842 14843 14844 14845 14846 14847 14848 14849 14850 14851 14852 14853 14854 14855 14856 14857 14858 14859 14860 14861 14862 14863 14864 14865 14866 14867 14868 14869 14870 14871 14872 14873 14874 14875 14876 14877 14878 14879 14880 14881 14882 14883 14884 14885 14886 14887 14888 14889 14890 14891 14892 14893 14894 14895 14896 14897 14898 14899 14900 14901 14902 14903 14904 14905 14906 14907 14908 14909 14910 14911 14912 14913 14914 14915 14916 14917 14918 14919 14920 14921 14922 14923 14924 14925 14926 14927 14928 14929 14930 14931 14932 14933 14934 14935 14936 14937 14938 14939 14940 14941 14942 14943 14944 14945 14946 14947 14948 14949 14950 14951 14952 14953 14954 14955 14956 14957 14958 14959 14960 14961 14962 14963 14964 14965 14966 14967 14968 14969 14970 14971 14972 14973 14974 14975 14976 14977 14978 14979 14980 14981 14982 14983 14984 14985 14986 14987 14988 14989 14990 14991 14992 14993 14994 14995 14996 14997 14998 14999 15000 15001 15002 15003 15004 15005 15006 15007 15008 15009 15010 15011 15012 15013 15014 15015 15016 15017 15018 15019 15020 15021 15022 15023 15024 15025 15026 15027 15028 15029 15030 15031 15032 15033 15034 15035 15036 15037 15038 15039 15040 15041 15042 15043 15044 15045 15046 15047 15048 15049 15050 15051 15052 15053 15054 15055 15056 15057 15058 15059 15060 15061 15062 15063 15064 15065 15066 15067 15068 15069 15070 15071 15072 15073 15074 15075 15076 15077 15078 15079 15080 15081 15082 15083 15084 15085 15086 15087 15088 15089 15090 15091 15092 15093 15094 15095 15096 15097 15098 15099 15100 15101 15102 15103 15104 15105 15106 15107 15108 15109 15110 15111 15112 15113 15114 15115 15116 15117 15118 15119 15120 15121 15122 15123 15124 15125 15126 15127 15128 15129 15130 15131 15132 15133 15134 15135 15136 15137 15138 15139 15140 15141 15142 15143 15144 15145 15146 15147 15148 15149 15150 15151 15152 15153 15154 15155 15156 15157 15158 15159 15160 15161 15162 15163 15164 15165 15166 15167 15168 15169 15170 15171 15172 15173 15174 15175 15176 15177 15178 15179 15180 15181 15182 15183 15184 15185 15186 15187 15188 15189 15190 15191 15192 15193 15194 15195 15196 15197 15198 15199 15200 15201 15202 15203 15204 15205 15206 15207 15208 15209 15210 15211 15212 15213 15214 15215 15216 15217 15218 15219 15220 15221 15222 15223 15224 15225 15226 15227 15228 15229 15230 15231 15232 15233 15234 15235 15236 15237 15238 15239 15240 15241 15242 15243 15244 15245 15246 15247 15248 15249 15250 15251 15252 15253 15254 15255 15256 15257 15258 15259 15260 15261 15262 15263 15264 15265 15266 15267 15268 15269 15270 15271 15272 15273 15274 15275 15276 15277 15278 15279 15280 15281 15282 15283 15284 15285 15286 15287 15288 15289 15290 15291 15292 15293 15294 15295 15296 15297 15298 15299 15300 15301 15302 15303 15304 15305 15306 15307 15308 15309 15310 15311 15312 15313 15314 15315 15316 15317 15318 15319 15320 15321 15322 15323 15324 15325 15326 15327 15328 15329 15330 15331 15332 15333 15334 15335 15336 15337 15338 15339 15340 15341 15342 15343 15344 15345 15346 15347 15348 15349 15350 15351 15352 15353 15354 15355 15356 15357 15358 15359 15360 15361 15362 15363 15364 15365 15366 15367 15368 15369 15370 15371 15372 15373 15374 15375 15376 15377 15378 15379 15380 15381 15382 15383 15384 15385 15386 15387 15388 15389 15390 15391 15392 15393 15394 15395 15396 15397 15398 15399 15400 15401 15402 15403 15404 15405 15406 15407 15408 15409 15410 15411 15412 15413 15414 15415 15416 15417 15418 15419 15420 15421 15422 15423 15424 15425 15426 15427 15428 15429 15430 15431 15432 15433 15434 15435 15436 15437 15438 15439 15440 15441 15442 15443 15444 15445 15446 15447 15448 15449 15450 15451 15452 15453 15454 15455 15456 15457 15458 15459 15460 15461 15462 15463 15464 15465 15466 15467 15468 15469 15470 15471 15472 15473 15474 15475 15476 15477 15478 15479 15480 15481 15482 15483 15484 15485 15486 15487 15488 15489 15490 15491 15492 15493 15494 15495 15496 15497 15498 15499 15500 15501 15502 15503 15504 15505 15506 15507 15508 15509 15510 15511 15512 15513 15514 15515 15516 15517 15518 15519 15520 15521 15522 15523 15524 15525 15526 15527 15528 15529 15530 15531 15532 15533 15534 15535 15536 15537 15538 15539 15540 15541 15542 15543 15544 15545 15546 15547 15548 15549 15550 15551 15552 15553 15554 15555 15556 15557 15558 15559 15560 15561 15562 15563 15564 15565 15566 15567 15568 15569 15570 15571 15572 15573 15574 15575 15576 15577 15578 15579 15580 15581 15582 15583 15584 15585 15586 15587 15588 15589 15590 15591 15592 15593 15594 15595 15596 15597 15598 15599 15600 15601 15602 15603 15604 15605 15606 15607 15608 15609 15610 15611 15612 15613 15614 15615 15616 15617 15618 15619 15620 15621 15622 15623 15624 15625 15626 15627 15628 15629 15630 15631 15632 15633 15634 15635 15636 15637 15638 15639 15640 15641 15642 15643 15644 15645 15646 15647 15648 15649 15650 15651 15652 15653 15654 15655 15656 15657 15658 15659 15660 15661 15662 15663 15664 15665 15666 15667 15668 15669 15670 15671 15672 15673 15674 15675 15676 15677 15678 15679 15680 15681 15682 15683 15684 15685 15686 15687 15688 15689 15690 15691 15692 15693 15694 15695 15696 15697 15698 15699 15700 15701 15702 15703 15704 15705 15706 15707 15708 15709 15710 15711 15712 15713 15714 15715 15716 15717 15718 15719 15720 15721 15722 15723 15724 15725 15726 15727 15728 15729 15730 15731 15732 15733 15734 15735 15736 15737 15738 15739 15740 15741 15742 15743 15744 15745 15746 15747 15748 15749 15750 15751 15752 15753 15754 15755 15756 15757 15758 15759 15760 15761 15762 15763 15764 15765 15766 15767 15768 15769 15770 15771 15772 15773 15774 15775 15776 15777 15778 15779 15780 15781 15782 15783 15784 15785 15786 15787 15788 15789 15790 15791 15792 15793 15794 15795 15796 15797 15798 15799 15800 15801 15802 15803 15804 15805 15806 15807 15808 15809 15810 15811 15812 15813 15814 15815 15816 15817 15818 15819 15820 15821 15822 15823 15824 15825 15826 15827 15828 15829 15830 15831 15832 15833 15834 15835 15836 15837 15838 15839 15840 15841 15842 15843 15844 15845 15846 15847 15848 15849 15850 15851 15852 15853 15854 15855 15856 15857 15858 15859 15860 15861 15862 15863 15864 15865 15866 15867 15868 15869 15870 15871 15872 15873 15874 15875 15876 15877 15878 15879 15880 15881 15882 15883 15884 15885 15886 15887 15888 15889 15890 15891 15892 15893 15894 15895 15896 15897 15898 15899 15900 15901 15902 15903 15904 15905 15906 15907 15908 15909 15910 15911 15912 15913 15914 15915 15916 15917 15918 15919 15920 15921 15922 15923 15924 15925 15926 15927 15928 15929 15930 15931 15932 15933 15934 15935 15936 15937 15938 15939 15940 15941 15942 15943 15944 15945 15946 15947 15948 15949 15950 15951 15952 15953 15954 15955 15956 15957 15958 15959 15960 15961 15962 15963 15964 15965 15966 15967 15968 15969 15970 15971 15972 15973 15974 15975 15976 15977 15978 15979 15980 15981 15982 15983 15984 15985 15986 15987 15988 15989 15990 15991 15992 15993 15994 15995 15996 15997 15998 15999 16000 16001 16002 16003 16004 16005 16006 16007 16008 16009 16010 16011 16012 16013 16014 16015 16016 16017 16018 16019 16020 16021 16022 16023 16024 16025 16026 16027 16028 16029 16030 16031 16032 16033 16034 16035 16036 16037 16038 16039 16040 16041 16042 16043 16044 16045 16046 16047 16048 16049 16050 16051 16052 16053 16054 16055 16056 16057 16058 16059 16060 16061 16062 16063 16064 16065 16066 16067 16068 16069 16070 16071 16072 16073 16074 16075 16076 16077 16078 16079 16080 16081 16082 16083 16084 16085 16086 16087 16088 16089 16090 16091 16092 16093 16094 16095 16096 16097 16098 16099 16100 16101 16102 16103 16104 16105 16106 16107 16108 16109 16110 16111 16112 16113 16114 16115 16116 16117 16118 16119 16120 16121 16122 16123 16124 16125 16126 16127 16128 16129 16130 16131 16132 16133 16134 16135 16136 16137 16138 16139 16140 16141 16142 16143 16144 16145 16146 16147 16148 16149 16150 16151 16152 16153 16154 16155 16156 16157 16158 16159 16160 16161 16162 16163 16164 16165 16166 16167 16168 16169 16170 16171 16172 16173 16174 16175 16176 16177 16178 16179 16180 16181 16182 16183 16184 16185 16186 16187 16188 16189 16190 16191 16192 16193 16194 16195 16196 16197 16198 16199 16200 16201 16202 16203 16204 16205 16206 16207 16208 16209 16210 16211 16212 16213 16214 16215 16216 16217 16218 16219 16220 16221 16222 16223 16224 16225 16226 16227 16228 16229 16230 16231 16232 16233 16234 16235 16236 16237 16238 16239 16240 16241 16242 16243 16244 16245 16246 16247 16248 16249 16250 16251 16252 16253 16254 16255 16256 16257 16258 16259 16260 16261 16262 16263 16264 16265 16266 16267 16268 16269 16270 16271 16272 16273 16274 16275 16276 16277 16278 16279 16280 16281 16282 16283 16284 16285 16286 16287 16288 16289 16290 16291 16292 16293 16294 16295 16296 16297 16298 16299 16300 16301 16302 16303 16304 16305 16306 16307 16308 16309 16310 16311 16312 16313 16314 16315 16316 16317 16318 16319 16320 16321 16322 16323 16324 16325 16326 16327 16328 16329 16330 16331 16332 16333 16334 16335 16336 16337 16338 16339 16340 16341 16342 16343 16344 16345 16346 16347 16348 16349 16350 16351 16352 16353 16354 16355 16356 16357 16358 16359 16360 16361 16362 16363 16364 16365 16366 16367 16368 16369 16370 16371 16372 16373 16374 16375 16376 16377 16378 16379 16380 16381 16382 16383 16384 16385 16386 16387 16388 16389 16390 16391 16392 16393 16394 16395 16396 16397 16398 16399 16400 16401 16402 16403 16404 16405 16406 16407 16408 16409 16410 16411 16412 16413 16414 16415 16416 16417 16418 16419 16420 16421 16422 16423 16424 16425 16426 16427 16428 16429 16430 16431 16432 16433 16434 16435 16436 16437 16438 16439 16440 16441 16442 16443 16444 16445 16446 16447 16448 16449 16450 16451 16452 16453 16454 16455 16456 16457 16458 16459 16460 16461 16462 16463 16464 16465 16466 16467 16468 16469 16470 16471 16472 16473 16474 16475 16476 16477 16478 16479 16480 16481 16482 16483 16484 16485 16486 16487 16488 16489 16490 16491 16492 16493 16494 16495 16496 16497 16498 16499 16500 16501 16502 16503 16504 16505 16506 16507 16508 16509 16510 16511 16512 16513 16514 16515 16516 16517 16518 16519 16520 16521 16522 16523 16524 16525 16526 16527 16528 16529 16530 16531 16532 16533 16534 16535 16536 16537 16538 16539 16540 16541 16542 16543 16544 16545 16546 16547 16548 16549 16550 16551 16552 16553 16554 16555 16556 16557 16558 16559 16560 16561 16562 16563 16564 16565 16566 16567 16568 16569 16570 16571 16572 16573 16574 16575 16576 16577 16578 16579 16580 16581 16582 16583 16584 16585 16586 16587 16588 16589 16590 16591 16592 16593 16594 16595 16596 16597 16598 16599 16600 16601 16602 16603 16604 16605 16606 16607 16608 16609 16610 16611 16612 16613 16614 16615 16616 16617 16618 16619 16620 16621 16622 16623 16624 16625 16626 16627 16628 16629 16630 16631 16632 16633 16634 16635 16636 16637 16638 16639 16640 16641 16642 16643 16644 16645 16646 16647 16648 16649 16650 16651 16652 16653 16654 16655 16656 16657 16658 16659 16660 16661 16662 16663 16664 16665 16666 16667 16668 16669 16670 16671 16672 16673 16674 16675 16676 16677 16678 16679 16680 16681 16682 16683 16684 16685 16686 16687 16688 16689 16690 16691 16692 16693 16694 16695 16696 16697 16698 16699 16700 16701 16702 16703 16704 16705 16706 16707 16708 16709 16710 16711 16712 16713 16714 16715 16716 16717 16718 16719 16720 16721 16722 16723 16724 16725 16726 16727 16728 16729 16730 16731 16732 16733 16734 16735 16736 16737 16738 16739 16740 16741 16742 16743 16744 16745 16746 16747 16748 16749 16750 16751 16752 16753 16754 16755 16756 16757 16758 16759 16760 16761 16762 16763 16764 16765 16766 16767 16768 16769 16770 16771 16772 16773 16774 16775 16776 16777 16778 16779 16780 16781 16782 16783 16784 16785 16786 16787 16788 16789 16790 16791 16792 16793 16794 16795 16796 16797 16798 16799 16800 16801 16802 16803 16804 16805 16806 16807 16808 16809 16810 16811 16812 16813 16814 16815 16816 16817 16818 16819 16820 16821 16822 16823 16824 16825 16826 16827 16828 16829 16830 16831 16832 16833 16834 16835 16836 16837 16838 16839 16840 16841 16842 16843 16844 16845 16846 16847 16848 16849 16850 16851 16852 16853 16854 16855 16856 16857 16858 16859 16860 16861 16862 16863 16864 16865 16866 16867 16868 16869 16870 16871 16872 16873 16874 16875 16876 16877 16878 16879 16880 16881 16882 16883 16884 16885 16886 16887 16888 16889 16890 16891 16892 16893 16894 16895 16896 16897 16898 16899 16900 16901 16902 16903 16904 16905 16906 16907 16908 16909 16910 16911 16912 16913 16914 16915 16916 16917 16918 16919 16920 16921 16922 16923 16924 16925 16926 16927 16928 16929 16930 16931 16932 16933 16934 16935 16936 16937 16938 16939 16940 16941 16942 16943 16944 16945 16946 16947 16948 16949 16950 16951 16952 16953 16954 16955 16956 16957 16958 16959 16960 16961 16962 16963 16964 16965 16966 16967 16968 16969 16970 16971 16972 16973 16974 16975 16976 16977 16978 16979 16980 16981 16982 16983 16984 16985 16986 16987 16988 16989 16990 16991 16992 16993 16994 16995 16996 16997 16998 16999 17000 17001 17002 17003 17004 17005 17006 17007 17008 17009 17010 17011 17012 17013 17014 17015 17016 17017 17018 17019 17020 17021 17022 17023 17024 17025 17026 17027 17028 17029 17030 17031 17032 17033 17034 17035 17036 17037 17038 17039 17040 17041 17042 17043 17044 17045 17046 17047 17048 17049 17050 17051 17052 17053 17054 17055 17056 17057 17058 17059 17060 17061 17062 17063 17064 17065 17066 17067 17068 17069 17070 17071 17072 17073 17074 17075 17076 17077 17078 17079 17080 17081 17082 17083 17084 17085 17086 17087 17088 17089 17090 17091 17092 17093 17094 17095 17096 17097 17098 17099 17100 17101 17102 17103 17104 17105 17106 17107 17108 17109 17110 17111 17112 17113 17114 17115 17116 17117 17118 17119 17120 17121 17122 17123 17124 17125 17126 17127 17128 17129 17130 17131 17132 17133 17134 17135 17136 17137 17138 17139 17140 17141 17142 17143 17144 17145 17146 17147 17148 17149 17150 17151 17152 17153 17154 17155 17156 17157 17158 17159 17160 17161 17162 17163 17164 17165 17166 17167 17168 17169 17170 17171 17172 17173 17174 17175 17176 17177 17178 17179 17180 17181 17182 17183 17184 17185 17186 17187 17188 17189 17190 17191 17192 17193 17194 17195 17196 17197 17198 17199 17200 17201 17202 17203 17204 17205 17206 17207 17208 17209 17210 17211 17212 17213 17214 17215 17216 17217 17218 17219 17220 17221 17222 17223 17224 17225 17226 17227 17228 17229 17230 17231 17232 17233 17234 17235 17236 17237 17238 17239 17240 17241 17242 17243 17244 17245 17246 17247 17248 17249 17250 17251 17252 17253 17254 17255 17256 17257 17258 17259 17260 17261 17262 17263 17264 17265 17266 17267 17268 17269 17270 17271 17272 17273 17274 17275 17276 17277 17278 17279 17280 17281 17282 17283 17284 17285 17286 17287 17288 17289 17290 17291 17292 17293 17294 17295 17296 17297 17298 17299 17300 17301 17302 17303 17304 17305 17306 17307 17308 17309 17310 17311 17312 17313 17314 17315 17316 17317 17318 17319 17320 17321 17322 17323 17324 17325 17326 17327 17328 17329 17330 17331 17332 17333 17334 17335 17336 17337 17338 17339 17340 17341 17342 17343 17344 17345 17346 17347 17348 17349 17350 17351 17352 17353 17354 17355 17356 17357 17358 17359 17360 17361 17362 17363 17364 17365 17366 17367 17368 17369 17370 17371 17372 17373 17374 17375 17376 17377 17378 17379 17380 17381 17382 17383 17384 17385 17386 17387 17388 17389 17390 17391 17392 17393 17394 17395 17396 17397 17398 17399 17400 17401 17402 17403 17404 17405 17406 17407 17408 17409 17410 17411 17412 17413 17414 17415 17416 17417 17418 17419 17420 17421 17422 17423 17424 17425 17426 17427 17428 17429 17430 17431 17432 17433 17434 17435 17436 17437 17438 17439 17440 17441 17442 17443 17444 17445 17446 17447 17448 17449 17450 17451 17452 17453 17454 17455 17456 17457 17458 17459 17460 17461 17462 17463 17464 17465 17466 17467 17468 17469 17470 17471 17472 17473 17474 17475 17476 17477 17478 17479 17480 17481 17482 17483 17484 17485 17486 17487 17488 17489 17490 17491 17492 17493 17494 17495 17496 17497 17498 17499 17500 17501 17502 17503 17504 17505 17506 17507 17508 17509 17510 17511 17512 17513 17514 17515 17516 17517 17518 17519 17520 17521 17522 17523 17524 17525 17526 17527 17528 17529 17530 17531 17532 17533 17534 17535 17536 17537 17538 17539 17540 17541 17542 17543 17544 17545 17546 17547 17548 17549 17550 17551 17552 17553 17554 17555 17556 17557 17558 17559 17560 17561 17562 17563 17564 17565 17566 17567 17568 17569 17570 17571 17572 17573 17574 17575 17576 17577 17578 17579 17580 17581 17582 17583 17584 17585 17586 17587 17588 17589 17590 17591 17592 17593 17594 17595 17596 17597 17598 17599 17600 17601 17602 17603 17604 17605 17606 17607 17608 17609 17610 17611 17612 17613 17614 17615 17616 17617 17618 17619 17620 17621 17622 17623 17624 17625 17626 17627 17628 17629 17630 17631 17632 17633 17634 17635 17636 17637 17638 17639 17640 17641 17642 17643 17644 17645 17646 17647 17648 17649 17650 17651 17652 17653 17654 17655 17656 17657 17658 17659 17660 17661 17662 17663 17664 17665 17666 17667 17668 17669 17670 17671 17672 17673 17674 17675 17676 17677 17678 17679 17680 17681 17682 17683 17684 17685 17686 17687 17688 17689 17690 17691 17692 17693 17694 17695 17696 17697 17698 17699 17700 17701 17702 17703 17704 17705 17706 17707 17708 17709 17710 17711 17712 17713 17714 17715 17716 17717 17718 17719 17720 17721 17722 17723 17724 17725 17726 17727 17728 17729 17730 17731 17732 17733 17734 17735 17736 17737 17738 17739 17740 17741 17742 17743 17744 17745 17746 17747 17748 17749 17750 17751 17752 17753 17754 17755 17756 17757 17758 17759 17760 17761 17762 17763 17764 17765 17766 17767 17768 17769 17770 17771 17772 17773 17774 17775 17776 17777 17778 17779 17780 17781 17782 17783 17784 17785 17786 17787 17788 17789 17790 17791 17792 17793 17794 17795 17796 17797 17798 17799 17800 17801 17802 17803 17804 17805 17806 17807 17808 17809 17810 17811 17812 17813 17814 17815 17816 17817 17818 17819 17820 17821 17822 17823 17824 17825 17826 17827 17828 17829 17830 17831 17832 17833 17834 17835 17836 17837 17838 17839 17840 17841 17842 17843 17844 17845 17846 17847 17848 17849 17850 17851 17852 17853 17854 17855 17856 17857 17858 17859 17860 17861 17862 17863 17864 17865 17866 17867 17868 17869 17870 17871 17872 17873 17874 17875 17876 17877 17878 17879 17880 17881 17882 17883 17884 17885 17886 17887 17888 17889 17890 17891 17892 17893 17894 17895 17896 17897 17898 17899 17900 17901 17902 17903 17904 17905 17906 17907 17908 17909 17910 17911 17912 17913 17914 17915 17916 17917 17918 17919 17920 17921 17922 17923 17924 17925 17926 17927 17928 17929 17930 17931 17932 17933 17934 17935 17936 17937 17938 17939 17940 17941 17942 17943 17944 17945 17946 17947 17948 17949 17950 17951 17952 17953 17954 17955 17956 17957 17958 17959 17960 17961 17962 17963 17964 17965 17966 17967 17968 17969 17970 17971 17972 17973 17974 17975 17976 17977 17978 17979 17980 17981 17982 17983 17984 17985 17986 17987 17988 17989 17990 17991 17992 17993 17994 17995 17996 17997 17998 17999 18000 18001 18002 18003 18004 18005 18006 18007 18008 18009 18010 18011 18012 18013 18014 18015 18016 18017 18018 18019 18020 18021 18022 18023 18024 18025 18026 18027 18028 18029 18030 18031 18032 18033 18034 18035 18036 18037 18038 18039 18040 18041 18042 18043 18044 18045 18046 18047 18048 18049 18050 18051 18052 18053 18054 18055 18056 18057 18058 18059 18060 18061 18062 18063 18064 18065 18066 18067 18068 18069 18070 18071 18072 18073 18074 18075 18076 18077 18078 18079 18080 18081 18082 18083 18084 18085 18086 18087 18088 18089 18090 18091 18092 18093 18094 18095 18096 18097 18098 18099 18100 18101 18102 18103 18104 18105 18106 18107 18108 18109 18110 18111 18112 18113 18114 18115 18116 18117 18118 18119 18120 18121 18122 18123 18124 18125 18126 18127 18128 18129 18130 18131 18132 18133 18134 18135 18136 18137 18138 18139 18140 18141 18142 18143 18144 18145 18146 18147 18148 18149 18150 18151 18152 18153 18154 18155 18156 18157 18158 18159 18160 18161 18162 18163 18164 18165 18166 18167 18168 18169 18170 18171 18172 18173 18174 18175 18176 18177 18178 18179 18180 18181 18182 18183 18184 18185 18186 18187 18188 18189 18190 18191 18192 18193 18194 18195 18196 18197 18198 18199 18200 18201 18202 18203 18204 18205 18206 18207 18208 18209 18210 18211 18212 18213 18214 18215 18216 18217 18218 18219 18220 18221 18222 18223 18224 18225 18226 18227 18228 18229 18230 18231 18232 18233 18234 18235 18236 18237 18238 18239 18240 18241 18242 18243 18244 18245 18246 18247 18248 18249 18250 18251 18252 18253 18254 18255 18256 18257 18258 18259 18260 18261 18262 18263 18264 18265 18266 18267 18268 18269 18270 18271 18272 18273 18274 18275 18276 18277 18278 18279 18280 18281 18282 18283 18284 18285 18286 18287 18288 18289 18290 18291 18292 18293 18294 18295 18296 18297 18298 18299 18300 18301 18302 18303 18304 18305 18306 18307 18308 18309 18310 18311 18312 18313 18314 18315 18316 18317 18318 18319 18320 18321 18322 18323 18324 18325 18326 18327 18328 18329 18330 18331 18332 18333 18334 18335 18336 18337 18338 18339 18340 18341 18342 18343 18344 18345 18346 18347 18348 18349 18350 18351 18352 18353 18354 18355 18356 18357 18358 18359 18360 18361 18362 18363 18364 18365 18366 18367 18368 18369 18370 18371 18372 18373 18374 18375 18376 18377 18378 18379 18380 18381 18382 18383 18384 18385 18386 18387 18388 18389 18390 18391 18392 18393 18394 18395 18396 18397 18398 18399 18400 18401 18402 18403 18404 18405 18406 18407 18408 18409 18410 18411 18412 18413 18414 18415 18416 18417 18418 18419 18420 18421 18422 18423 18424 18425 18426 18427 18428 18429 18430 18431 18432 18433 18434 18435 18436 18437 18438 18439 18440 18441 18442 18443 18444 18445 18446 18447 18448 18449 18450 18451 18452 18453 18454 18455 18456 18457 18458 18459 18460 18461 18462 18463 18464 18465 18466 18467 18468 18469 18470 18471 18472 18473 18474 18475 18476 18477 18478 18479 18480 18481 18482 18483 18484 18485 18486 18487 18488 18489 18490 18491 18492 18493 18494 18495 18496 18497 18498 18499 18500 18501 18502 18503 18504 18505 18506 18507 18508 18509 18510 18511 18512 18513 18514 18515 18516 18517 18518 18519 18520 18521 18522 18523 18524 18525 18526 18527 18528 18529 18530 18531 18532 18533 18534 18535 18536 18537 18538 18539 18540 18541 18542 18543 18544 18545 18546 18547 18548 18549 18550 18551 18552 18553 18554 18555 18556 18557 18558 18559 18560 18561 18562 18563 18564 18565 18566 18567 18568 18569 18570 18571 18572 18573 18574 18575 18576 18577 18578 18579 18580 18581 18582 18583 18584 18585 18586 18587 18588 18589 18590 18591 18592 18593 18594 18595 18596 18597 18598 18599 18600 18601 18602 18603 18604 18605 18606 18607 18608 18609 18610 18611 18612 18613 18614 18615 18616 18617 18618 18619 18620 18621 18622 18623 18624 18625 18626 18627 18628 18629 18630 18631 18632 18633 18634 18635 18636 18637 18638 18639 18640 18641 18642 18643 18644 18645 18646 18647 18648 18649 18650 18651 18652 18653 18654 18655 18656 18657 18658 18659 18660 18661 18662 18663 18664 18665 18666 18667 18668 18669 18670 18671 18672 18673 18674 18675 18676 18677 18678 18679 18680 18681 18682 18683 18684 18685 18686 18687 18688 18689 18690 18691 18692 18693 18694 18695 18696 18697 18698 18699 18700 18701 18702 18703 18704 18705 18706 18707 18708 18709 18710 18711 18712 18713 18714 18715 18716 18717 18718 18719 18720 18721 18722 18723 18724 18725 18726 18727 18728 18729 18730 18731 18732 18733 18734 18735 18736 18737 18738 18739 18740 18741 18742 18743 18744 18745 18746 18747 18748 18749 18750 18751 18752 18753 18754 18755 18756 18757 18758 18759 18760 18761 18762 18763 18764 18765 18766 18767 18768 18769 18770 18771 18772 18773 18774 18775 18776 18777 18778 18779 18780 18781 18782 18783 18784 18785 18786 18787 18788 18789 18790 18791 18792 18793 18794 18795 18796 18797 18798 18799 18800 18801 18802 18803 18804 18805 18806 18807 18808 18809 18810 18811 18812 18813 18814 18815 18816 18817 18818 18819 18820 18821 18822 18823 18824 18825 18826 18827 18828 18829 18830 18831 18832 18833 18834 18835 18836 18837 18838 18839 18840 18841 18842 18843 18844 18845 18846 18847 18848 18849 18850 18851 18852 18853 18854 18855 18856 18857 18858 18859 18860 18861 18862 18863 18864 18865 18866 18867 18868 18869 18870 18871 18872 18873 18874 18875 18876 18877 18878 18879 18880 18881 18882 18883 18884 18885 18886 18887 18888 18889 18890 18891 18892 18893 18894 18895 18896 18897 18898 18899 18900 18901 18902 18903 18904 18905 18906 18907 18908 18909 18910 18911 18912 18913 18914 18915 18916 18917 18918 18919 18920 18921 18922 18923 18924 18925 18926 18927 18928 18929 18930 18931 18932 18933 18934 18935 18936 18937 18938 18939 18940 18941 18942 18943 18944 18945 18946 18947 18948 18949 18950 18951 18952 18953 18954 18955 18956 18957 18958 18959 18960 18961 18962 18963 18964 18965 18966 18967 18968 18969 18970 18971 18972 18973 18974 18975 18976 18977 18978 18979 18980 18981 18982 18983 18984 18985 18986 18987 18988 18989 18990 18991 18992 18993 18994 18995 18996 18997 18998 18999 19000 19001 19002 19003 19004 19005 19006 19007 19008 19009 19010 19011 19012 19013 19014 19015 19016 19017 19018 19019 19020 19021 19022 19023 19024 19025 19026 19027 19028 19029 19030 19031 19032 19033 19034 19035 19036 19037 19038 19039 19040 19041 19042 19043 19044 19045 19046 19047 19048 19049 19050 19051 19052 19053 19054 19055 19056 19057 19058 19059 19060 19061 19062 19063 19064 19065 19066 19067 19068 19069 19070 19071 19072 19073 19074 19075 19076 19077 19078 19079 19080 19081 19082 19083 19084 19085 19086 19087 19088 19089 19090 19091 19092 19093 19094 19095 19096 19097 19098 19099 19100 19101 19102 19103 19104 19105 19106 19107 19108 19109 19110 19111 19112 19113 19114 19115 19116 19117 19118 19119 19120 19121 19122 19123 19124 19125 19126 19127 19128 19129 19130 19131 19132 19133 19134 19135 19136 19137 19138 19139 19140 19141 19142 19143 19144 19145 19146 19147 19148 19149 19150 19151 19152 19153 19154 19155 19156 19157 19158 19159 19160 19161 19162 19163 19164 19165 19166 19167 19168 19169 19170 19171 19172 19173 19174 19175 19176 19177 19178 19179 19180 19181 19182 19183 19184 19185 19186 19187 19188 19189 19190 19191 19192 19193 19194 19195 19196 19197 19198 19199 19200 19201 19202 19203 19204 19205 19206 19207 19208 19209 19210 19211 19212 19213 19214 19215 19216 19217 19218 19219 19220 19221 19222 19223 19224 19225 19226 19227 19228 19229 19230 19231 19232 19233 19234 19235 19236 19237 19238 19239 19240 19241 19242 19243 19244 19245 19246 19247 19248 19249 19250 19251 19252 19253 19254 19255 19256 19257 19258 19259 19260 19261 19262 19263 19264 19265 19266 19267 19268 19269 19270 19271 19272 19273 19274 19275 19276 19277 19278 19279 19280 19281 19282 19283 19284 19285 19286 19287 19288 19289 19290 19291 19292 19293 19294 19295 19296 19297 19298 19299 19300 19301 19302 19303 19304 19305 19306 19307 19308 19309 19310 19311 19312 19313 19314 19315 19316 19317 19318 19319 19320 19321 19322 19323 19324 19325 19326 19327 19328 19329 19330 19331 19332 19333 19334 19335 19336 19337 19338 19339 19340 19341 19342 19343 19344 19345 19346 19347 19348 19349 19350 19351 19352 19353 19354 19355 19356 19357 19358 19359 19360 19361 19362 19363 19364 19365 19366 19367 19368 19369 19370 19371 19372 19373 19374 19375 19376 19377 19378 19379 19380 19381 19382 19383 19384 19385 19386 19387 19388 19389 19390 19391 19392 19393 19394 19395 19396 19397 19398 19399 19400 19401 19402 19403 19404 19405 19406 19407 19408 19409 19410 19411 19412 19413 19414 19415 19416 19417 19418 19419 19420 19421 19422 19423 19424 19425 19426 19427 19428 19429 19430 19431 19432 19433 19434 19435 19436 19437 19438 19439 19440 19441 19442 19443 19444 19445 19446 19447 19448 19449 19450 19451 19452 19453 19454 19455 19456 19457 19458 19459 19460 19461 19462 19463 19464 19465 19466 19467 19468 19469 19470 19471 19472 19473 19474 19475 19476 19477 19478 19479 19480 19481 19482 19483 19484 19485 19486 19487 19488 19489 19490 19491 19492 19493 19494 19495 19496 19497 19498 19499 19500 19501 19502 19503 19504 19505 19506 19507 19508 19509 19510 19511 19512 19513 19514 19515 19516 19517 19518 19519 19520 19521 19522 19523 19524 19525 19526 19527 19528 19529 19530 19531 19532 19533 19534 19535 19536 19537 19538 19539 19540 19541 19542 19543 19544 19545 19546 19547 19548 19549 19550 19551 19552 19553 19554 19555 19556 19557 19558 19559 19560 19561 19562 19563 19564 19565 19566 19567 19568 19569 19570 19571 19572 19573 19574 19575 19576 19577 19578 19579 19580 19581 19582 19583 19584 19585 19586 19587 19588 19589 19590 19591 19592 19593 19594 19595 19596 19597 19598 19599 19600 19601 19602 19603 19604 19605 19606 19607 19608 19609 19610 19611 19612 19613 19614 19615 19616 19617 19618 19619 19620 19621 19622 19623 19624 19625 19626 19627 19628 19629 19630 19631 19632 19633 19634 19635 19636 19637 19638 19639 19640 19641 19642 19643 19644 19645 19646 19647 19648 19649 19650 19651 19652 19653 19654 19655 19656 19657 19658 19659 19660 19661 19662 19663 19664 19665 19666 19667 19668 19669 19670 19671 19672 19673 19674 19675 19676 19677 19678 19679 19680 19681 19682 19683 19684 19685 19686 19687 19688 19689 19690 19691 19692 19693 19694 19695 19696 19697 19698 19699 19700 19701 19702 19703 19704 19705 19706 19707 19708 19709 19710 19711 19712 19713 19714 19715 19716 19717 19718 19719 19720 19721 19722 19723 19724 19725 19726 19727 19728 19729 19730 19731 19732 19733 19734 19735 19736 19737 19738 19739 19740 19741 19742 19743 19744 19745 19746 19747 19748 19749 19750 19751 19752 19753 19754 19755 19756 19757 19758 19759 19760 19761 19762 19763 19764 19765 19766 19767 19768 19769 19770 19771 19772 19773 19774 19775 19776 19777 19778 19779 19780 19781 19782 19783 19784 19785 19786 19787 19788 19789 19790 19791 19792 19793 19794 19795 19796 19797 19798 19799 19800 19801 19802 19803 19804 19805 19806 19807 19808 19809 19810 19811 19812 19813 19814 19815 19816 19817 19818 19819 19820 19821 19822 19823 19824 19825 19826 19827 19828 19829 19830 19831 19832 19833 19834 19835 19836 19837 19838 19839 19840 19841 19842 19843 19844 19845 19846 19847 19848 19849 19850 19851 19852 19853 19854 19855 19856 19857 19858 19859 19860 19861 19862 19863 19864 19865 19866 19867 19868 19869 19870 19871 19872 19873 19874 19875 19876 19877 19878 19879 19880 19881 19882 19883 19884 19885 19886 19887 19888 19889 19890 19891 19892 19893 19894 19895 19896 19897 19898 19899 19900 19901 19902 19903 19904 19905 19906 19907 19908 19909 19910 19911 19912 19913 19914 19915 19916 19917 19918 19919 19920 19921 19922 19923 19924 19925 19926 19927 19928 19929 19930 19931 19932 19933 19934 19935 19936 19937 19938 19939 19940 19941 19942 19943 19944 19945 19946 19947 19948 19949 19950 19951 19952 19953 19954 19955 19956 19957 19958 19959 19960 19961 19962 19963 19964 19965 19966 19967 19968 19969 19970 19971 19972 19973 19974 19975 19976 19977 19978 19979 19980 19981 19982 19983 19984 19985 19986 19987 19988 19989 19990 19991 19992 19993 19994 19995 19996 19997 19998 19999 20000 20001 20002 20003 20004 20005 20006 20007 20008 20009 20010 20011 20012 20013 20014 20015 20016 20017 20018 20019 20020 20021 20022 20023 20024 20025 20026 20027 20028 20029 20030 20031 20032 20033 20034 20035 20036 20037 20038 20039 20040 20041 20042 20043 20044 20045 20046 20047 20048 20049 20050 20051 20052 20053 20054 20055 20056 20057 20058 20059 20060 20061 20062 20063 20064 20065 20066 20067 20068 20069 20070 20071 20072 20073 20074 20075 20076 20077 20078 20079 20080 20081 20082 20083 20084 20085 20086 20087 20088 20089 20090 20091 20092 20093 20094 20095 20096 20097 20098 20099 20100 20101 20102 20103 20104 20105 20106 20107 20108 20109 20110 20111 20112 20113 20114 20115 20116 20117 20118 20119 20120 20121 20122 20123 20124 20125 20126 20127 20128 20129 20130 20131 20132 20133 20134 20135 20136 20137 20138 20139 20140 20141 20142 20143 20144 20145 20146 20147 20148 20149 20150 20151 20152 20153 20154 20155 20156 20157 20158 20159 20160 20161 20162 20163 20164 20165 20166 20167 20168 20169 20170 20171 20172 20173 20174 20175 20176 20177 20178 20179 20180 20181 20182 20183 20184 20185 20186 20187 20188 20189 20190 20191 20192 20193 20194 20195 20196 20197 20198 20199 20200 20201 20202 20203 20204 20205 20206 20207 20208 20209 20210 20211 20212 20213 20214 20215 20216 20217 20218 20219 20220 20221 20222 20223 20224 20225 20226 20227 20228 20229 20230 20231 20232 20233 20234 20235 20236 20237 20238 20239 20240 20241 20242 20243 20244 20245 20246 20247 20248 20249 20250 20251 20252 20253 20254 20255 20256 20257 20258 20259 20260 20261 20262 20263 20264 20265 20266 20267 20268 20269 20270 20271 20272 20273 20274 20275 20276 20277 20278 20279 20280 20281 20282 20283 20284 20285 20286 20287 20288 20289 20290 20291 20292 20293 20294 20295 20296 20297 20298 20299 20300 20301 20302 20303 20304 20305 20306 20307 20308 20309 20310 20311 20312 20313 20314 20315 20316 20317 20318 20319 20320 20321 20322 20323 20324 20325 20326 20327 20328 20329 20330 20331 20332 20333 20334 20335 20336 20337 20338 20339 20340 20341 20342 20343 20344 20345 20346 20347 20348 20349 20350 20351 20352 20353 20354 20355 20356 20357 20358 20359 20360 20361 20362 20363 20364 20365 20366 20367 20368 20369 20370 20371 20372 20373 20374 20375 20376 20377 20378 20379 20380 20381 20382 20383 20384 20385 20386 20387 20388 20389 20390 20391 20392 20393 20394 20395 20396 20397 20398 20399 20400 20401 20402 20403 20404 20405 20406 20407 20408 20409 20410 20411 20412 20413 20414 20415 20416 20417 20418 20419 20420 20421 20422 20423 20424 20425 20426 20427 20428 20429 20430 20431 20432 20433 20434 20435 20436 20437 20438 20439 20440 20441 20442 20443 20444 20445 20446 20447 20448 20449 20450 20451 20452 20453 20454 20455 20456 20457 20458 20459 20460 20461 20462 20463 20464 20465 20466 20467 20468 20469 20470 20471 20472 20473 20474 20475 20476 20477 20478 20479 20480 20481 20482 20483 20484 20485 20486 20487 20488 20489 20490 20491 20492 20493 20494 20495 20496 20497 20498 20499 20500 20501 20502 20503 20504 20505 20506 20507 20508 20509 20510 20511 20512 20513 20514 20515 20516 20517 20518 20519 20520 20521 20522 20523 20524 20525 20526 20527 20528 20529 20530 20531 20532 20533 20534 20535 20536 20537 20538 20539 20540 20541 20542 20543 20544 20545 20546 20547 20548 20549 20550 20551 20552 20553 20554 20555 20556 20557 20558 20559 20560 20561 20562 20563 20564 20565 20566 20567 20568 20569 20570 20571 20572 20573 20574 20575 20576 20577 20578 20579 20580 20581 20582 20583 20584 20585 20586 20587 20588 20589 20590 20591 20592 20593 20594 20595 20596 20597 20598 20599 20600 20601 20602 20603 20604 20605 20606 20607 20608 20609 20610 20611 20612 20613 20614 20615 20616 20617 20618 20619 20620 20621 20622 20623 20624 20625 20626 20627 20628 20629 20630 20631 20632 20633 20634 20635 20636 20637 20638 20639 20640 20641 20642 20643 20644 20645 20646 20647 20648 20649 20650 20651 20652 20653 20654 20655 20656 20657 20658 20659 20660 20661 20662 20663 20664 20665 20666 20667 20668 20669 20670 20671 20672 20673 20674 20675 20676 20677 20678 20679 20680 20681 20682 20683 20684 20685 20686 20687 20688 20689 20690 20691 20692 20693 20694 20695 20696 20697 20698 20699 20700 20701 20702 20703 20704 20705 20706 20707 20708 20709 20710 20711 20712 20713 20714 20715 20716 20717 20718 20719 20720 20721 20722 20723 20724 20725 20726 20727 20728 20729 20730 20731 20732 20733 20734 20735 20736 20737 20738 20739 20740 20741 20742 20743 20744 20745 20746 20747 20748 20749 20750 20751 20752 20753 20754 20755 20756 20757 20758 20759 20760 20761 20762 20763 20764 20765 20766 20767 20768 20769 20770 20771 20772 20773 20774 20775 20776 20777 20778 20779 20780 20781 20782 20783 20784 20785 20786 20787 20788 20789 20790 20791 20792 20793 20794 20795 20796 20797 20798 20799 20800 20801 20802 20803 20804 20805 20806 20807 20808 20809 20810 20811 20812 20813 20814 20815 20816 20817 20818 20819 20820 20821 20822 20823 20824 20825 20826 20827 20828 20829 20830 20831 20832 20833 20834 20835 20836 20837 20838 20839 20840 20841 20842 20843 20844 20845 20846 20847 20848 20849 20850 20851 20852 20853 20854 20855 20856 20857 20858 20859 20860 20861 20862 20863 20864 20865 20866 20867 20868 20869 20870 20871 20872 20873 20874 20875 20876 20877 20878 20879 20880 20881 20882 20883 20884 20885 20886 20887 20888 20889 20890 20891 20892 20893 20894 20895 20896 20897 20898 20899 20900 20901 20902 20903 20904 20905 20906 20907 20908 20909 20910 20911 20912 20913 20914 20915 20916 20917 20918 20919 20920 20921 20922 20923 20924 20925 20926 20927 20928 20929 20930 20931 20932 20933 20934 20935 20936 20937 20938 20939 20940 20941 20942 20943 20944 20945 20946 20947 20948 20949 20950 20951 20952 20953 20954 20955 20956 20957 20958 20959 20960 20961 20962 20963 20964 20965 20966 20967 20968 20969 20970 20971 20972 20973 20974 20975 20976 20977 20978 20979 20980 20981 20982 20983 20984 20985 20986 20987 20988 20989 20990 20991 20992 20993 20994 20995 20996 20997 20998 20999 21000 21001 21002 21003 21004 21005 21006 21007 21008 21009 21010 21011 21012 21013 21014 21015 21016 21017 21018 21019 21020 21021 21022 21023 21024 21025 21026 21027 21028 21029 21030 21031 21032 21033 21034 21035 21036 21037 21038 21039 21040 21041 21042 21043 21044 21045 21046 21047 21048 21049 21050 21051 21052 21053 21054 21055 21056 21057 21058 21059 21060 21061 21062 21063 21064 21065 21066 21067 21068 21069 21070 21071 21072 21073 21074 21075 21076 21077 21078 21079 21080 21081 21082 21083 21084 21085 21086 21087 21088 21089 21090 21091 21092 21093 21094 21095 21096 21097 21098 21099 21100 21101 21102 21103 21104 21105 21106 21107 21108 21109 21110 21111 21112 21113 21114 21115 21116 21117 21118 21119 21120 21121 21122 21123 21124 21125 21126 21127 21128 21129 21130 21131 21132 21133 21134 21135 21136 21137 21138 21139 21140 21141 21142 21143 21144 21145 21146 21147 21148 21149 21150 21151 21152 21153 21154 21155 21156 21157 21158 21159 21160 21161 21162 21163 21164 21165 21166 21167 21168 21169 21170 21171 21172 21173 21174 21175 21176 21177 21178 21179 21180 21181 21182 21183 21184 21185 21186 21187 21188 21189 21190 21191 21192 21193 21194 21195 21196 21197 21198 21199 21200 21201 21202 21203 21204 21205 21206 21207 21208 21209 21210 21211 21212 21213 21214 21215 21216 21217 21218 21219 21220 21221 21222 21223 21224 21225 21226 21227 21228 21229 21230 21231 21232 21233 21234 21235 21236 21237 21238 21239 21240 21241 21242 21243 21244 21245 21246 21247 21248 21249 21250 21251 21252 21253 21254 21255 21256 21257 21258 21259 21260 21261 21262 21263 21264 21265 21266 21267 21268 21269 21270 21271 21272 21273 21274 21275 21276 21277 21278 21279 21280 21281 21282 21283 21284 21285 21286 21287 21288 21289 21290 21291 21292 21293 21294 21295 21296 21297 21298 21299 21300 21301 21302 21303 21304 21305 21306 21307 21308 21309 21310 21311 21312 21313 21314 21315 21316 21317 21318 21319 21320 21321 21322 21323 21324 21325 21326 21327 21328 21329 21330 21331 21332 21333 21334 21335 21336 21337 21338 21339 21340 21341 21342 21343 21344 21345 21346 21347 21348 21349 21350 21351 21352 21353 21354 21355 21356 21357 21358 21359 21360 21361 21362 21363 21364 21365 21366 21367 21368 21369 21370 21371 21372 21373 21374 21375 21376 21377 21378 21379 21380 21381 21382 21383 21384 21385 21386 21387 21388 21389 21390 21391 21392 21393 21394 21395 21396 21397 21398 21399 21400 21401 21402 21403 21404 21405 21406 21407 21408 21409 21410 21411 21412 21413 21414 21415 21416 21417 21418 21419 21420 21421 21422 21423 21424 21425 21426 21427 21428 21429 21430 21431 21432 21433 21434 21435 21436 21437 21438 21439 21440 21441 21442 21443 21444 21445 21446 21447 21448 21449 21450 21451 21452 21453 21454 21455 21456 21457 21458 21459 21460 21461 21462 21463 21464 21465 21466 21467 21468 21469 21470 21471 21472 21473 21474 21475 21476 21477 21478 21479 21480 21481 21482 21483 21484 21485 21486 21487 21488 21489 21490 21491 21492 21493 21494 21495 21496 21497 21498 21499 21500 21501 21502 21503 21504 21505 21506 21507 21508 21509 21510 21511 21512 21513 21514 21515 21516 21517 21518 21519 21520 21521 21522 21523 21524 21525 21526 21527 21528 21529 21530 21531 21532 21533 21534 21535 21536 21537 21538 21539 21540 21541 21542 21543 21544 21545 21546 21547 21548 21549 21550 21551 21552 21553 21554 21555 21556 21557 21558 21559 21560 21561 21562 21563 21564 21565 21566 21567 21568 21569 21570 21571 21572 21573 21574 21575 21576 21577 21578 21579 21580 21581 21582 21583 21584 21585 21586 21587 21588 21589 21590 21591 21592 21593 21594 21595 21596 21597 21598 21599 21600 21601 21602 21603 21604 21605 21606 21607 21608 21609 21610 21611 21612 21613 21614 21615 21616 21617 21618 21619 21620 21621 21622 21623 21624 21625 21626 21627 21628 21629 21630 21631 21632 21633 21634 21635 21636 21637 21638 21639 21640 21641 21642 21643 21644 21645 21646 21647 21648 21649 21650 21651 21652 21653 21654 21655 21656 21657 21658 21659 21660 21661 21662 21663 21664 21665 21666 21667 21668 21669 21670 21671 21672 21673 21674 21675 21676 21677 21678 21679 21680 21681 21682 21683 21684 21685 21686 21687 21688 21689 21690 21691 21692 21693 21694 21695 21696 21697 21698 21699 21700 21701 21702 21703 21704 21705 21706 21707 21708 21709 21710 21711 21712 21713 21714 21715 21716 21717 21718 21719 21720 21721 21722 21723 21724 21725 21726 21727 21728 21729 21730 21731 21732 21733 21734 21735 21736 21737 21738 21739 21740 21741 21742 21743 21744 21745 21746 21747 21748 21749 21750 21751 21752 21753 21754 21755 21756 21757 21758 21759 21760 21761 21762 21763 21764 21765 21766 21767 21768 21769 21770 21771 21772 21773 21774 21775 21776 21777 21778 21779 21780 21781 21782 21783 21784 21785 21786 21787 21788 21789 21790 21791 21792 21793 21794 21795 21796 21797 21798 21799 21800 21801 21802 21803 21804 21805 21806 21807 21808 21809 21810 21811 21812 21813 21814 21815 21816 21817 21818 21819 21820 21821 21822 21823 21824 21825 21826 21827 21828 21829 21830 21831 21832 21833 21834 21835 21836 21837 21838 21839 21840 21841 21842 21843 21844 21845 21846 21847 21848 21849 21850 21851 21852 21853 21854 21855 21856 21857 21858 21859 21860 21861 21862 21863 21864 21865 21866 21867 21868 21869 21870 21871 21872 21873 21874 21875 21876 21877 21878 21879 21880 21881 21882 21883 21884 21885 21886 21887 21888 21889 21890 21891 21892 21893 21894 21895 21896 21897 21898 21899 21900 21901 21902 21903 21904 21905 21906 21907 21908 21909 21910 21911 21912 21913 21914 21915 21916 21917 21918 21919 21920 21921 21922 21923 21924 21925 21926 21927 21928 21929 21930 21931 21932 21933 21934 21935 21936 21937 21938 21939 21940 21941 21942 21943 21944 21945 21946 21947 21948 21949 21950 21951 21952 21953 21954 21955 21956 21957 21958 21959 21960 21961 21962 21963 21964 21965 21966 21967 21968 21969 21970 21971 21972 21973 21974 21975 21976 21977 21978 21979 21980 21981 21982 21983 21984 21985 21986 21987 21988 21989 21990 21991 21992 21993 21994 21995 21996 21997 21998 21999 22000 22001 22002 22003 22004 22005 22006 22007 22008 22009 22010 22011 22012 22013 22014 22015 22016 22017 22018 22019 22020 22021 22022 22023 22024 22025 22026 22027 22028 22029 22030 22031 22032 22033 22034 22035 22036 22037 22038 22039 22040 22041 22042 22043 22044 22045 22046 22047 22048 22049 22050 22051 22052 22053 22054 22055 22056 22057 22058 22059 22060 22061 22062 22063 22064 22065 22066 22067 22068 22069 22070 22071 22072 22073 22074 22075 22076 22077 22078 22079 22080 22081 22082 22083 22084 22085 22086 22087 22088 22089 22090 22091 22092 22093 22094 22095 22096 22097 22098 22099 22100 22101 22102 22103 22104 22105 22106 22107 22108 22109 22110 22111 22112 22113 22114 22115 22116 22117 22118 22119 22120 22121 22122 22123 22124 22125 22126 22127 22128 22129 22130 22131 22132 22133 22134 22135 22136 22137 22138 22139 22140 22141 22142 22143 22144 22145 22146 22147 22148 22149 22150 22151 22152 22153 22154 22155 22156 22157 22158 22159 22160 22161 22162 22163 22164 22165 22166 22167 22168 22169 22170 22171 22172 22173 22174 22175 22176 22177 22178 22179 22180 22181 22182 22183 22184 22185 22186 22187 22188 22189 22190 22191 22192 22193 22194 22195 22196 22197 22198 22199 22200 22201 22202 22203 22204 22205 22206 22207 22208 22209 22210 22211 22212 22213 22214 22215 22216 22217 22218 22219 22220 22221 22222 22223 22224 22225 22226 22227 22228 22229 22230 22231 22232 22233 22234 22235 22236 22237 22238 22239 22240 22241 22242 22243 22244 22245 22246 22247 22248 22249 22250 22251 22252 22253 22254 22255 22256 22257 22258 22259 22260 22261 22262 22263 22264 22265 22266 22267 22268 22269 22270 22271 22272 22273 22274 22275 22276 22277 22278 22279 22280 22281 22282 22283 22284 22285 22286 22287 22288 22289 22290 22291 22292 22293 22294 22295 22296 22297 22298 22299 22300 22301 22302 22303 22304 22305 22306 22307 22308 22309 22310 22311 22312 22313 22314 22315 22316 22317 22318 22319 22320 22321 22322 22323 22324 22325 22326 22327 22328 22329 22330 22331 22332 22333 22334 22335 22336 22337 22338 22339 22340 22341 22342 22343 22344 22345 22346 22347 22348 22349 22350 22351 22352 22353 22354 22355 22356 22357 22358 22359 22360 22361 22362 22363 22364 22365 22366 22367 22368 22369 22370 22371 22372 22373 22374 22375 22376 22377 22378 22379 22380 22381 22382 22383 22384 22385 22386 22387 22388 22389 22390 22391 22392 22393 22394 22395 22396 22397 22398 22399 22400 22401 22402 22403 22404 22405 22406 22407 22408 22409 22410 22411 22412 22413 22414 22415 22416 22417 22418 22419 22420 22421 22422 22423 22424 22425 22426 22427 22428 22429 22430 22431 22432 22433 22434 22435 22436 22437 22438 22439 22440 22441 22442 22443 22444 22445 22446 22447 22448 22449 22450 22451 22452 22453 22454 22455 22456 22457 22458 22459 22460 22461 22462 22463 22464 22465 22466 22467 22468 22469 22470 22471 22472 22473 22474 22475 22476 22477 22478 22479 22480 22481 22482 22483 22484 22485 22486 22487 22488 22489 22490 22491 22492 22493 22494 22495 22496 22497 22498 22499 22500 22501 22502 22503 22504 22505 22506 22507 22508 22509 22510 22511 22512 22513 22514 22515 22516 22517 22518 22519 22520 22521 22522 22523 22524 22525 22526 22527 22528 22529 22530 22531 22532 22533 22534 22535 22536 22537 22538 22539 22540 22541 22542 22543 22544 22545 22546 22547 22548 22549 22550 22551 22552 22553 22554 22555 22556 22557 22558 22559 22560 22561 22562 22563 22564 22565 22566 22567 22568 22569 22570 22571 22572 22573 22574 22575 22576 22577 22578 22579 22580 22581 22582 22583 22584 22585 22586 22587 22588 22589 22590 22591 22592 22593 22594 22595 22596 22597 22598 22599 22600 22601 22602 22603 22604 22605 22606 22607 22608 22609 22610 22611 22612 22613 22614 22615 22616 22617 22618 22619 22620 22621 22622 22623 22624 22625 22626 22627 22628 22629 22630 22631 22632 22633 22634 22635 22636 22637 22638 22639 22640 22641 22642 22643 22644 22645 22646 22647 22648 22649 22650 22651 22652 22653 22654 22655 22656 22657 22658 22659 22660 22661 22662 22663 22664 22665 22666 22667 22668 22669 22670 22671 22672 22673 22674 22675 22676 22677 22678 22679 22680 22681 22682 22683 22684 22685 22686 22687 22688 22689 22690 22691 22692 22693 22694 22695 22696 22697 22698 22699 22700 22701 22702 22703 22704 22705 22706 22707 22708 22709 22710 22711 22712 22713 22714 22715 22716 22717 22718 22719 22720 22721 22722 22723 22724 22725 22726 22727 22728 22729 22730 22731 22732 22733 22734 22735 22736 22737 22738 22739 22740 22741 22742 22743 22744 22745 22746 22747 22748 22749 22750 22751 22752 22753 22754 22755 22756 22757 22758 22759 22760 22761 22762 22763 22764 22765 22766 22767 22768 22769 22770 22771 22772 22773 22774 22775 22776 22777 22778 22779 22780 22781 22782 22783 22784 22785 22786 22787 22788 22789 22790 22791 22792 22793 22794 22795 22796 22797 22798 22799 22800 22801 22802 22803 22804 22805 22806 22807 22808 22809 22810 22811 22812 22813 22814 22815 22816 22817 22818 22819 22820 22821 22822 22823 22824 22825 22826 22827 22828 22829 22830 22831 22832 22833 22834 22835 22836 22837 22838 22839 22840 22841 22842 22843 22844 22845 22846 22847 22848 22849 22850 22851 22852 22853 22854 22855 22856 22857 22858 22859 22860 22861 22862 22863 22864 22865 22866 22867 22868 22869 22870 22871 22872 22873 22874 22875 22876 22877 22878 22879 22880 22881 22882 22883 22884 22885 22886 22887 22888 22889 22890 22891 22892 22893 22894 22895 22896 22897 22898 22899 22900 22901 22902 22903 22904 22905 22906 22907 22908 22909 22910 22911 22912 22913 22914 22915 22916 22917 22918 22919 22920 22921 22922 22923 22924 22925 22926 22927 22928 22929 22930 22931 22932 22933 22934 22935 22936 22937 22938 22939 22940 22941 22942 22943 22944 22945 22946 22947 22948 22949 22950 22951 22952 22953 22954 22955 22956 22957 22958 22959 22960 22961 22962 22963 22964 22965 22966 22967 22968 22969 22970 22971 22972 22973 22974 22975 22976 22977 22978 22979 22980 22981 22982 22983 22984 22985 22986 22987 22988 22989 22990 22991 22992 22993 22994 22995 22996 22997 22998 22999 23000 23001 23002 23003 23004 23005 23006 23007 23008 23009 23010 23011 23012 23013 23014 23015 23016 23017 23018 23019 23020 23021 23022 23023 23024 23025 23026 23027 23028 23029 23030 23031 23032 23033 23034 23035 23036 23037 23038 23039 23040 23041 23042 23043 23044 23045 23046 23047 23048 23049 23050 23051 23052 23053 23054 23055 23056 23057 23058 23059 23060 23061 23062 23063 23064 23065 23066 23067 23068 23069 23070 23071 23072 23073 23074 23075 23076 23077 23078 23079 23080 23081 23082 23083 23084 23085 23086 23087 23088 23089 23090 23091 23092 23093 23094 23095 23096 23097 23098 23099 23100 23101 23102 23103 23104 23105 23106 23107 23108 23109 23110 23111 23112 23113 23114 23115 23116 23117 23118 23119 23120 23121 23122 23123 23124 23125 23126 23127 23128 23129 23130 23131 23132 23133 23134 23135 23136 23137 23138 23139 23140 23141 23142 23143 23144 23145 23146 23147 23148 23149 23150 23151 23152 23153 23154 23155 23156 23157 23158 23159 23160 23161 23162 23163 23164 23165 23166 23167 23168 23169 23170 23171 23172 23173 23174 23175 23176 23177 23178 23179 23180 23181 23182 23183 23184 23185 23186 23187 23188 23189 23190 23191 23192 23193 23194 23195 23196 23197 23198 23199 23200 23201 23202 23203 23204 23205 23206 23207 23208 23209 23210 23211 23212 23213 23214 23215 23216 23217 23218 23219 23220 23221 23222 23223 23224 23225 23226 23227 23228 23229 23230 23231 23232 23233 23234 23235 23236 23237 23238 23239 23240 23241 23242 23243 23244 23245 23246 23247 23248 23249 23250 23251 23252 23253 23254 23255 23256 23257 23258 23259 23260 23261 23262 23263 23264 23265 23266 23267 23268 23269 23270 23271 23272 23273 23274 23275 23276 23277 23278 23279 23280 23281 23282 23283 23284 23285 23286 23287 23288 23289 23290 23291 23292 23293 23294 23295 23296 23297 23298 23299 23300 23301 23302 23303 23304 23305 23306 23307 23308 23309 23310 23311 23312 23313 23314 23315 23316 23317 23318 23319 23320 23321 23322 23323 23324 23325 23326 23327 23328 23329 23330 23331 23332 23333 23334 23335 23336 23337 23338 23339 23340 23341 23342 23343 23344 23345 23346 23347 23348 23349 23350 23351 23352 23353 23354 23355 23356 23357 23358 23359 23360 23361 23362 23363 23364 23365 23366 23367 23368 23369 23370 23371 23372 23373 23374 23375 23376 23377 23378 23379 23380 23381 23382 23383 23384 23385 23386 23387 23388 23389 23390 23391 23392 23393 23394 23395 23396 23397 23398 23399 23400 23401 23402 23403 23404 23405 23406 23407 23408 23409 23410 23411 23412 23413 23414 23415 23416 23417 23418 23419 23420 23421 23422 23423 23424 23425 23426 23427 23428 23429 23430 23431 23432 23433 23434 23435 23436 23437 23438 23439 23440 23441 23442 23443 23444 23445 23446 23447 23448 23449 23450 23451 23452 23453 23454 23455 23456 23457 23458 23459 23460 23461 23462 23463 23464 23465 23466 23467 23468 23469 23470 23471 23472 23473 23474 23475 23476 23477 23478 23479 23480 23481 23482 23483 23484 23485 23486 23487 23488 23489 23490 23491 23492 23493 23494 23495 23496 23497 23498 23499 23500 23501 23502 23503 23504 23505 23506 23507 23508 23509 23510 23511 23512 23513 23514 23515 23516 23517 23518 23519 23520 23521 23522 23523 23524 23525 23526 23527 23528 23529 23530 23531 23532 23533 23534 23535 23536 23537 23538 23539 23540 23541 23542 23543 23544 23545 23546 23547 23548 23549 23550 23551 23552 23553 23554 23555 23556 23557 23558 23559 23560 23561 23562 23563 23564 23565 23566 23567 23568 23569 23570 23571 23572 23573 23574 23575 23576 23577 23578 23579 23580 23581 23582 23583 23584 23585 23586 23587 23588 23589 23590 23591 23592 23593 23594 23595 23596 23597 23598 23599 23600 23601 23602 23603 23604 23605 23606 23607 23608 23609 23610 23611 23612 23613 23614 23615 23616 23617 23618 23619 23620 23621 23622 23623 23624 23625 23626 23627 23628 23629 23630 23631 23632 23633 23634 23635 23636 23637 23638 23639 23640 23641 23642 23643 23644 23645 23646 23647 23648 23649 23650 23651 23652 23653 23654 23655 23656 23657 23658 23659 23660 23661 23662 23663 23664 23665 23666 23667 23668 23669 23670 23671 23672 23673 23674 23675 23676 23677 23678 23679 23680 23681 23682 23683 23684 23685 23686 23687 23688 23689 23690 23691 23692 23693 23694 23695 23696 23697 23698 23699 23700 23701 23702 23703 23704 23705 23706 23707 23708 23709 23710 23711 23712 23713 23714 23715 23716 23717 23718 23719 23720 23721 23722 23723 23724 23725 23726 23727 23728 23729 23730 23731 23732 23733 23734 23735 23736 23737 23738 23739 23740 23741 23742 23743 23744 23745 23746 23747 23748 23749 23750 23751 23752 23753 23754 23755 23756 23757 23758 23759 23760 23761 23762 23763 23764 23765 23766 23767 23768 23769 23770 23771 23772 23773 23774 23775 23776 23777 23778 23779 23780 23781 23782 23783 23784 23785 23786 23787 23788 23789 23790 23791 23792 23793 23794 23795 23796 23797 23798 23799 23800 23801 23802 23803 23804 23805 23806 23807 23808 23809 23810 23811 23812 23813 23814 23815 23816 23817 23818 23819 23820 23821 23822 23823 23824 23825 23826 23827 23828 23829 23830 23831 23832 23833 23834 23835 23836 23837 23838 23839 23840 23841 23842 23843 23844 23845 23846 23847 23848 23849 23850 23851 23852 23853 23854 23855 23856 23857 23858 23859 23860 23861 23862 23863 23864 23865 23866 23867 23868 23869 23870 23871 23872 23873 23874 23875 23876 23877 23878 23879 23880 23881 23882 23883 23884 23885 23886 23887 23888 23889 23890 23891 23892 23893 23894 23895 23896 23897 23898 23899 23900 23901 23902 23903 23904 23905 23906 23907 23908 23909 23910 23911 23912 23913 23914 23915 23916 23917 23918 23919 23920 23921 23922 23923 23924 23925 23926 23927 23928 23929 23930 23931 23932 23933 23934 23935 23936 23937 23938 23939 23940 23941 23942 23943 23944 23945 23946 23947 23948 23949 23950 23951 23952 23953 23954 23955 23956 23957 23958 23959 23960 23961 23962 23963 23964 23965 23966 23967 23968 23969 23970 23971 23972 23973 23974 23975 23976 23977 23978 23979 23980 23981 23982 23983 23984 23985 23986 23987 23988 23989 23990 23991 23992 23993 23994 23995 23996 23997 23998 23999 24000 24001 24002 24003 24004 24005 24006 24007 24008 24009 24010 24011 24012 24013 24014 24015 24016 24017 24018 24019 24020 24021 24022 24023 24024 24025 24026 24027 24028 24029 24030 24031 24032 24033 24034 24035 24036 24037 24038 24039 24040 24041 24042 24043 24044 24045 24046 24047 24048 24049 24050 24051 24052 24053 24054 24055 24056 24057 24058 24059 24060 24061 24062 24063 24064 24065 24066 24067 24068 24069 24070 24071 24072 24073 24074 24075 24076 24077 24078 24079 24080 24081 24082 24083 24084 24085 24086 24087 24088 24089 24090 24091 24092 24093 24094 24095 24096 24097 24098 24099 24100 24101 24102 24103 24104 24105 24106 24107 24108 24109 24110 24111 24112 24113 24114 24115 24116 24117 24118 24119 24120 24121 24122 24123 24124 24125 24126 24127 24128 24129 24130 24131 24132 24133 24134 24135 24136 24137 24138 24139 24140 24141 24142 24143 24144 24145 24146 24147 24148 24149 24150 24151 24152 24153 24154 24155 24156 24157 24158 24159 24160 24161 24162 24163 24164 24165 24166 24167 24168 24169 24170 24171 24172 24173 24174 24175 24176 24177 24178 24179 24180 24181 24182 24183 24184 24185 24186 24187 24188 24189 24190 24191 24192 24193 24194 24195 24196 24197 24198 24199 24200 24201 24202 24203 24204 24205 24206 24207 24208 24209 24210 24211 24212 24213 24214 24215 24216 24217 24218 24219 24220 24221 24222 24223 24224 24225 24226 24227 24228 24229 24230 24231 24232 24233 24234 24235 24236 24237 24238 24239 24240 24241 24242 24243 24244 24245 24246 24247 24248 24249 24250 24251 24252 24253 24254 24255 24256 24257 24258 24259 24260 24261 24262 24263 24264 24265 24266 24267 24268 24269 24270 24271 24272 24273 24274 24275 24276 24277 24278 24279 24280 24281 24282 24283 24284 24285 24286 24287 24288 24289 24290 24291 24292 24293 24294 24295 24296 24297 24298 24299 24300 24301 24302 24303 24304 24305 24306 24307 24308 24309 24310 24311 24312 24313 24314 24315 24316 24317 24318 24319 24320 24321 24322 24323 24324 24325 24326 24327 24328 24329 24330 24331 24332 24333 24334 24335 24336 24337 24338 24339 24340 24341 24342 24343 24344 24345 24346 24347 24348 24349 24350 24351 24352 24353 24354 24355 24356 24357 24358 24359 24360 24361 24362 24363 24364 24365 24366 24367 24368 24369 24370 24371 24372 24373 24374 24375 24376 24377 24378 24379 24380 24381 24382 24383 24384 24385 24386 24387 24388 24389 24390 24391 24392 24393 24394 24395 24396 24397 24398 24399 24400 24401 24402 24403 24404 24405 24406 24407 24408 24409 24410 24411 24412 24413 24414 24415 24416 24417 24418 24419 24420 24421 24422 24423 24424 24425 24426 24427 24428 24429 24430 24431 24432 24433 24434 24435 24436 24437 24438 24439 24440 24441 24442 24443 24444 24445 24446 24447 24448 24449 24450 24451 24452 24453 24454 24455 24456 24457 24458 24459 24460 24461 24462 24463 24464 24465 24466 24467 24468 24469 24470 24471 24472 24473 24474 24475 24476 24477 24478 24479 24480 24481 24482 24483 24484 24485 24486 24487 24488 24489 24490 24491 24492 24493 24494 24495 24496 24497 24498 24499 24500 24501 24502 24503 24504 24505 24506 24507 24508 24509 24510 24511 24512 24513 24514 24515 24516 24517 24518 24519 24520 24521 24522 24523 24524 24525 24526 24527 24528 24529 24530 24531 24532 24533 24534 24535 24536 24537 24538 24539 24540 24541 24542 24543 24544 24545 24546 24547 24548 24549 24550 24551 24552 24553 24554 24555 24556 24557 24558 24559 24560 24561 24562 24563 24564 24565 24566 24567 24568 24569 24570 24571 24572 24573 24574 24575 24576 24577 24578 24579 24580 24581 24582 24583 24584 24585 24586 24587 24588 24589 24590 24591 24592 24593 24594 24595 24596 24597 24598 24599 24600 24601 24602 24603 24604 24605 24606 24607 24608 24609 24610 24611 24612 24613 24614 24615 24616 24617 24618 24619 24620 24621 24622 24623 24624 24625 24626 24627 24628 24629 24630 24631 24632 24633 24634 24635 24636 24637 24638 24639 24640 24641 24642 24643 24644 24645 24646 24647 24648 24649 24650 24651 24652 24653 24654 24655 24656 24657 24658 24659 24660 24661 24662 24663 24664 24665 24666 24667 24668 24669 24670 24671 24672 24673 24674 24675 24676 24677 24678 24679 24680 24681 24682 24683 24684 24685 24686 24687 24688 24689 24690 24691 24692 24693 24694 24695 24696 24697 24698 24699 24700 24701 24702 24703 24704 24705 24706 24707 24708 24709 24710 24711 24712 24713 24714 24715 24716 24717 24718 24719 24720 24721 24722 24723 24724 24725 24726 24727 24728 24729 24730 24731 24732 24733 24734 24735 24736 24737 24738 24739 24740 24741 24742 24743 24744 24745 24746 24747 24748 24749 24750 24751 24752 24753 24754 24755 24756 24757 24758 24759 24760 24761 24762 24763 24764 24765 24766 24767 24768 24769 24770 24771 24772 24773 24774 24775 24776 24777 24778 24779 24780 24781 24782 24783 24784 24785 24786 24787 24788 24789 24790 24791 24792 24793 24794 24795 24796 24797 24798 24799 24800 24801 24802 24803 24804 24805 24806 24807 24808 24809 24810 24811 24812 24813 24814 24815 24816 24817 24818 24819 24820 24821 24822 24823 24824 24825 24826 24827 24828 24829 24830 24831 24832 24833 24834 24835 24836 24837 24838 24839 24840 24841 24842 24843 24844 24845 24846 24847 24848 24849 24850 24851 24852 24853 24854 24855 24856 24857 24858 24859 24860 24861 24862 24863 24864 24865 24866 24867 24868 24869 24870 24871 24872 24873 24874 24875 24876 24877 24878 24879 24880 24881 24882 24883 24884 24885 24886 24887 24888 24889 24890 24891 24892 24893 24894 24895 24896 24897 24898 24899 24900 24901 24902 24903 24904 24905 24906 24907 24908 24909 24910 24911 24912 24913 24914 24915 24916 24917 24918 24919 24920 24921 24922 24923 24924 24925 24926 24927 24928 24929 24930 24931 24932 24933 24934 24935 24936 24937 24938 24939 24940 24941 24942 24943 24944 24945 24946 24947 24948 24949 24950 24951 24952 24953 24954 24955 24956 24957 24958 24959 24960 24961 24962 24963 24964 24965 24966 24967 24968 24969 24970 24971 24972 24973 24974 24975 24976 24977 24978 24979 24980 24981 24982 24983 24984 24985 24986 24987 24988 24989 24990 24991 24992 24993 24994 24995 24996 24997 24998 24999 25000 25001 25002 25003 25004 25005 25006 25007 25008 25009 25010 25011 25012 25013 25014 25015 25016 25017 25018 25019 25020 25021 25022 25023 25024 25025 25026 25027 25028 25029 25030 25031 25032 25033 25034 25035 25036 25037 25038 25039 25040 25041 25042 25043 25044 25045 25046 25047 25048 25049 25050 25051 25052 25053 25054 25055 25056 25057 25058 25059 25060 25061 25062 25063 25064 25065 25066 25067 25068 25069 25070 25071 25072 25073 25074 25075 25076 25077 25078 25079 25080 25081 25082 25083 25084 25085 25086 25087 25088 25089 25090 25091 25092 25093 25094 25095 25096 25097 25098 25099 25100 25101 25102 25103 25104 25105 25106 25107 25108 25109 25110 25111 25112 25113 25114 25115 25116 25117 25118 25119 25120 25121 25122 25123 25124 25125 25126 25127 25128 25129 25130 25131 25132 25133 25134 25135 25136 25137 25138 25139 25140 25141 25142 25143 25144 25145 25146 25147 25148 25149 25150 25151 25152 25153 25154 25155 25156 25157 25158 25159 25160 25161 25162 25163 25164 25165 25166 25167 25168 25169 25170 25171 25172 25173 25174 25175 25176 25177 25178 25179 25180 25181 25182 25183 25184 25185 25186 25187 25188 25189 25190 25191 25192 25193 25194 25195 25196 25197 25198 25199 25200 25201 25202 25203 25204 25205 25206 25207 25208 25209 25210 25211 25212 25213 25214 25215 25216 25217 25218 25219 25220 25221 25222 25223 25224 25225 25226 25227 25228 25229 25230 25231 25232 25233 25234 25235 25236 25237 25238 25239 25240 25241 25242 25243 25244 25245 25246 25247 25248 25249 25250 25251 25252 25253 25254 25255 25256 25257 25258 25259 25260 25261 25262 25263 25264 25265 25266 25267 25268 25269 25270 25271 25272 25273 25274 25275 25276 25277 25278 25279 25280 25281 25282 25283 25284 25285 25286 25287 25288 25289 25290 25291 25292 25293 25294 25295 25296 25297 25298 25299 25300 25301 25302 25303 25304 25305 25306 25307 25308 25309 25310 25311 25312 25313 25314 25315 25316 25317 25318 25319 25320 25321 25322 25323 25324 25325 25326 25327 25328 25329 25330 25331 25332 25333 25334 25335 25336 25337 25338 25339 25340 25341 25342 25343 25344 25345 25346 25347 25348 25349 25350 25351 25352 25353 25354 25355 25356 25357 25358 25359 25360 25361 25362 25363 25364 25365 25366 25367 25368 25369 25370 25371 25372 25373 25374 25375 25376 25377 25378 25379 25380 25381 25382 25383 25384 25385 25386 25387 25388 25389 25390 25391 25392 25393 25394 25395 25396 25397 25398 25399 25400 25401 25402 25403 25404 25405 25406 25407 25408 25409 25410 25411 25412 25413 25414 25415 25416 25417 25418 25419 25420 25421 25422 25423 25424 25425 25426 25427 25428 25429 25430 25431 25432 25433 25434 25435 25436 25437 25438 25439 25440 25441 25442 25443 25444 25445 25446 25447 25448 25449 25450 25451 25452 25453 25454 25455 25456 25457 25458 25459 25460 25461 25462 25463 25464 25465 25466 25467 25468 25469 25470 25471 25472 25473 25474 25475 25476 25477 25478 25479 25480 25481 25482 25483 25484 25485 25486 25487 25488 25489 25490 25491 25492 25493 25494 25495 25496 25497 25498 25499 25500 25501 25502 25503 25504 25505 25506 25507 25508 25509 25510 25511 25512 25513 25514 25515 25516 25517 25518 25519 25520 25521 25522 25523 25524 25525 25526 25527 25528 25529 25530 25531 25532 25533 25534 25535 25536 25537 25538 25539 25540 25541 25542 25543 25544 25545 25546 25547 25548 25549 25550 25551 25552 25553 25554 25555 25556 25557 25558 25559 25560 25561 25562 25563 25564 25565 25566 25567 25568 25569 25570 25571 25572 25573 25574 25575 25576 25577 25578 25579 25580 25581 25582 25583 25584 25585 25586 25587 25588 25589 25590 25591 25592 25593 25594 25595 25596 25597 25598 25599 25600 25601 25602 25603 25604 25605 25606 25607 25608 25609 25610 25611 25612 25613 25614 25615 25616 25617 25618 25619 25620 25621 25622 25623 25624 25625 25626 25627 25628 25629 25630 25631 25632 25633 25634 25635 25636 25637 25638 25639 25640 25641 25642 25643 25644 25645 25646 25647 25648 25649 25650 25651 25652 25653 25654 25655 25656 25657 25658 25659 25660 25661 25662 25663 25664 25665 25666 25667 25668 25669 25670 25671 25672 25673 25674 25675 25676 25677 25678 25679 25680 25681 25682 25683 25684 25685 25686 25687 25688 25689 25690 25691 25692 25693 25694 25695 25696 25697 25698 25699 25700 25701 25702 25703 25704 25705 25706 25707 25708 25709 25710 25711 25712 25713 25714 25715 25716 25717 25718 25719 25720 25721 25722 25723 25724 25725 25726 25727 25728 25729 25730 25731 25732 25733 25734 25735 25736 25737 25738 25739 25740 25741 25742 25743 25744 25745 25746 25747 25748 25749 25750 25751 25752 25753 25754 25755 25756 25757 25758 25759 25760 25761 25762 25763 25764 25765 25766 25767 25768 25769 25770 25771 25772 25773 25774 25775 25776 25777 25778 25779 25780 25781 25782 25783 25784 25785 25786 25787 25788 25789 25790 25791 25792 25793 25794 25795 25796 25797 25798 25799 25800 25801 25802 25803 25804 25805 25806 25807 25808 25809 25810 25811 25812 25813 25814 25815 25816 25817 25818 25819 25820 25821 25822 25823 25824 25825 25826 25827 25828 25829 25830 25831 25832 25833 25834 25835 25836 25837 25838 25839 25840 25841 25842 25843 25844 25845 25846 25847 25848 25849 25850 25851 25852 25853 25854 25855 25856 25857 25858 25859 25860 25861 25862 25863 25864 25865 25866 25867 25868 25869 25870 25871 25872 25873 25874 25875 25876 25877 25878 25879 25880 25881 25882 25883 25884 25885 25886 25887 25888 25889 25890 25891 25892 25893 25894 25895 25896 25897 25898 25899 25900 25901 25902 25903 25904 25905 25906 25907 25908 25909 25910 25911 25912 25913 25914 25915 25916 25917 25918 25919 25920 25921 25922 25923 25924 25925 25926 25927 25928 25929 25930 25931 25932 25933 25934 25935 25936 25937 25938 25939 25940 25941 25942 25943 25944 25945 25946 25947 25948 25949 25950 25951 25952 25953 25954 25955 25956 25957 25958 25959 25960 25961 25962 25963 25964 25965 25966 25967 25968 25969 25970 25971 25972 25973 25974 25975 25976 25977 25978 25979 25980 25981 25982 25983 25984 25985 25986 25987 25988 25989 25990 25991 25992 25993 25994 25995 25996 25997 25998 25999 26000 26001 26002 26003 26004 26005 26006 26007 26008 26009 26010 26011 26012 26013 26014 26015 26016 26017 26018 26019 26020 26021 26022 26023 26024 26025 26026 26027 26028 26029 26030 26031 26032 26033 26034 26035 26036 26037 26038 26039 26040 26041 26042 26043 26044 26045 26046 26047 26048 26049 26050 26051 26052 26053 26054 26055 26056 26057 26058 26059 26060 26061 26062 26063 26064 26065 26066 26067 26068 26069 26070 26071 26072 26073 26074 26075 26076 26077 26078 26079 26080 26081 26082 26083 26084 26085 26086 26087 26088 26089 26090 26091 26092 26093 26094 26095 26096 26097 26098 26099 26100 26101 26102 26103 26104 26105 26106 26107 26108 26109 26110 26111 26112 26113 26114 26115 26116 26117 26118 26119 26120 26121 26122 26123 26124 26125 26126 26127 26128 26129 26130 26131 26132 26133 26134 26135 26136 26137 26138 26139 26140 26141 26142 26143 26144 26145 26146 26147 26148 26149 26150 26151 26152 26153 26154 26155 26156 26157 26158 26159 26160 26161 26162 26163 26164 26165 26166 26167 26168 26169 26170 26171 26172 26173 26174 26175 26176 26177 26178 26179 26180 26181 26182 26183 26184 26185 26186 26187 26188 26189 26190 26191 26192 26193 26194 26195 26196 26197 26198 26199 26200 26201 26202 26203 26204 26205 26206 26207 26208 26209 26210 26211 26212 26213 26214 26215 26216 26217 26218 26219 26220 26221 26222 26223 26224 26225 26226 26227 26228 26229 26230 26231 26232 26233 26234 26235 26236 26237 26238 26239 26240 26241 26242 26243 26244 26245 26246 26247 26248 26249 26250 26251 26252 26253 26254 26255 26256 26257 26258 26259 26260 26261 26262 26263 26264 26265 26266 26267 26268 26269 26270 26271 26272 26273 26274 26275 26276 26277 26278 26279 26280 26281 26282 26283 26284 26285 26286 26287 26288 26289 26290 26291 26292 26293 26294 26295 26296 26297 26298 26299 26300 26301 26302 26303 26304 26305 26306 26307 26308 26309 26310 26311 26312 26313 26314 26315 26316 26317 26318 26319 26320 26321 26322 26323 26324 26325 26326 26327 26328 26329 26330 26331 26332 26333 26334 26335 26336 26337 26338 26339 26340 26341 26342 26343 26344 26345 26346 26347 26348 26349 26350 26351 26352 26353 26354 26355 26356 26357 26358 26359 26360 26361 26362 26363 26364 26365 26366 26367 26368 26369 26370 26371 26372 26373 26374 26375 26376 26377 26378 26379 26380 26381 26382 26383 26384 26385 26386 26387 26388 26389 26390 26391 26392 26393 26394 26395 26396 26397 26398 26399 26400 26401 26402 26403 26404 26405 26406 26407 26408 26409 26410 26411 26412 26413 26414 26415 26416 26417 26418 26419 26420 26421 26422 26423 26424 26425 26426 26427 26428 26429 26430 26431 26432 26433 26434 26435 26436 26437 26438 26439 26440 26441 26442 26443 26444 26445 26446 26447 26448 26449 26450 26451 26452 26453 26454 26455 26456 26457 26458 26459 26460 26461 26462 26463 26464 26465 26466 26467 26468 26469 26470 26471 26472 26473 26474 26475 26476 26477 26478 26479 26480 26481 26482 26483 26484 26485 26486 26487 26488 26489 26490 26491 26492 26493 26494 26495 26496 26497 26498 26499 26500 26501 26502 26503 26504 26505 26506 26507 26508 26509 26510 26511 26512 26513 26514 26515 26516 26517 26518 26519 26520 26521 26522 26523 26524 26525 26526 26527 26528 26529 26530 26531 26532 26533 26534 26535 26536 26537 26538 26539 26540 26541 26542 26543 26544 26545 26546 26547 26548 26549 26550 26551 26552 26553 26554 26555 26556 26557 26558 26559 26560 26561 26562 26563 26564 26565 26566 26567 26568 26569 26570 26571 26572 26573 26574 26575 26576 26577 26578 26579 26580 26581 26582 26583 26584 26585 26586 26587 26588 26589 26590 26591 26592 26593 26594 26595 26596 26597 26598 26599 26600 26601 26602 26603 26604 26605 26606 26607 26608 26609 26610 26611 26612 26613 26614 26615 26616 26617 26618 26619 26620 26621 26622 26623 26624 26625 26626 26627 26628 26629 26630 26631 26632 26633 26634 26635 26636 26637 26638 26639 26640 26641 26642 26643 26644 26645 26646 26647 26648 26649 26650 26651 26652 26653 26654 26655 26656 26657 26658 26659 26660 26661 26662 26663 26664 26665 26666 26667 26668 26669 26670 26671 26672 26673 26674 26675 26676 26677 26678 26679 26680 26681 26682 26683 26684 26685 26686 26687 26688 26689 26690 26691 26692 26693 26694 26695 26696 26697 26698 26699 26700 26701 26702 26703 26704 26705 26706 26707 26708 26709 26710 26711 26712 26713 26714 26715 26716 26717 26718 26719 26720 26721 26722 26723 26724 26725 26726 26727 26728 26729 26730 26731 26732 26733 26734 26735 26736 26737 26738 26739 26740 26741 26742 26743 26744 26745 26746 26747 26748 26749 26750 26751 26752 26753 26754 26755 26756 26757 26758 26759 26760 26761 26762 26763 26764 26765 26766 26767 26768 26769 26770 26771 26772 26773 26774 26775 26776 26777 26778 26779 26780 26781 26782 26783 26784 26785 26786 26787 26788 26789 26790 26791 26792 26793 26794 26795 26796 26797 26798 26799 26800 26801 26802 26803 26804 26805 26806 26807 26808 26809 26810 26811 26812 26813 26814 26815 26816 26817 26818 26819 26820 26821 26822 26823 26824 26825 26826 26827 26828 26829 26830 26831 26832 26833 26834 26835 26836 26837 26838 26839 26840 26841 26842 26843 26844 26845 26846 26847 26848 26849 26850 26851 26852 26853 26854 26855 26856 26857 26858 26859 26860 26861 26862 26863 26864 26865 26866 26867 26868 26869 26870 26871 26872 26873 26874 26875 26876 26877 26878 26879 26880 26881 26882 26883 26884 26885 26886 26887 26888 26889 26890 26891 26892 26893 26894 26895 26896 26897 26898 26899 26900 26901 26902 26903 26904 26905 26906 26907 26908 26909 26910 26911 26912 26913 26914 26915 26916 26917 26918 26919 26920 26921 26922 26923 26924 26925 26926 26927 26928 26929 26930 26931 26932 26933 26934 26935 26936 26937 26938 26939 26940 26941 26942 26943 26944 26945 26946 26947 26948 26949 26950 26951 26952 26953 26954 26955 26956 26957 26958 26959 26960 26961 26962 26963 26964 26965 26966 26967 26968 26969 26970 26971 26972 26973 26974 26975 26976 26977 26978 26979 26980 26981 26982 26983 26984 26985 26986 26987 26988 26989 26990 26991 26992 26993 26994 26995 26996 26997 26998 26999 27000 27001 27002 27003 27004 27005 27006 27007 27008 27009 27010 27011 27012 27013 27014 27015 27016 27017 27018 27019 27020 27021 27022 27023 27024 27025 27026 27027 27028 27029 27030 27031 27032 27033 27034 27035 27036 27037 27038 27039 27040 27041 27042 27043 27044 27045 27046 27047 27048 27049 27050 27051 27052 27053 27054 27055 27056 27057 27058 27059 27060 27061 27062 27063 27064 27065 27066 27067 27068 27069 27070 27071 27072 27073 27074 27075 27076 27077 27078 27079 27080 27081 27082 27083 27084 27085 27086 27087 27088 27089 27090 27091 27092 27093 27094 27095 27096 27097 27098 27099 27100 27101 27102 27103 27104 27105 27106 27107 27108 27109 27110 27111 27112 27113 27114 27115 27116 27117 27118 27119 27120 27121 27122 27123 27124 27125 27126 27127 27128 27129 27130 27131 27132 27133 27134 27135 27136 27137 27138 27139 27140 27141 27142 27143 27144 27145 27146 27147 27148 27149 27150 27151 27152 27153 27154 27155 27156 27157 27158 27159 27160 27161 27162 27163 27164 27165 27166 27167 27168 27169 27170 27171 27172 27173 27174 27175 27176 27177 27178 27179 27180 27181 27182 27183 27184 27185 27186 27187 27188 27189 27190 27191 27192 27193 27194 27195 27196 27197 27198 27199 27200 27201 27202 27203 27204 27205 27206 27207 27208 27209 27210 27211 27212 27213 27214 27215 27216 27217 27218 27219 27220 27221 27222 27223 27224 27225 27226 27227 27228 27229 27230 27231 27232 27233 27234 27235 27236 27237 27238 27239 27240 27241 27242 27243 27244 27245 27246 27247 27248 27249 27250 27251 27252 27253 27254 27255 27256 27257 27258 27259 27260 27261 27262 27263 27264 27265 27266 27267 27268 27269 27270 27271 27272 27273 27274 27275 27276 27277 27278 27279 27280 27281 27282 27283 27284 27285 27286 27287 27288 27289 27290 27291 27292 27293 27294 27295 27296 27297 27298 27299 27300 27301 27302 27303 27304 27305 27306 27307 27308 27309 27310 27311 27312 27313 27314 27315 27316 27317 27318 27319 27320 27321 27322 27323 27324 27325 27326 27327 27328 27329 27330 27331 27332 27333 27334 27335 27336 27337 27338 27339 27340 27341 27342 27343 27344 27345 27346 27347 27348 27349 27350 27351 27352 27353 27354 27355 27356 27357 27358 27359 27360 27361 27362 27363 27364 27365 27366 27367 27368 27369 27370 27371 27372 27373 27374 27375 27376 27377 27378 27379 27380 27381 27382 27383 27384 27385 27386 27387 27388 27389 27390 27391 27392 27393 27394 27395 27396 27397 27398 27399 27400 27401 27402 27403 27404 27405 27406 27407 27408 27409 27410 27411 27412 27413 27414 27415 27416 27417 27418 27419 27420 27421 27422 27423 27424 27425 27426 27427 27428 27429 27430 27431 27432 27433 27434 27435 27436 27437 27438 27439 27440 27441 27442 27443 27444 27445 27446 27447 27448 27449 27450 27451 27452 27453 27454 27455 27456 27457 27458 27459 27460 27461 27462 27463 27464 27465 27466 27467 27468 27469 27470 27471 27472 27473 27474 27475 27476 27477 27478 27479 27480 27481 27482 27483 27484 27485 27486 27487 27488 27489 27490 27491 27492 27493 27494 27495 27496 27497 27498 27499 27500 27501 27502 27503 27504 27505 27506 27507 27508 27509 27510 27511 27512 27513 27514 27515 27516 27517 27518 27519 27520 27521 27522 27523 27524 27525 27526 27527 27528 27529 27530 27531 27532 27533 27534 27535 27536 27537 27538 27539 27540 27541 27542 27543 27544 27545 27546 27547 27548 27549 27550 27551 27552 27553 27554 27555 27556 27557 27558 27559 27560 27561 27562 27563 27564 27565 27566 27567 27568 27569 27570 27571 27572 27573 27574 27575 27576 27577 27578 27579 27580 27581 27582 27583 27584 27585 27586 27587 27588 27589 27590 27591 27592 27593 27594 27595 27596 27597 27598 27599 27600 27601 27602 27603 27604 27605 27606 27607 27608 27609 27610 27611 27612 27613 27614 27615 27616 27617 27618 27619 27620 27621 27622 27623 27624 27625 27626 27627 27628 27629 27630 27631 27632 27633 27634 27635 27636 27637 27638 27639 27640 27641 27642 27643 27644 27645 27646 27647 27648 27649 27650 27651 27652 27653 27654 27655 27656 27657 27658 27659 27660 27661 27662 27663 27664 27665 27666 27667 27668 27669 27670 27671 27672 27673 27674 27675 27676 27677 27678 27679 27680 27681 27682 27683 27684 27685 27686 27687 27688 27689 27690 27691 27692 27693 27694 27695 27696 27697 27698 27699 27700 27701 27702 27703 27704 27705 27706 27707 27708 27709 27710 27711 27712 27713 27714 27715 27716 27717 27718 27719 27720 27721 27722 27723 27724 27725 27726 27727 27728 27729 27730 27731 27732 27733 27734 27735 27736 27737 27738 27739 27740 27741 27742 27743 27744 27745 27746 27747 27748 27749 27750 27751 27752 27753 27754 27755 27756 27757 27758 27759 27760 27761 27762 27763 27764 27765 27766 27767 27768 27769 27770 27771 27772 27773 27774 27775 27776 27777 27778 27779 27780 27781 27782 27783 27784 27785 27786 27787 27788 27789 27790 27791 27792 27793 27794 27795 27796 27797 27798 27799 27800 27801 27802 27803 27804 27805 27806 27807 27808 27809 27810 27811 27812 27813 27814 27815 27816 27817 27818 27819 27820 27821 27822 27823 27824 27825 27826 27827 27828 27829 27830 27831 27832 27833 27834 27835 27836 27837 27838 27839 27840 27841 27842 27843 27844 27845 27846 27847 27848 27849 27850 27851 27852 27853 27854 27855 27856 27857 27858 27859 27860 27861 27862 27863 27864 27865 27866 27867 27868 27869 27870 27871 27872 27873 27874 27875 27876 27877 27878 27879 27880 27881 27882 27883 27884 27885 27886 27887 27888 27889 27890 27891 27892 27893 27894 27895 27896 27897 27898 27899 27900 27901 27902 27903 27904 27905 27906 27907 27908 27909 27910 27911 27912 27913 27914 27915 27916 27917 27918 27919 27920 27921 27922 27923 27924 27925 27926 27927 27928 27929 27930 27931 27932 27933 27934 27935 27936 27937 27938 27939 27940 27941 27942 27943 27944 27945 27946 27947 27948 27949 27950 27951 27952 27953 27954 27955 27956 27957 27958 27959 27960 27961 27962 27963 27964 27965 27966 27967 27968 27969 27970 27971 27972 27973 27974 27975 27976 27977 27978 27979 27980 27981 27982 27983 27984 27985 27986 27987 27988 27989 27990 27991 27992 27993 27994 27995 27996 27997 27998 27999 28000 28001 28002 28003 28004 28005 28006 28007 28008 28009 28010 28011 28012 28013 28014 28015 28016 28017 28018 28019 28020 28021 28022 28023 28024 28025 28026 28027 28028 28029 28030 28031 28032 28033 28034 28035 28036 28037 28038 28039 28040 28041 28042 28043 28044 28045 28046 28047 28048 28049 28050 28051 28052 28053 28054 28055 28056 28057 28058 28059 28060 28061 28062 28063 28064 28065 28066 28067 28068 28069 28070 28071 28072 28073 28074 28075 28076 28077 28078 28079 28080 28081 28082 28083 28084 28085 28086 28087 28088 28089 28090 28091 28092 28093 28094 28095 28096 28097 28098 28099 28100 28101 28102 28103 28104 28105 28106 28107 28108 28109 28110 28111 28112 28113 28114 28115 28116 28117 28118 28119 28120 28121 28122 28123 28124 28125 28126 28127 28128 28129 28130 28131 28132 28133 28134 28135 28136 28137 28138 28139 28140 28141 28142 28143 28144 28145 28146 28147 28148 28149 28150 28151 28152 28153 28154 28155 28156 28157 28158 28159 28160 28161 28162 28163 28164 28165 28166 28167 28168 28169 28170 28171 28172 28173 28174 28175 28176 28177 28178 28179 28180 28181 28182 28183 28184 28185 28186 28187 28188 28189 28190 28191 28192 28193 28194 28195 28196 28197 28198 28199 28200 28201 28202 28203 28204 28205 28206 28207 28208 28209 28210 28211 28212 28213 28214 28215 28216 28217 28218 28219 28220 28221 28222 28223 28224 28225 28226 28227 28228 28229 28230 28231 28232 28233 28234 28235 28236 28237 28238 28239 28240 28241 28242 28243 28244 28245 28246 28247 28248 28249 28250 28251 28252 28253 28254 28255 28256 28257 28258 28259 28260 28261 28262 28263 28264 28265 28266 28267 28268 28269 28270 28271 28272 28273 28274 28275 28276 28277 28278 28279 28280 28281 28282 28283 28284 28285 28286 28287 28288 28289 28290 28291 28292 28293 28294 28295 28296 28297 28298 28299 28300 28301 28302 28303 28304 28305 28306 28307 28308 28309 28310 28311 28312 28313 28314 28315 28316 28317 28318 28319 28320 28321 28322 28323 28324 28325 28326 28327 28328 28329 28330 28331 28332 28333 28334 28335 28336 28337 28338 28339 28340 28341 28342 28343 28344 28345 28346 28347 28348 28349 28350 28351 28352 28353 28354 28355 28356 28357 28358 28359 28360 28361 28362 28363 28364 28365 28366 28367 28368 28369 28370 28371 28372 28373 28374 28375 28376 28377 28378 28379 28380 28381 28382 28383 28384 28385 28386 28387 28388 28389 28390 28391 28392 28393 28394 28395 28396 28397 28398 28399 28400 28401 28402 28403 28404 28405 28406 28407 28408 28409 28410 28411 28412 28413 28414 28415 28416 28417 28418 28419 28420 28421 28422 28423 28424 28425 28426 28427 28428 28429 28430 28431 28432 28433 28434 28435 28436 28437 28438 28439 28440 28441 28442 28443 28444 28445 28446 28447 28448 28449 28450 28451 28452 28453 28454 28455 28456 28457 28458 28459 28460 28461 28462 28463 28464 28465 28466 28467 28468 28469 28470 28471 28472 28473 28474 28475 28476 28477 28478 28479 28480 28481 28482 28483 28484 28485 28486 28487 28488 28489 28490 28491 28492 28493 28494 28495 28496 28497 28498 28499 28500 28501 28502 28503 28504 28505 28506 28507 28508 28509 28510 28511 28512 28513 28514 28515 28516 28517 28518 28519 28520 28521 28522 28523 28524 28525 28526 28527 28528 28529 28530 28531 28532 28533 28534 28535 28536 28537 28538 28539 28540 28541 28542 28543 28544 28545 28546 28547 28548 28549 28550 28551 28552 28553 28554 28555 28556 28557 28558 28559 28560 28561 28562 28563 28564 28565 28566 28567 28568 28569 28570 28571 28572 28573 28574 28575 28576 28577 28578 28579 28580 28581 28582 28583 28584 28585 28586 28587 28588 28589 28590 28591 28592 28593 28594 28595 28596 28597 28598 28599 28600 28601 28602 28603 28604 28605 28606 28607 28608 28609 28610 28611 28612 28613 28614 28615 28616 28617 28618 28619 28620 28621 28622 28623 28624 28625 28626 28627 28628 28629 28630 28631 28632 28633 28634 28635 28636 28637 28638 28639 28640 28641 28642 28643 28644 28645 28646 28647 28648 28649 28650 28651 28652 28653 28654 28655 28656 28657 28658 28659 28660 28661 28662 28663 28664 28665 28666 28667 28668 28669 28670 28671 28672 28673 28674 28675 28676 28677 28678 28679 28680 28681 28682 28683 28684 28685 28686 28687 28688 28689 28690 28691 28692 28693 28694 28695 28696 28697 28698 28699 28700 28701 28702 28703 28704 28705 28706 28707 28708 28709 28710 28711 28712 28713 28714 28715 28716 28717 28718 28719 28720 28721 28722 28723 28724 28725 28726 28727 28728 28729 28730 28731 28732 28733 28734 28735 28736 28737 28738 28739 28740 28741 28742 28743 28744 28745 28746 28747 28748 28749 28750 28751 28752 28753 28754 28755 28756 28757 28758 28759 28760 28761 28762 28763 28764 28765 28766 28767 28768 28769 28770 28771 28772 28773 28774 28775 28776 28777 28778 28779 28780 28781 28782 28783 28784 28785 28786 28787 28788 28789 28790 28791 28792 28793 28794 28795 28796 28797 28798 28799 28800 28801 28802 28803 28804 28805 28806 28807 28808 28809 28810 28811 28812 28813 28814 28815 28816 28817 28818 28819 28820 28821 28822 28823 28824 28825 28826 28827 28828 28829 28830 28831 28832 28833 28834 28835 28836 28837 28838 28839 28840 28841 28842 28843 28844 28845 28846 28847 28848 28849 28850 28851 28852 28853 28854 28855 28856 28857 28858 28859 28860 28861 28862 28863 28864 28865 28866 28867 28868 28869 28870 28871 28872 28873 28874 28875 28876 28877 28878 28879 28880 28881 28882 28883 28884 28885 28886 28887 28888 28889 28890 28891 28892 28893 28894 28895 28896 28897 28898 28899 28900 28901 28902 28903 28904 28905 28906 28907 28908 28909 28910 28911 28912 28913 28914 28915 28916 28917 28918 28919 28920 28921 28922 28923 28924 28925 28926 28927 28928 28929 28930 28931 28932 28933 28934 28935 28936 28937 28938 28939 28940 28941 28942 28943 28944 28945 28946 28947 28948 28949 28950 28951 28952 28953 28954 28955 28956 28957 28958 28959 28960 28961 28962 28963 28964 28965 28966 28967 28968 28969 28970 28971 28972 28973 28974 28975 28976 28977 28978 28979 28980 28981 28982 28983 28984 28985 28986 28987 28988 28989 28990 28991 28992 28993 28994 28995 28996 28997 28998 28999 29000 29001 29002 29003 29004 29005 29006 29007 29008 29009 29010 29011 29012 29013 29014 29015 29016 29017 29018 29019 29020 29021 29022 29023 29024 29025 29026 29027 29028 29029 29030 29031 29032 29033 29034 29035 29036 29037 29038 29039 29040 29041 29042 29043 29044 29045 29046 29047 29048 29049 29050 29051 29052 29053 29054 29055 29056 29057 29058 29059 29060 29061 29062 29063 29064 29065 29066 29067 29068 29069 29070 29071 29072 29073 29074 29075 29076 29077 29078 29079 29080 29081 29082 29083 29084 29085 29086 29087 29088 29089 29090 29091 29092 29093 29094 29095 29096 29097 29098 29099 29100 29101 29102 29103 29104 29105 29106 29107 29108 29109 29110 29111 29112 29113 29114 29115 29116 29117 29118 29119 29120 29121 29122 29123 29124 29125 29126 29127 29128 29129 29130 29131 29132 29133 29134 29135 29136 29137 29138 29139 29140 29141 29142 29143 29144 29145 29146 29147 29148 29149 29150 29151 29152 29153 29154 29155 29156 29157 29158 29159 29160 29161 29162 29163 29164 29165 29166 29167 29168 29169 29170 29171 29172 29173 29174 29175 29176 29177 29178 29179 29180 29181 29182 29183 29184 29185 29186 29187 29188 29189 29190 29191 29192 29193 29194 29195 29196 29197 29198 29199 29200 29201 29202 29203 29204 29205 29206 29207 29208 29209 29210 29211 29212 29213 29214 29215 29216 29217 29218 29219 29220 29221 29222 29223 29224 29225 29226 29227 29228 29229 29230 29231 29232 29233 29234 29235 29236 29237 29238 29239 29240 29241 29242 29243 29244 29245 29246 29247 29248 29249 29250 29251 29252 29253 29254 29255 29256 29257 29258 29259 29260 29261 29262 29263 29264 29265 29266 29267 29268 29269 29270 29271 29272 29273 29274 29275 29276 29277 29278 29279 29280 29281 29282 29283 29284 29285 29286 29287 29288 29289 29290 29291 29292 29293 29294 29295 29296 29297 29298 29299 29300 29301 29302 29303 29304 29305 29306 29307 29308 29309 29310 29311 29312 29313 29314 29315 29316 29317 29318 29319 29320 29321 29322 29323 29324 29325 29326 29327 29328 29329 29330 29331 29332 29333 29334 29335 29336 29337 29338 29339 29340 29341 29342 29343 29344 29345 29346 29347 29348 29349 29350 29351 29352 29353 29354 29355 29356 29357 29358 29359 29360 29361 29362 29363 29364 29365 29366 29367 29368 29369 29370 29371 29372 29373 29374 29375 29376 29377 29378 29379 29380 29381 29382 29383 29384 29385 29386 29387 29388 29389 29390 29391 29392 29393 29394 29395 29396 29397 29398 29399 29400 29401 29402 29403 29404 29405 29406 29407 29408 29409 29410 29411 29412 29413 29414 29415 29416 29417 29418 29419 29420 29421 29422 29423 29424 29425 29426 29427 29428 29429 29430 29431 29432 29433 29434 29435 29436 29437 29438 29439 29440 29441 29442 29443 29444 29445 29446 29447 29448 29449 29450 29451 29452 29453 29454 29455 29456 29457 29458 29459 29460 29461 29462 29463 29464 29465 29466 29467 29468 29469 29470 29471 29472 29473 29474 29475 29476 29477 29478 29479 29480 29481 29482 29483 29484 29485 29486 29487 29488 29489 29490 29491 29492 29493 29494 29495 29496 29497 29498 29499 29500 29501 29502 29503 29504 29505 29506 29507 29508 29509 29510 29511 29512 29513 29514 29515 29516 29517 29518 29519 29520 29521 29522 29523 29524 29525 29526 29527 29528 29529 29530 29531 29532 29533 29534 29535 29536 29537 29538 29539 29540 29541 29542 29543 29544 29545 29546 29547 29548 29549 29550 29551 29552 29553 29554 29555 29556 29557 29558 29559 29560 29561 29562 29563 29564 29565 29566 29567 29568 29569 29570 29571 29572 29573 29574 29575 29576 29577 29578 29579 29580 29581 29582 29583 29584 29585 29586 29587 29588 29589 29590 29591 29592 29593 29594 29595 29596 29597 29598 29599 29600 29601 29602 29603 29604 29605 29606 29607 29608 29609 29610 29611 29612 29613 29614 29615 29616 29617 29618 29619 29620 29621 29622 29623 29624 29625 29626 29627 29628 29629 29630 29631 29632 29633 29634 29635 29636 29637 29638 29639 29640 29641 29642 29643 29644 29645 29646 29647 29648 29649 29650 29651 29652 29653 29654 29655 29656 29657 29658 29659 29660 29661 29662 29663 29664 29665 29666 29667 29668 29669 29670 29671 29672 29673 29674 29675 29676 29677 29678 29679 29680 29681 29682 29683 29684 29685 29686 29687 29688 29689 29690 29691 29692 29693 29694 29695 29696 29697 29698 29699 29700 29701 29702 29703 29704 29705 29706 29707 29708 29709 29710 29711 29712 29713 29714 29715 29716 29717 29718 29719 29720 29721 29722 29723 29724 29725 29726 29727 29728 29729 29730 29731 29732 29733 29734 29735 29736 29737 29738 29739 29740 29741 29742 29743 29744 29745 29746 29747 29748 29749 29750 29751 29752 29753 29754 29755 29756 29757 29758 29759 29760 29761 29762 29763 29764 29765 29766 29767 29768 29769 29770 29771 29772 29773 29774 29775 29776 29777 29778 29779 29780 29781 29782 29783 29784 29785 29786 29787 29788 29789 29790 29791 29792 29793 29794 29795 29796 29797 29798 29799 29800 29801 29802 29803 29804 29805 29806 29807 29808 29809 29810 29811 29812 29813 29814 29815 29816 29817 29818 29819 29820 29821 29822 29823 29824 29825 29826 29827 29828 29829 29830 29831 29832 29833 29834 29835 29836 29837 29838 29839 29840 29841 29842 29843 29844 29845 29846 29847 29848 29849 29850 29851 29852 29853 29854 29855 29856 29857 29858 29859 29860 29861 29862 29863 29864 29865 29866 29867 29868 29869 29870 29871 29872 29873 29874 29875 29876 29877 29878 29879 29880 29881 29882 29883 29884 29885 29886 29887 29888 29889 29890 29891 29892 29893 29894 29895 29896 29897 29898 29899 29900 29901 29902 29903 29904 29905 29906 29907 29908 29909 29910 29911 29912 29913 29914 29915 29916 29917 29918 29919 29920 29921 29922 29923 29924 29925 29926 29927 29928 29929 29930 29931 29932 29933 29934 29935 29936 29937 29938 29939 29940 29941 29942 29943 29944 29945 29946 29947 29948 29949 29950 29951 29952 29953 29954 29955 29956 29957 29958 29959 29960 29961 29962 29963 29964 29965 29966 29967 29968 29969 29970 29971 29972 29973 29974 29975 29976 29977 29978 29979 29980 29981 29982 29983 29984 29985 29986 29987 29988 29989 29990 29991 29992 29993 29994 29995 29996 29997 29998 29999 30000 30001 30002 30003 30004 30005 30006 30007 30008 30009 30010 30011 30012 30013 30014 30015 30016 30017 30018 30019 30020 30021 30022 30023 30024 30025 30026 30027 30028 30029 30030 30031 30032 30033 30034 30035 30036 30037 30038 30039 30040 30041 30042 30043 30044 30045 30046 30047 30048 30049 30050 30051 30052 30053 30054 30055 30056 30057 30058 30059 30060 30061 30062 30063 30064 30065 30066 30067 30068 30069 30070 30071 30072 30073 30074 30075 30076 30077 30078 30079 30080 30081 30082 30083 30084 30085 30086 30087 30088 30089 30090 30091 30092 30093 30094 30095 30096 30097 30098 30099 30100 30101 30102 30103 30104 30105 30106 30107 30108 30109 30110 30111 30112 30113 30114 30115 30116 30117 30118 30119 30120 30121 30122 30123 30124 30125 30126 30127 30128 30129 30130 30131 30132 30133 30134 30135 30136 30137 30138 30139 30140 30141 30142 30143 30144 30145 30146 30147 30148 30149 30150 30151 30152 30153 30154 30155 30156 30157 30158 30159 30160 30161 30162 30163 30164 30165 30166 30167 30168 30169 30170 30171 30172 30173 30174 30175 30176 30177 30178 30179 30180 30181 30182 30183 30184 30185 30186 30187 30188 30189 30190 30191 30192 30193 30194 30195 30196 30197 30198 30199 30200 30201 30202 30203 30204 30205 30206 30207 30208 30209 30210 30211 30212 30213 30214 30215 30216 30217 30218 30219 30220 30221 30222 30223 30224 30225 30226 30227 30228 30229 30230 30231 30232 30233 30234 30235 30236 30237 30238 30239 30240 30241 30242 30243 30244 30245 30246 30247 30248 30249 30250 30251 30252 30253 30254 30255 30256 30257 30258 30259 30260 30261 30262 30263 30264 30265 30266 30267 30268 30269 30270 30271 30272 30273 30274 30275 30276 30277 30278 30279 30280 30281 30282 30283 30284 30285 30286 30287 30288 30289 30290 30291 30292 30293 30294 30295 30296 30297 30298 30299 30300 30301 30302 30303 30304 30305 30306 30307 30308 30309 30310 30311 30312 30313 30314 30315 30316 30317 30318 30319 30320 30321 30322 30323 30324 30325 30326 30327 30328 30329 30330 30331 30332 30333 30334 30335 30336 30337 30338 30339 30340 30341 30342 30343 30344 30345 30346 30347 30348 30349 30350 30351 30352 30353 30354 30355 30356 30357 30358 30359 30360 30361 30362 30363 30364 30365 30366 30367 30368 30369 30370 30371 30372 30373 30374 30375 30376 30377 30378 30379 30380 30381 30382 30383 30384 30385 30386 30387 30388 30389 30390 30391 30392 30393 30394 30395 30396 30397 30398 30399 30400 30401 30402 30403 30404 30405 30406 30407 30408 30409 30410 30411 30412 30413 30414 30415 30416 30417 30418 30419 30420 30421 30422 30423 30424 30425 30426 30427 30428 30429 30430 30431 30432 30433 30434 30435 30436 30437 30438 30439 30440 30441 30442 30443 30444 30445 30446 30447 30448 30449 30450 30451 30452 30453 30454 30455 30456 30457 30458 30459 30460 30461 30462 30463 30464 30465 30466 30467 30468 30469 30470 30471 30472 30473 30474 30475 30476 30477 30478 30479 30480 30481 30482 30483 30484 30485 30486 30487 30488 30489 30490 30491 30492 30493 30494 30495 30496 30497 30498 30499 30500 30501 30502 30503 30504 30505 30506 30507 30508 30509 30510 30511 30512 30513 30514 30515 30516 30517 30518 30519 30520 30521 30522 30523 30524 30525 30526 30527 30528 30529 30530 30531 30532 30533 30534 30535 30536 30537 30538 30539 30540 30541 30542 30543 30544 30545 30546 30547 30548 30549 30550 30551 30552 30553 30554 30555 30556 30557 30558 30559 30560 30561 30562 30563 30564 30565 30566 30567 30568 30569 30570 30571 30572 30573 30574 30575 30576 30577 30578 30579 30580 30581 30582 30583 30584 30585 30586 30587 30588 30589 30590 30591 30592 30593 30594 30595 30596 30597 30598 30599 30600 30601 30602 30603 30604 30605 30606 30607 30608 30609 30610 30611 30612 30613 30614 30615 30616 30617 30618 30619 30620 30621 30622 30623 30624 30625 30626 30627 30628 30629 30630 30631 30632 30633 30634 30635 30636 30637 30638 30639 30640 30641 30642 30643 30644 30645 30646 30647 30648 30649 30650 30651 30652 30653 30654 30655 30656 30657 30658 30659 30660 30661 30662 30663 30664 30665 30666 30667 30668 30669 30670 30671 30672 30673 30674 30675 30676 30677 30678 30679 30680 30681 30682 30683 30684 30685 30686 30687 30688 30689 30690 30691 30692 30693 30694 30695 30696 30697 30698 30699 30700 30701 30702 30703 30704 30705 30706 30707 30708 30709 30710 30711 30712 30713 30714 30715 30716 30717 30718 30719 30720 30721 30722 30723 30724 30725 30726 30727 30728 30729 30730 30731 30732 30733 30734 30735 30736 30737 30738 30739 30740 30741 30742 30743 30744 30745 30746 30747 30748 30749 30750 30751 30752 30753 30754 30755 30756 30757 30758 30759 30760 30761 30762 30763 30764 30765 30766 30767 30768 30769 30770 30771 30772 30773 30774 30775 30776 30777 30778 30779 30780 30781 30782 30783 30784 30785 30786 30787 30788 30789 30790 30791 30792 30793 30794 30795 30796 30797 30798 30799 30800 30801 30802 30803 30804 30805 30806 30807 30808 30809 30810 30811 30812 30813 30814 30815 30816 30817 30818 30819 30820 30821 30822 30823 30824 30825 30826 30827 30828 30829 30830 30831 30832 30833 30834 30835 30836 30837 30838 30839 30840 30841 30842 30843 30844 30845 30846 30847 30848 30849 30850 30851 30852 30853 30854 30855 30856 30857 30858 30859 30860 30861 30862 30863 30864 30865 30866 30867 30868 30869 30870 30871 30872 30873 30874 30875 30876 30877 30878 30879 30880 30881 30882 30883 30884 30885 30886 30887 30888 30889 30890 30891 30892 30893 30894 30895 30896 30897 30898 30899 30900 30901 30902 30903 30904 30905 30906 30907 30908 30909 30910 30911 30912 30913 30914 30915 30916 30917 30918 30919 30920 30921 30922 30923 30924 30925 30926 30927 30928 30929 30930 30931 30932 30933 30934 30935 30936 30937 30938 30939 30940 30941 30942 30943 30944 30945 30946 30947 30948 30949 30950 30951 30952 30953 30954 30955 30956 30957 30958 30959 30960 30961 30962 30963 30964 30965 30966 30967 30968 30969 30970 30971 30972 30973 30974 30975 30976 30977 30978 30979 30980 30981 30982 30983 30984 30985 30986 30987 30988 30989 30990 30991 30992 30993 30994 30995 30996 30997 30998 30999 31000 31001 31002 31003 31004 31005 31006 31007 31008 31009 31010 31011 31012 31013 31014 31015 31016 31017 31018 31019 31020 31021 31022 31023 31024 31025 31026 31027 31028 31029 31030 31031 31032 31033 31034 31035 31036 31037 31038 31039 31040 31041 31042 31043 31044 31045 31046 31047 31048 31049 31050 31051 31052 31053 31054 31055 31056 31057 31058 31059 31060 31061 31062 31063 31064 31065 31066 31067 31068 31069 31070 31071 31072 31073 31074 31075 31076 31077 31078 31079 31080 31081 31082 31083 31084 31085 31086 31087 31088 31089 31090 31091 31092 31093 31094 31095 31096 31097 31098 31099 31100 31101 31102 31103 31104 31105 31106 31107 31108 31109 31110 31111 31112 31113 31114 31115 31116 31117 31118 31119 31120 31121 31122 31123 31124 31125 31126 31127 31128 31129 31130 31131 31132 31133 31134 31135 31136 31137 31138 31139 31140 31141 31142 31143 31144 31145 31146 31147 31148 31149 31150 31151 31152 31153 31154 31155 31156 31157 31158 31159 31160 31161 31162 31163 31164 31165 31166 31167 31168 31169 31170 31171 31172 31173 31174 31175 31176 31177 31178 31179 31180 31181 31182 31183 31184 31185 31186 31187 31188 31189 31190 31191 31192 31193 31194 31195 31196 31197 31198 31199 31200 31201 31202 31203 31204 31205 31206 31207 31208 31209 31210 31211 31212 31213 31214 31215 31216 31217 31218 31219 31220 31221 31222 31223 31224 31225 31226 31227 31228 31229 31230 31231 31232 31233 31234 31235 31236 31237 31238 31239 31240 31241 31242 31243 31244 31245 31246 31247 31248 31249 31250 31251 31252 31253 31254 31255 31256 31257 31258 31259 31260 31261 31262 31263 31264 31265 31266 31267 31268 31269 31270 31271 31272 31273 31274 31275 31276 31277 31278 31279 31280 31281 31282 31283 31284 31285 31286 31287 31288 31289 31290 31291 31292 31293 31294 31295 31296 31297 31298 31299 31300 31301 31302 31303 31304 31305 31306 31307 31308 31309 31310 31311 31312 31313 31314 31315 31316 31317 31318 31319 31320 31321 31322 31323 31324 31325 31326 31327 31328 31329 31330 31331 31332 31333 31334 31335 31336 31337 31338 31339 31340 31341 31342 31343 31344 31345 31346 31347 31348 31349 31350 31351 31352 31353 31354 31355 31356 31357 31358 31359 31360 31361 31362 31363 31364 31365 31366 31367 31368 31369 31370 31371 31372 31373 31374 31375 31376 31377 31378 31379 31380 31381 31382 31383 31384 31385 31386 31387 31388 31389 31390 31391 31392 31393 31394 31395 31396 31397 31398 31399 31400 31401 31402 31403 31404 31405 31406 31407 31408 31409 31410 31411 31412 31413 31414 31415 31416 31417 31418 31419 31420 31421 31422 31423 31424 31425 31426 31427 31428 31429 31430 31431 31432 31433 31434 31435 31436 31437 31438 31439 31440 31441 31442 31443 31444 31445 31446 31447 31448 31449 31450 31451 31452 31453 31454 31455 31456 31457 31458 31459 31460 31461 31462 31463 31464 31465 31466 31467 31468 31469 31470 31471 31472 31473 31474 31475 31476 31477 31478 31479 31480 31481 31482 31483 31484 31485 31486 31487 31488 31489 31490 31491 31492 31493 31494 31495 31496 31497 31498 31499 31500 31501 31502 31503 31504 31505 31506 31507 31508 31509 31510 31511 31512 31513 31514 31515 31516 31517 31518 31519 31520 31521 31522 31523 31524 31525 31526 31527 31528 31529 31530 31531 31532 31533 31534 31535 31536 31537 31538 31539 31540 31541 31542 31543 31544 31545 31546 31547 31548 31549 31550 31551 31552 31553 31554 31555 31556 31557 31558 31559 31560 31561 31562 31563 31564 31565 31566 31567 31568 31569 31570 31571 31572 31573 31574 31575 31576 31577 31578 31579 31580 31581 31582 31583 31584 31585 31586 31587 31588 31589 31590 31591 31592 31593 31594 31595 31596 31597 31598 31599 31600 31601 31602 31603 31604 31605 31606 31607 31608 31609 31610 31611 31612 31613 31614 31615 31616 31617 31618 31619 31620 31621 31622 31623 31624 31625 31626 31627 31628 31629 31630 31631 31632 31633 31634 31635 31636 31637 31638 31639 31640 31641 31642 31643 31644 31645 31646 31647 31648 31649 31650 31651 31652 31653 31654 31655 31656 31657 31658 31659 31660 31661 31662 31663 31664 31665 31666 31667 31668 31669 31670 31671 31672 31673 31674 31675 31676 31677 31678 31679 31680 31681 31682 31683 31684 31685 31686 31687 31688 31689 31690 31691 31692 31693 31694 31695 31696 31697 31698 31699 31700 31701 31702 31703 31704 31705 31706 31707 31708 31709 31710 31711 31712 31713 31714 31715 31716 31717 31718 31719 31720 31721 31722 31723 31724 31725 31726 31727 31728 31729 31730 31731 31732 31733 31734 31735 31736 31737 31738 31739 31740 31741 31742 31743 31744 31745 31746 31747 31748 31749 31750 31751 31752 31753 31754 31755 31756 31757 31758 31759 31760 31761 31762 31763 31764 31765 31766 31767 31768 31769 31770 31771 31772 31773 31774 31775 31776 31777 31778 31779 31780 31781 31782 31783 31784 31785 31786 31787 31788 31789 31790 31791 31792 31793 31794 31795 31796 31797 31798 31799 31800 31801 31802 31803 31804 31805 31806 31807 31808 31809 31810 31811 31812 31813 31814 31815 31816 31817 31818 31819 31820 31821 31822 31823 31824 31825 31826 31827 31828 31829 31830 31831 31832 31833 31834 31835 31836 31837 31838 31839 31840 31841 31842 31843 31844 31845 31846 31847 31848 31849 31850 31851 31852 31853 31854 31855 31856 31857 31858 31859 31860 31861 31862 31863 31864 31865 31866 31867 31868 31869 31870 31871 31872 31873 31874 31875 31876 31877 31878 31879 31880 31881 31882 31883 31884 31885 31886 31887 31888 31889 31890 31891 31892 31893 31894 31895 31896 31897 
</DataArray>
<DataArray type="UInt32" Name="offsets" format="ascii">
3 6 9 12 15 17 20 23 26 29 32 35 38 40 43 46 49 52 54 57 60 62 65 68 71 74 76 79 82 85 88 90 93 96 99 102 105 108 111 114 117 120 123 126 129 131 134 137 139 142 145 148 151 154 156 159 162 165 168 171 174 177 179 182 185 188 191 193 196 199 202 205 208 211 214 217 220 222 225 228 230 233 236 238 241 244 247 250 252 255 258 261 264 267 270 273 275 277 279 282 285 287 290 293 296 299 302 304 307 310 313 316 319 322 325 328 331 334 337 340 343 345 348 351 354 356 359 362 365 368 371 374 376 379 382 385 388 391 394 397 400 403 406 409 412 415 418 421 424 427 430 433 436 439 442 445 448 451 453 456 459 462 464 467 470 472 475 478 481 484 487 490 493 496 499 502 505 507 510 513 516 519 522 525 528 531 533 536 539 542 545 548 551 554 557 559 562 565 568 571 574 577 580 583 586 588 591 594 597 600 603 606 609 612 615 618 621 624 627 630 633 636 639 642 645 648 651 654 657 659 662 665 668 670 673 675 678 680 683 686 688 691 694 697 699 702 704 707 709 712 714 716 719 721 724 727 729 732 734 737 740 743 745 748 750 752 755 758 760 763 766 769 771 774 776 778 780 783 785 788 791 794 796 799 801 803 805 808 811 813 815 818 821 824 827 829 832 834 837 840 842 845 848 851 853 856 858 860 862 865 868 871 873 876 878 880 882 884 887 890 893 895 897 900 903 905 907 909 912 914 917 920 923 926 928 931 934 937 940 943 946 949 951 954 957 960 963 966 969 971 973 976 979 982 984 987 990 993 995 998 1000 1003 1005 1007 1010 1013 1016 1019 1021 1024 1027 1029 1032 1035 1038 1041 1043 1046 1048 1051 1054 1057 1060 1063 1065 1067 1070 1073 1076 1079 1082 1085 1088 1091 1093 1096 1099 1102 1104 1107 1110 1112 1115 1117 1120 1123 1126 1129 1132 1135 1138 1141 1144 1147 1150 1152 1155 1157 1160 1162 1165 1168 1171 1173 1176 1178 1181 1183 1186 1189 1192 1195 1198 1201 1203 1206 1208 1211 1214 1217 1219 1222 1225 1228 1230 1233 1235 1237 1240 1243 1246 1249 1251 1254 1257 1260 1263 1265 1267 1270 1273 1275 1278 1280 1283 1285 1287 1290 1293 1296 1298 1301 1304 1307 1310 1312 1315 1318 1321 1324 1327 1330 1333 1336 1339 1342 1345 1347 1350 1353 1356 1359 1361 1364 1367 1370 1372 1375 1377 1379 1381 1384 1387 1390 1392 1394 1397 1399 1402 1405 1407 1410 1413 1416 1419 1421 1424 1427 1430 1433 1436 1439 1442 1445 1448 1451 1454 1456 1458 1461 1464 1466 1469 1472 1475 1477 1480 1483 1486 1489 1492 1495 1497 1500 1503 1506 1508 1511 1514 1517 1519 1522 1525 1528 1531 1534 1537 1540 1543 1546 1549 1552 1554 1557 1560 1563 1565 1568 1571 1574 1577 1580 1583 1586 1588 1591 1594 1597 1600 1603 1605 1608 1611 1614 1617 1620 1623 1626 1629 1632 1635 1638 1641 1644 1647 1650 1653 1656 1659 1662 1664 1667 1670 1673 1676 1678 1681 1684 1686 1689 1692 1695 1698 1701 1704 1707 1709 1712 1715 1718 1721 1724 1727 1730 1733 1735 1738 1740 1743 1746 1748 1751 1754 1757 1759 1762 1765 1767 1770 1773 1776 1778 1781 1783 1786 1789 1791 1794 1796 1799 1802 1805 1808 1811 1814 1817 1820 1823 1826 1829 1832 1835 1838 1841 1844 1847 1850 1853 1856 1859 1862 1864 1867 1869 1872 1874 1877 1880 1883 1886 1889 1892 1895 1898 1901 1904 1907 1910 1913 1916 1919 1921 1924 1927 1930 1933 1936 1939 1942 1945 1948 1950 1953 1956 1959 1962 1965 1968 1971 1974 1977 1980 1983 1986 1989 1992 1995 1998 2001 2004 2007 2010 2013 2016 2019 2022 2025 2028 2031 2034 2037 2039 2042 2045 2047 2050 2053 2056 2058 2060 2063 2065 2068 2071 2074 2077 2080 2082 2085 2088 2091 2094 2097 2099 2102 2105 2108 2111 2114 2117 2120 2123 2126 2129 2132 2135 2138 2141 2144 2147 2150 2153 2156 2159 2162 2165 2168 2171 2174 2177 2180 2183 2186 2189 2192 2195 2198 2201 2204 2207 2210 2213 2216 2219 2222 2225 2228 2231 2234 2237 2240 2243 2246 2248 2251 2254 2257 2260 2263 2266 2269 2272 2275 2278 2281 2284 2287 2290 2293 2295 2298 2301 2304 2307 2309 2312 2315 2318 2321 2324 2327 2330 2333 2336 2339 2342 2345 2348 2351 2354 2357 2360 2363 2366 2369 2372 2375 2378 2381 2384 2387 2390 2392 2395 2398 2400 2403 2405 2407 2409 2411 2414 2417 2419 2422 2425 2428 2431 2434 2437 2440 2443 2446 2449 2452 2455 2458 2461 2464 2467 2470 2472 2475 2478 2480 2483 2485 2488 2491 2494 2497 2499 2502 2504 2507 2510 2513 2516 2518 2521 2524 2527 2529 2532 2535 2538 2541 2544 2546 2549 2551 2554 2557 2559 2561 2564 2566 2569 2572 2575 2578 2581 2584 2587 2590 2593 2596 2599 2601 2604 2607 2610 2612 2615 2618 2621 2623 2626 2629 2631 2633 2635 2638 2641 2644 2647 2650 2653 2656 2659 2662 2665 2668 2670 2673 2676 2679 2682 2685 2688 2691 2694 2696 2698 2700 2703 2706 2709 2712 2715 2718 2721 2724 2726 2728 2731 2734 2737 2739 2742 2745 2747 2750 2753 2756 2759 2762 2765 2768 2771 2774 2777 2780 2782 2785 2788 2791 2794 2797 2800 2803 2806 2808 2811 2814 2817 2820 2823 2826 2829 2832 2835 2838 2840 2843 2845 2847 2849 2852 2855 2858 2861 2864 2867 2870 2872 2874 2877 2879 2882 2885 2888 2891 2894 2896 2899 2901 2903 2906 2909 2912 2914 2917 2919 2922 2925 2928 2931 2933 2936 2939 2942 2945 2948 2951 2954 2957 2960 2963 2966 2969 2972 2975 2978 2981 2984 2986 2989 2992 2995 2997 3000 3003 3006 3009 3012 3014 3017 3020 3023 3026 3029 3032 3034 3037 3039 3042 3045 3048 3051 3054 3057 3060 3063 3065 3068 3071 3074 3076 3079 3082 3085 3088 3091 3094 3097 3100 3103 3106 3109 3112 3115 3118 3121 3124 3127 3130 3133 3136 3139 3142 3145 3148 3151 3153 3155 3157 3160 3163 3166 3169 3171 3174 3177 3180 3183 3185 3188 3191 3194 3197 3200 3203 3206 3208 3211 3214 3217 3220 3223 3226 3229 3232 3234 3237 3240 3243 3246 3249 3252 3255 3258 3261 3264 3267 3270 3272 3275 3278 3281 3284 3287 3290 3292 3295 3298 3301 3304 3307 3310 3313 3316 3318 3321 3324 3327 3329 3332 3335 3338 3341 3344 3347 3350 3353 3356 3359 3362 3365 3367 3370 3373 3376 3379 3382 3385 3388 3391 3394 3397 3400 3403 3406 3409 3412 3415 3418 3421 3424 3427 3430 3433 3436 3439 3442 3445 3448 3451 3454 3457 3460 3463 3466 3469 3472 3475 3478 3481 3484 3487 3490 3493 3496 3499 3502 3505 3508 3510 3513 3516 3519 3522 3525 3528 3531 3534 3537 3540 3543 3546 3549 3552 3555 3558 3561 3564 3567 3570 3573 3576 3579 3582 3584 3587 3590 3593 3596 3599 3602 3605 3608 3611 3614 3616 3619 3622 3624 3627 3630 3633 3636 3639 3642 3645 3648 3651 3653 3656 3658 3661 3664 3667 3670 3672 3675 3678 3680 3683 3685 3688 3691 3694 3697 3700 3702 3705 3708 3711 3714 3717 3720 3723 3726 3728 3731 3734 3737 3740 3743 3746 3749 3752 3755 3758 3761 3764 3767 3770 3772 3775 3777 3779 3782 3785 3788 3791 3794 3796 3799 3802 3805 3808 3811 3814 3817 3820 3823 3826 3829 3832 3835 3838 3841 3843 3846 3849 3852 3855 3858 3861 3864 3867 3870 3873 3876 3879 3882 3885 3888 3891 3893 3896 3899 3902 3905 3908 3910 3912 3915 3918 3920 3923 3926 3929 3932 3935 3938 3941 3944 3947 3950 3952 3955 3958 3961 3964 3967 3970 3973 3976 3979 3981 3984 3986 3989 3992 3995 3998 4001 4003 4006 4009 4012 4015 4017 4020 4023 4026 4028 4031 4034 4037 4039 4042 4045 4047 4050 4053 4056 4059 4062 4065 4068 4071 4074 4077 4080 4083 4086 4089 4092 4095 4097 4100 4103 4106 4109 4112 4115 4118 4120 4123 4126 4129 4132 4135 4138 4141 4144 4147 4150 4153 4156 4159 4162 4165 4168 4171 4174 4177 4180 4183 4186 4189 4192 4195 4198 4201 4203 4206 4209 4212 4215 4217 4220 4223 4226 4228 4231 4234 4237 4240 4243 4246 4249 4252 4255 4257 4260 4262 4265 4268 4271 4274 4277 4280 4283 4286 4289 4292 4295 4298 4301 4304 4307 4310 4313 4316 4318 4320 4323 4326 4329 4331 4334 4337 4339 4342 4345 4347 4350 4353 4356 4358 4361 4364 4366 4369 4372 4375 4378 4381 4384 4387 4390 4393 4396 4399 4402 4405 4408 4411 4414 4417 4420 4423 4426 4428 4431 4433 4436 4439 4442 4445 4448 4451 4454 4457 4460 4463 4466 4468 4471 4473 4476 4479 4482 4484 4487 4490 4493 4496 4499 4501 4504 4507 4510 4513 4516 4519 4521 4524 4527 4530 4533 4536 4539 4542 4545 4548 4551 4554 4556 4559 4562 4565 4568 4571 4574 4577 4580 4582 4585 4588 4591 4593 4596 4599 4601 4604 4607 4610 4613 4616 4618 4621 4624 4627 4630 4633 4636 4639 4642 4645 4647 4650 4653 4655 4658 4660 4663 4665 4667 4669 4672 4674 4677 4680 4683 4686 4689 4692 4694 4697 4700 4703 4706 4709 4712 4714 4717 4720 4723 4726 4729 4732 4735 4737 4740 4743 4746 4749 4751 4754 4757 4760 4763 4766 4768 4771 4773 4776 4779 4782 4785 4788 4791 4794 4797 4800 4803 4805 4808 4811 4814 4817 4820 4823 4826 4828 4831 4834 4837 4840 4843 4846 4849 4851 4854 4856 4859 4862 4865 4868 4871 4874 4877 4880 4882 4885 4888 4891 4893 4895 4898 4901 4904 4907 4910 4912 4914 4917 4919 4922 4925 4927 4930 4933 4935 4938 4941 4944 4947 4950 4953 4956 4959 4961 4964 4967 4970 4973 4976 4978 4981 4984 4987 4990 4992 4995 4998 5000 5003 5006 5009 5012 5015 5018 5021 5024 5027 5030 5033 5036 5039 5042 5045 5048 5051 5054 5057 5060 5063 5066 5069 5072 5075 5078 5081 5084 5087 5090 5093 5096 5099 5102 5105 5108 5111 5114 5117 5120 5123 5125 5128 5131 5133 5136 5139 5142 5145 5148 5150 5153 5156 5159 5162 5164 5167 5170 5173 5176 5179 5182 5185 5188 5191 5194 5197 5200 5203 5206 5209 5212 5215 5218 5221 5224 5227 5230 5233 5236 5238 5241 5244 5247 5249 5252 5255 5258 5261 5264 5267 5269 5272 5275 5278 5281 5284 5287 5290 5293 5296 5299 5302 5304 5307 5309 5311 5314 5317 5319 5322 5325 5328 5331 5334 5337 5340 5343 5346 5349 5352 5354 5357 5360 5362 5365 5368 5371 5374 5377 5380 5383 5386 5389 5392 5395 5398 5401 5404 5407 5409 5412 5415 5418 5421 5424 5427 5430 5432 5435 5437 5440 5443 5446 5449 5451 5454 5456 5459 5462 5465 5468 5471 5474 5477 5480 5483 5485 5488 5491 5494 5497 5500 5503 5506 5509 5512 5515 5518 5521 5524 5527 5530 5533 5536 5538 5541 5544 5547 5550 5553 5556 5559 5562 5565 5568 5571 5574 5577 5580 5583 5586 5589 5592 5595 5598 5601 5604 5607 5610 5613 5615 5617 5620 5623 5626 5629 5632 5635 5638 5641 5644 5647 5650 5652 5655 5658 5661 5664 5666 5669 5672 5675 5678 5680 5683 5686 5689 5692 5695 5698 5701 5704 5706 5709 5712 5715 5718 5721 5724 5727 5730 5733 5735 5738 5741 5744 5747 5750 5753 5756 5759 5762 5765 5768 5771 5774 5777 5780 5783 5786 5789 5792 5795 5797 5800 5803 5806 5809 5812 5815 5818 5821 5824 5827 5830 5833 5836 5839 5841 5844 5846 5849 5852 5855 5858 5861 5864 5867 5870 5872 5875 5878 5880 5883 5886 5889 5892 5895 5898 5901 5904 5907 5910 5913 5916 5919 5922 5925 5928 5931 5934 5937 5940 5943 5946 5949 5952 5955 5958 5961 5964 5967 5970 5973 5976 5979 5982 5985 5988 5990 5993 5996 5998 6001 6004 6007 6010 6012 6015 6017 6020 6023 6025 6028 6030 6033 6036 6039 6042 6045 6047 6050 6053 6056 6059 6062 6065 6068 6071 6074 6077 6080 6083 6085 6088 6091 6094 6096 6099 6102 6105 6108 6111 6114 6117 6120 6123 6125 6128 6131 6134 6137 6139 6141 6144 6147 6150 6153 6156 6159 6162 6165 6167 6170 6173 6176 6179 6182 6184 6187 6190 6193 6195 6198 6201 6204 6206 6209 6212 6215 6218 6220 6223 6226 6229 6232 6235 6238 6241 6244 6247 6250 6253 6256 6259 6262 6264 6267 6270 6273 6276 6279 6282 6284 6287 6289 6291 6294 6296 6299 6301 6304 6307 6310 6313 6315 6318 6321 6324 6327 6329 6332 6335 6338 6341 6344 6347 6350 6353 6356 6358 6361 6364 6367 6370 6373 6376 6379 6382 6385 6388 6391 6394 6397 6400 6402 6405 6408 6411 6413 6416 6419 6422 6424 6427 6429 6432 6435 6438 6441 6444 6447 6450 6453 6456 6459 6462 6465 6468 6471 6474 6477 6479 6482 6485 6488 6491 6494 6497 6499 6502 6505 6508 6511 6514 6517 6520 6523 6526 6529 6532 6535 6538 6541 6544 6547 6550 6553 6555 6558 6561 6564 6567 6570 6573 6576 6579 6582 6585 6588 6591 6594 6597 6600 6603 6606 6609 6612 6615 6618 6621 6624 6627 6630 6633 6636 6639 6642 6645 6648 6651 6654 6657 6659 6662 6665 6668 6671 6673 6676 6679 6682 6685 6688 6691 6694 6696 6699 6702 6705 6708 6711 6714 6717 6720 6723 6725 6728 6731 6733 6736 6739 6742 6745 6748 6750 6753 6756 6759 6761 6764 6767 6769 6772 6775 6778 6781 6784 6787 6790 6793 6796 6799 6802 6805 6808 6811 6814 6817 6820 6823 6826 6829 6831 6834 6837 6840 6843 6846 6849 6852 6855 6858 6861 6863 6865 6868 6870 6873 6876 6879 6882 6885 6887 6890 6893 6896 6899 6901 6904 6907 6910 6913 6916 6918 6921 6923 6926 6929 6931 6934 6937 6940 6943 6946 6949 6952 6955 6957 6960 6963 6966 6969 6972 6975 6977 6980 6983 6986 6989 6992 6995 6997 7000 7003 7006 7009 7011 7014 7017 7019 7022 7024 7027 7030 7032 7035 7038 7041 7044 7047 7050 7052 7055 7058 7061 7064 7066 7069 7072 7075 7078 7081 7084 7087 7090 7092 7094 7097 7100 7103 7106 7109 7112 7115 7118 7120 7123 7126 7129 7132 7135 7138 7140 7143 7146 7149 7152 7155 7158 7161 7163 7166 7169 7172 7174 7177 7180 7183 7186 7189 7192 7195 7198 7201 7204 7207 7210 7212 7215 7218 7221 7224 7226 7229 7232 7234 7237 7240 7243 7246 7248 7251 7254 7257 7259 7261 7264 7267 7270 7272 7275 7278 7281 7283 7286 7289 7292 7295 7298 7301 7304 7307 7310 7312 7315 7318 7321 7323 7326 7329 7332 7335 7338 7341 7344 7347 7350 7353 7356 7359 7361 7364 7366 7369 7372 7374 7377 7380 7382 7385 7388 7391 7394 7397 7400 7403 7405 7408 7411 7414 7417 7420 7422 7425 7427 7430 7433 7436 7438 7440 7443 7445 7447 7450 7452 7455 7458 7461 7464 7467 7470 7472 7475 7477 7480 7483 7486 7489 7492 7495 7498 7501 7504 7507 7510 7513 7516 7518 7521 7524 7526 7529 7531 7534 7537 7539 7542 7545 7548 7550 7552 7555 7558 7560 7563 7566 7569 7572 7575 7578 7581 7584 7587 7590 7593 7596 7599 7602 7605 7608 7611 7614 7617 7620 7623 7626 7629 7631 7633 7636 7638 7641 7643 7646 7649 7651 7653 7656 7659 7661 7664 7667 7669 7672 7675 7677 7680 7682 7685 7688 7691 7694 7696 7699 7702 7705 7708 7710 7713 7715 7717 7720 7722 7725 7728 7730 7732 7735 7738 7741 7743 7746 7749 7752 7755 7757 7759 7762 7765 7768 7771 7774 7776 7779 7782 7785 7788 7791 7794 7797 7800 7803 7806 7809 7811 7814 7816 7819 7821 7824 7827 7829 7832 7834 7837 7840 7843 7846 7849 7852 7855 7858 7860 7863 7866 7868 7871 7874 7877 7880 7882 7885 7888 7891 7894 7897 7900 7903 7906 7909 7912 7915 7918 7920 7923 7926 7929 7932 7935 7938 7941 7944 7947 7950 7953 7955 7958 7961 7964 7967 7970 7973 7975 7978 7980 7983 7986 7988 7991 7994 7997 8000 8003 8006 8009 8012 8015 8018 8021 8024 8027 8030 8033 8036 8039 8041 8043 8046 8049 8052 8054 8057 8060 8062 8065 8068 8071 8074 8077 8080 8083 8086 8089 8092 8095 8098 8101 8104 8107 8110 8113 8116 8119 8122 8125 8128 8131 8134 8137 8139 8141 8144 8147 8150 8153 8156 8159 8162 8165 8168 8171 8174 8176 8179 8182 8185 8188 8191 8194 8197 8200 8203 8206 8209 8212 8215 8218 8221 8224 8227 8230 8233 8236 8239 8242 8245 8248 8251 8254 8257 8260 8263 8266 8269 8272 8275 8277 8280 8283 8286 8289 8292 8294 8297 8300 8302 8305 8308 8310 8312 8315 8318 8321 8324 8327 8330 8333 8336 8339 8342 8345 8348 8351 8353 8356 8359 8361 8364 8367 8370 8373 8376 8379 8381 8384 8387 8389 8392 8395 8398 8401 8404 8407 8410 8413 8416 8419 8422 8425 8428 8430 8433 8436 8439 8442 8445 8448 8451 8453 8456 8459 8462 8465 8468 8471 8474 8477 8480 8483 8486 8489 8491 8494 8497 8499 8502 8505 8508 8511 8514 8517 8520 8523 8526 8529 8532 8535 8538 8541 8544 8547 8550 8553 8556 8559 8561 8564 8567 8569 8572 8574 8577 8580 8583 8585 8588 8591 8593 8596 8598 8601 8604 8607 8609 8612 8615 8618 8621 8623 8626 8629 8632 8635 8638 8641 8644 8646 8649 8652 8655 8657 8660 8663 8666 8669 8672 8675 8678 8681 8684 8687 8690 8693 8695 8698 8701 8704 8707 8710 8713 8716 8719 8721 8724 8727 8730 8733 8736 8739 8742 8745 8748 8751 8754 8756 8759 8762 8765 8768 8771 8774 8777 8780 8783 8786 8789 8792 8795 8798 8801 8804 8807 8810 8813 8815 8817 8820 8823 8826 8828 8831 8834 8837 8840 8843 8846 8849 8852 8855 8858 8861 8864 8866 8869 8872 8875 8878 8881 8884 8887 8890 8893 8895 8898 8901 8904 8907 8910 8913 8916 8919 8922 8925 8928 8931 8934 8937 8940 8943 8945 8948 8950 8953 8956 8959 8962 8965 8967 8970 8973 8976 8979 8981 8984 8987 8990 8992 8995 8998 9001 9003 9006 9009 9012 9015 9018 9021 9024 9027 9030 9032 9035 9038 9041 9043 9046 9049 9051 9054 9057 9060 9063 9066 9069 9071 9074 9077 9080 9083 9086 9089 9092 9095 9097 9100 9103 9106 9108 9111 9114 9117 9120 9123 9126 9129 9132 9135 9138 9141 9144 9147 9150 9153 9156 9159 9162 9165 9168 9171 9174 9177 9180 9183 9186 9189 9191 9194 9197 9200 9203 9206 9209 9212 9214 9217 9220 9223 9226 9229 9232 9235 9238 9241 9244 9247 9250 9253 9256 9259 9262 9265 9268 9271 9274 9277 9280 9283 9286 9289 9291 9294 9296 9299 9302 9305 9308 9311 9314 9316 9319 9322 9325 9327 9330 9333 9335 9338 9341 9344 9347 9350 9353 9356 9359 9362 9365 9368 9371 9373 9376 9379 9382 9385 9388 9390 9393 9396 9399 9402 9405 9408 9411 9414 9417 9420 9423 9426 9429 9431 9434 9437 9440 9442 9445 9448 9451 9454 9457 9460 9463 9466 9469 9472 9475 9478 9480 9482 9485 9488 9491 9494 9496 9499 9502 9505 9508 9511 9514 9517 9520 9523 9525 9527 9530 9533 9536 9539 9542 9544 9547 9550 9553 9556 9559 9561 9564 9567 9570 9573 9576 9578 9581 9583 9586 9589 9592 9595 9597 9600 9602 9605 9607 9609 9612 9615 9618 9621 9624 9627 9630 9632 9634 9637 9640 9643 9646 9649 9652 9654 9656 9658 9661 9663 9665 9668 9671 9674 9676 9679 9682 9685 9688 9691 9693 9695 9697 9700 9702 9705 9708 9711 9713 9716 9718 9720 9723 9726 9729 9732 9735 9738 9741 9743 9745 9748 9751 9753 9755 9757 9760 9763 9766 9769 9772 9775 9778 9781 9784 9787 9790 9793 9796 9799 9802 9805 9808 9811 9814 9817 9820 9823 9826 9829 9832 9835 9838 9841 9844 9847 9850 9853 9856 9859 9862 9865 9868 9871 9874 9877 9879 9882 9885 9888 9891 9894 9897 9900 9903 9906 9909 9911 9914 9917 9920 9923 9926 9929 9931 9934 9937 9939 9942 9945 9948 9951 9954 9957 9960 9963 9966 9969 9972 9975 9978 9980 9983 9985 9988 9991 9994 9997 9999 10002 10005 10008 10010 10013 10016 10018 10021 10024 10027 10029 10032 10035 10037 10040 10043 10046 10049 10052 10054 10057 10060 10063 10066 10069 10072 10075 10077 10080 10083 10086 10089 10092 10095 10098 10100 10103 10106 10108 10111 10114 10117 10120 10122 10125 10127 10130 10133 10136 10139 10142 10144 10147 10150 10153 10156 10158 10161 10164 10167 10170 10173 10176 10178 10180 10183 10186 10189 10192 10195 10197 10200 10203 10205 10208 10211 10214 10217 10220 10223 10226 10229 10232 10235 10237 10240 10243 10246 10249 10252 10255 10258 10261 10264 10267 10270 10273 10276 10279 10282 10285 10288 10291 10293 10296 10299 10302 10305 10308 10311 10313 10316 10319 10322 10325 10328 10331 10334 10336 10338 10341 10344 10347 10350 10352 10355 10358 10361 10364 10367 10370 10373 10375 10378 10381 10383 10386 10388 10390 10392 10395 10398 10401 10404 10407 10410 10412 10415 10418 10421 10424 10427 10429 10432 10435 10438 10441 10443 10446 10449 10452 10454 10457 10460 10463 10465 10468 10471 10474 10477 10480 10483 10486 10489 10492 10495 10498 10501 10504 10507 10510 10513 10516 10519 10522 10525 10528 10531 10534 10537 10540 10542 10545 10548 10551 10554 10557 10560 10563 10565 10568 10570 10573 10576 10579 10582 10585 10588 10590 10593 10596 10598 10601 10604 10607 10609 10612 10615 10617 10620 10623 10626 10629 10632 10634 10637 10640 10643 10645 10647 10650 10653 10656 10659 10662 10665 10668 10671 10674 10677 10680 10683 10685 10688 10691 10694 10697 10700 10703 10706 10709 10712 10714 10717 10720 10723 10726 10729 10731 10733 10736 10739 10742 10745 10748 10751 10754 10757 10760 10762 10765 10768 10771 10774 10777 10780 10783 10786 10788 10791 10794 10797 10800 10803 10806 10809 10812 10815 10818 10821 10824 10827 10830 10833 10836 10839 10842 10844 10847 10850 10853 10856 10858 10861 10863 10866 10868 10871 10874 10877 10880 10883 10886 10889 10892 10895 10898 10901 10904 10907 10910 10913 10916 10919 10921 10924 10927 10930 10933 10936 10938 10941 10944 10947 10949 10951 10954 10957 10960 10963 10966 10968 10971 10974 10977 10980 10982 10985 10988 10991 10994 10997 11000 11003 11006 11008 11011 11014 11017 11020 11023 11026 11029 11031 11034 11037 11040 11043 11046 11049 11052 11055 11058 11060 11063 11066 11069 11072 11075 11078 11081 11084 11087 11090 11093 11096 11099 11102 11105 11108 11111 11114 11116 11119 11122 11125 11128 11131 11134 11137 11140 11143 11146 11149 11152 11155 11157 11160 11163 11166 11169 11172 11175 11177 11180 11183 11185 11188 11191 11193 11196 11199 11202 11205 11208 11211 11214 11217 11220 11223 11226 11229 11232 11235 11238 11241 11244 11247 11250 11253 11256 11259 11262 11265 11268 11271 11273 11276 11278 11281 11283 11285 11288 11291 11294 11296 11299 11302 11305 11308 11311 11314 11317 11320 11323 11325 11327 11330 11332 11335 11338 11341 11344 11347 11350 11353 11356 11359 11362 11365 11368 11371 11374 11376 11379 11381 11383 11386 11388 11391 11394 11397 11400 11403 11406 11409 11412 11415 11417 11419 11422 11425 11428 11431 11434 11437 11440 11443 11446 11449 11452 11455 11458 11461 11464 11467 11470 11473 11476 11479 11482 11485 11487 11490 11493 11496 11499 11502 11504 11507 11510 11513 11516 11519 11521 11524 11527 11530 11532 11535 11538 11541 11544 11547 11550 11553 11556 11559 11561 11564 11567 11570 11573 11575 11578 11581 11584 11587 11590 11593 11595 11598 11601 11604 11607 11610 11613 11616 11618 11621 11624 11627 11630 11632 11635 11638 11641 11644 11647 11650 11653 11656 11659 11662 11664 11667 11670 11673 11676 11678 11681 11684 11687 11689 11692 11695 11698 11701 11704 11706 11709 11712 11715 11718 11721 11724 11727 11730 11733 11736 11739 11742 11745 11748 11750 11752 11755 11758 11760 11763 11766 11769 11772 11775 11778 11781 11783 11786 11789 11792 11795 11798 11801 11803 11806 11809 11812 11815 11818 11821 11824 11827 11830 11833 11836 11839 11842 11845 11848 11851 11854 11857 11860 11863 11866 11869 11872 11874 11877 11880 11883 11886 11889 11892 11895 11898 11900 11903 11906 11909 11912 11914 11917 11920 11923 11926 11929 11931 11934 11936 11939 11941 11944 11947 11950 11953 11956 11959 11962 11964 11967 11970 11973 11975 11978 11981 11984 11987 11990 11992 11995 11998 12001 12004 12007 12009 12012 12014 12017 12020 12022 12025 12027 12030 12033 12036 12039 12042 12044 12047 12050 12053 12055 12058 12061 12064 12067 12070 12073 12076 12079 12082 12085 12087 12090 12093 12096 12099 12102 12105 12108 12111 12114 12117 12120 12123 12126 12129 12132 12135 12138 12141 12144 12147 12150 12153 12155 12158 12161 12164 12167 12170 12173 12176 12179 12182 12185 12188 12191 12194 12197 12200 12203 12206 12209 12211 12214 12217 12220 12222 12225 12228 12231 12234 12237 12240 12242 12245 12248 12251 12253 12255 12258 12260 12263 12265 12267 12270 12272 12275 12278 12280 12283 12286 12288 12290 12293 12296 12299 12302 12305 12308 12311 12314 12316 12319 12321 12324 12327 12330 12333 12336 12339 12342 12345 12348 12351 12354 12357 12360 12363 12366 12369 12372 12375 12378 12381 12384 12387 12389 12392 12395 12398 12401 12404 12407 12410 12413 12415 12418 12421 12423 12426 12429 12431 12433 12436 12439 12441 12444 12447 12450 12453 12456 12459 12462 12465 12468 12471 12474 12477 12480 12483 12486 12489 12492 12495 12498 12501 12504 12507 12510 12513 12516 12519 12522 12525 12528 12531 12534 12537 12540 12543 12546 12549 12552 12555 12558 12560 12563 12565 12568 12571 12574 12577 12580 12583 12586 12589 12592 12595 12598 12601 12604 12607 12610 12613 12616 12619 12622 12625 12628 12631 12634 12637 12640 12643 12646 12649 12652 12655 12658 12661 12664 12667 12670 12673 12676 12679 12682 12685 12687 12690 12693 12695 12698 12701 12704 12707 12710 12712 12715 12717 12720 12723 12725 12728 12731 12734 12737 12740 12743 12745 12748 12751 12754 12757 12760 12763 12766 12769 12772 12775 12778 12780 12783 12786 12788 12790 12793 12795 12798 12801 12803 12806 12809 12812 12815 12817 12820 12823 12826 12829 12832 12835 12838 12841 12844 12846 12849 12851 12854 12857 12860 12863 12866 12869 12872 12874 12877 12879 12882 12885 12888 12891 12894 12897 12900 12903 12906 12908 12911 12913 12916 12919 12922 12925 12928 12931 12934 12937 12940 12943 12945 12948 12951 12954 12956 12959 12962 12964 12967 12970 12972 12975 12978 12981 12984 12986 12989 12992 12995 12997 13000 13003 13006 13009 13012 13015 13018 13021 13024 13027 13030 13033 13036 13039 13041 13044 13047 13050 13053 13056 13059 13061 13064 13066 13069 13071 13074 13077 13080 13082 13085 13088 13091 13094 13097 13100 13103 13106 13108 13111 13114 13117 13120 13123 13125 13128 13131 13133 13136 13139 13142 13145 13148 13151 13154 13157 13160 13162 13165 13168 13171 13173 13176 13179 13182 13185 13188 13191 13193 13196 13199 13202 13205 13208 13211 13214 13217 13220 13223 13226 13229 13232 13235 13238 13241 13244 13247 13250 13253 13256 13259 13262 13265 13268 13271 13274 13277 13280 13283 13286 13288 13291 13294 13297 13300 13303 13305 13308 13311 13313 13315 13318 13321 13324 13327 13329 13332 13335 13338 13341 13344 13346 13349 13352 13355 13358 13361 13364 13367 13370 13373 13376 13379 13382 13385 13388 13391 13394 13396 13399 13402 13405 13408 13411 13414 13417 13420 13422 13424 13427 13430 13433 13436 13439 13442 13444 13447 13450 13453 13456 13458 13461 13464 13467 13470 13473 13476 13479 13482 13485 13488 13491 13494 13497 13500 13503 13506 13509 13512 13515 13518 13521 13524 13527 13530 13532 13535 13538 13540 13543 13546 13549 13552 13555 13558 13561 13564 13567 13570 13573 13576 13579 13582 13585 13588 13591 13594 13597 13600 13603 13606 13609 13612 13615 13618 13621 13623 13626 13628 13631 13634 13637 13640 13643 13645 13648 13651 13654 13657 13660 13663 13666 13669 13672 13675 13678 13681 13684 13687 13690 13693 13696 13699 13702 13705 13707 13709 13712 13714 13717 13720 13723 13726 13729 13732 13735 13738 13741 13744 13747 13750 13753 13756 13759 13762 13764 13767 13770 13773 13775 13778 13781 13784 13787 13790 13793 13796 13799 13802 13805 13808 13811 13814 13816 13819 13822 13825 13828 13831 13834 13837 13840 13843 13846 13849 13852 13855 13858 13861 13864 13867 13870 13873 13876 13879 13882 13884 13887 13890 13893 13896 13899 13902 13905 13908 13911 13914 13917 13920 13923 13925 13928 13930 13933 13936 13938 13940 13943 13946 13949 13952 13955 13958 13961 13964 13967 13970 13973 13976 13979 13982 13985 13988 13991 13994 13997 14000 14002 14005 14008 14010 14013 14016 14019 14021 14024 14027 14030 14033 14036 14039 14041 14044 14047 14050 14052 14055 14058 14061 14064 14067 14070 14073 14076 14078 14081 14084 14086 14089 14092 14094 14097 14099 14102 14105 14108 14111 14113 14115 14118 14121 14123 14125 14128 14131 14133 14136 14139 14142 14145 14147 14150 14153 14155 14157 14160 14162 14165 14168 14171 14174 14177 14180 14183 14186 14189 14192 14195 14198 14201 14204 14207 14210 14213 14216 14219 14222 14224 14227 14230 14233 14236 14238 14241 14244 14247 14250 14252 14254 14257 14260 14263 14266 14269 14272 14275 14278 14281 14284 14287 14290 14292 14295 14298 14301 14303 14306 14309 14312 14315 14318 14321 14324 14326 14329 14332 14335 14337 14340 14343 14345 14347 14350 14353 14356 14358 14361 14364 14367 14369 14372 14375 14378 14381 14384 14387 14390 14393 14396 14399 14402 14405 14408 14411 14414 14417 14420 14423 14425 14428 14431 14434 14437 14440 14443 14446 14449 14452 14455 14458 14461 14464 14467 14470 14473 14476 14479 14481 14483 14486 14489 14492 14495 14498 14500 14502 14505 14507 14510 14513 14516 14519 14522 14525 14528 14531 14534 14536 14539 14542 14545 14547 14550 14553 14556 14559 14562 14565 14568 14571 14574 14577 14580 14583 14586 14589 14591 14594 14597 14600 14603 14606 14609 14612 14614 14617 14620 14622 14625 14628 14631 14634 14637 14640 14642 14645 14648 14651 14654 14656 14659 14662 14665 14668 14671 14674 14676 14679 14682 14685 14688 14691 14694 14697 14700 14702 14704 14707 14710 14713 14715 14717 14720 14723 14726 14729 14732 14734 14737 14740 14743 14746 14749 14752 14754 14757 14760 14763 14766 14768 14771 14774 14777 14780 14783 14785 14788 14791 14794 14797 14799 14802 14805 14808 14811 14814 14817 14820 14823 14826 14829 14832 14835 14838 14841 14844 14847 14850 14853 14856 14859 14862 14865 14868 14871 14874 14876 14879 14882 14885 14888 14890 14893 14895 14898 14900 14903 14906 14908 14911 14914 14916 14919 14922 14924 14927 14930 14933 14936 14939 14942 14944 14947 14950 14952 14955 14957 14959 14961 14964 14967 14969 14972 14974 14976 14979 14982 14985 14987 14990 14992 14995 14998 15001 15004 15007 15010 15012 15015 15018 15021 15023 15026 15029 15032 15035 15038 15041 15044 15046 15049 15052 15055 15057 15060 15062 15064 15067 15070 15073 15076 15079 15082 15085 15087 15090 15093 15096 15099 15102 15105 15108 15111 15113 15115 15118 15121 15124 15127 15129 15132 15135 15137 15140 15143 15146 15148 15151 15154 15157 15159 15161 15164 15167 15170 15173 15175 15178 15181 15184 15187 15190 15192 15194 15197 15200 15203 15206 15209 15212 15215 15218 15221 15224 15227 15230 15233 15236 15239 15242 15245 15248 15251 15254 15257 15260 15263 15266 15269 15272 15275 15278 15281 15284 15287 15289 15292 15295 15298 15300 15303 15306 15309 15312 15315 15318 15321 15324 15327 15330 15333 15336 15339 15342 15345 15347 15350 15352 15354 15357 15360 15362 15365 15368 15371 15374 15377 15380 15383 15386 15389 15392 15395 15398 15401 15404 15407 15410 15413 15416 15419 15422 15425 15428 15431 15433 15436 15439 15441 15443 15446 15449 15452 15455 15458 15461 15464 15466 15469 15472 15475 15477 15480 15483 15486 15489 15491 15493 15496 15499 15502 15505 15508 15511 15514 15516 15519 15522 15525 15528 15530 15533 15536 15539 15542 15544 15547 15550 15553 15556 15559 15562 15565 15568 15571 15574 15577 15580 15583 15586 15589 15592 15595 15598 15601 15603 15606 15609 15612 15615 15618 15621 15624 15627 15630 15633 15636 15639 15642 15645 15648 15651 15653 15656 15659 15662 15664 15667 15670 15673 15676 15679 15682 15685 15688 15691 15693 15696 15699 15702 15705 15708 15711 15714 15717 15720 15723 15726 15729 15732 15735 15738 15741 15744 15747 15750 15753 15756 15758 15761 15764 15767 15770 15773 15776 15779 15782 15785 15788 15791 15794 15797 15800 15803 15806 15809 15811 15814 15817 15820 15823 15826 15828 15831 15834 15837 15840 15843 15846 15849 15852 15855 15858 15861 15864 15867 15870 15873 15876 15879 15882 15885 15888 15891 15894 15897 15900 15903 15906 15909 15911 15914 15917 15919 15922 15925 15928 15930 15933 15936 15939 15942 15945 15948 15951 15954 15957 15960 15963 15966 15969 15972 15975 15977 15980 15982 15985 15988 15991 15994 15997 16000 16003 16006 16009 16011 16014 16017 16020 16023 16026 16029 16032 16035 16038 16040 16042 16045 16048 16051 16054 16057 16060 16063 16066 16069 16072 16075 16078 16081 16084 16087 16090 16093 16096 16099 16102 16105 16108 16111 16114 16117 16120 16123 16126 16129 16132 16135 16138 16141 16144 16147 16150 16153 16156 16159 16162 16165 16168 16171 16174 16177 16180 16183 16186 16189 16192 16195 16198 16201 16204 16207 16210 16213 16216 16219 16222 16225 16228 16231 16234 16237 16240 16243 16246 16249 16252 16255 16257 16260 16263 16266 16269 16272 16275 16277 16280 16283 16286 16289 16292 16295 16298 16301 16304 16306 16309 16311 16314 16317 16320 16323 16326 16329 16332 16335 16338 16341 16344 16347 16350 16353 16356 16359 16362 16365 16368 16371 16374 16377 16380 16383 16386 16389 16392 16395 16398 16401 16404 16407 16410 16413 16415 16418 16421 16424 16426 16428 16431 16434 16437 16440 16443 16446 16449 16452 16455 16458 16461 16464 16467 16470 16473 16476 16479 16482 16485 16488 16491 16494 16496 16498 16501 16504 16507 16510 16513 16516 16519 16522 16524 16527 16530 16533 16536 16539 16542 16544 16547 16550 16553 16556 16559 16561 16564 16567 16570 16573 16575 16578 16581 16584 16586 16589 16592 16595 16597 16600 16603 16605 16608 16611 16614 16617 16620 16623 16626 16629 16632 16635 16638 16641 16644 16646 16649 16652 16655 16658 16661 16664 16667 16670 16672 16675 16678 16681 16684 16687 16690 16693 16696 16699 16702 16705 16707 16710 16713 16716 16718 16721 16724 16727 16730 16732 16735 16738 16741 16744 16747 16750 16753 16756 16758 16761 16763 16766 16769 16771 16774 16777 16780 16783 16786 16788 16791 16794 16797 16800 16803 16806 16809 16812 16815 16818 16821 16824 16826 16829 16832 16835 16838 16841 16844 16847 16850 16853 16855 16858 16861 16864 16867 16870 16873 16875 16878 16881 16884 16887 16890 16893 16896 16898 16901 16904 16907 16910 16913 16915 16918 16921 16924 16927 16930 16933 16936 16939 16942 16945 16948 16951 16954 16957 16960 16963 16966 16969 16972 16975 16978 16981 16984 16987 16990 16993 16996 16999 17002 17005 17008 17011 17014 17017 17020 17023 17026 17029 17032 17035 17038 17041 17044 17047 17050 17053 17056 17058 17061 17063 17066 17069 17072 17075 17078 17081 17084 17087 17090 17093 17096 17099 17102 17105 17107 17110 17113 17116 17119 17122 17125 17128 17131 17134 17137 17140 17143 17146 17149 17152 17154 17157 17160 17162 17165 17167 17170 17173 17176 17179 17182 17184 17187 17190 17193 17196 17199 17202 17205 17208 17211 17214 17217 17220 17223 17226 17229 17232 17235 17238 17241 17244 17246 17249 17252 17255 17258 17261 17264 17267 17270 17273 17276 17279 17281 17284 17286 17289 17292 17294 17297 17299 17302 17305 17308 17311 17314 17317 17320 17322 17325 17327 17330 17333 17336 17339 17341 17344 17347 17350 17353 17355 17357 17360 17363 17365 17368 17371 17374 17377 17380 17383 17386 17389 17392 17395 17398 17401 17404 17407 17410 17413 17415 17418 17421 17424 17427 17430 17433 17436 17439 17442 17445 17448 17451 17454 17457 17459 17462 17464 17467 17470 17473 17476 17479 17482 17485 17487 17490 17492 17495 17498 17501 17504 17507 17510 17513 17516 17519 17521 17523 17526 17529 17532 17534 17537 17540 17543 17546 17548 17551 17553 17556 17559 17561 17564 17566 17568 17570 17573 17576 17578 17581 17584 17587 17589 17591 17593 17596 17599 17602 17605 17608 17611 17614 17617 17620 17623 17626 17628 17631 17634 17637 17640 17643 17646 17648 17651 17654 17657 17659 17662 17665 17668 17671 17674 17677 17680 17683 17685 17688 17691 17694 17696 17699 17702 17705 17708 17711 17714 17717 17720 17723 17726 17729 17732 17735 17738 17741 17744 17747 17750 17753 17756 17759 17762 17765 17768 17771 17774 17777 17780 17783 17786 17789 17792 17795 17798 17801 17804 17807 17810 17813 17816 17819 17822 17825 17828 17831 17834 17837 17840 17843 17846 17849 17852 17855 17858 17861 17864 17867 17870 17873 17876 17878 17881 17884 17887 17890 17893 17895 17898 17901 17904 17907 17909 17912 17915 17918 17920 17923 17926 17929 17932 17935 17938 17941 17944 17947 17950 17953 17956 17959 17962 17965 17968 17971 17974 17977 17980 17983 17986 17989 17992 17995 17998 18001 18004 18007 18010 18013 18016 18019 18022 18025 18028 18031 18034 18037 18040 18042 18045 18048 18050 18053 18056 18059 18062 18065 18068 18071 18073 18076 18079 18082 18085 18088 18091 18094 18097 18100 18103 18106 18108 18111 18114 18116 18119 18121 18124 18127 18130 18132 18135 18138 18141 18144 18147 18150 18153 18156 18158 18161 18164 18167 18170 18172 18175 18178 18181 18184 18186 18189 18191 18194 18197 18200 18203 18206 18209 18212 18215 18218 18221 18224 18227 18229 18232 18234 18237 18240 18243 18246 18249 18252 18255 18258 18261 18264 18267 18270 18273 18275 18278 18281 18284 18287 18290 18293 18296 18299 18302 18304 18307 18310 18313 18315 18318 18321 18324 18327 18330 18333 18336 18339 18342 18345 18348 18351 18354 18357 18360 18363 18366 18369 18372 18375 18378 18381 18384 18387 18390 18393 18396 18399 18402 18405 18408 18411 18414 18417 18420 18422 18425 18428 18430 18433 18436 18439 18442 18444 18447 18450 18453 18456 18459 18462 18465 18468 18471 18474 18477 18480 18483 18486 18489 18491 18494 18497 18500 18503 18506 18509 18512 18515 18518 18520 18523 18525 18528 18531 18534 18537 18540 18543 18546 18548 18551 18554 18557 18560 18563 18566 18569 18572 18575 18578 18581 18584 18587 18590 18592 18595 18598 18601 18604 18607 18610 18613 18616 18619 18622 18625 18627 18630 18633 18636 18639 18642 18645 18648 18651 18654 18657 18660 18663 18666 18669 18672 18675 18678 18681 18684 18687 18690 18693 18696 18698 18701 18703 18706 18709 18712 18715 18718 18721 18723 18726 18728 18731 18734 18737 18739 18742 18745 18748 18750 18753 18756 18759 18761 18764 18767 18769 18772 18775 18778 18781 18784 18787 18790 18792 18795 18798 18801 18804 18807 18810 18813 18815 18818 18821 18824 18827 18830 18833 18836 18839 18842 18845 18848 18851 18854 18856 18859 18862 18865 18868 18871 18874 18877 18880 18882 18885 18888 18891 18894 18897 18900 18903 18906 18909 18912 18915 18918 18921 18924 18927 18930 18933 18936 18939 18942 18944 18947 18950 18953 18956 18959 18962 18965 18968 18971 18974 18977 18980 18983 18986 18989 18992 18995 18998 19001 19004 19007 19010 19013 19016 19019 19022 19025 19028 19031 19034 19037 19040 19043 19046 19049 19052 19055 19058 19061 19064 19067 19070 19073 19076 19079 19082 19085 19088 19091 19094 19096 19099 19101 19104 19107 19110 19112 19115 19118 19120 19122 19125 19127 19130 19133 19136 19139 19142 19145 19148 19151 19154 19157 19160 19163 19166 19169 19172 19175 19178 19181 19184 19187 19190 19193 19196 19199 19202 19205 19208 19211 19214 19217 19220 19223 19226 19229 19232 19234 19237 19240 19243 19246 19248 19251 19254 19256 19259 19262 19265 19267 19270 19273 19276 19279 19281 19284 19286 19288 19291 19294 19297 19300 19302 19305 19308 19311 19313 19316 19319 19322 19324 19327 19330 19333 19336 19339 19342 19344 19347 19350 19353 19356 19359 19362 19365 19368 19371 19374 19377 19380 19383 19386 19389 19392 19395 19398 19401 19404 19406 19409 19412 19415 19418 19421 19424 19427 19430 19433 19436 19439 19442 19445 19448 19451 19454 19457 19460 19462 19465 19468 19470 19473 19476 19478 19481 19484 19487 19490 19493 19496 19499 19502 19505 19508 19511 19513 19516 19519 19522 19525 19527 19530 19533 19536 19539 19541 19544 19547 19550 19552 19555 19558 19561 19564 19567 19570 19573 19576 19579 19582 19585 19588 19591 19594 19597 19600 19603 19606 19609 19612 19615 19618 19621 19624 19627 19629 19632 19635 19638 19641 19644 19647 19650 19653 19655 19658 19661 19664 19666 19669 19672 19675 19678 19681 19684 19687 19690 19693 19696 19699 19702 19705 19708 19711 19714 19717 19720 19723 19726 19729 19732 19735 19738 19740 19743 19746 19749 19751 19754 19757 19760 19763 19766 19769 19772 19775 19777 19780 19783 19785 19788 19791 19794 19797 19799 19802 19805 19808 19811 19814 19817 19820 19822 19825 19827 19830 19833 19835 19838 19841 19843 19845 19848 19851 19854 19857 19860 19863 19866 19869 19872 19875 19878 19881 19884 19887 19890 19893 19896 19899 19902 19905 19908 19910 19913 19916 19919 19922 19924 19927 19930 19933 19936 19939 19942 19945 19948 19951 19954 19957 19960 19963 19965 19968 19971 19973 19976 19979 19982 19985 19988 19991 19994 19997 20000 20003 20006 20009 20012 20015 20018 20021 20024 20027 20030 20033 20036 20039 20042 20045 20048 20051 20054 20057 20060 20063 20066 20069 20072 20075 20078 20081 20084 20087 20090 20093 20096 20099 20102 20105 20108 20111 20114 20117 20120 20123 20126 20129 20132 20135 20138 20141 20144 20147 20150 20153 20156 20159 20162 20165 20168 20171 20174 20177 20180 20183 20186 20189 20192 20195 20198 20201 20204 20207 20210 20213 20216 20219 20222 20225 20228 20231 20234 20237 20240 20243 20246 20249 20252 20255 20258 20261 20264 20267 20270 20273 20276 20279 20282 20285 20288 20291 20294 20297 20300 20303 20306 20309 20312 20315 20318 20321 20324 20327 20330 20333 20336 20339 20342 20345 20348 20351 20354 20357 20359 20362 20365 20368 20371 20374 20377 20380 20382 20385 20388 20391 20394 20397 20400 20403 20406 20409 20411 20414 20416 20419 20422 20425 20427 20430 20433 20435 20438 20441 20444 20447 20450 20453 20456 20459 20462 20465 20468 20471 20474 20477 20480 20483 20486 20489 20492 20495 20498 20501 20504 20507 20510 20513 20516 20519 20522 20525 20528 20531 20534 20537 20540 20543 20546 20548 20551 20554 20556 20558 20561 20564 20566 20569 20572 20574 20577 20580 20583 20585 20588 20591 20594 20597 20600 20603 20606 20609 20612 20614 20617 20620 20623 20626 20629 20632 20634 20637 20640 20643 20646 20649 20652 20655 20658 20661 20664 20667 20670 20673 20676 20679 20682 20685 20688 20691 20694 20697 20700 20703 20706 20709 20712 20715 20718 20721 20724 20727 20729 20732 20735 20738 20741 20744 20747 20750 20753 20756 20759 20762 20765 20768 20771 20774 20777 20780 20783 20786 20789 20792 20795 20798 20801 20804 20807 20810 20813 20816 20819 20822 20825 20828 20831 20834 20837 20840 20843 20846 20849 20852 20855 20858 20861 20864 20867 20869 20872 20874 20877 20880 20883 20886 20888 20891 20894 20897 20900 20902 20905 20908 20911 20914 20916 20919 20922 20925 20928 20931 20934 20937 20940 20942 20945 20948 20950 20953 20955 20958 20961 20964 20967 20969 20972 20975 20977 20979 20982 20985 20988 20991 20994 20997 20999 21002 21005 21008 21011 21014 21017 21020 21023 21026 21029 21031 21033 21036 21039 21042 21045 21048 21050 21053 21056 21058 21061 21064 21067 21070 21072 21075 21078 21080 21083 21086 21089 21092 21095 21098 21101 21104 21107 21110 21113 21116 21119 21122 21125 21128 21131 21134 21137 21140 21143 21146 21149 21152 21155 21158 21161 21164 21167 21169 21172 21174 21177 21180 21183 21186 21189 21192 21195 21198 21201 21204 21207 21210 21213 21215 21218 21221 21224 21227 21229 21231 21234 21237 21240 21243 21246 21249 21252 21255 21258 21261 21264 21267 21270 21273 21276 21279 21282 21285 21288 21291 21294 21297 21300 21303 21306 21309 21312 21315 21318 21321 21324 21327 21330 21333 21336 21339 21342 21345 21348 21351 21354 21357 21359 21362 21365 21368 21370 21373 21376 21379 21382 21385 21388 21391 21394 21397 21400 21403 21406 21409 21412 21415 21418 21421 21424 21427 21430 21432 21435 21438 21440 21443 21446 21449 21452 21455 21458 21461 21464 21467 21469 21472 21475 21478 21481 21484 21486 21489 21492 21495 21498 21501 21503 21506 21508 21511 21514 21517 21520 21523 21526 21529 21532 21535 21538 21541 21544 21547 21549 21552 21555 21558 21560 21562 21565 21568 21571 21574 21577 21580 21583 21586 21588 21591 21594 21596 21599 21602 21604 21606 21609 21612 21615 21618 21621 21623 21626 21629 21632 21635 21638 21641 21644 21646 21649 21652 21654 21656 21659 21662 21665 21668 21671 21674 21676 21678 21681 21684 21687 21689 21692 21695 21698 21701 21704 21707 21710 21712 21715 21718 21721 21724 21727 21730 21733 21736 21739 21742 21745 21748 21751 21754 21757 21760 21763 21766 21769 21772 21775 21778 21781 21784 21787 21790 21792 21795 21798 21801 21804 21807 21810 21813 21815 21818 21821 21824 21827 21830 21833 21836 21839 21842 21845 21848 21850 21853 21856 21859 21862 21865 21868 21871 21874 21876 21879 21882 21885 21888 21891 21894 21897 21900 21903 21906 21909 21912 21915 21918 21921 21924 21926 21929 21932 21935 21937 21940 21943 21946 21949 21952 21954 21957 21960 21963 21966 21969 21972 21975 21978 21981 21984 21987 21990 21993 21996 21998 22001 22004 22007 22010 22012 22015 22018 22020 22023 22026 22029 22032 22035 22037 22040 22043 22046 22049 22052 22055 22058 22061 22064 22067 22070 22073 22076 22079 22081 22084 22086 22089 22092 22095 22097 22100 22102 22105 22107 22110 22113 22116 22119 22122 22125 22127 22129 22132 22135 22138 22141 22144 22147 22149 22152 22154 22157 22160 22163 22166 22169 22172 22175 22178 22181 22184 22187 22190 22193 22196 22199 22202 22205 22207 22210 22213 22216 22218 22220 22223 22226 22229 22232 22235 22237 22240 22243 22245 22247 22250 22253 22256 22259 22262 22265 22268 22271 22274 22277 22280 22283 22286 22289 22292 22295 22298 22301 22304 22307 22310 22313 22316 22319 22322 22325 22328 22331 22334 22337 22340 22343 22346 22349 22352 22355 22358 22361 22364 22367 22370 22373 22376 22379 22381 22384 22387 22389 22391 22393 22396 22399 22402 22405 22408 22411 22413 22416 22419 22422 22425 22428 22431 22434 22437 22440 22442 22445 22448 22451 22453 22456 22459 22462 22465 22468 22471 22474 22477 22480 22483 22486 22489 22492 22495 22498 22501 22504 22507 22510 22513 22515 22518 22521 22524 22527 22529 22532 22535 22538 22541 22544 22547 22550 22553 22556 22559 22562 22565 22568 22571 22574 22577 22580 22583 22586 22589 22592 22595 22598 22601 22604 22607 22610 22613 22616 22619 22622 22625 22628 22631 22633 22636 22638 22641 22644 22647 22650 22653 22656 22659 22662 22664 22667 22670 22673 22675 22678 22680 22683 22686 22689 22692 22695 22698 22701 22704 22706 22709 22712 22715 22718 22720 22723 22726 22729 22732 22734 22737 22740 22743 22746 22749 22752 22755 22757 22760 22763 22766 22769 22771 22774 22777 22780 22783 22786 22789 22792 22795 22798 22801 22804 22807 22810 22813 22816 22819 22822 22825 22828 22831 22834 22837 22840 22843 22846 22849 22852 22855 22858 22861 22864 22867 22870 22873 22876 22879 22882 22885 22888 22891 22894 22897 22900 22903 22906 22909 22911 22914 22917 22920 22923 22925 22927 22930 22933 22935 22937 22940 22943 22946 22949 22952 22955 22958 22961 22964 22967 22970 22973 22976 22979 22982 22985 22988 22991 22994 22996 22999 23002 23005 23007 23009 23012 23015 23018 23021 23024 23027 23030 23033 23036 23039 23042 23045 23048 23051 23054 23057 23060 23063 23066 23069 23072 23075 23078 23081 23084 23087 23090 23092 23095 23098 23101 23104 23107 23110 23113 23115 23118 23121 23124 23127 23130 23133 23136 23139 23142 23145 23148 23151 23154 23157 23160 23162 23165 23168 23171 23174 23177 23180 23183 23186 23188 23191 23193 23195 23198 23201 23204 23207 23210 23213 23216 23219 23222 23225 23228 23231 23233 23236 23239 23242 23245 23248 23251 23254 23257 23260 23263 23266 23269 23272 23275 23278 23281 23284 23287 23289 23292 23295 23298 23300 23303 23306 23309 23312 23315 23318 23321 23324 23326 23329 23332 23335 23338 23341 23344 23347 23350 23353 23356 23359 23362 23365 23368 23371 23373 23376 23379 23382 23384 23387 23390 23393 23396 23399 23402 23405 23408 23411 23414 23417 23420 23423 23426 23429 23432 23435 23438 23441 23444 23447 23450 23453 23456 23459 23462 23465 23468 23471 23474 23477 23480 23483 23485 23488 23490 23493 23496 23499 23502 23505 23508 23511 23514 23516 23519 23522 23525 23528 23531 23534 23537 23540 23543 23545 23548 23551 23553 23556 23559 23562 23565 23568 23570 23573 23576 23579 23582 23584 23587 23590 23593 23596 23598 23601 23604 23607 23609 23612 23614 23617 23620 23622 23625 23628 23631 23634 23637 23640 23643 23646 23649 23652 23655 23658 23661 23664 23666 23669 23672 23674 23677 23679 23682 23685 23688 23690 23693 23696 23698 23701 23704 23707 23710 23712 23715 23717 23720 23723 23726 23729 23732 23735 23737 23740 23742 23745 23748 23751 23754 23757 23759 23762 23765 23768 23771 23773 23776 23779 23782 23785 23788 23791 23793 23796 23799 23802 23805 23808 23811 23814 23817 23820 23823 23826 23829 23832 23835 23838 23841 23844 23847 23850 23853 23856 23859 23862 23865 23868 23871 23874 23877 23880 23883 23886 23889 23892 23894 23896 23899 23902 23905 23908 23911 23914 23917 23920 23923 23926 23928 23931 23934 23936 23938 23941 23943 23946 23949 23952 23955 23958 23961 23964 23966 23969 23972 23975 23978 23981 23984 23987 23990 23993 23996 23999 24002 24004 24007 24010 24013 24016 24018 24021 24024 24027 24030 24033 24036 24039 24042 24045 24048 24051 24054 24056 24059 24062 24065 24068 24071 24074 24077 24080 24083 24086 24089 24092 24095 24098 24101 24104 24107 24109 24112 24115 24118 24121 24124 24126 24129 24132 24135 24137 24140 24143 24146 24149 24152 24155 24157 24160 24162 24165 24168 24171 24173 24176 24179 24182 24185 24188 24191 24194 24197 24200 24202 24205 24208 24210 24213 24216 24219 24222 24225 24228 24231 24233 24236 24239 24242 24245 24248 24251 24254 24257 24260 24263 24266 24269 24272 24274 24277 24280 24282 24285 24288 24291 24294 24297 24300 24302 24305 24308 24311 24314 24317 24320 24322 24325 24328 24331 24334 24337 24340 24343 24345 24348 24351 24354 24357 24360 24363 24366 24369 24372 24375 24378 24381 24384 24387 24390 24393 24396 24399 24402 24405 24408 24411 24413 24416 24419 24422 24425 24428 24431 24434 24437 24440 24443 24445 24448 24451 24454 24457 24459 24461 24464 24467 24470 24473 24475 24478 24481 24484 24487 24490 24493 24496 24499 24502 24504 24507 24510 24513 24516 24519 24522 24525 24528 24531 24534 24537 24539 24542 24545 24548 24550 24553 24556 24559 24561 24564 24567 24570 24573 24576 24579 24582 24585 24588 24591 24594 24597 24599 24602 24605 24608 24611 24614 24616 24619 24622 24624 24627 24630 24633 24636 24639 24642 24645 24648 24651 24654 24657 24660 24663 24666 24668 24671 24674 24677 24680 24683 24686 24689 24691 24694 24697 24700 24702 24705 24708 24711 24714 24717 24719 24722 24725 24728 24731 24734 24737 24740 24743 24746 24748 24751 24754 24757 24760 24763 24766 24769 24772 24774 24777 24780 24783 24786 24789 24791 24794 24797 24800 24803 24806 24809 24812 24814 24817 24820 24823 24826 24829 24832 24835 24838 24841 24844 24847 24850 24853 24856 24859 24862 24865 24868 24871 24874 24877 24880 24883 24886 24889 24892 24895 24898 24901 24904 24907 24910 24913 24916 24919 24922 24925 24928 24931 24934 24937 24940 24943 24946 24949 24952 24955 24958 24960 24963 24966 24969 24972 24975 24978 24981 24983 24986 24989 24992 24995 24998 25001 25004 25007 25010 25013 25016 25019 25022 25025 25028 25031 25034 25037 25040 25043 25046 25049 25051 25053 25056 25059 25061 25063 25066 25069 25072 25075 25078 25081 25084 25086 25089 25092 25095 25098 25101 25104 25107 25110 25113 25116 25119 25122 25125 25128 25130 25133 25136 25139 25142 25145 25148 25151 25154 25156 25159 25162 25164 25167 25170 25173 25175 25178 25181 25184 25187 25190 25193 25196 25199 25202 25205 25208 25211 25214 25217 25220 25223 25226 25229 25232 25235 25238 25241 25244 25247 25250 25253 25256 25259 25261 25264 25267 25270 25273 25276 25279 25282 25285 25287 25290 25293 25296 25299 25302 25305 25307 25309 25312 25315 25318 25321 25323 25326 25329 25331 25334 25337 25339 25342 25345 25348 25351 25354 25357 25359 25362 25365 25368 25371 25374 25377 25380 25383 25385 25388 25391 25394 25397 25400 25403 25406 25409 25412 25415 25418 25420 25423 25426 25428 25431 25434 25437 25440 25443 25446 25449 25451 25454 25457 25460 25462 25465 25467 25470 25472 25475 25478 25481 25484 25487 25490 25493 25496 25499 25502 25505 25508 25511 25514 25517 25520 25523 25525 25528 25530 25533 25536 25539 25542 25545 25548 25551 25554 25557 25560 25562 25565 25568 25571 25574 25577 25580 25583 25585 25588 25591 25594 25596 25599 25601 25603 25606 25609 25611 25614 25617 25620 25623 25625 25628 25631 25634 25636 25639 25642 25645 25647 25650 25652 25654 25657 25660 25663 25666 25669 25672 25674 25677 25680 25683 25686 25689 25692 25695 25698 25700 25702 25704 25707 25709 25712 25715 25717 25719 25722 25725 25727 25730 25733 25736 25739 25742 25745 25748 25751 25754 25757 25760 25762 25765 25768 25771 25774 25777 25780 25783 25786 25789 25792 25795 25798 25801 25803 25805 25808 25811 25814 25817 25819 25822 25825 25828 25830 25833 25836 25839 25842 25845 25847 25849 25852 25855 25858 25860 25863 25866 25869 25872 25875 25878 25881 25884 25887 25890 25893 25896 25899 25902 25905 25907 25910 25913 25916 25918 25921 25924 25927 25929 25932 25935 25938 25941 25944 25947 25949 25952 25955 25958 25961 25964 25966 25969 25972 25975 25978 25981 25984 25987 25990 25992 25995 25998 26001 26004 26007 26010 26013 26016 26019 26021 26024 26027 26030 26033 26035 26038 26040 26043 26046 26048 26051 26053 26056 26059 26062 26065 26068 26071 26073 26076 26078 26080 26083 26086 26089 26092 26095 26098 26101 26104 26106 26109 26111 26114 26116 26119 26121 26124 26127 26130 26133 26136 26139 26142 26145 26148 26151 26154 26156 26159 26162 26165 26167 26170 26173 26176 26179 26182 26185 26188 26191 26193 26196 26199 26202 26205 26208 26211 26214 26217 26220 26222 26225 26228 26231 26234 26236 26239 26242 26244 26247 26250 26253 26256 26259 26262 26265 26268 26271 26273 26276 26279 26282 26284 26287 26290 26293 26296 26299 26302 26305 26308 26311 26314 26317 26320 26323 26326 26329 26332 26335 26338 26341 26343 26346 26349 26352 26355 26358 26361 26364 26367 26370 26373 26375 26378 26381 26384 26387 26390 26393 26396 26399 26402 26405 26408 26411 26414 26417 26420 26423 26426 26429 26432 26435 26438 26441 26444 26447 26450 26453 26456 26459 26462 26465 26468 26471 26474 26477 26480 26483 26486 26489 26492 26495 26498 26501 26504 26507 26510 26512 26514 26517 26520 26523 26526 26529 26532 26535 26538 26541 26544 26547 26550 26553 26555 26557 26560 26563 26566 26568 26571 26574 26576 26579 26582 26585 26587 26590 26593 26596 26598 26601 26604 26607 26610 26613 26616 26619 26622 26624 26627 26630 26632 26635 26637 26639 26642 26645 26648 26651 26654 26657 26659 26662 26664 26666 26668 26671 26674 26676 26679 26682 26684 26686 26689 26692 26695 26698 26701 26704 26707 26710 26713 26716 26719 26722 26725 26728 26731 26734 26737 26740 26743 26746 26749 26751 26754 26757 26760 26763 26766 26769 26772 26775 26778 26780 26783 26786 26789 26792 26795 26798 26801 26803 26805 26808 26811 26814 26817 26820 26823 26826 26829 26832 26835 26838 26841 26844 26847 26850 26853 26856 26859 26862 26865 26868 26871 26874 26876 26879 26881 26884 26887 26890 26893 26896 26899 26902 26904 26907 26910 26913 26915 26917 26920 26923 26925 26928 26931 26934 26937 26939 26942 26945 26948 26950 26953 26956 26959 26961 26964 26967 26970 26973 26976 26979 26982 26985 26988 26990 26992 26995 26998 27001 27004 27007 27009 27012 27015 27017 27019 27021 27024 27027 27030 27033 27036 27038 27041 27044 27047 27050 27053 27056 27059 27062 27065 27067 27070 27072 27075 27078 27081 27084 27087 27090 27093 27096 27099 27102 27105 27108 27111 27114 27117 27120 27123 27126 27129 27132 27135 27138 27141 27144 27146 27149 27152 27155 27158 27160 27162 27165 27168 27171 27173 27176 27179 27182 27185 27188 27191 27194 27197 27200 27203 27206 27209 27212 27215 27218 27221 27223 27226 27229 27232 27234 27237 27240 27242 27245 27248 27251 27254 27257 27260 27263 27266 27269 27272 27275 27278 27281 27283 27286 27289 27291 27294 27297 27300 27302 27305 27307 27310 27312 27315 27317 27319 27321 27324 27327 27330 27333 27336 27339 27342 27345 27347 27350 27353 27356 27359 27362 27365 27368 27371 27373 27376 27379 27381 27384 27387 27390 27393 27396 27399 27402 27405 27408 27411 27414 27417 27420 27423 27426 27429 27432 27435 27438 27441 27444 27446 27449 27452 27455 27458 27461 27464 27467 27470 27473 27476 27478 27481 27483 27486 27489 27491 27494 27496 27499 27501 27504 27507 27509 27512 27514 27517 27520 27522 27525 27528 27531 27533 27536 27539 27542 27545 27548 27551 27554 27557 27560 27563 27566 27569 27572 27575 27578 27581 27584 27587 27590 27593 27596 27599 27602 27605 27608 27611 27614 27617 27620 27623 27626 27629 27632 27635 27638 27641 27644 27647 27650 27653 27656 27659 27662 27665 27668 27671 27674 27677 27680 27683 27686 27689 27692 27695 27698 27701 27704 27707 27710 27713 27716 27718 27721 27724 27726 27729 27732 27735 27738 27741 27744 27746 27748 27751 27754 27757 27760 27763 27766 27769 27772 27775 27778 27781 27784 27787 27790 27793 27796 27799 27802 27804 27807 27810 27813 27815 27818 27821 27824 27827 27830 27833 27836 27839 27842 27845 27848 27851 27854 27857 27860 27863 27865 27868 27871 27874 27877 27880 27883 27886 27888 27891 27894 27897 27900 27903 27906 27909 27912 27914 27917 27919 27922 27925 27928 27931 27934 27937 27940 27943 27946 27949 27952 27955 27958 27961 27964 27967 27969 27972 27975 27978 27981 27984 27987 27990 27992 27995 27998 28001 28004 28006 28009 28012 28015 28018 28021 28024 28027 28029 28032 28035 28037 28039 28042 28045 28047 28050 28053 28056 28059 28062 28065 28067 28070 28073 28076 28079 28082 28085 28088 28091 28094 28096 28099 28102 28104 28107 28110 28112 28115 28118 28120 28123 28126 28129 28132 28135 28137 28140 28143 28146 28149 28152 28155 28158 28161 28163 28166 28169 28172 28175 28178 28181 28184 28186 28189 28192 28195 28198 28201 28204 28207 28210 28213 28216 28219 28222 28224 28227 28230 28233 28236 28239 28242 28245 28247 28249 28252 28254 28257 28259 28262 28265 28268 28271 28274 28277 28280 28283 28286 28289 28292 28295 28298 28301 28304 28306 28309 28311 28314 28317 28320 28323 28326 28329 28332 28335 28337 28340 28342 28345 28347 28350 28352 28355 28357 28360 28363 28365 28368 28371 28374 28377 28380 28382 28385 28388 28391 28394 28397 28400 28403 28406 28408 28411 28414 28417 28420 28423 28425 28428 28431 28433 28436 28438 28440 28443 28446 28449 28452 28455 28458 28461 28464 28466 28469 28472 28475 28478 28481 28484 28487 28490 28493 28496 28499 28502 28505 28507 28510 28513 28516 28519 28522 28525 28528 28530 28533 28536 28539 28541 28544 28547 28550 28553 28556 28559 28562 28565 28568 28571 28574 28577 28580 28583 28586 28589 28592 28594 28597 28600 28603 28606 28609 28612 28615 28617 28620 28623 28625 28628 28631 28634 28637 28640 28643 28646 28649 28652 28655 28658 28661 28664 28667 28670 28672 28675 28678 28681 28684 28686 28689 28692 28695 28698 28701 28704 28707 28710 28713 28716 28719 28722 28725 28728 28731 28734 28737 28740 28743 28746 28749 28752 28755 28758 28761 28763 28766 28769 28772 28775 28778 28781 28783 28786 28789 28792 28795 28798 28801 28804 28807 28810 28812 28814 28817 28820 28823 28825 28828 28830 28833 28836 28839 28842 28845 28848 28851 28854 28857 28860 28863 28866 28869 28872 28875 28877 28880 28883 28886 28889 28892 28895 28898 28901 28904 28907 28910 28913 28915 28917 28920 28923 28926 28929 28932 28935 28938 28941 28943 28946 28949 28951 28954 28957 28959 28961 28964 28967 28970 28973 28976 28979 28982 28984 28987 28990 28993 28996 28999 29002 29005 29008 29011 29013 29016 29019 29022 29024 29027 29030 29033 29036 29039 29041 29044 29047 29050 29053 29056 29059 29062 29065 29068 29071 29074 29077 29079 29082 29085 29088 29090 29093 29096 29099 29101 29104 29107 29110 29113 29116 29119 29122 29125 29128 29131 29134 29137 29140 29143 29146 29149 29152 29155 29158 29161 29164 29167 29170 29173 29176 29179 29182 29185 29188 29191 29194 29197 29199 29202 29205 29208 29211 29214 29217 29220 29223 29226 29229 29232 29235 29238 29241 29244 29247 29250 29253 29256 29259 29262 29265 29268 29271 29273 29276 29278 29281 29284 29286 29289 29292 29295 29298 29301 29304 29307 29310 29313 29315 29318 29321 29324 29327 29330 29333 29336 29339 29342 29345 29348 29351 29354 29357 29359 29362 29365 29368 29371 29373 29376 29379 29382 29384 29387 29390 29393 29396 29399 29402 29405 29408 29411 29414 29417 29420 29423 29426 29429 29432 29435 29438 29441 29444 29447 29450 29453 29456 29459 29462 29465 29468 29471 29474 29477 29480 29483 29486 29489 29492 29495 29498 29501 29504 29507 29510 29513 29516 29519 29522 29525 29528 29531 29534 29537 29540 29543 29546 29549 29552 29555 29558 29561 29564 29567 29570 29573 29576 29579 29582 29585 29588 29591 29594 29597 29600 29603 29606 29609 29612 29615 29618 29621 29624 29627 29630 29633 29636 29639 29642 29645 29648 29651 29654 29657 29660 29663 29666 29669 29672 29675 29678 29681 29684 29687 29690 29693 29696 29699 29702 29705 29708 29711 29714 29717 29720 29723 29726 29729 29732 29735 29738 29741 29744 29747 29750 29753 29756 29759 29762 29765 29768 29771 29774 29777 29780 29783 29786 29789 29792 29795 29798 29801 29804 29807 29810 29813 29816 29819 29822 29825 29828 29831 29834 29837 29840 29843 29846 29849 29852 29855 29858 29861 29864 29867 29870 29873 29876 29879 29882 29885 29888 29891 29894 29897 29900 29903 29906 29909 29912 29915 29918 29921 29924 29927 29930 29933 29936 29939 29942 29945 29948 29951 29953 29956 29959 29962 29965 29968 29971 29974 29977 29980 29983 29986 29989 29992 29995 29998 30001 30003 30006 30009 30012 30015 30018 30021 30024 30027 30029 30032 30035 30038 30041 30043 30046 30049 30052 30055 30058 30061 30064 30067 30070 30073 30076 30079 30082 30085 30088 30091 30094 30097 30100 30103 30106 30109 30111 30114 30117 30120 30123 30126 30129 30132 30135 30138 30141 30144 30147 30150 30152 30154 30157 30160 30163 30166 30169 30171 30174 30176 30179 30182 30185 30188 30191 30194 30197 30200 30203 30206 30209 30211 30214 30217 30220 30223 30226 30229 30232 30234 30237 30240 30243 30246 30249 30252 30255 30258 30261 30264 30267 30270 30273 30276 30279 30281 30283 30286 30289 30292 30295 30298 30301 30304 30307 30310 30313 30316 30319 30321 30324 30327 30330 30333 30336 30339 30342 30345 30348 30351 30354 30357 30360 30363 30366 30369 30371 30374 30377 30380 30383 30386 30389 30392 30394 30397 30400 30403 30406 30409 30412 30415 30418 30421 30424 30426 30428 30431 30434 30437 30440 30443 30446 30449 30452 30455 30458 30461 30464 30467 30470 30473 30476 30479 30482 30485 30488 30491 30494 30497 30500 30503 30506 30509 30512 30515 30518 30520 30523 30526 30529 30532 30535 30537 30540 30543 30546 30549 30552 30555 30558 30561 30564 30567 30569 30572 30575 30578 30581 30583 30586 30589 30592 30595 30598 30601 30604 30607 30610 30613 30615 30618 30620 30623 30626 30629 30632 30635 30638 30641 30644 30647 30650 30653 30656 30659 30662 30665 30668 30671 30674 30677 30680 30683 30686 30689 30692 30695 30698 30701 30704 30707 30710 30713 30715 30718 30721 30724 30727 30730 30732 30735 30738 30741 30744 30747 30750 30753 30756 30759 30762 30765 30768 30771 30774 30777 30780 30783 30786 30788 30791 30794 30796 30799 30802 30805 30807 30810 30813 30816 30819 30822 30824 30827 30830 30833 30836 30839 30842 30845 30848 30851 30854 30856 30859 30862 30865 30868 30871 30874 30876 30879 30882 30885 30888 30891 30893 30895 30898 30901 30903 30906 30909 30911 30914 30917 30920 30923 30926 30929 30932 30935 30938 30941 30943 30946 30949 30951 30954 30957 30959 30962 30965 30967 30970 30973 30975 30978 30981 30983 30986 30989 30992 30995 30998 31001 31003 31006 31009 31012 31015 31018 31021 31024 31027 31030 31033 31036 31038 31041 31044 31047 31050 31053 31056 31059 31061 31064 31067 31070 31073 31075 31078 31081 31084 31086 31089 31092 31095 31098 31101 31104 31107 31110 31113 31116 31119 31121 31124 31127 31130 31133 31136 31139 31142 31145 31148 31151 31154 31157 31160 31163 31166 31169 31172 31175 31178 31181 31184 31187 31190 31193 31195 31198 31201 31204 31207 31210 31212 31215 31218 31221 31224 31227 31230 31233 31236 31239 31242 31245 31248 31251 31254 31256 31259 31262 31264 31267 31269 31272 31275 31278 31281 31283 31286 31288 31290 31293 31295 31298 31301 31304 31307 31310 31313 31316 31318 31321 31323 31326 31329 31332 31335 31338 31341 31343 31346 31349 31352 31355 31358 31361 31363 31366 31369 31372 31375 31377 31380 31383 31386 31389 31392 31394 31397 31400 31402 31405 31408 31411 31414 31416 31419 31422 31425 31428 31430 31433 31436 31439 31442 31445 31448 31450 31453 31456 31459 31462 31465 31468 31471 31474 31477 31479 31482 31485 31488 31491 31494 31497 31499 31502 31505 31508 31511 31513 31516 31519 31522 31525 31528 31531 31534 31537 31540 31543 31546 31549 31552 31555 31558 31561 31563 31566 31569 31572 31574 31577 31580 31582 31585 31588 31591 31594 31597 31600 31603 31606 31609 31612 31615 31618 31621 31624 31627 31630 31632 31635 31637 31640 31643 31646 31649 31652 31655 31658 31661 31664 31667 31670 31673 31676 31679 31682 31685 31688 31691 31694 31697 31700 31703 31706 31709 31712 31715 31717 31720 31723 31725 31728 31731 31734 31737 31740 31743 31746 31749 31752 31755 31757 31760 31763 31766 31769 31771 31774 31777 31780 31783 31785 31788 31791 31794 31797 31800 31803 31806 31809 31812 31814 31817 31820 31823 31826 31829 31832 31835 31838 31841 31844 31847 31850 31853 31856 31859 31862 31865 31868 31871 31874 31877 31880 31883 31886 31889 31892 31895 31898 
</DataArray>
<DataArray type="UInt32" Name="types" format="ascii">
5 5 5 5 5 3 5 5 5 5 5 5 5 3 5 5 5 5 3 5 5 3 5 5 5 5 3 5 5 5 5 3 5 5 5 5 5 5 5 5 5 5 5 5 5 3 5 5 3 5 5 5 5 5 3 5 5 5 5 5 5 5 3 5 5 5 5 3 5 5 5 5 5 5 5 5 5 3 5 5 3 5 5 3 5 5 5 5 3 5 5 5 5 5 5 5 3 3 3 5 5 3 5 5 5 5 5 3 5 5 5 5 5 5 5 5 5 5 5 5 5 3 5 5 5 3 5 5 5 5 5 5 3 5 5 5 5 5 5 5 5 5 5 5 5 5 5 5 5 5 5 5 5 5 5 5 5 5 3 5 5 5 3 5 5 3 5 5 5 5 5 5 5 5 5 5 5 3 5 5 5 5 5 5 5 5 3 5 5 5 5 5 5 5 5 3 5 5 5 5 5 5 5 5 5 3 5 5 5 5 5 5 5 5 5 5 5 5 5 5 5 5 5 5 5 5 5 5 5 3 5 5 5 3 5 3 5 3 5 5 3 5 5 5 3 5 3 5 3 5 3 3 5 3 5 5 3 5 3 5 5 5 3 5 3 3 5 5 3 5 5 5 3 5 3 3 3 5 3 5 5 5 3 5 3 3 3 5 5 3 3 5 5 5 5 3 5 3 5 5 3 5 5 5 3 5 3 3 3 5 5 5 3 5 3 3 3 3 5 5 5 3 3 5 5 3 3 3 5 3 5 5 5 5 3 5 5 5 5 5 5 5 3 5 5 5 5 5 5 3 3 5 5 5 3 5 5 5 3 5 3 5 3 3 5 5 5 5 3 5 5 3 5 5 5 5 3 5 3 5 5 5 5 5 3 3 5 5 5 5 5 5 5 5 3 5 5 5 3 5 5 3 5 3 5 5 5 5 5 5 5 5 5 5 5 3 5 3 5 3 5 5 5 3 5 3 5 3 5 5 5 5 5 5 3 5 3 5 5 5 3 5 5 5 3 5 3 3 5 5 5 5 3 5 5 5 5 3 3 5 5 3 5 3 5 3 3 5 5 5 3 5 5 5 5 3 5 5 5 5 5 5 5 5 5 5 5 3 5 5 5 5 3 5 5 5 3 5 3 3 3 5 5 5 3 3 5 3 5 5 3 5 5 5 5 3 5 5 5 5 5 5 5 5 5 5 5 3 3 5 5 3 5 5 5 3 5 5 5 5 5 5 3 5 5 5 3 5 5 5 3 5 5 5 5 5 5 5 5 5 5 5 3 5 5 5 3 5 5 5 5 5 5 5 3 5 5 5 5 5 3 5 5 5 5 5 5 5 5 5 5 5 5 5 5 5 5 5 5 5 3 5 5 5 5 3 5 5 3 5 5 5 5 5 5 5 3 5 5 5 5 5 5 5 5 3 5 3 5 5 3 5 5 5 3 5 5 3 5 5 5 3 5 3 5 5 3 5 3 5 5 5 5 5 5 5 5 5 5 5 5 5 5 5 5 5 5 5 5 5 5 3 5 3 5 3 5 5 5 5 5 5 5 5 5 5 5 5 5 5 5 3 5 5 5 5 5 5 5 5 5 3 5 5 5 5 5 5 5 5 5 5 5 5 5 5 5 5 5 5 5 5 5 5 5 5 5 5 5 5 5 3 5 5 3 5 5 5 3 3 5 3 5 5 5 5 5 3 5 5 5 5 5 3 5 5 5 5 5 5 5 5 5 5 5 5 5 5 5 5 5 5 5 5 5 5 5 5 5 5 5 5 5 5 5 5 5 5 5 5 5 5 5 5 5 5 5 5 5 5 5 5 5 3 5 5 5 5 5 5 5 5 5 5 5 5 5 5 5 3 5 5 5 5 3 5 5 5 5 5 5 5 5 5 5 5 5 5 5 5 5 5 5 5 5 5 5 5 5 5 5 5 3 5 5 3 5 3 3 3 3 5 5 3 5 5 5 5 5 5 5 5 5 5 5 5 5 5 5 5 5 3 5 5 3 5 3 5 5 5 5 3 5 3 5 5 5 5 3 5 5 5 3 5 5 5 5 5 3 5 3 5 5 3 3 5 3 5 5 5 5 5 5 5 5 5 5 5 3 5 5 5 3 5 5 5 3 5 5 3 3 3 5 5 5 5 5 5 5 5 5 5 5 3 5 5 5 5 5 5 5 5 3 3 3 5 5 5 5 5 5 5 5 3 3 5 5 5 3 5 5 3 5 5 5 5 5 5 5 5 5 5 5 3 5 5 5 5 5 5 5 5 3 5 5 5 5 5 5 5 5 5 5 3 5 3 3 3 5 5 5 5 5 5 5 3 3 5 3 5 5 5 5 5 3 5 3 3 5 5 5 3 5 3 5 5 5 5 3 5 5 5 5 5 5 5 5 5 5 5 5 5 5 5 5 5 3 5 5 5 3 5 5 5 5 5 3 5 5 5 5 5 5 3 5 3 5 5 5 5 5 5 5 5 3 5 5 5 3 5 5 5 5 5 5 5 5 5 5 5 5 5 5 5 5 5 5 5 5 5 5 5 5 5 3 3 3 5 5 5 5 3 5 5 5 5 3 5 5 5 5 5 5 5 3 5 5 5 5 5 5 5 5 3 5 5 5 5 5 5 5 5 5 5 5 5 3 5 5 5 5 5 5 3 5 5 5 5 5 5 5 5 3 5 5 5 3 5 5 5 5 5 5 5 5 5 5 5 5 3 5 5 5 5 5 5 5 5 5 5 5 5 5 5 5 5 5 5 5 5 5 5 5 5 5 5 5 5 5 5 5 5 5 5 5 5 5 5 5 5 5 5 5 5 5 5 5 3 5 5 5 5 5 5 5 5 5 5 5 5 5 5 5 5 5 5 5 5 5 5 5 5 3 5 5 5 5 5 5 5 5 5 5 3 5 5 3 5 5 5 5 5 5 5 5 5 3 5 3 5 5 5 5 3 5 5 3 5 3 5 5 5 5 5 3 5 5 5 5 5 5 5 5 3 5 5 5 5 5 5 5 5 5 5 5 5 5 5 3 5 3 3 5 5 5 5 5 3 5 5 5 5 5 5 5 5 5 5 5 5 5 5 5 3 5 5 5 5 5 5 5 5 5 5 5 5 5 5 5 5 3 5 5 5 5 5 3 3 5 5 3 5 5 5 5 5 5 5 5 5 5 3 5 5 5 5 5 5 5 5 5 3 5 3 5 5 5 5 5 3 5 5 5 5 3 5 5 5 3 5 5 5 3 5 5 3 5 5 5 5 5 5 5 5 5 5 5 5 5 5 5 5 3 5 5 5 5 5 5 5 3 5 5 5 5 5 5 5 5 5 5 5 5 5 5 5 5 5 5 5 5 5 5 5 5 5 5 5 3 5 5 5 5 3 5 5 5 3 5 5 5 5 5 5 5 5 5 3 5 3 5 5 5 5 5 5 5 5 5 5 5 5 5 5 5 5 5 5 3 3 5 5 5 3 5 5 3 5 5 3 5 5 5 3 5 5 3 5 5 5 5 5 5 5 5 5 5 5 5 5 5 5 5 5 5 5 5 3 5 3 5 5 5 5 5 5 5 5 5 5 5 3 5 3 5 5 5 3 5 5 5 5 5 3 5 5 5 5 5 5 3 5 5 5 5 5 5 5 5 5 5 5 3 5 5 5 5 5 5 5 5 3 5 5 5 3 5 5 3 5 5 5 5 5 3 5 5 5 5 5 5 5 5 5 3 5 5 3 5 3 5 3 3 3 5 3 5 5 5 5 5 5 3 5 5 5 5 5 5 3 5 5 5 5 5 5 5 3 5 5 5 5 3 5 5 5 5 5 3 5 3 5 5 5 5 5 5 5 5 5 5 3 5 5 5 5 5 5 5 3 5 5 5 5 5 5 5 3 5 3 5 5 5 5 5 5 5 5 3 5 5 5 3 3 5 5 5 5 5 3 3 5 3 5 5 3 5 5 3 5 5 5 5 5 5 5 5 3 5 5 5 5 5 3 5 5 5 5 3 5 5 3 5 5 5 5 5 5 5 5 5 5 5 5 5 5 5 5 5 5 5 5 5 5 5 5 5 5 5 5 5 5 5 5 5 5 5 5 5 5 5 5 5 3 5 5 3 5 5 5 5 5 3 5 5 5 5 3 5 5 5 5 5 5 5 5 5 5 5 5 5 5 5 5 5 5 5 5 5 5 5 5 3 5 5 5 3 5 5 5 5 5 5 3 5 5 5 5 5 5 5 5 5 5 5 3 5 3 3 5 5 3 5 5 5 5 5 5 5 5 5 5 5 3 5 5 3 5 5 5 5 5 5 5 5 5 5 5 5 5 5 5 3 5 5 5 5 5 5 5 3 5 3 5 5 5 5 3 5 3 5 5 5 5 5 5 5 5 5 3 5 5 5 5 5 5 5 5 5 5 5 5 5 5 5 5 5 3 5 5 5 5 5 5 5 5 5 5 5 5 5 5 5 5 5 5 5 5 5 5 5 5 5 3 3 5 5 5 5 5 5 5 5 5 5 5 3 5 5 5 5 3 5 5 5 5 3 5 5 5 5 5 5 5 5 3 5 5 5 5 5 5 5 5 5 3 5 5 5 5 5 5 5 5 5 5 5 5 5 5 5 5 5 5 5 5 3 5 5 5 5 5 5 5 5 5 5 5 5 5 5 3 5 3 5 5 5 5 5 5 5 5 3 5 5 3 5 5 5 5 5 5 5 5 5 5 5 5 5 5 5 5 5 5 5 5 5 5 5 5 5 5 5 5 5 5 5 5 5 5 5 5 3 5 5 3 5 5 5 5 3 5 3 5 5 3 5 3 5 5 5 5 5 3 5 5 5 5 5 5 5 5 5 5 5 5 3 5 5 5 3 5 5 5 5 5 5 5 5 5 3 5 5 5 5 3 3 5 5 5 5 5 5 5 5 3 5 5 5 5 5 3 5 5 5 3 5 5 5 3 5 5 5 5 3 5 5 5 5 5 5 5 5 5 5 5 5 5 5 3 5 5 5 5 5 5 3 5 3 3 5 3 5 3 5 5 5 5 3 5 5 5 5 3 5 5 5 5 5 5 5 5 5 3 5 5 5 5 5 5 5 5 5 5 5 5 5 5 3 5 5 5 3 5 5 5 3 5 3 5 5 5 5 5 5 5 5 5 5 5 5 5 5 5 5 3 5 5 5 5 5 5 3 5 5 5 5 5 5 5 5 5 5 5 5 5 5 5 5 5 5 3 5 5 5 5 5 5 5 5 5 5 5 5 5 5 5 5 5 5 5 5 5 5 5 5 5 5 5 5 5 5 5 5 5 5 3 5 5 5 5 3 5 5 5 5 5 5 5 3 5 5 5 5 5 5 5 5 5 3 5 5 3 5 5 5 5 5 3 5 5 5 3 5 5 3 5 5 5 5 5 5 5 5 5 5 5 5 5 5 5 5 5 5 5 5 3 5 5 5 5 5 5 5 5 5 5 3 3 5 3 5 5 5 5 5 3 5 5 5 5 3 5 5 5 5 5 3 5 3 5 5 3 5 5 5 5 5 5 5 5 3 5 5 5 5 5 5 3 5 5 5 5 5 5 3 5 5 5 5 3 5 5 3 5 3 5 5 3 5 5 5 5 5 5 3 5 5 5 5 3 5 5 5 5 5 5 5 5 3 3 5 5 5 5 5 5 5 5 3 5 5 5 5 5 5 3 5 5 5 5 5 5 5 3 5 5 5 3 5 5 5 5 5 5 5 5 5 5 5 5 3 5 5 5 5 3 5 5 3 5 5 5 5 3 5 5 5 3 3 5 5 5 3 5 5 5 3 5 5 5 5 5 5 5 5 5 3 5 5 5 3 5 5 5 5 5 5 5 5 5 5 5 5 3 5 3 5 5 3 5 5 3 5 5 5 5 5 5 5 3 5 5 5 5 5 3 5 3 5 5 5 3 3 5 3 3 5 3 5 5 5 5 5 5 3 5 3 5 5 5 5 5 5 5 5 5 5 5 5 5 3 5 5 3 5 3 5 5 3 5 5 5 3 3 5 5 3 5 5 5 5 5 5 5 5 5 5 5 5 5 5 5 5 5 5 5 5 5 5 5 3 3 5 3 5 3 5 5 3 3 5 5 3 5 5 3 5 5 3 5 3 5 5 5 5 3 5 5 5 5 3 5 3 3 5 3 5 5 3 3 5 5 5 3 5 5 5 5 3 3 5 5 5 5 5 3 5 5 5 5 5 5 5 5 5 5 5 3 5 3 5 3 5 5 3 5 3 5 5 5 5 5 5 5 5 3 5 5 3 5 5 5 5 3 5 5 5 5 5 5 5 5 5 5 5 5 3 5 5 5 5 5 5 5 5 5 5 5 3 5 5 5 5 5 5 3 5 3 5 5 3 5 5 5 5 5 5 5 5 5 5 5 5 5 5 5 5 5 3 3 5 5 5 3 5 5 3 5 5 5 5 5 5 5 5 5 5 5 5 5 5 5 5 5 5 5 5 5 5 5 5 5 3 3 5 5 5 5 5 5 5 5 5 5 5 3 5 5 5 5 5 5 5 5 5 5 5 5 5 5 5 5 5 5 5 5 5 5 5 5 5 5 5 5 5 5 5 5 5 3 5 5 5 5 5 3 5 5 3 5 5 3 3 5 5 5 5 5 5 5 5 5 5 5 5 5 3 5 5 3 5 5 5 5 5 5 3 5 5 3 5 5 5 5 5 5 5 5 5 5 5 5 5 3 5 5 5 5 5 5 5 3 5 5 5 5 5 5 5 5 5 5 5 5 3 5 5 3 5 5 5 5 5 5 5 5 5 5 5 5 5 5 5 5 5 5 5 5 3 5 5 3 5 3 5 5 5 3 5 5 3 5 3 5 5 5 3 5 5 5 5 3 5 5 5 5 5 5 5 3 5 5 5 3 5 5 5 5 5 5 5 5 5 5 5 5 3 5 5 5 5 5 5 5 5 3 5 5 5 5 5 5 5 5 5 5 5 3 5 5 5 5 5 5 5 5 5 5 5 5 5 5 5 5 5 5 5 3 3 5 5 5 3 5 5 5 5 5 5 5 5 5 5 5 5 3 5 5 5 5 5 5 5 5 5 3 5 5 5 5 5 5 5 5 5 5 5 5 5 5 5 5 3 5 3 5 5 5 5 5 3 5 5 5 5 3 5 5 5 3 5 5 5 3 5 5 5 5 5 5 5 5 5 3 5 5 5 3 5 5 3 5 5 5 5 5 5 3 5 5 5 5 5 5 5 5 3 5 5 5 3 5 5 5 5 5 5 5 5 5 5 5 5 5 5 5 5 5 5 5 5 5 5 5 5 5 5 5 3 5 5 5 5 5 5 5 3 5 5 5 5 5 5 5 5 5 5 5 5 5 5 5 5 5 5 5 5 5 5 5 5 5 3 5 3 5 5 5 5 5 5 3 5 5 5 3 5 5 3 5 5 5 5 5 5 5 5 5 5 5 5 3 5 5 5 5 5 3 5 5 5 5 5 5 5 5 5 5 5 5 5 3 5 5 5 3 5 5 5 5 5 5 5 5 5 5 5 5 3 3 5 5 5 5 3 5 5 5 5 5 5 5 5 5 3 3 5 5 5 5 5 3 5 5 5 5 5 3 5 5 5 5 5 3 5 3 5 5 5 5 3 5 3 5 3 3 5 5 5 5 5 5 5 3 3 5 5 5 5 5 5 3 3 3 5 3 3 5 5 5 3 5 5 5 5 5 3 3 3 5 3 5 5 5 3 5 3 3 5 5 5 5 5 5 5 3 3 5 5 3 3 3 5 5 5 5 5 5 5 5 5 5 5 5 5 5 5 5 5 5 5 5 5 5 5 5 5 5 5 5 5 5 5 5 5 5 5 5 5 5 5 5 3 5 5 5 5 5 5 5 5 5 5 3 5 5 5 5 5 5 3 5 5 3 5 5 5 5 5 5 5 5 5 5 5 5 5 3 5 3 5 5 5 5 3 5 5 5 3 5 5 3 5 5 5 3 5 5 3 5 5 5 5 5 3 5 5 5 5 5 5 5 3 5 5 5 5 5 5 5 3 5 5 3 5 5 5 5 3 5 3 5 5 5 5 5 3 5 5 5 5 3 5 5 5 5 5 5 3 3 5 5 5 5 5 3 5 5 3 5 5 5 5 5 5 5 5 5 5 3 5 5 5 5 5 5 5 5 5 5 5 5 5 5 5 5 5 5 3 5 5 5 5 5 5 3 5 5 5 5 5 5 5 3 3 5 5 5 5 3 5 5 5 5 5 5 5 3 5 5 3 5 3 3 3 5 5 5 5 5 5 3 5 5 5 5 5 3 5 5 5 5 3 5 5 5 3 5 5 5 3 5 5 5 5 5 5 5 5 5 5 5 5 5 5 5 5 5 5 5 5 5 5 5 5 5 3 5 5 5 5 5 5 5 3 5 3 5 5 5 5 5 5 3 5 5 3 5 5 5 3 5 5 3 5 5 5 5 5 3 5 5 5 3 3 5 5 5 5 5 5 5 5 5 5 5 5 3 5 5 5 5 5 5 5 5 5 3 5 5 5 5 5 3 3 5 5 5 5 5 5 5 5 5 3 5 5 5 5 5 5 5 5 3 5 5 5 5 5 5 5 5 5 5 5 5 5 5 5 5 5 5 3 5 5 5 5 3 5 3 5 3 5 5 5 5 5 5 5 5 5 5 5 5 5 5 5 5 5 3 5 5 5 5 5 3 5 5 5 3 3 5 5 5 5 5 3 5 5 5 5 3 5 5 5 5 5 5 5 5 3 5 5 5 5 5 5 5 3 5 5 5 5 5 5 5 5 5 3 5 5 5 5 5 5 5 5 5 5 5 5 5 5 5 5 5 5 3 5 5 5 5 5 5 5 5 5 5 5 5 5 3 5 5 5 5 5 5 3 5 5 3 5 5 3 5 5 5 5 5 5 5 5 5 5 5 5 5 5 5 5 5 5 5 5 5 5 5 5 5 5 3 5 3 5 3 3 5 5 5 3 5 5 5 5 5 5 5 5 5 3 3 5 3 5 5 5 5 5 5 5 5 5 5 5 5 5 5 3 5 3 3 5 3 5 5 5 5 5 5 5 5 5 3 3 5 5 5 5 5 5 5 5 5 5 5 5 5 5 5 5 5 5 5 5 5 5 3 5 5 5 5 5 3 5 5 5 5 5 3 5 5 5 3 5 5 5 5 5 5 5 5 5 3 5 5 5 5 3 5 5 5 5 5 5 3 5 5 5 5 5 5 5 3 5 5 5 5 3 5 5 5 5 5 5 5 5 5 5 3 5 5 5 5 3 5 5 5 3 5 5 5 5 5 3 5 5 5 5 5 5 5 5 5 5 5 5 5 5 3 3 5 5 3 5 5 5 5 5 5 5 3 5 5 5 5 5 5 3 5 5 5 5 5 5 5 5 5 5 5 5 5 5 5 5 5 5 5 5 5 5 5 3 5 5 5 5 5 5 5 5 3 5 5 5 5 3 5 5 5 5 5 3 5 3 5 3 5 5 5 5 5 5 5 3 5 5 5 3 5 5 5 5 5 3 5 5 5 5 5 3 5 3 5 5 3 5 3 5 5 5 5 5 3 5 5 5 3 5 5 5 5 5 5 5 5 5 5 3 5 5 5 5 5 5 5 5 5 5 5 5 5 5 5 5 5 5 5 5 5 5 3 5 5 5 5 5 5 5 5 5 5 5 5 5 5 5 5 5 5 3 5 5 5 3 5 5 5 5 5 5 3 5 5 5 3 3 5 3 5 3 3 5 3 5 5 3 5 5 3 3 5 5 5 5 5 5 5 5 3 5 3 5 5 5 5 5 5 5 5 5 5 5 5 5 5 5 5 5 5 5 5 5 5 3 5 5 5 5 5 5 5 5 3 5 5 3 5 5 3 3 5 5 3 5 5 5 5 5 5 5 5 5 5 5 5 5 5 5 5 5 5 5 5 5 5 5 5 5 5 5 5 5 5 5 5 5 5 5 5 5 5 5 3 5 3 5 5 5 5 5 5 5 5 5 5 5 5 5 5 5 5 5 5 5 5 5 5 5 5 5 5 5 5 5 5 5 5 5 5 5 5 5 5 5 5 3 5 5 3 5 5 5 5 5 3 5 3 5 5 3 5 5 5 5 5 5 3 5 5 5 5 5 5 5 5 5 5 5 3 5 5 3 3 5 3 5 5 3 5 5 5 5 3 5 5 5 5 5 5 5 5 5 3 5 3 5 5 5 5 5 5 5 3 5 3 5 5 5 5 5 5 5 5 5 3 5 3 5 5 5 5 5 5 5 5 5 5 3 5 5 5 3 5 5 3 5 5 3 5 5 5 5 3 5 5 5 3 5 5 5 5 5 5 5 5 5 5 5 5 5 5 3 5 5 5 5 5 5 3 5 3 5 3 5 5 5 3 5 5 5 5 5 5 5 5 3 5 5 5 5 5 3 5 5 3 5 5 5 5 5 5 5 5 5 3 5 5 5 3 5 5 5 5 5 5 3 5 5 5 5 5 5 5 5 5 5 5 5 5 5 5 5 5 5 5 5 5 5 5 5 5 5 5 5 5 5 5 3 5 5 5 5 5 3 5 5 3 3 5 5 5 5 3 5 5 5 5 5 3 5 5 5 5 5 5 5 5 5 5 5 5 5 5 5 5 3 5 5 5 5 5 5 5 5 3 3 5 5 5 5 5 5 3 5 5 5 5 3 5 5 5 5 5 5 5 5 5 5 5 5 5 5 5 5 5 5 5 5 5 5 5 5 3 5 5 3 5 5 5 5 5 5 5 5 5 5 5 5 5 5 5 5 5 5 5 5 5 5 5 5 5 5 5 3 5 3 5 5 5 5 5 3 5 5 5 5 5 5 5 5 5 5 5 5 5 5 5 5 5 5 5 5 3 3 5 3 5 5 5 5 5 5 5 5 5 5 5 5 5 5 5 5 3 5 5 5 3 5 5 5 5 5 5 5 5 5 5 5 5 5 3 5 5 5 5 5 5 5 5 5 5 5 5 5 5 5 5 5 5 5 5 5 5 3 5 5 5 5 5 5 5 5 5 5 5 5 5 3 5 3 5 5 3 3 5 5 5 5 5 5 5 5 5 5 5 5 5 5 5 5 5 5 5 5 3 5 5 3 5 5 5 3 5 5 5 5 5 5 3 5 5 5 3 5 5 5 5 5 5 5 5 3 5 5 3 5 5 3 5 3 5 5 5 5 3 3 5 5 3 3 5 5 3 5 5 5 5 3 5 5 3 3 5 3 5 5 5 5 5 5 5 5 5 5 5 5 5 5 5 5 5 5 5 5 3 5 5 5 5 3 5 5 5 5 3 3 5 5 5 5 5 5 5 5 5 5 5 5 3 5 5 5 3 5 5 5 5 5 5 5 3 5 5 5 3 5 5 3 3 5 5 5 3 5 5 5 3 5 5 5 5 5 5 5 5 5 5 5 5 5 5 5 5 5 5 3 5 5 5 5 5 5 5 5 5 5 5 5 5 5 5 5 5 5 3 3 5 5 5 5 5 3 3 5 3 5 5 5 5 5 5 5 5 5 3 5 5 5 3 5 5 5 5 5 5 5 5 5 5 5 5 5 5 3 5 5 5 5 5 5 5 3 5 5 3 5 5 5 5 5 5 3 5 5 5 5 3 5 5 5 5 5 5 3 5 5 5 5 5 5 5 5 3 3 5 5 5 3 3 5 5 5 5 5 3 5 5 5 5 5 5 3 5 5 5 5 3 5 5 5 5 5 3 5 5 5 5 3 5 5 5 5 5 5 5 5 5 5 5 5 5 5 5 5 5 5 5 5 5 5 5 5 5 3 5 5 5 5 3 5 3 5 3 5 5 3 5 5 3 5 5 3 5 5 5 5 5 5 3 5 5 3 5 3 3 3 5 5 3 5 3 3 5 5 5 3 5 3 5 5 5 5 5 5 3 5 5 5 3 5 5 5 5 5 5 5 3 5 5 5 3 5 3 3 5 5 5 5 5 5 5 3 5 5 5 5 5 5 5 5 3 3 5 5 5 5 3 5 5 3 5 5 5 3 5 5 5 3 3 5 5 5 5 3 5 5 5 5 5 3 3 5 5 5 5 5 5 5 5 5 5 5 5 5 5 5 5 5 5 5 5 5 5 5 5 5 5 5 5 5 5 5 3 5 5 5 3 5 5 5 5 5 5 5 5 5 5 5 5 5 5 5 3 5 3 3 5 5 3 5 5 5 5 5 5 5 5 5 5 5 5 5 5 5 5 5 5 5 5 5 5 5 3 5 5 3 3 5 5 5 5 5 5 5 3 5 5 5 3 5 5 5 5 3 3 5 5 5 5 5 5 5 3 5 5 5 5 3 5 5 5 5 3 5 5 5 5 5 5 5 5 5 5 5 5 5 5 5 5 5 5 5 3 5 5 5 5 5 5 5 5 5 5 5 5 5 5 5 5 3 5 5 5 3 5 5 5 5 5 5 5 5 5 3 5 5 5 5 5 5 5 5 5 5 5 5 5 5 5 5 5 5 5 5 5 3 5 5 5 5 5 5 5 5 5 5 5 5 5 5 5 5 5 3 5 5 5 5 5 3 5 5 5 5 5 5 5 5 5 5 5 5 5 5 5 5 5 5 5 5 5 5 5 5 5 5 5 3 5 5 3 5 5 5 3 5 5 5 5 5 5 5 5 5 5 5 5 5 5 5 3 5 3 5 5 5 5 5 5 5 5 5 3 5 5 5 5 5 5 5 5 5 3 3 5 5 5 5 5 5 5 5 5 5 5 5 5 5 5 5 5 5 5 5 5 5 5 5 5 5 5 5 5 5 5 5 5 5 5 5 5 5 5 5 5 5 5 5 5 5 5 5 5 5 5 5 5 5 5 5 5 5 5 5 5 5 5 5 5 5 5 5 5 5 5 3 5 5 5 5 5 5 3 5 5 5 5 5 5 5 5 5 3 5 3 5 5 5 5 5 5 5 5 5 5 5 5 5 5 5 5 5 5 5 5 5 5 5 5 5 5 5 5 5 5 5 5 5 5 3 5 5 5 3 3 5 5 5 5 5 5 5 5 5 5 5 5 5 5 5 5 5 5 5 5 5 5 3 3 5 5 5 5 5 5 5 5 3 5 5 5 5 5 5 3 5 5 5 5 5 3 5 5 5 5 3 5 5 5 3 5 5 5 3 5 5 3 5 5 5 5 5 5 5 5 5 5 5 5 5 3 5 5 5 5 5 5 5 5 3 5 5 5 5 5 5 5 5 5 5 5 3 5 5 5 3 5 5 5 5 3 5 5 5 5 5 5 5 5 3 5 3 5 5 3 5 5 5 5 5 3 5 5 5 5 5 5 5 5 5 5 5 5 3 5 5 5 5 5 5 5 5 5 3 5 5 5 5 5 5 3 5 5 5 5 5 5 5 3 5 5 5 5 5 3 5 5 5 5 5 5 5 5 5 5 5 5 5 5 5 5 5 5 5 5 5 5 5 5 5 5 5 5 5 5 5 5 5 5 5 5 5 5 5 5 5 5 5 5 5 5 5 3 5 3 5 5 5 5 5 5 5 5 5 5 5 5 5 5 3 5 5 5 5 5 5 5 5 5 5 5 5 5 5 5 3 5 5 3 5 3 5 5 5 5 5 3 5 5 5 5 5 5 5 5 5 5 5 5 5 5 5 5 5 5 5 5 3 5 5 5 5 5 5 5 5 5 5 5 3 5 3 5 5 3 5 3 5 5 5 5 5 5 5 3 5 3 5 5 5 5 3 5 5 5 5 3 3 5 5 3 5 5 5 5 5 5 5 5 5 5 5 5 5 5 5 5 3 5 5 5 5 5 5 5 5 5 5 5 5 5 5 3 5 3 5 5 5 5 5 5 5 3 5 3 5 5 5 5 5 5 5 5 5 3 3 5 5 5 3 5 5 5 5 3 5 3 5 5 3 5 3 3 3 5 5 3 5 5 5 3 3 3 5 5 5 5 5 5 5 5 5 5 5 3 5 5 5 5 5 5 3 5 5 5 3 5 5 5 5 5 5 5 5 3 5 5 5 3 5 5 5 5 5 5 5 5 5 5 5 5 5 5 5 5 5 5 5 5 5 5 5 5 5 5 5 5 5 5 5 5 5 5 5 5 5 5 5 5 5 5 5 5 5 5 5 5 5 5 5 5 5 5 5 5 5 5 5 5 3 5 5 5 5 5 3 5 5 5 5 3 5 5 5 3 5 5 5 5 5 5 5 5 5 5 5 5 5 5 5 5 5 5 5 5 5 5 5 5 5 5 5 5 5 5 5 5 5 5 5 5 5 5 5 5 3 5 5 3 5 5 5 5 5 5 5 3 5 5 5 5 5 5 5 5 5 5 5 3 5 5 3 5 3 5 5 5 3 5 5 5 5 5 5 5 5 3 5 5 5 5 3 5 5 5 5 3 5 3 5 5 5 5 5 5 5 5 5 5 5 5 3 5 3 5 5 5 5 5 5 5 5 5 5 5 5 5 3 5 5 5 5 5 5 5 5 5 3 5 5 5 3 5 5 5 5 5 5 5 5 5 5 5 5 5 5 5 5 5 5 5 5 5 5 5 5 5 5 5 5 5 5 5 5 5 5 5 3 5 5 3 5 5 5 5 3 5 5 5 5 5 5 5 5 5 5 5 5 5 5 5 3 5 5 5 5 5 5 5 5 5 3 5 3 5 5 5 5 5 5 5 3 5 5 5 5 5 5 5 5 5 5 5 5 5 5 3 5 5 5 5 5 5 5 5 5 5 5 3 5 5 5 5 5 5 5 5 5 5 5 5 5 5 5 5 5 5 5 5 5 5 5 3 5 3 5 5 5 5 5 5 3 5 3 5 5 5 3 5 5 5 3 5 5 5 3 5 5 3 5 5 5 5 5 5 5 3 5 5 5 5 5 5 5 3 5 5 5 5 5 5 5 5 5 5 5 5 5 3 5 5 5 5 5 5 5 5 3 5 5 5 5 5 5 5 5 5 5 5 5 5 5 5 5 5 5 5 5 3 5 5 5 5 5 5 5 5 5 5 5 5 5 5 5 5 5 5 5 5 5 5 5 5 5 5 5 5 5 5 5 5 5 5 5 5 5 5 5 5 5 5 5 5 5 5 5 5 5 5 3 5 3 5 5 5 3 5 5 3 3 5 3 5 5 5 5 5 5 5 5 5 5 5 5 5 5 5 5 5 5 5 5 5 5 5 5 5 5 5 5 5 5 5 5 5 5 5 3 5 5 5 5 3 5 5 3 5 5 5 3 5 5 5 5 3 5 3 3 5 5 5 5 3 5 5 5 3 5 5 5 3 5 5 5 5 5 5 3 5 5 5 5 5 5 5 5 5 5 5 5 5 5 5 5 5 5 5 5 3 5 5 5 5 5 5 5 5 5 5 5 5 5 5 5 5 5 5 3 5 5 3 5 5 3 5 5 5 5 5 5 5 5 5 5 5 3 5 5 5 5 3 5 5 5 5 3 5 5 5 3 5 5 5 5 5 5 5 5 5 5 5 5 5 5 5 5 5 5 5 5 5 5 5 5 5 3 5 5 5 5 5 5 5 5 3 5 5 5 3 5 5 5 5 5 5 5 5 5 5 5 5 5 5 5 5 5 5 5 5 5 5 5 5 3 5 5 5 3 5 5 5 5 5 5 5 5 3 5 5 3 5 5 5 5 3 5 5 5 5 5 5 5 3 5 3 5 5 3 5 5 3 3 5 5 5 5 5 5 5 5 5 5 5 5 5 5 5 5 5 5 5 5 5 3 5 5 5 5 3 5 5 5 5 5 5 5 5 5 5 5 5 5 3 5 5 3 5 5 5 5 5 5 5 5 5 5 5 5 5 5 5 5 5 5 5 5 5 5 5 5 5 5 5 5 5 5 5 5 5 5 5 5 5 5 5 5 5 5 5 5 5 5 5 5 5 5 5 5 5 5 5 5 5 5 5 5 5 5 5 5 5 5 5 5 5 5 5 5 5 5 5 5 5 5 5 5 5 5 5 5 5 5 5 5 5 5 5 5 5 5 5 5 5 5 5 5 5 5 5 5 5 5 5 5 5 5 5 5 5 5 5 5 5 5 5 5 5 5 5 5 5 5 5 5 3 5 5 5 5 5 5 5 3 5 5 5 5 5 5 5 5 5 3 5 3 5 5 5 3 5 5 3 5 5 5 5 5 5 5 5 5 5 5 5 5 5 5 5 5 5 5 5 5 5 5 5 5 5 5 5 5 5 5 5 5 5 5 5 5 3 5 5 3 3 5 5 3 5 5 3 5 5 5 3 5 5 5 5 5 5 5 5 5 3 5 5 5 5 5 5 3 5 5 5 5 5 5 5 5 5 5 5 5 5 5 5 5 5 5 5 5 5 5 5 5 5 5 5 5 5 5 5 3 5 5 5 5 5 5 5 5 5 5 5 5 5 5 5 5 5 5 5 5 5 5 5 5 5 5 5 5 5 5 5 5 5 5 5 5 5 5 5 5 5 5 5 5 5 5 3 5 3 5 5 5 5 3 5 5 5 5 3 5 5 5 5 3 5 5 5 5 5 5 5 5 3 5 5 3 5 3 5 5 5 5 3 5 5 3 3 5 5 5 5 5 5 3 5 5 5 5 5 5 5 5 5 5 3 3 5 5 5 5 5 3 5 5 3 5 5 5 5 3 5 5 3 5 5 5 5 5 5 5 5 5 5 5 5 5 5 5 5 5 5 5 5 5 5 5 5 5 5 5 5 5 3 5 3 5 5 5 5 5 5 5 5 5 5 5 5 5 3 5 5 5 5 3 3 5 5 5 5 5 5 5 5 5 5 5 5 5 5 5 5 5 5 5 5 5 5 5 5 5 5 5 5 5 5 5 5 5 5 5 5 5 5 5 5 5 5 3 5 5 5 3 5 5 5 5 5 5 5 5 5 5 5 5 5 5 5 5 5 5 5 5 3 5 5 3 5 5 5 5 5 5 5 5 5 3 5 5 5 5 5 3 5 5 5 5 5 3 5 3 5 5 5 5 5 5 5 5 5 5 5 5 5 3 5 5 5 3 3 5 5 5 5 5 5 5 5 3 5 5 3 5 5 3 3 5 5 5 5 5 3 5 5 5 5 5 5 5 3 5 5 3 3 5 5 5 5 5 5 3 3 5 5 5 3 5 5 5 5 5 5 5 3 5 5 5 5 5 5 5 5 5 5 5 5 5 5 5 5 5 5 5 5 5 5 5 5 5 5 3 5 5 5 5 5 5 5 3 5 5 5 5 5 5 5 5 5 5 5 3 5 5 5 5 5 5 5 5 3 5 5 5 5 5 5 5 5 5 5 5 5 5 5 5 5 3 5 5 5 3 5 5 5 5 5 3 5 5 5 5 5 5 5 5 5 5 5 5 5 5 3 5 5 5 5 3 5 5 3 5 5 5 5 5 3 5 5 5 5 5 5 5 5 5 5 5 5 5 5 3 5 3 5 5 5 3 5 3 5 3 5 5 5 5 5 5 3 3 5 5 5 5 5 5 3 5 3 5 5 5 5 5 5 5 5 5 5 5 5 5 5 5 5 5 3 5 5 5 3 3 5 5 5 5 5 3 5 5 3 3 5 5 5 5 5 5 5 5 5 5 5 5 5 5 5 5 5 5 5 5 5 5 5 5 5 5 5 5 5 5 5 5 5 5 5 5 5 5 5 5 5 5 5 5 3 5 5 3 3 3 5 5 5 5 5 5 3 5 5 5 5 5 5 5 5 5 3 5 5 5 3 5 5 5 5 5 5 5 5 5 5 5 5 5 5 5 5 5 5 5 5 3 5 5 5 5 3 5 5 5 5 5 5 5 5 5 5 5 5 5 5 5 5 5 5 5 5 5 5 5 5 5 5 5 5 5 5 5 5 5 5 3 5 3 5 5 5 5 5 5 5 5 3 5 5 5 3 5 3 5 5 5 5 5 5 5 5 3 5 5 5 5 3 5 5 5 5 3 5 5 5 5 5 5 5 3 5 5 5 5 3 5 5 5 5 5 5 5 5 5 5 5 5 5 5 5 5 5 5 5 5 5 5 5 5 5 5 5 5 5 5 5 5 5 5 5 5 5 5 5 5 5 5 5 5 5 5 3 5 5 5 5 3 3 5 5 3 3 5 5 5 5 5 5 5 5 5 5 5 5 5 5 5 5 5 5 5 3 5 5 5 3 3 5 5 5 5 5 5 5 5 5 5 5 5 5 5 5 5 5 5 5 5 5 5 5 5 5 5 5 3 5 5 5 5 5 5 5 3 5 5 5 5 5 5 5 5 5 5 5 5 5 5 5 3 5 5 5 5 5 5 5 5 3 5 3 3 5 5 5 5 5 5 5 5 5 5 5 5 3 5 5 5 5 5 5 5 5 5 5 5 5 5 5 5 5 5 5 3 5 5 5 3 5 5 5 5 5 5 5 5 3 5 5 5 5 5 5 5 5 5 5 5 5 5 5 5 3 5 5 5 3 5 5 5 5 5 5 5 5 5 5 5 5 5 5 5 5 5 5 5 5 5 5 5 5 5 5 5 5 5 5 5 5 5 3 5 3 5 5 5 5 5 5 5 5 3 5 5 5 5 5 5 5 5 5 3 5 5 3 5 5 5 5 5 3 5 5 5 5 3 5 5 5 5 3 5 5 5 3 5 3 5 5 3 5 5 5 5 5 5 5 5 5 5 5 5 5 5 3 5 5 3 5 3 5 5 5 3 5 5 3 5 5 5 5 3 5 3 5 5 5 5 5 5 3 5 3 5 5 5 5 5 3 5 5 5 5 3 5 5 5 5 5 5 3 5 5 5 5 5 5 5 5 5 5 5 5 5 5 5 5 5 5 5 5 5 5 5 5 5 5 5 5 5 5 5 5 5 3 3 5 5 5 5 5 5 5 5 5 5 3 5 5 3 3 5 3 5 5 5 5 5 5 5 3 5 5 5 5 5 5 5 5 5 5 5 5 3 5 5 5 5 3 5 5 5 5 5 5 5 5 5 5 5 5 3 5 5 5 5 5 5 5 5 5 5 5 5 5 5 5 5 5 3 5 5 5 5 5 3 5 5 5 3 5 5 5 5 5 5 3 5 3 5 5 5 3 5 5 5 5 5 5 5 5 5 3 5 5 3 5 5 5 5 5 5 5 3 5 5 5 5 5 5 5 5 5 5 5 5 5 3 5 5 3 5 5 5 5 5 5 3 5 5 5 5 5 5 3 5 5 5 5 5 5 5 3 5 5 5 5 5 5 5 5 5 5 5 5 5 5 5 5 5 5 5 5 5 5 3 5 5 5 5 5 5 5 5 5 5 3 5 5 5 5 3 3 5 5 5 5 3 5 5 5 5 5 5 5 5 5 3 5 5 5 5 5 5 5 5 5 5 5 3 5 5 5 3 5 5 5 3 5 5 5 5 5 5 5 5 5 5 5 5 3 5 5 5 5 5 3 5 5 3 5 5 5 5 5 5 5 5 5 5 5 5 5 5 3 5 5 5 5 5 5 5 3 5 5 5 3 5 5 5 5 5 3 5 5 5 5 5 5 5 5 5 3 5 5 5 5 5 5 5 5 3 5 5 5 5 5 3 5 5 5 5 5 5 5 3 5 5 5 5 5 5 5 5 5 5 5 5 5 5 5 5 5 5 5 5 5 5 5 5 5 5 5 5 5 5 5 5 5 5 5 5 5 5 5 5 5 5 5 5 5 5 5 5 3 5 5 5 5 5 5 5 3 5 5 5 5 5 5 5 5 5 5 5 5 5 5 5 5 5 5 5 5 5 5 3 3 5 5 3 3 5 5 5 5 5 5 5 3 5 5 5 5 5 5 5 5 5 5 5 5 5 5 3 5 5 5 5 5 5 5 5 3 5 5 3 5 5 5 3 5 5 5 5 5 5 5 5 5 5 5 5 5 5 5 5 5 5 5 5 5 5 5 5 5 5 5 5 3 5 5 5 5 5 5 5 5 3 5 5 5 5 5 5 3 3 5 5 5 5 3 5 5 3 5 5 3 5 5 5 5 5 5 3 5 5 5 5 5 5 5 5 3 5 5 5 5 5 5 5 5 5 5 5 3 5 5 3 5 5 5 5 5 5 5 3 5 5 5 3 5 3 5 3 5 5 5 5 5 5 5 5 5 5 5 5 5 5 5 5 5 3 5 3 5 5 5 5 5 5 5 5 5 5 3 5 5 5 5 5 5 5 3 5 5 5 3 5 3 3 5 5 3 5 5 5 5 3 5 5 5 3 5 5 5 3 5 3 3 5 5 5 5 5 5 3 5 5 5 5 5 5 5 5 3 3 3 5 3 5 5 3 3 5 5 3 5 5 5 5 5 5 5 5 5 5 5 3 5 5 5 5 5 5 5 5 5 5 5 5 5 3 3 5 5 5 5 3 5 5 5 3 5 5 5 5 5 3 3 5 5 5 3 5 5 5 5 5 5 5 5 5 5 5 5 5 5 5 3 5 5 5 3 5 5 5 3 5 5 5 5 5 5 3 5 5 5 5 5 3 5 5 5 5 5 5 5 5 3 5 5 5 5 5 5 5 5 5 3 5 5 5 5 3 5 3 5 5 3 5 3 5 5 5 5 5 5 3 5 3 3 5 5 5 5 5 5 5 5 3 5 3 5 3 5 3 5 5 5 5 5 5 5 5 5 5 5 3 5 5 5 3 5 5 5 5 5 5 5 5 3 5 5 5 5 5 5 5 5 5 3 5 5 5 5 3 5 5 3 5 5 5 5 5 5 5 5 5 3 5 5 5 3 5 5 5 5 5 5 5 5 5 5 5 5 5 5 5 5 5 5 5 3 5 5 5 5 5 5 5 5 5 5 3 5 5 5 5 5 5 5 5 5 5 5 5 5 5 5 5 5 5 5 5 5 5 5 5 5 5 5 5 5 5 5 5 5 5 5 5 5 5 5 5 5 5 5 5 5 3 3 5 5 5 5 5 5 5 5 5 5 5 5 5 3 3 5 5 5 3 5 5 3 5 5 5 3 5 5 5 3 5 5 5 5 5 5 5 5 3 5 5 3 5 3 3 5 5 5 5 5 5 3 5 3 3 3 5 5 3 5 5 3 3 5 5 5 5 5 5 5 5 5 5 5 5 5 5 5 5 5 5 5 5 5 3 5 5 5 5 5 5 5 5 5 3 5 5 5 5 5 5 5 3 3 5 5 5 5 5 5 5 5 5 5 5 5 5 5 5 5 5 5 5 5 5 5 5 3 5 3 5 5 5 5 5 5 5 3 5 5 5 3 3 5 5 3 5 5 5 5 3 5 5 5 3 5 5 5 3 5 5 5 5 5 5 5 5 5 3 3 5 5 5 5 5 3 5 5 3 3 3 5 5 5 5 5 3 5 5 5 5 5 5 5 5 5 3 5 3 5 5 5 5 5 5 5 5 5 5 5 5 5 5 5 5 5 5 5 5 5 5 5 5 3 5 5 5 5 3 3 5 5 5 3 5 5 5 5 5 5 5 5 5 5 5 5 5 5 5 5 3 5 5 5 3 5 5 3 5 5 5 5 5 5 5 5 5 5 5 5 5 3 5 5 3 5 5 5 3 5 3 5 3 5 3 3 3 5 5 5 5 5 5 5 5 3 5 5 5 5 5 5 5 5 3 5 5 3 5 5 5 5 5 5 5 5 5 5 5 5 5 5 5 5 5 5 5 5 5 3 5 5 5 5 5 5 5 5 5 5 3 5 3 5 5 3 5 3 5 3 5 5 3 5 3 5 5 3 5 5 5 3 5 5 5 5 5 5 5 5 5 5 5 5 5 5 5 5 5 5 5 5 5 5 5 5 5 5 5 5 5 5 5 5 5 5 5 5 5 5 5 5 5 5 5 5 5 5 5 5 5 5 5 5 5 5 5 5 5 5 5 5 5 3 5 5 3 5 5 5 5 5 5 3 3 5 5 5 5 5 5 5 5 5 5 5 5 5 5 5 5 5 5 3 5 5 5 3 5 5 5 5 5 5 5 5 5 5 5 5 5 5 5 5 3 5 5 5 5 5 5 5 3 5 5 5 5 5 5 5 5 3 5 3 5 5 5 5 5 5 5 5 5 5 5 5 5 5 5 5 3 5 5 5 5 5 5 5 3 5 5 5 5 3 5 5 5 5 5 5 5 3 5 5 3 3 5 5 3 5 5 5 5 5 5 3 5 5 5 5 5 5 5 5 5 3 5 5 3 5 5 3 5 5 3 5 5 5 5 5 3 5 5 5 5 5 5 5 5 3 5 5 5 5 5 5 5 3 5 5 5 5 5 5 5 5 5 5 5 5 3 5 5 5 5 5 5 5 3 3 5 3 5 3 5 5 5 5 5 5 5 5 5 5 5 5 5 5 5 3 5 3 5 5 5 5 5 5 5 5 3 5 3 5 3 5 3 5 3 5 5 3 5 5 5 5 5 3 5 5 5 5 5 5 5 5 3 5 5 5 5 5 3 5 5 3 5 3 3 5 5 5 5 5 5 5 5 3 5 5 5 5 5 5 5 5 5 5 5 5 5 3 5 5 5 5 5 5 5 3 5 5 5 3 5 5 5 5 5 5 5 5 5 5 5 5 5 5 5 5 5 3 5 5 5 5 5 5 5 3 5 5 3 5 5 5 5 5 5 5 5 5 5 5 5 5 5 5 3 5 5 5 5 3 5 5 5 5 5 5 5 5 5 5 5 5 5 5 5 5 5 5 5 5 5 5 5 5 5 3 5 5 5 5 5 5 3 5 5 5 5 5 5 5 5 5 3 3 5 5 5 3 5 3 5 5 5 5 5 5 5 5 5 5 5 5 5 5 5 3 5 5 5 5 5 5 5 5 5 5 5 5 3 3 5 5 5 5 5 5 5 5 3 5 5 3 5 5 3 3 5 5 5 5 5 5 5 3 5 5 5 5 5 5 5 5 5 3 5 5 5 3 5 5 5 5 5 3 5 5 5 5 5 5 5 5 5 5 5 5 3 5 5 5 3 5 5 5 3 5 5 5 5 5 5 5 5 5 5 5 5 5 5 5 5 5 5 5 5 5 5 5 5 5 5 5 5 5 5 5 5 3 5 5 5 5 5 5 5 5 5 5 5 5 5 5 5 5 5 5 5 5 5 5 5 5 3 5 3 5 5 3 5 5 5 5 5 5 5 5 5 3 5 5 5 5 5 5 5 5 5 5 5 5 5 5 3 5 5 5 5 3 5 5 5 3 5 5 5 5 5 5 5 5 5 5 5 5 5 5 5 5 5 5 5 5 5 5 5 5 5 5 5 5 5 5 5 5 5 5 5 5 5 5 5 5 5 5 5 5 5 5 5 5 5 5 5 5 5 5 5 5 5 5 5 5 5 5 5 5 5 5 5 5 5 5 5 5 5 5 5 5 5 5 5 5 5 5 5 5 5 5 5 5 5 5 5 5 5 5 5 5 5 5 5 5 5 5 5 5 5 5 5 5 5 5 5 5 5 5 5 5 5 5 5 5 5 5 5 5 5 5 5 5 5 5 5 5 5 5 5 5 5 5 5 5 5 5 5 5 5 5 5 5 5 5 5 5 5 5 5 5 5 5 5 5 5 5 5 5 5 5 5 5 5 5 5 5 5 5 5 5 5 5 5 5 5 5 5 5 5 5 5 5 5 3 5 5 5 5 5 5 5 5 5 5 5 5 5 5 5 5 3 5 5 5 5 5 5 5 5 3 5 5 5 5 3 5 5 5 5 5 5 5 5 5 5 5 5 5 5 5 5 5 5 5 5 5 5 3 5 5 5 5 5 5 5 5 5 5 5 5 5 3 3 5 5 5 5 5 3 5 3 5 5 5 5 5 5 5 5 5 5 5 3 5 5 5 5 5 5 5 3 5 5 5 5 5 5 5 5 5 5 5 5 5 5 5 3 3 5 5 5 5 5 5 5 5 5 5 5 5 3 5 5 5 5 5 5 5 5 5 5 5 5 5 5 5 5 3 5 5 5 5 5 5 5 3 5 5 5 5 5 5 5 5 5 5 3 3 5 5 5 5 5 5 5 5 5 5 5 5 5 5 5 5 5 5 5 5 5 5 5 5 5 5 5 5 5 5 3 5 5 5 5 5 3 5 5 5 5 5 5 5 5 5 5 3 5 5 5 5 3 5 5 5 5 5 5 5 5 5 5 3 5 3 5 5 5 5 5 5 5 5 5 5 5 5 5 5 5 5 5 5 5 5 5 5 5 5 5 5 5 5 5 5 5 3 5 5 5 5 5 3 5 5 5 5 5 5 5 5 5 5 5 5 5 5 5 5 5 5 3 5 5 3 5 5 5 3 5 5 5 5 5 3 5 5 5 5 5 5 5 5 5 5 3 5 5 5 5 5 5 3 5 5 5 5 5 3 3 5 5 3 5 5 3 5 5 5 5 5 5 5 5 5 5 3 5 5 3 5 5 3 5 5 3 5 5 3 5 5 3 5 5 5 5 5 5 3 5 5 5 5 5 5 5 5 5 5 5 3 5 5 5 5 5 5 5 3 5 5 5 5 3 5 5 5 3 5 5 5 5 5 5 5 5 5 5 5 3 5 5 5 5 5 5 5 5 5 5 5 5 5 5 5 5 5 5 5 5 5 5 5 5 3 5 5 5 5 5 3 5 5 5 5 5 5 5 5 5 5 5 5 5 5 3 5 5 3 5 3 5 5 5 5 3 5 3 3 5 3 5 5 5 5 5 5 5 3 5 3 5 5 5 5 5 5 3 5 5 5 5 5 5 3 5 5 5 5 3 5 5 5 5 5 3 5 5 3 5 5 5 5 3 5 5 5 5 3 5 5 5 5 5 5 3 5 5 5 5 5 5 5 5 5 3 5 5 5 5 5 5 3 5 5 5 5 3 5 5 5 5 5 5 5 5 5 5 5 5 5 5 5 5 3 5 5 5 3 5 5 3 5 5 5 5 5 5 5 5 5 5 5 5 5 5 5 5 3 5 3 5 5 5 5 5 5 5 5 5 5 5 5 5 5 5 5 5 5 5 5 5 5 5 5 5 5 3 5 5 3 5 5 5 5 5 5 5 5 5 5 3 5 5 5 5 3 5 5 5 5 3 5 5 5 5 5 5 5 5 5 3 5 5 5 5 5 5 5 5 5 5 5 5 5 5 5 5 5 5 5 5 5 5 5 5 5 5 5 5 
</DataArray>
</Cells>
<PointData Scalars="" Vectors="displacement," Tensors="">
<DataArray type="Float64" Name="displacement" NumberOfComponents="3" format="ascii">
-0.034997083261432631 -2.5244731325562126e-07 0 -0.034095870414723457 -0.00016183748693586656 0 -0.034997624969922786 -7.1812232691689828e-07 0 -0.034997083261432631 -2.5244731325562126e-07 0 -0.033445901944925083 -9.9680130628182541e-05 0 -0.034095870414723457 -0.00016183748693586656 0 -0.034997083261432631 -2.5244731325562126e-07 0 -0.033445901944925083 -9.9680130628182541e-05 0 -0.031404188440138023 -1.9377642079579062e-07 0 -0.033445901944925083 -9.9680130628182541e-05 0 -0.031404188440138023 -1.9377642079579062e-07 0 -0.032779902188460108 0.0001468979285626049 0 -0.031404188440138023 -1.9377642079579062e-07 0 -0.032779902188460108 0.0001468979285626049 0 -0.031173121605629503 -6.5275542448456014e-05 0 -0.033037621668733412 0.00029108180215242879 0 -0.033158867616427327 0.00029538592992242553 0 -0.032779902188460108 0.0001468979285626049 0 -0.031925312670932779 0.00054626582432897681 0 -0.031851959034068192 0.00017936184315208074 0 -0.032779902188460108 0.0001468979285626049 0 -0.031851959034068192 0.00017936184315208074 0 -0.03202107115288079 -5.5071510206155655e-07 0 -0.033445901944925083 -9.9680130628182541e-05 0 -0.032779902188460108 0.0001468979285626049 0 -0.034095870414723457 -0.00016183748693586656 0 -0.032779902188460108 0.0001468979285626049 0 -0.034095870414723457 -0.00016183748693586656 0 -0.034437056150178925 0.00031126859202960792 0 -0.034095870414723457 -0.00016183748693586656 0 -0.034890563137348368 -1.2282708537054991e-05 0 -0.034437056150178925 0.00031126859202960792 0 -0.034095870414723457 -0.00016183748693586656 0 -0.034997624969922786 -7.1812232691689828e-07 0 -0.034890563137348368 -1.2282708537054991e-05 0 -0.034999995974933452 4.001518421751974e-10 0 -0.034995126378252764 -5.4931910448257016e-07 0 -0.034999993334878014 -8.6296390582701022e-10 0 -0.034998709395468681 5.275478755737987e-07 0 -0.034361998912562239 0.00017279456340158812 0 -0.034999993334878014 -8.6296390582701022e-10 0 -0.034994307281894101 -1.2786872476520986e-06 0 -0.034997131031185173 -2.5261839258103633e-06 0 -0.034999993334878014 -8.6296390582701022e-10 0 -0.034999991671259383 -4.2785525490976959e-09 0 -0.034997131031185173 -2.5261839258103633e-06 0 -0.034995126378252764 -5.4931910448257016e-07 0 -0.034999993334878014 -8.6296390582701022e-10 0 -0.034994307281894101 -1.2786872476520986e-06 0 -0.034995126378252764 -5.4931910448257016e-07 0 -0.034994307281894101 -1.2786872476520986e-06 0 -0.034988474885785381 -4.2014542544337367e-07 0 -0.034361998912562239 0.00017279456340158812 0 -0.033372876639451564 0.00021111471588132081 0 -0.034994307281894101 -1.2786872476520986e-06 0 -0.034992604486067412 -1.0966590487912098e-06 0 -0.034988474885785381 -4.2014542544337367e-07 0 -0.034994307281894101 -1.2786872476520986e-06 0 -0.034992604486067412 -1.0966590487912098e-06 0 -0.034997131031185173 -2.5261839258103633e-06 0 -0.033855383350746865 0.0001109193810933348 0 -0.033372876639451564 0.00021111471588132081 0 -0.032733267914746907 0.00025875998263026351 0 -0.032605889719120595 0.00044176781100199551 0 -0.032409621560631471 0.00036264024393683336 0 -0.032733267914746907 0.00025875998263026351 0 -0.032605889719120595 0.00044176781100199551 0 -0.032796578062759436 0.00049158832513097254 0 -0.032605889719120595 0.00044176781100199551 0 -0.032409621560631471 0.00036264024393683336 0 -0.032577052786821152 0.0006484585144442683 0 -0.031369349360809512 0.00067626325962614456 0 -0.031147848516812432 0.00032257519458939507 0 -0.031573225623704113 0.00039050021699376796 0 -0.033372876639451564 0.00021111471588132081 0 -0.032295717568081563 0.00033529365835656449 0 -0.031147848516812432 0.00032257519458939507 0 -0.031573225623704113 0.00039050021699376796 0 -0.031441658627176572 0.00017307947266959406 0 -0.032577052786821152 0.0006484585144442683 0 -0.032796578062759436 0.00049158832513097254 0 -0.032852358346415506 0.00066390680258909276 0 -0.032605889719120595 0.00044176781100199551 0 -0.032577052786821152 0.0006484585144442683 0 -0.032796578062759436 0.00049158832513097254 0 -0.031369349360809512 0.00067626325962614456 0 -0.031925312670932779 0.00054626582432897681 0 -0.031573225623704113 0.00039050021699376796 0 -0.033372876639451564 0.00021111471588132081 0 -0.033158867616427327 0.00029538592992242553 0 -0.034890563137348368 -1.2282708537054991e-05 0 -0.03501498645385915 0.00027181580239887262 0 -0.034437056150178925 0.00031126859202960792 0 -0.031573225623704113 0.00039050021699376796 0 -0.031851959034068192 0.00017936184315208074 0 -0.03164877366344402 0.00019632516334128219 0 -0.031573225623704113 0.00039050021699376796 0 -0.03164877366344402 0.00019632516334128219 0 -0.031441658627176572 0.00017307947266959406 0 -0.031925312670932779 0.00054626582432897681 0 -0.031573225623704113 0.00039050021699376796 0 -0.031851959034068192 0.00017936184315208074 0 -0.031851959034068192 0.00017936184315208074 0 -0.031843389079512348 5.8185225245281383e-05 0 -0.03202107115288079 -5.5071510206155655e-07 0 -0.031843389079512348 5.8185225245281383e-05 0 -0.031859555737425632 3.4378832037081345e-05 0 -0.03202107115288079 -5.5071510206155655e-07 0 -0.031843389079512348 5.8185225245281383e-05 0 -0.03176911901911364 5.7997208199512583e-05 0 -0.031781306884124283 3.7780146211895612e-05 0 -0.031843389079512348 5.8185225245281383e-05 0 -0.031746171585943166 0.00010396608810400287 0 -0.03176911901911364 5.7997208199512583e-05 0 -0.031851959034068192 0.00017936184315208074 0 -0.031843389079512348 5.8185225245281383e-05 0 -0.031746171585943166 0.00010396608810400287 0 -0.031851959034068192 0.00017936184315208074 0 -0.03164877366344402 0.00019632516334128219 0 -0.031746171585943166 0.00010396608810400287 0 -0.03164877366344402 0.00019632516334128219 0 -0.031746171585943166 0.00010396608810400287 0 -0.031640741802044098 7.7918971422609177e-05 0 -0.03164877366344402 0.00019632516334128219 0 -0.031640741802044098 7.7918971422609177e-05 0 -0.031441658627176572 0.00017307947266959406 0 -0.031640741802044098 7.7918971422609177e-05 0 -0.031441658627176572 0.00017307947266959406 0 -0.031433905440757068 -2.2971705226838628e-05 0 -0.028548521462124249 0.00065664334150779128 0 -0.028445693530146483 0.00069536145539561545 0 -0.031640741802044098 7.7918971422609177e-05 0 -0.031703025225664018 4.2662330752389011e-05 0 -0.031631117852976322 -6.8948587922628229e-05 0 -0.031640741802044098 7.7918971422609177e-05 0 -0.031591585618363394 -0.00011689493604719659 0 -0.031433905440757068 -2.2971705226838628e-05 0 -0.028546201989378461 0.00073655176978905021 0 -0.028445693530146483 0.00069536145539561545 0 -0.031703025225664018 4.2662330752389011e-05 0 -0.031781306884124283 3.7780146211895612e-05 0 -0.031727804408077723 3.8226194767777396e-05 0 -0.031746171585943166 0.00010396608810400287 0 -0.03176911901911364 5.7997208199512583e-05 0 -0.031703025225664018 4.2662330752389011e-05 0 -0.031746171585943166 0.00010396608810400287 0 -0.031640741802044098 7.7918971422609177e-05 0 -0.031703025225664018 4.2662330752389011e-05 0 -0.03176911901911364 5.7997208199512583e-05 0 -0.031703025225664018 4.2662330752389011e-05 0 -0.031781306884124283 3.7780146211895612e-05 0 -0.031781306884124283 3.7780146211895612e-05 0 -0.031727804408077723 3.8226194767777396e-05 0 -0.031777199036032426 1.166694244592565e-05 0 -0.028445693530146483 0.00069536145539561545 0 -0.027690534938471002 0.00046171670786060838 0 -0.031727804408077723 3.8226194767777396e-05 0 -0.031777199036032426 1.166694244592565e-05 0 -0.031716690199800814 -1.9965598908583472e-05 0 -0.031777199036032426 1.166694244592565e-05 0 -0.031859555737425632 3.4378832037081345e-05 0 -0.031808279429010926 -1.9112249442332389e-05 0 -0.031859555737425632 3.4378832037081345e-05 0 -0.031808279429010926 -1.9112249442332389e-05 0 -0.031923509234528712 8.5199417806398157e-05 0 -0.031781306884124283 3.7780146211895612e-05 0 -0.031777199036032426 1.166694244592565e-05 0 -0.031859555737425632 3.4378832037081345e-05 0 -0.031843389079512348 5.8185225245281383e-05 0 -0.031781306884124283 3.7780146211895612e-05 0 -0.031859555737425632 3.4378832037081345e-05 0 -0.031147848516812432 0.00032257519458939507 0 -0.030890272641644866 -5.0445320066570235e-05 0 -0.031216101064211181 3.1609280898841713e-06 0 -0.032577052786821152 0.0006484585144442683 0 -0.032744587656337587 0.00090355087703845275 0 -0.032852358346415506 0.00066390680258909276 0 -0.032295717568081563 0.00033529365835656449 0 -0.031490550862291411 0.00055130695989413358 0 -0.030890272641644866 -5.0445320066570235e-05 0 -0.031216101064211181 3.1609280898841713e-06 0 -0.031080350867818605 -0.00018128711716178762 0 -0.031147848516812432 0.00032257519458939507 0 -0.031216101064211181 3.1609280898841713e-06 0 -0.031441658627176572 0.00017307947266959406 0 -0.031216101064211181 3.1609280898841713e-06 0 -0.031441658627176572 0.00017307947266959406 0 -0.031433905440757068 -2.2971705226838628e-05 0 -0.031591585618363394 -0.00011689493604719659 0 -0.031295055529684743 -0.00025113950186181176 0 -0.031304518940229072 -0.00057418229594735268 0 -0.028445693530146483 0.00069536145539561545 0 -0.027763930512671217 0.00066220148253087437 0 -0.031216101064211181 3.1609280898841713e-06 0 -0.031433905440757068 -2.2971705226838628e-05 0 -0.031295055529684743 -0.00025113950186181176 0 -0.031591585618363394 -0.00011689493604719659 0 -0.031433905440757068 -2.2971705226838628e-05 0 -0.031295055529684743 -0.00025113950186181176 0 -0.031216101064211181 3.1609280898841713e-06 0 -0.031295055529684743 -0.00025113950186181176 0 -0.031080350867818605 -0.00018128711716178762 0 -0.031295055529684743 -0.00025113950186181176 0 -0.031080350867818605 -0.00018128711716178762 0 -0.030921506425072846 -0.00042823304615891456 0 -0.030890272641644866 -5.0445320066570235e-05 0 -0.030921506425072846 -0.00042823304615891456 0 -0.030654266411591611 -0.00043102299952793051 0 -0.030890272641644866 -5.0445320066570235e-05 0 -0.031080350867818605 -0.00018128711716178762 0 -0.030921506425072846 -0.00042823304615891456 0 -0.030921506425072846 -0.00042823304615891456 0 -0.030992029388160799 -0.00070871064155607929 0 -0.031304518940229072 -0.00057418229594735268 0 -0.030921506425072846 -0.00042823304615891456 0 -0.030992029388160799 -0.00070871064155607929 0 -0.030737225608645998 -0.00074347945702972864 0 -0.031295055529684743 -0.00025113950186181176 0 -0.030921506425072846 -0.00042823304615891456 0 -0.031304518940229072 -0.00057418229594735268 0 -0.027763930512671217 0.00066220148253087437 0 -0.026047887520036072 0.0006708155242003517 0 -0.027142113430785049 0.00058201670945850212 0 -0.027242163197631512 0.00019462680300938079 0 -0.026916377563203257 0.00019992204875562584 0 -0.027142113430785049 0.00058201670945850212 0 -0.027242163197631512 0.00019462680300938079 0 -0.027305655957406812 0.00057940520642571979 0 -0.026115285258068305 0.00017338742890231603 0 -0.026047887520036072 0.0006708155242003517 0 -0.031000253482837532 -0.0010935322778235349 0 -0.030737225608645998 -0.00074347945702972864 0 -0.030589237193823601 -0.0010959534229959894 0 -0.030992029388160799 -0.00070871064155607929 0 -0.031000253482837532 -0.0010935322778235349 0 -0.030737225608645998 -0.00074347945702972864 0 -0.026047887520036072 0.0006708155242003517 0 -0.02736298183333858 0.00046991812130054643 0 -0.030992029388160799 -0.00070871064155607929 0 -0.031304518940229072 -0.00057418229594735268 0 -0.031000253482837532 -0.0010935322778235349 0 -0.027372480450834007 0.00096363587428912548 0 -0.027142113430785049 0.00058201670945850212 0 -0.027305655957406812 0.00057940520642571979 0 -0.031777199036032426 1.166694244592565e-05 0 -0.031808279429010926 -1.9112249442332389e-05 0 -0.031716690199800814 -1.9965598908583472e-05 0 -0.031676818171321557 -0.00010354463607175371 0 -0.031808279429010926 -1.9112249442332389e-05 0 -0.031716690199800814 -1.9965598908583472e-05 0 -0.026115285258068305 0.00017338742890231603 0 -0.027690534938471002 0.00046171670786060838 0 -0.031676818171321557 -0.00010354463607175371 0 -0.031808279429010926 -1.9112249442332389e-05 0 -0.031817855580376968 -9.4413964257490443e-05 0 -0.031808279429010926 -1.9112249442332389e-05 0 -0.031883466923066588 -1.6749644627093006e-05 0 -0.031817855580376968 -9.4413964257490443e-05 0 -0.031883466923066588 -1.6749644627093006e-05 0 -0.031914011249729257 -7.4892417939235236e-05 0 -0.031817855580376968 -9.4413964257490443e-05 0 -0.031808279429010926 -1.9112249442332389e-05 0 -0.031883466923066588 -1.6749644627093006e-05 0 -0.031923509234528712 8.5199417806398157e-05 0 -0.031883466923066588 -1.6749644627093006e-05 0 -0.031926070270408557 3.2789303243371949e-05 0 -0.031923509234528712 8.5199417806398157e-05 0 -0.031567916967413852 0.00053623926349365299 0 -0.029664988682241461 0.00069262915036309887 0 -0.031000979956164968 0.00017344991544242393 0 -0.023989348369197448 0.0014502092633354557 0 -0.024159137676858639 0.00076626667317428751 0 -0.024980381707931633 0.00095584024771963789 0 -0.028226346132818731 -0.00060478098251815805 0 -0.027393793589794914 -8.5194057169007088e-05 0 -0.028226346132818731 -0.00060478098251815805 0 -0.028235610382579188 -0.00060163969194026556 0 -0.028226346132818731 -0.00060478098251815805 0 -0.027442447899702183 0.0001085622397232451 0 -0.031883466923066588 -1.6749644627093006e-05 0 -0.031926070270408557 3.2789303243371949e-05 0 -0.031917895767901397 -2.7214949918982836e-05 0 -0.031883466923066588 -1.6749644627093006e-05 0 -0.031917895767901397 -2.7214949918982836e-05 0 -0.031914011249729257 -7.4892417939235236e-05 0 -0.027442447899702183 0.0001085622397232451 0 -0.026558437070977867 0.00071100228656529436 0 -0.024159137676858639 0.00076626667317428751 0 -0.02462731874444947 0.00050592034800084958 0 -0.024334508134566623 3.7119534830809213e-05 0 -0.02462731874444947 0.00050592034800084958 0 -0.024980381707931633 0.00095584024771963789 0 -0.024893882325662808 4.7551941260200525e-06 0 -0.024980381707931633 0.00095584024771963789 0 -0.025546775362293418 -0.00012559885887865064 0 -0.024893882325662808 4.7551941260200525e-06 0 -0.02462731874444947 0.00050592034800084958 0 -0.024893882325662808 4.7551941260200525e-06 0 -0.024334508134566623 3.7119534830809213e-05 0 -0.024159137676858639 0.00076626667317428751 0 -0.02462731874444947 0.00050592034800084958 0 -0.024980381707931633 0.00095584024771963789 0 -0.026667540559592036 1.0510488883454121e-07 0 -0.027393793589794914 -8.5194057169007088e-05 0 -0.026663327545095736 1.6929579796181177e-06 0 -0.024980381707931633 0.00095584024771963789 0 -0.025546775362293418 -0.00012559885887865064 0 -0.026669717364715614 2.7730094023907956e-06 0 -0.029664988682241461 0.00069262915036309887 0 -0.028698723674343965 -5.5712944169063784e-07 0 -0.029664988682241461 0.00069262915036309887 0 -0.031000979956164968 0.00017344991544242393 0 -0.028698723674343965 -5.5712944169063784e-07 0 -0.031000979956164968 0.00017344991544242393 0 -0.028698723674343965 -5.5712944169063784e-07 0 -0.031173121605629503 -6.5275542448456014e-05 0 -0.031404188440138023 -1.9377642079579062e-07 0 -0.028698723674343965 -5.5712944169063784e-07 0 -0.031173121605629503 -6.5275542448456014e-05 0 -0.031000979956164968 0.00017344991544242393 0 -0.031173121605629503 -6.5275542448456014e-05 0 -0.031837364460329483 1.7562834489053127e-05 0 -0.032779902188460108 0.0001468979285626049 0 -0.031173121605629503 -6.5275542448456014e-05 0 -0.031837364460329483 1.7562834489053127e-05 0 -0.032779902188460108 0.0001468979285626049 0 -0.031837364460329483 1.7562834489053127e-05 0 -0.03202107115288079 -5.5071510206155655e-07 0 -0.031837364460329483 1.7562834489053127e-05 0 -0.03202107115288079 -5.5071510206155655e-07 0 -0.031798999721100285 9.3555882506713101e-05 0 -0.03202107115288079 -5.5071510206155655e-07 0 -0.031923509234528712 8.5199417806398157e-05 0 -0.031798999721100285 9.3555882506713101e-05 0 -0.031859555737425632 3.4378832037081345e-05 0 -0.03202107115288079 -5.5071510206155655e-07 0 -0.031923509234528712 8.5199417806398157e-05 0 -0.031609210117239044 0.00049255692529331918 0 -0.031923509234528712 8.5199417806398157e-05 0 -0.031622625433395911 0.00040472455262449789 0 -0.031923509234528712 8.5199417806398157e-05 0 -0.031622625433395911 0.00040472455262449789 0 -0.031798999721100285 9.3555882506713101e-05 0 -0.028226346132818731 -0.00060478098251815805 0 -0.029118860635373427 -0.00082535623196146324 0 -0.031000979956164968 0.00017344991544242393 0 -0.031622625433395911 0.00040472455262449789 0 -0.031798999721100285 9.3555882506713101e-05 0 -0.031567916967413852 0.00053623926349365299 0 -0.031000979956164968 0.00017344991544242393 0 -0.031622625433395911 0.00040472455262449789 0 -0.031000979956164968 0.00017344991544242393 0 -0.031837364460329483 1.7562834489053127e-05 0 -0.031798999721100285 9.3555882506713101e-05 0 -0.032226569532337518 0.00017732508754721561 0 -0.030665025984836516 0.00062854168776725291 0 -0.034752079716215453 -0.00043907269010543838 0 -0.034805006346898974 -0.0018294405574384299 0 -0.034072598248405146 -0.00071193185406919185 0 -0.034898687378222243 0.00021591925429472847 0 -0.03497051482719251 0.00016492880773882906 0 -0.034972703977283803 0.00029417074090656777 0 -0.034898687378222243 0.00021591925429472847 0 -0.034884516863212006 0.00032686214123736591 0 -0.034972703977283803 0.00029417074090656777 0 -0.034898687378222243 0.00021591925429472847 0 -0.034812578790936473 0.00030365044385271633 0 -0.034884516863212006 0.00032686214123736591 0 -0.034898687378222243 0.00021591925429472847 0 -0.034924325531640821 0.00010738024604620361 0 -0.034906012282904388 9.8021171307370865e-05 0 -0.034898687378222243 0.00021591925429472847 0 -0.034924325531640821 0.00010738024604620361 0 -0.03497051482719251 0.00016492880773882906 0 -0.032226569532337518 0.00017732508754721561 0 -0.032692622603101622 0.00018462481998880286 0 -0.034924325531640821 0.00010738024604620361 0 -0.03497051482719251 0.00016492880773882906 0 -0.034883886565872824 7.2972441705259912e-05 0 -0.034752079716215453 -0.00043907269010543838 0 -0.034883886565872824 7.2972441705259912e-05 0 -0.034148685915604132 4.8354557661775019e-05 0 -0.034883886565872824 7.2972441705259912e-05 0 -0.034999915785441711 1.3355000639059974e-07 0 -0.034945691583856756 4.6293413948521604e-05 0 -0.034883886565872824 7.2972441705259912e-05 0 -0.034999915785441711 1.3355000639059974e-07 0 -0.034677281810212082 8.438302676487876e-05 0 -0.034999915785441711 1.3355000639059974e-07 0 -0.034945691583856756 4.6293413948521604e-05 0 -0.034999877192459075 -1.3568942012870967e-08 0 -0.034924325531640821 0.00010738024604620361 0 -0.034883886565872824 7.2972441705259912e-05 0 -0.034945691583856756 4.6293413948521604e-05 0 -0.034924325531640821 0.00010738024604620361 0 -0.034945691583856756 4.6293413948521604e-05 0 -0.034906012282904388 9.8021171307370865e-05 0 -0.034906012282904388 9.8021171307370865e-05 0 -0.034932262748913132 8.9562673305203391e-06 0 -0.034862548498078752 7.2777683693374509e-05 0 -0.034945691583856756 4.6293413948521604e-05 0 -0.034906012282904388 9.8021171307370865e-05 0 -0.034932262748913132 8.9562673305203391e-06 0 -0.034999877192459075 -1.3568942012870967e-08 0 -0.034932262748913132 8.9562673305203391e-06 0 -0.034999850132464129 1.243177649680092e-08 0 -0.034945691583856756 4.6293413948521604e-05 0 -0.034999877192459075 -1.3568942012870967e-08 0 -0.034932262748913132 8.9562673305203391e-06 0 -0.034932262748913132 8.9562673305203391e-06 0 -0.034999850132464129 1.243177649680092e-08 0 -0.034891369975902663 -2.4840177245415765e-05 0 -0.034891369975902663 -2.4840177245415765e-05 0 -0.034862548498078752 7.2777683693374509e-05 0 -0.034684620040977915 6.3152835866785436e-05 0 -0.034932262748913132 8.9562673305203391e-06 0 -0.034891369975902663 -2.4840177245415765e-05 0 -0.034862548498078752 7.2777683693374509e-05 0 -0.034862548498078752 7.2777683693374509e-05 0 -0.03473818933026019 0.00017721455463862453 0 -0.034684620040977915 6.3152835866785436e-05 0 -0.03473818933026019 0.00017721455463862453 0 -0.034730338895411682 0.00028424781403975526 0 -0.034630520080257986 0.00026781242483376515 0 -0.03473818933026019 0.00017721455463862453 0 -0.034838094672328887 0.00019010871256213869 0 -0.034730338895411682 0.00028424781403975526 0 -0.034862548498078752 7.2777683693374509e-05 0 -0.03473818933026019 0.00017721455463862453 0 -0.034838094672328887 0.00019010871256213869 0 -0.034898687378222243 0.00021591925429472847 0 -0.034906012282904388 9.8021171307370865e-05 0 -0.034838094672328887 0.00019010871256213869 0 -0.034906012282904388 9.8021171307370865e-05 0 -0.034862548498078752 7.2777683693374509e-05 0 -0.034838094672328887 0.00019010871256213869 0 -0.034898687378222243 0.00021591925429472847 0 -0.034838094672328887 0.00019010871256213869 0 -0.034812578790936473 0.00030365044385271633 0 -0.034838094672328887 0.00019010871256213869 0 -0.034812578790936473 0.00030365044385271633 0 -0.034730338895411682 0.00028424781403975526 0 -0.034812578790936473 0.00030365044385271633 0 -0.034730338895411682 0.00028424781403975526 0 -0.034705942805561517 0.00038827611657589776 0 -0.034730338895411682 0.00028424781403975526 0 -0.034583086793629023 0.00036739954373749705 0 -0.034705942805561517 0.00038827611657589776 0 -0.034730338895411682 0.00028424781403975526 0 -0.034630520080257986 0.00026781242483376515 0 -0.034583086793629023 0.00036739954373749705 0 -0.032444270269184068 0.0010741633022492952 0 -0.032697716149559373 0.0010059542481637264 0 -0.034479422496045714 0.00039757310506307019 0 -0.034368253823379866 0.00040935301215990107 0 -0.03445355209706439 0.00025357039374872557 0 -0.034630520080257986 0.00026781242483376515 0 -0.034583086793629023 0.00036739954373749705 0 -0.03445355209706439 0.00025357039374872557 0 -0.034096590487639848 0.0013201061287283938 0 -0.033988440757552973 0.00090151102308324595 0 -0.034400195656452727 0.00013757534848737304 0 -0.032178527313283897 0.00091554353316531973 0 -0.032661030010921931 0.00098579442771024495 0 -0.034096590487639848 0.0013201061287283938 0 -0.033988440757552973 0.00090151102308324595 0 -0.033560536364439973 0.00085102875609892141 0 -0.033988440757552973 0.00090151102308324595 0 -0.034400195656452727 0.00013757534848737304 0 -0.034104198436613574 0.00033001714691654625 0 -0.032178527313283897 0.00091554353316531973 0 -0.032912251616104699 0.00031265411015662497 0 -0.034368253823379866 0.00040935301215990107 0 -0.034400195656452727 0.00013757534848737304 0 -0.03445355209706439 0.00025357039374872557 0 -0.033988440757552973 0.00090151102308324595 0 -0.033924479122385595 0.00053978935501558902 0 -0.033709803246511877 0.00060065002761803697 0 -0.033988440757552973 0.00090151102308324595 0 -0.033924479122385595 0.00053978935501558902 0 -0.034104198436613574 0.00033001714691654625 0 -0.033924479122385595 0.00053978935501558902 0 -0.033838823166534235 0.00030799478965327139 0 -0.033709803246511877 0.00060065002761803697 0 -0.033924479122385595 0.00053978935501558902 0 -0.033838823166534235 0.00030799478965327139 0 -0.034104198436613574 0.00033001714691654625 0 -0.034400195656452727 0.00013757534848737304 0 -0.034591148022851639 0.00018684786437327103 0 -0.034684620040977915 6.3152835866785436e-05 0 -0.034400195656452727 0.00013757534848737304 0 -0.03445355209706439 0.00025357039374872557 0 -0.034591148022851639 0.00018684786437327103 0 -0.03473818933026019 0.00017721455463862453 0 -0.034630520080257986 0.00026781242483376515 0 -0.034591148022851639 0.00018684786437327103 0 -0.034630520080257986 0.00026781242483376515 0 -0.03445355209706439 0.00025357039374872557 0 -0.034591148022851639 0.00018684786437327103 0 -0.03473818933026019 0.00017721455463862453 0 -0.034591148022851639 0.00018684786437327103 0 -0.034684620040977915 6.3152835866785436e-05 0 -0.034891369975902663 -2.4840177245415765e-05 0 -0.034684620040977915 6.3152835866785436e-05 0 -0.03437490890742876 -0.00014143701527618503 0 -0.034656527423456894 -4.8276488429089291e-05 0 -0.034527764127326353 -2.9964742372619212e-05 0 -0.034891369975902663 -2.4840177245415765e-05 0 -0.034972698000575252 -6.5417056615287337e-06 0 -0.035000309358732794 -2.389341674892386e-05 0 -0.034400195656452727 0.00013757534848737304 0 -0.034684620040977915 6.3152835866785436e-05 0 -0.03437490890742876 -0.00014143701527618503 0 -0.034999850132464129 1.243177649680092e-08 0 -0.035000026104546618 -7.3397141265434497e-09 0 -0.034993171115856633 -3.5926443973538769e-06 0 -0.034999850132464129 1.243177649680092e-08 0 -0.034972698000575252 -6.5417056615287337e-06 0 -0.034993171115856633 -3.5926443973538769e-06 0 -0.034999850132464129 1.243177649680092e-08 0 -0.034891369975902663 -2.4840177245415765e-05 0 -0.034972698000575252 -6.5417056615287337e-06 0 -0.034972698000575252 -6.5417056615287337e-06 0 -0.034993171115856633 -3.5926443973538769e-06 0 -0.035000309358732794 -2.389341674892386e-05 0 -0.034993171115856633 -3.5926443973538769e-06 0 -0.035000309358732794 -2.389341674892386e-05 0 -0.035000751581853479 -5.9139698451477897e-06 0 -0.035000026104546618 -7.3397141265434497e-09 0 -0.034993171115856633 -3.5926443973538769e-06 0 -0.035000751581853479 -5.9139698451477897e-06 0 -0.034527764127326353 -2.9964742372619212e-05 0 -0.034210280391861525 3.2008405668903501e-05 0 -0.035000309358732794 -2.389341674892386e-05 0 -0.034997865410954627 -5.3856688288000226e-06 0 -0.035000751581853479 -5.9139698451477897e-06 0 -0.033838823166534235 0.00030799478965327139 0 -0.03437490890742876 -0.00014143701527618503 0 -0.033385727709950193 2.0594183115503107e-05 0 -0.034400195656452727 0.00013757534848737304 0 -0.034104198436613574 0.00033001714691654625 0 -0.03437490890742876 -0.00014143701527618503 0 -0.033838823166534235 0.00030799478965327139 0 -0.034104198436613574 0.00033001714691654625 0 -0.03437490890742876 -0.00014143701527618503 0 -0.034997865410954627 -5.3856688288000226e-06 0 -0.035000751581853479 -5.9139698451477897e-06 0 -0.034997131031185173 -2.5261839258103633e-06 0 -0.035000026104546618 -7.3397141265434497e-09 0 -0.035000751581853479 -5.9139698451477897e-06 0 -0.034999991671259383 -4.2785525490976959e-09 0 -0.035000751581853479 -5.9139698451477897e-06 0 -0.034999991671259383 -4.2785525490976959e-09 0 -0.034997131031185173 -2.5261839258103633e-06 0 -0.034992604486067412 -1.0966590487912098e-06 0 -0.034997865410954627 -5.3856688288000226e-06 0 -0.034997131031185173 -2.5261839258103633e-06 0 -0.033855383350746865 0.0001109193810933348 0 -0.034210280391861525 3.2008405668903501e-05 0 -0.032733267914746907 0.00025875998263026351 0 -0.032796578062759436 0.00049158832513097254 0 -0.033058180768507028 0.00036771142026303878 0 -0.032733267914746907 0.00025875998263026351 0 -0.033385727709950193 2.0594183115503107e-05 0 -0.033058180768507028 0.00036771142026303878 0 -0.032796578062759436 0.00049158832513097254 0 -0.033058180768507028 0.00036771142026303878 0 -0.032990398304039749 0.00052931561846325938 0 -0.033385727709950193 2.0594183115503107e-05 0 -0.033058180768507028 0.00036771142026303878 0 -0.03348413094519237 0.00043183018893291935 0 -0.033838823166534235 0.00030799478965327139 0 -0.033385727709950193 2.0594183115503107e-05 0 -0.03348413094519237 0.00043183018893291935 0 -0.033838823166534235 0.00030799478965327139 0 -0.03348413094519237 0.00043183018893291935 0 -0.033709803246511877 0.00060065002761803697 0 -0.03348413094519237 0.00043183018893291935 0 -0.033709803246511877 0.00060065002761803697 0 -0.033560536364439973 0.00085102875609892141 0 -0.033058180768507028 0.00036771142026303878 0 -0.033135872081996129 0.00055796708375008882 0 -0.032990398304039749 0.00052931561846325938 0 -0.033058180768507028 0.00036771142026303878 0 -0.03348413094519237 0.00043183018893291935 0 -0.033560536364439973 0.00085102875609892141 0 -0.032723449301595611 0.00093103847602807929 0 -0.032661030010921931 0.00098579442771024495 0 -0.033135872081996129 0.00055796708375008882 0 -0.03303753028652489 0.0006165277173168747 0 -0.032990398304039749 0.00052931561846325938 0 -0.033988440757552973 0.00090151102308324595 0 -0.033709803246511877 0.00060065002761803697 0 -0.033560536364439973 0.00085102875609892141 0 -0.033135872081996129 0.00055796708375008882 0 -0.033142489039529668 0.00062772994012841733 0 -0.03303753028652489 0.0006165277173168747 0 -0.033234440016019821 0.00067318131919654259 0 -0.033135872081996129 0.00055796708375008882 0 -0.033142489039529668 0.00062772994012841733 0 -0.033142489039529668 0.00062772994012841733 0 -0.033066501986446319 0.00070076873344960243 0 -0.033094195866938507 0.00079351047586809903 0 -0.033142489039529668 0.00062772994012841733 0 -0.033066501986446319 0.00070076873344960243 0 -0.03303753028652489 0.0006165277173168747 0 -0.033066501986446319 0.00070076873344960243 0 -0.03303753028652489 0.0006165277173168747 0 -0.032951418183352926 0.00077941110979813546 0 -0.03303753028652489 0.0006165277173168747 0 -0.032852358346415506 0.00066390680258909276 0 -0.032951418183352926 0.00077941110979813546 0 -0.032796578062759436 0.00049158832513097254 0 -0.032852358346415506 0.00066390680258909276 0 -0.032990398304039749 0.00052931561846325938 0 -0.03303753028652489 0.0006165277173168747 0 -0.032852358346415506 0.00066390680258909276 0 -0.032990398304039749 0.00052931561846325938 0 -0.032744587656337587 0.00090355087703845275 0 -0.032852358346415506 0.00066390680258909276 0 -0.032951418183352926 0.00077941110979813546 0 -0.032744587656337587 0.00090355087703845275 0 -0.032951418183352926 0.00077941110979813546 0 -0.032921509661066897 0.00095132271024441102 0 -0.032951418183352926 0.00077941110979813546 0 -0.033033958760602486 0.0009078979018802253 0 -0.032921509661066897 0.00095132271024441102 0 -0.033142489039529668 0.00062772994012841733 0 -0.033094195866938507 0.00079351047586809903 0 -0.033224626230245372 0.00087798779843768987 0 -0.033066501986446319 0.00070076873344960243 0 -0.032951418183352926 0.00077941110979813546 0 -0.033094195866938507 0.00079351047586809903 0 -0.033094195866938507 0.00079351047586809903 0 -0.033132442894330427 0.00089966456412782681 0 -0.033033958760602486 0.0009078979018802253 0 -0.033094195866938507 0.00079351047586809903 0 -0.033132442894330427 0.00089966456412782681 0 -0.033224626230245372 0.00087798779843768987 0 -0.032951418183352926 0.00077941110979813546 0 -0.033094195866938507 0.00079351047586809903 0 -0.033033958760602486 0.0009078979018802253 0 -0.033033958760602486 0.0009078979018802253 0 -0.033008914286397302 0.0010230289595875269 0 -0.032921509661066897 0.00095132271024441102 0 -0.033008914286397302 0.0010230289595875269 0 -0.03287504059551799 0.0011254367296293212 0 -0.033140586201070424 0.0011263206453583322 0 -0.033033958760602486 0.0009078979018802253 0 -0.033107501218464848 0.00096943507859409612 0 -0.033008914286397302 0.0010230289595875269 0 -0.033132442894330427 0.00089966456412782681 0 -0.033033958760602486 0.0009078979018802253 0 -0.033107501218464848 0.00096943507859409612 0 -0.033132442894330427 0.00089966456412782681 0 -0.033107501218464848 0.00096943507859409612 0 -0.033205700975981689 0.00095175633546399675 0 -0.03124068449448095 0.0010633729833528706 0 -0.031062352262335099 0.0010906157191951276 0 -0.033107501218464848 0.00096943507859409612 0 -0.033008914286397302 0.0010230289595875269 0 -0.033140586201070424 0.0011263206453583322 0 -0.033107501218464848 0.00096943507859409612 0 -0.033140586201070424 0.0011263206453583322 0 -0.033181707567596079 0.00095569054116247988 0 -0.032744587656337587 0.00090355087703845275 0 -0.032921509661066897 0.00095132271024441102 0 -0.03287504059551799 0.0011254367296293212 0 -0.031490550862291411 0.00055130695989413358 0 -0.030520006110813708 0.00077415758246996086 0 -0.033008914286397302 0.0010230289595875269 0 -0.032921509661066897 0.00095132271024441102 0 -0.03287504059551799 0.0011254367296293212 0 -0.030589085187766148 0.00068678344544358583 0 -0.030520006110813708 0.00077415758246996086 0 -0.030921506425072846 -0.00042823304615891456 0 -0.030562771763729971 -0.00042208614228825855 0 -0.030737225608645998 -0.00074347945702972864 0 -0.030520006110813708 0.00077415758246996086 0 -0.029190054732817855 0.0005237177157422215 0 -0.030562771763729971 -0.00042208614228825855 0 -0.030737225608645998 -0.00074347945702972864 0 -0.030362750192589567 -0.00075445709251307298 0 -0.030737225608645998 -0.00074347945702972864 0 -0.030362750192589567 -0.00075445709251307298 0 -0.030589237193823601 -0.0010959534229959894 0 -0.02736298183333858 0.00046991812130054643 0 -0.027807236923943962 0.00051317094286720648 0 -0.030362750192589567 -0.00075445709251307298 0 -0.030589237193823601 -0.0010959534229959894 0 -0.0301615414657284 -0.0010889923980372028 0 -0.029192887176453998 0.00070099998665558666 0 -0.029116738358301742 0.00059621859486161768 0 -0.029078033968128351 0.00080036126634116145 0 -0.028492121154846672 0.0010100533812826176 0 -0.028572688656408378 0.00069605536956026239 0 -0.028642840339856538 0.00086559022969768683 0 -0.027777898062231476 0.00056138968371363576 0 -0.03004215997498625 0.0008029048825154146 0 -0.027635308877275472 0.0004360619801563561 0 -0.027437253570996696 0.0004382613008748873 0 -0.0276466870531181 0.00038782274627733384 0 -0.027777898062231476 0.00056138968371363576 0 -0.027344364803030329 0.00084213173653474767 0 -0.027631360678093388 0.00042040083019062916 0 -0.027367464694118292 0.00042426583190806344 0 -0.027553048006504838 0.00075617839601599022 0 -0.027777898062231476 0.00056138968371363576 0 -0.027807236923943962 0.00051317094286720648 0 -0.029192887176453998 0.00070099998665558666 0 -0.029116738358301742 0.00059621859486161768 0 -0.029128891687522453 0.00059604776295637033 0 -0.029190054732817855 0.0005237177157422215 0 -0.027807236923943962 0.00051317094286720648 0 -0.030520006110813708 0.00077415758246996086 0 -0.03004215997498625 0.0008029048825154146 0 -0.029256189702272516 0.00080610680497158365 0 -0.029192887176453998 0.00070099998665558666 0 -0.029078033968128351 0.00080036126634116145 0 -0.03004215997498625 0.0008029048825154146 0 -0.029569741604457345 0.0010329849238815388 0 -0.028737267038223758 0.00070131551201747474 0 -0.028642840339856538 0.00086559022969768683 0 -0.028822290014859663 0.00091215046296497021 0 -0.028572688656408378 0.00069605536956026239 0 -0.028737267038223758 0.00070131551201747474 0 -0.028642840339856538 0.00086559022969768683 0 -0.027344364803030329 0.00084213173653474767 0 -0.027028998297781295 0.0014202319167009316 0 -0.028642840339856538 0.00086559022969768683 0 -0.028588855695004797 0.0010088951671086686 0 -0.028822290014859663 0.00091215046296497021 0 -0.027344364803030329 0.00084213173653474767 0 -0.027859201137792267 0.0012326657220015859 0 -0.028492121154846672 0.0010100533812826176 0 -0.028642840339856538 0.00086559022969768683 0 -0.028588855695004797 0.0010088951671086686 0 -0.027431963937685572 0.001354596739643579 0 -0.02752310147306454 0.0013537997871819302 0 -0.027510402305903049 0.0013225562119736595 0 -0.027548862680004709 0.0017707049806550135 0 -0.027566782834201997 0.0018097416190463649 0 -0.027465898670328743 0.0018094062073137247 0 -0.027028998297781295 0.0014202319167009316 0 -0.027859201137792267 0.0012326657220015859 0 -0.028738260298345659 0.0010422887022424813 0 -0.028774944007546419 0.001135321210845348 0 -0.028885699493090437 0.0010455827005589756 0 -0.029569741604457345 0.0010329849238815388 0 -0.027859201137792267 0.0012326657220015859 0 -0.029569741604457345 0.0010329849238815388 0 -0.029415782421589355 0.0012787322238942747 0 -0.030365159410694755 0.0011684558007738818 0 -0.030346704291000226 0.0011856333227291372 0 -0.030313760897467883 0.0011663842870321172 0 -0.030346704291000226 0.0011856333227291372 0 -0.030380618063236126 0.0011985928110660087 0 -0.030345674416582442 0.0012043686129252528 0 -0.030972971123240715 0.0011293401474171418 0 -0.031461994510414815 0.0011765359076881152 0 -0.030346704291000226 0.0011856333227291372 0 -0.030345674416582442 0.0012043686129252528 0 -0.030327908432933662 0.0011904047785667848 0 -0.030272435203378696 0.0011370721232341946 0 -0.030418927884850878 0.00081414340925529819 0 -0.030346784004971886 0.00082749613944181394 0 -0.030272435203378696 0.0011370721232341946 0 -0.030557146649666928 0.0011446955730187436 0 -0.030418927884850878 0.00081414340925529819 0 -0.029569741604457345 0.0010329849238815388 0 -0.030972971123240715 0.0011293401474171418 0 -0.030365159410694755 0.0011684558007738818 0 -0.030346704291000226 0.0011856333227291372 0 -0.030380618063236126 0.0011985928110660087 0 -0.03004215997498625 0.0008029048825154146 0 -0.031062352262335099 0.0010906157191951276 0 -0.031062352262335099 0.0010906157191951276 0 -0.031300153681524327 0.0011089464755582427 0 -0.030972971123240715 0.0011293401474171418 0 -0.031300153681524327 0.0011089464755582427 0 -0.03142857101085398 0.001285475161280148 0 -0.031202710274993717 0.0013275268517207847 0 -0.031288985895965189 0.00095833341063718746 0 -0.030972971123240715 0.0011293401474171418 0 -0.031062352262335099 0.0010906157191951276 0 -0.033234440016019821 0.00067318131919654259 0 -0.033142489039529668 0.00062772994012841733 0 -0.03319474743792819 0.0007999858327020935 0 -0.031695822378317071 0.0010343194336284711 0 -0.031724153245140232 0.00090423353472862699 0 -0.03152487309063394 0.00089123392498449488 0 -0.031703868167945355 0.00085829665566819946 0 -0.031724153245140232 0.00090423353472862699 0 -0.03152487309063394 0.00089123392498449488 0 -0.03164960225740579 0.0011490674800120014 0 -0.031300153681524327 0.0011089464755582427 0 -0.033132442894330427 0.00089966456412782681 0 -0.033205700975981689 0.00095175633546399675 0 -0.033224626230245372 0.00087798779843768987 0 -0.032178527313283897 0.00091554353316531973 0 -0.031300153681524327 0.0011089464755582427 0 -0.032178527313283897 0.00091554353316531973 0 -0.031461994510414815 0.0011765359076881152 0 -0.032444270269184068 0.0010741633022492952 0 -0.031537136853986535 0.001133051627160566 0 -0.034479422496045714 0.00039757310506307019 0 -0.034368253823379866 0.00040935301215990107 0 -0.034478924151003815 0.00050582978578234453 0 -0.034479422496045714 0.00039757310506307019 0 -0.034478924151003815 0.00050582978578234453 0 -0.034505498842749727 0.00050050936454885085 0 -0.031461994510414815 0.0011765359076881152 0 -0.031537136853986535 0.001133051627160566 0 -0.031537136853986535 0.001133051627160566 0 -0.031379396562506809 0.0009234001335076766 0 -0.034583086793629023 0.00036739954373749705 0 -0.034639300411166515 0.00049121917801356785 0 -0.034705942805561517 0.00038827611657589776 0 -0.030561160489148372 0.0011351422393052922 0 -0.030657140679568609 0.0011164382830437846 0 -0.030581977747080009 0.0011839470569356492 0 -0.034639300411166515 0.00049121917801356785 0 -0.034705942805561517 0.00038827611657589776 0 -0.034793409151314951 0.0004631726128758206 0 -0.034812578790936473 0.00030365044385271633 0 -0.034705942805561517 0.00038827611657589776 0 -0.034793409151314951 0.0004631726128758206 0 -0.031379396562506809 0.0009234001335076766 0 -0.031570358205512655 0.00071742740353464675 0 -0.029797540884908026 0.0013301562924233081 0 -0.02971939820233449 0.0012605296621941095 0 -0.029658718258411029 0.001353602629388968 0 -0.031662863703489336 0.00070572240144666583 0 -0.031379396562506809 0.0009234001335076766 0 -0.034812578790936473 0.00030365044385271633 0 -0.03479528245213314 0.00035821520978310056 0 -0.034884516863212006 0.00032686214123736591 0 -0.029797540884908026 0.0013301562924233081 0 -0.02971939820233449 0.0012605296621941095 0 -0.02980575540485373 0.0011882929929260583 0 -0.031379396562506809 0.0009234001335076766 0 -0.029876219849998033 0.0011364375916312738 0 -0.02971939820233449 0.0012605296621941095 0 -0.029724896110578762 0.0011935313917119965 0 -0.02980575540485373 0.0011882929929260583 0 -0.030023639396775794 0.0012946662606119594 0 -0.029890287678948267 0.0010186453925020037 0 -0.029797023462674904 0.0011067278065498797 0 -0.030657140679568609 0.0011164382830437846 0 -0.030581977747080009 0.0011839470569356492 0 -0.030641187225775541 0.0012363478265689011 0 -0.030707431173998181 0.0011623254423449427 0 -0.029876219849998033 0.0011364375916312738 0 -0.030346704291000226 0.0011856333227291372 0 -0.030327908432933662 0.0011904047785667848 0 -0.030313760897467883 0.0011663842870321172 0 -0.030707431173998181 0.0011623254423449427 0 -0.029415782421589355 0.0012787322238942747 0 -0.031461994510414815 0.0011765359076881152 0 -0.030707431173998181 0.0011623254423449427 0 -0.031537136853986535 0.001133051627160566 0 -0.030707431173998181 0.0011623254423449427 0 -0.031174023766277831 0.0014419394065514756 0 -0.031104516608907683 0.0014544313241637847 0 -0.0310479685594744 0.0013355295609311013 0 -0.028774944007546419 0.001135321210845348 0 -0.028885699493090437 0.0010455827005589756 0 -0.02890270581108342 0.0010834297806563583 0 -0.029890287678948267 0.0010186453925020037 0 -0.029804917860655138 0.0010164257289362333 0 -0.029797023462674904 0.0011067278065498797 0 -0.029415782421589355 0.0012787322238942747 0 -0.029350535222157925 0.0013375050958265198 0 -0.028877742608426217 0.0012937532271128636 0 -0.028942658630160555 0.0014344786465955077 0 -0.028957232725368098 0.0012958453745612725 0 -0.029415782421589355 0.0012787322238942747 0 -0.0287750179004055 0.0013470115847660196 0 -0.0287750179004055 0.0013470115847660196 0 -0.029350535222157925 0.0013375050958265198 0 -0.027028998297781295 0.0014202319167009316 0 -0.026902774261663875 0.0022918975046675363 0 -0.027859201137792267 0.0012326657220015859 0 -0.0287750179004055 0.0013470115847660196 0 -0.027566782834201997 0.0018097416190463649 0 -0.027449582863724346 0.0018587703046492935 0 -0.027465898670328743 0.0018094062073137247 0 -0.027548862680004709 0.0017707049806550135 0 -0.027465898670328743 0.0018094062073137247 0 -0.027454602656260964 0.0017735747000019251 0 -0.027449582863724346 0.0018587703046492935 0 -0.027465898670328743 0.0018094062073137247 0 -0.027452447194313119 0.0017858881740725238 0 -0.0287750179004055 0.0013470115847660196 0 -0.02704291128819649 0.0022706828102519805 0 -0.027044283490656424 0.0022577946677930158 0 -0.02704291128819649 0.0022706828102519805 0 -0.027465898670328743 0.0018094062073137247 0 -0.027453632795666726 0.00178606951015515 0 -0.027454602656260964 0.0017735747000019251 0 -0.027016139580130452 0.0023473741221461939 0 -0.027016542220835976 0.0023424360468096471 0 -0.027013625104263608 0.0023424902257120016 0 -0.02704291128819649 0.0022706828102519805 0 -0.026888375106686631 0.0023553747727976075 0 -0.02704291128819649 0.0022706828102519805 0 -0.026902774261663875 0.0022918975046675363 0 -0.026902774261663875 0.0022918975046675363 0 -0.026888375106686631 0.0023553747727976075 0 -0.027565709899950368 0.0019432639223483767 0 -0.027406209687561398 0.0020893041919165583 0 -0.027305186417614445 0.0020712935932297163 0 -0.026888375106686631 0.0023553747727976075 0 -0.025968151161563861 0.0031971445675539624 0 -0.027565709899950368 0.0019432639223483767 0 -0.027305186417614445 0.0020712935932297163 0 -0.027210385777491408 0.0019518947489445097 0 -0.027585686722830922 0.0019831331514509561 0 -0.027565709899950368 0.0019432639223483767 0 -0.027492230509986636 0.0020667276266820773 0 -0.027565709899950368 0.0019432639223483767 0 -0.027492230509986636 0.0020667276266820773 0 -0.027406209687561398 0.0020893041919165583 0 -0.027570582091607149 0.0022179569072333745 0 -0.027585686722830922 0.0019831331514509561 0 -0.027492230509986636 0.0020667276266820773 0 -0.0287750179004055 0.0013470115847660196 0 -0.028726334559807554 0.0014001181379968983 0 -0.027564006409686415 0.0022161537339860419 0 -0.027492230509986636 0.0020667276266820773 0 -0.027443196426076552 0.0021822033713546456 0 -0.027492230509986636 0.0020667276266820773 0 -0.027406209687561398 0.0020893041919165583 0 -0.027443196426076552 0.0021822033713546456 0 -0.027406209687561398 0.0020893041919165583 0 -0.027352285943827347 0.0021580468946330706 0 -0.027443196426076552 0.0021822033713546456 0 -0.027352285943827347 0.0021580468946330706 0 -0.027263412456297827 0.0022173411277953089 0 -0.027305186417614445 0.0020712935932297163 0 -0.027406209687561398 0.0020893041919165583 0 -0.027352285943827347 0.0021580468946330706 0 -0.027305186417614445 0.0020712935932297163 0 -0.02737448399421983 0.0022405293712726465 0 -0.027554104242530814 0.0023275729089672985 0 -0.027260897995183081 0.002317276559233901 0 -0.027352285943827347 0.0021580468946330706 0 -0.02737448399421983 0.0022405293712726465 0 -0.027263412456297827 0.0022173411277953089 0 -0.029350535222157925 0.0013375050958265198 0 -0.028406247995740239 0.0016519945517145631 0 -0.029808462808916518 0.0011587621090960764 0 -0.029780690310706133 0.0011688001388310066 0 -0.029675553423993153 0.0011553320765498737 0 -0.027352285943827347 0.0021580468946330706 0 -0.02737448399421983 0.0022405293712726465 0 -0.027443196426076552 0.0021822033713546456 0 -0.02737448399421983 0.0022405293712726465 0 -0.027443196426076552 0.0021822033713546456 0 -0.027554104242530814 0.0023275729089672985 0 -0.027564006409686415 0.0022161537339860419 0 -0.027443196426076552 0.0021822033713546456 0 -0.027554104242530814 0.0023275729089672985 0 -0.029724896110578762 0.0011935313917119965 0 -0.029780690310706133 0.0011688001388310066 0 -0.02980575540485373 0.0011882929929260583 0 -0.029808462808916518 0.0011587621090960764 0 -0.029780690310706133 0.0011688001388310066 0 -0.029806101538016695 0.0011901740614231797 0 -0.029350535222157925 0.0013375050958265198 0 -0.029876219849998033 0.0011364375916312738 0 -0.029874759667738192 0.0011361469970402971 0 -0.029876219849998033 0.0011364375916312738 0 -0.029724896110578762 0.0011935313917119965 0 -0.029780690310706133 0.0011688001388310066 0 -0.029675553423993153 0.0011553320765498737 0 -0.027263412456297827 0.0022173411277953089 0 -0.027153998671422371 0.0019894159227868591 0 -0.026999844773603399 0.0023045879868161842 0 -0.027260897995183081 0.002317276559233901 0 -0.027263412456297827 0.0022173411277953089 0 -0.026999844773603399 0.0023045879868161842 0 -0.028406247995740239 0.0016519945517145631 0 -0.027369303972055028 0.0019399512342742594 0 -0.029675553423993153 0.0011553320765498737 0 -0.029542255796255305 0.0011527114466929084 0 -0.029626348922305853 0.0012373885597289241 0 -0.02737448399421983 0.0022405293712726465 0 -0.027260897995183081 0.002317276559233901 0 -0.027263412456297827 0.0022173411277953089 0 -0.027263412456297827 0.0022173411277953089 0 -0.027153998671422371 0.0019894159227868591 0 -0.027211293478428752 0.0019893312653570358 0 -0.026074626496206305 0.0028744305787854851 0 -0.025968151161563861 0.0031971445675539624 0 -0.027263412456297827 0.0022173411277953089 0 -0.027305186417614445 0.0020712935932297163 0 -0.027210385777491408 0.0019518947489445097 0 -0.025887435442903041 0.0033072203672822177 0 -0.025968151161563861 0.0031971445675539624 0 -0.024302324556444342 0.003811201745960249 0 -0.02488382606774759 0.0034360354438151006 0 -0.024820759198042351 0.0027556122319765592 0 -0.025887435442903041 0.0033072203672822177 0 -0.025312204696196723 0.0036622462105285187 0 -0.025887435442903041 0.0033072203672822177 0 -0.027369303972055028 0.0019399512342742594 0 -0.024302324556444342 0.003811201745960249 0 -0.02488382606774759 0.0034360354438151006 0 -0.025504494879156677 0.0038075606944284138 0 -0.02488382606774759 0.0034360354438151006 0 -0.025209398888614992 0.0030578961430352196 0 -0.025504494879156677 0.0038075606944284138 0 -0.02488382606774759 0.0034360354438151006 0 -0.025209398888614992 0.0030578961430352196 0 -0.024820759198042351 0.0027556122319765592 0 -0.025127881113610022 0.0025862589106515265 0 -0.025639567298365983 0.0024252412078053461 0 -0.026443302575419547 0.0025581817549282654 0 -0.027369303972055028 0.0019399512342742594 0 -0.026639741871458168 0.0021313617384261757 0 -0.025209398888614992 0.0030578961430352196 0 -0.024820759198042351 0.0027556122319765592 0 -0.025604376826971666 0.0027011968061508066 0 -0.025127881113610022 0.0025862589106515265 0 -0.025639567298365983 0.0024252412078053461 0 -0.025589616337401599 0.0016398325931235467 0 -0.027369303972055028 0.0019399512342742594 0 -0.028292060279740586 0.0012867216806929762 0 -0.029542255796255305 0.0011527114466929084 0 -0.02950303805350812 0.0012399612437431686 0 -0.029626348922305853 0.0012373885597289241 0 -0.02950303805350812 0.0012399612437431686 0 -0.029626348922305853 0.0012373885597289241 0 -0.029577489159180109 0.0013016358124508787 0 -0.025433995291902056 0.0017322387373295597 0 -0.025542963907494921 0.0014733269771077244 0 -0.025150655810507492 -8.4350901887313614e-05 0 -0.025639567298365983 0.0024252412078053461 0 -0.025481366692100008 0.0016910756790426413 0 -0.025914606434299096 0.0020491046175322215 0 -0.028170426005178221 0.0014014872021300361 0 -0.028292060279740586 0.0012867216806929762 0 -0.025481366692100008 0.0016910756790426413 0 -0.025542963907494921 0.0014733269771077244 0 -0.025963478602333327 0.0015205278508159941 0 -0.028292060279740586 0.0012867216806929762 0 -0.028272484137621009 0.0013037001864309209 0 -0.02971939820233449 0.0012605296621941095 0 -0.029626348922305853 0.0012373885597289241 0 -0.029658718258411029 0.001353602629388968 0 -0.029724896110578762 0.0011935313917119965 0 -0.029675553423993153 0.0011553320765498737 0 -0.029626348922305853 0.0012373885597289241 0 -0.02971939820233449 0.0012605296621941095 0 -0.029724896110578762 0.0011935313917119965 0 -0.029626348922305853 0.0012373885597289241 0 -0.029626348922305853 0.0012373885597289241 0 -0.029658718258411029 0.001353602629388968 0 -0.029577489159180109 0.0013016358124508787 0 -0.029658718258411029 0.001353602629388968 0 -0.029577489159180109 0.0013016358124508787 0 -0.029522464836681132 0.0013751516318739258 0 -0.028292060279740586 0.0012867216806929762 0 -0.030665025984836516 0.00062854168776725291 0 -0.031570358205512655 0.00071742740353464675 0 -0.030665025984836516 0.00062854168776725291 0 -0.02950303805350812 0.0012399612437431686 0 -0.029577489159180109 0.0013016358124508787 0 -0.029522464836681132 0.0013751516318739258 0 -0.025542963907494921 0.0014733269771077244 0 -0.025150655810507492 -8.4350901887313614e-05 0 -0.025718679734882864 0.00090480102092205131 0 -0.024118933200913503 0.0055595615988392015 0 -0.023849904358460929 0.0056479338829289122 0 -0.024351326857445156 0.0054133517221048649 0 -0.024118933200913503 0.0055595615988392015 0 -0.024077716827661966 0.0056665632420648043 0 -0.024094132218807771 0.005599124746328025 0 -0.024118933200913503 0.0055595615988392015 0 -0.024181053807689687 0.0055054782966696353 0 -0.024094132218807771 0.005599124746328025 0 -0.024181053807689687 0.0055054782966696353 0 -0.024152605553258114 0.0053702329511166455 0 -0.024094132218807771 0.005599124746328025 0 -0.024118933200913503 0.0055595615988392015 0 -0.024181053807689687 0.0055054782966696353 0 -0.024351326857445156 0.0054133517221048649 0 -0.024876001802193966 0.0062036056173714466 0 -0.025150732890100766 0.0057821122114884299 0 -0.024859024492475842 0.0055227378070400093 0 -0.025009957031596843 0.0049808145046999069 0 -0.02480975045821994 0.0051744565023596869 0 -0.024404205901873127 0.0054640695322972577 0 -0.024351326857445156 0.0054133517221048649 0 -0.02439324961769293 0.0053450085666166859 0 -0.024876001802193966 0.0062036056173714466 0 -0.024859024492475842 0.0055227378070400093 0 -0.02439324961769293 0.0053450085666166859 0 -0.024401059095107834 0.0054583134261796222 0 -0.024404205901873127 0.0054640695322972577 0 -0.024351326857445156 0.0054133517221048649 0 -0.025583172016404788 0.00378037838921948 0 -0.025476177309109786 0.004657512279284317 0 -0.024401059095107834 0.0054583134261796222 0 -0.024421365022101713 0.0054434209700772399 0 -0.024351326857445156 0.0054133517221048649 0 -0.02439402238500931 0.0054620082368945257 0 -0.024421365022101713 0.0054434209700772399 0 -0.024327675058448857 0.005374885690489265 0 -0.025583172016404788 0.00378037838921948 0 -0.026022968522881187 0.003617863099359399 0 -0.024401059095107834 0.0054583134261796222 0 -0.02439402238500931 0.0054620082368945257 0 -0.024421365022101713 0.0054434209700772399 0 -0.02557456633815066 0.0037842914128659107 0 -0.025583172016404788 0.00378037838921948 0 -0.023849904358460929 0.0056479338829289122 0 -0.02400531800802027 0.0056296303231015542 0 -0.024004265057598746 0.0055507959234722707 0 -0.024118933200913503 0.0055595615988392015 0 -0.023849904358460929 0.0056479338829289122 0 -0.02400531800802027 0.0056296303231015542 0 -0.024118933200913503 0.0055595615988392015 0 -0.02400531800802027 0.0056296303231015542 0 -0.024077716827661966 0.0056665632420648043 0 -0.02400531800802027 0.0056296303231015542 0 -0.024077716827661966 0.0056665632420648043 0 -0.024004265057598746 0.0055507959234722707 0 -0.024077716827661966 0.0056665632420648043 0 -0.024004265057598746 0.0055507959234722707 0 -0.024213114238771181 0.0056370587562947373 0 -0.023849904358460929 0.0056479338829289122 0 -0.024004265057598746 0.0055507959234722707 0 -0.023832529783508416 0.005195489121342955 0 -0.024004265057598746 0.0055507959234722707 0 -0.024097679863779087 0.0051808589606976855 0 -0.024213114238771181 0.0056370587562947373 0 -0.024004265057598746 0.0055507959234722707 0 -0.023832529783508416 0.005195489121342955 0 -0.024097679863779087 0.0051808589606976855 0 -0.023528200730244923 0.0045939617629738444 0 -0.023822732577721186 0.0048332509558641342 0 -0.024242186964053204 0.0043919345237054611 0 -0.024097679863779087 0.0051808589606976855 0 -0.023822732577721186 0.0048332509558641342 0 -0.024242186964053204 0.0043919345237054611 0 -0.023832529783508416 0.005195489121342955 0 -0.024097679863779087 0.0051808589606976855 0 -0.023822732577721186 0.0048332509558641342 0 -0.025768999967800025 0.0036178985025632875 0 -0.026022968522881187 0.003617863099359399 0 -0.02579670911348228 0.0033086425178848597 0 -0.026032992544938422 0.0033053437699537658 0 -0.025968559818088464 0.002958810250615776 0 -0.025968151161563861 0.0031971445675539624 0 -0.025768999967800025 0.0036178985025632875 0 -0.023528200730244923 0.0045939617629738444 0 -0.023822732577721186 0.0048332509558641342 0 -0.023441041425739658 0.0047840781944343313 0 -0.025887435442903041 0.0033072203672822177 0 -0.025768999967800025 0.0036178985025632875 0 -0.023832529783508416 0.005195489121342955 0 -0.023822732577721186 0.0048332509558641342 0 -0.023441041425739658 0.0047840781944343313 0 -0.023849904358460929 0.0056479338829289122 0 -0.023832529783508416 0.005195489121342955 0 -0.023441041425739658 0.0047840781944343313 0 -0.024421365022101713 0.0054434209700772399 0 -0.024411124976258473 0.0052001615720340946 0 -0.024327675058448857 0.005374885690489265 0 -0.025009957031596843 0.0049808145046999069 0 -0.025768999967800025 0.0036178985025632875 0 -0.025913016501160468 0.0030344042791540897 0 -0.025822847930237418 0.002982555055370842 0 -0.025883962250653762 0.0030877469072151395 0 -0.026022968522881187 0.003617863099359399 0 -0.026039250589565216 0.0035498997443740052 0 -0.026237313130147256 0.002944448315729215 0 -0.026389734278665651 0.0029874951702266962 0 -0.026322009193988298 0.0031302471875627263 0 -0.026888375106686631 0.0023553747727976075 0 -0.026022968522881187 0.003617863099359399 0 -0.026237313130147256 0.002944448315729215 0 -0.02638200904161098 0.0029453440984923349 0 -0.026389734278665651 0.0029874951702266962 0 -0.025846007078269256 0.0028737831832071885 0 -0.025913016501160468 0.0030344042791540897 0 -0.025822847930237418 0.002982555055370842 0 -0.025837534365975405 0.0028737526068683288 0 -0.025846007078269256 0.0028737831832071885 0 -0.025822847930237418 0.002982555055370842 0 -0.026236800198430544 0.0019749352194905491 0 -0.026358539095754335 0.0019749070446604239 0 -0.026314430861182767 0.0020302547686244584 0 -0.026236800198430544 0.0019749352194905491 0 -0.026314430861182767 0.0020302547686244584 0 -0.02628264643104794 0.0020940953946508543 0 -0.026358539095754335 0.0019749070446604239 0 -0.026314430861182767 0.0020302547686244584 0 -0.026344345895315001 0.0020939429827363173 0 -0.026902774261663875 0.0022918975046675363 0 -0.026085076097285304 0.0024740255947525427 0 -0.026314430861182767 0.0020302547686244584 0 -0.02628264643104794 0.0020940953946508543 0 -0.026344345895315001 0.0020939429827363173 0 -0.025988090028841237 0.0018216602750721967 0 -0.025274207178161236 0.0025701174470089019 0 -0.024579708312394154 0.0014189638821840971 0 -0.024682151102818385 0.0016563152458564637 0 -0.024547914742395014 0.00158250913255435 0 -0.025822847930237418 0.002982555055370842 0 -0.025812004848146525 0.0030871229221352213 0 -0.025883962250653762 0.0030877469072151395 0 -0.02628264643104794 0.0020940953946508543 0 -0.026344345895315001 0.0020939429827363173 0 -0.02632770974586706 0.0022161714386977403 0 -0.026085076097285304 0.0024740255947525427 0 -0.025274207178161236 0.0025701174470089019 0 -0.024565614938612 0.0016934463818676253 0 -0.024682151102818385 0.0016563152458564637 0 -0.024547914742395014 0.00158250913255435 0 -0.024565614938612 0.0016934463818676253 0 -0.024682151102818385 0.0016563152458564637 0 -0.024665490225472729 0.0018252744720964004 0 -0.024565614938612 0.0016934463818676253 0 -0.024587021624288729 0.001840183508489944 0 -0.024665490225472729 0.0018252744720964004 0 -0.025274207178161236 0.0025701174470089019 0 -0.024537630604512778 0.0028194231780201695 0 -0.024656081793294211 0.0025211736536317926 0 -0.024906528107719799 0.0031039565051159002 0 -0.02496706571025847 0.0024626320566064341 0 -0.024970621608469152 0.0031665500792446223 0 -0.025274207178161236 0.0025701174470089019 0 -0.025583172016404788 0.00378037838921948 0 -0.024970621608469152 0.0031665500792446223 0 -0.025942877213827559 0.0031254867091820627 0 -0.025838683026902388 0.0031454601570749612 0 -0.025883962250653762 0.0030877469072151395 0 -0.025942877213827559 0.0031254867091820627 0 -0.025904613165739308 0.0030475498559584219 0 -0.025883962250653762 0.0030877469072151395 0 -0.025838683026902388 0.0031454601570749612 0 -0.025812004848146525 0.0030871229221352213 0 -0.025883962250653762 0.0030877469072151395 0 -0.025594358863239731 0.0060552737118417096 0 -0.025150732890100766 0.0057821122114884299 0 -0.025385411234417114 0.0055638528018853127 0 -0.024970621608469152 0.0031665500792446223 0 -0.025053273815150719 0.0038257715756886169 0 -0.024876001802193966 0.0062036056173714466 0 -0.025594358863239731 0.0060552737118417096 0 -0.025150732890100766 0.0057821122114884299 0 -0.025150732890100766 0.0057821122114884299 0 -0.025385411234417114 0.0055638528018853127 0 -0.025114526042053935 0.0054310730814553978 0 -0.025150732890100766 0.0057821122114884299 0 -0.025114526042053935 0.0054310730814553978 0 -0.024859024492475842 0.0055227378070400093 0 -0.020616045715105509 0.0023688247647179689 0 -0.020609557165474447 0.0023589981281601394 0 -0.020585343771360443 0.0023768214528928013 0 -0.024198142310167228 0.00289208772009033 0 -0.023866177869250094 0.0025911742196926837 0 -0.023866177869250094 0.0025911742196926837 0 -0.024537630604512778 0.0028194231780201695 0 -0.024170824319341144 0.0022497713391667301 0 -0.025098426584208119 0.0033319719098433937 0 -0.024048530613124799 0.0035293494468179084 0 -0.02486540256518115 0.0032374369699451739 0 -0.024930528846417655 0.0033843251054430116 0 -0.024798850490569957 0.0033177147619382207 0 -0.024970621608469152 0.0031665500792446223 0 -0.024537630604512778 0.0028194231780201695 0 -0.02486540256518115 0.0032374369699451739 0 -0.024798850490569957 0.0033177147619382207 0 -0.024805736134597103 0.003248554880165394 0 -0.024198142310167228 0.00289208772009033 0 -0.024537630604512778 0.0028194231780201695 0 -0.020609557165474447 0.0023589981281601394 0 -0.020585343771360443 0.0023768214528928013 0 -0.02056372304021872 0.0023636549728836601 0 -0.023866177869250094 0.0025911742196926837 0 -0.021979552903342775 0.0022456611973890816 0 -0.021979552903342775 0.0022456611973890816 0 -0.019108346148511861 0.0021145168902120316 0 -0.024294518495578465 0.0018195496646247883 0 -0.024149093807153261 0.0015693364953395913 0 -0.024038468165846656 0.0018657073322598753 0 -0.024294518495578465 0.0018195496646247883 0 -0.024364111337162212 0.0015621318530371 0 -0.024149093807153261 0.0015693364953395913 0 -0.024565614938612 0.0016934463818676253 0 -0.024587021624288729 0.001840183508489944 0 -0.024364111337162212 0.0015621318530371 0 -0.023866177869250094 0.0025911742196926837 0 -0.023905602086836446 0.0022561183101258695 0 -0.024523416905634109 0.0017758538540004764 0 -0.024294518495578465 0.0018195496646247883 0 -0.024364111337162212 0.0015621318530371 0 -0.024565614938612 0.0016934463818676253 0 -0.024547914742395014 0.00158250913255435 0 -0.024364111337162212 0.0015621318530371 0 -0.024579708312394154 0.0014189638821840971 0 -0.024547914742395014 0.00158250913255435 0 -0.024364111337162212 0.0015621318530371 0 -0.024579708312394154 0.0014189638821840971 0 -0.024364111337162212 0.0015621318530371 0 -0.024302361752940187 0.0014421191704218051 0 -0.027028998297781295 0.0014202319167009316 0 -0.025988090028841237 0.0018216602750721967 0 -0.024491798669879588 0.0012024029756173941 0 -0.024579708312394154 0.0014189638821840971 0 -0.024349474881692004 0.0013101325741280458 0 -0.024579708312394154 0.0014189638821840971 0 -0.024349474881692004 0.0013101325741280458 0 -0.024302361752940187 0.0014421191704218051 0 -0.024219749870631045 0.0012096578765069298 0 -0.024491798669879588 0.0012024029756173941 0 -0.024349474881692004 0.0013101325741280458 0 -0.024219749870631045 0.0012096578765069298 0 -0.024203479952927136 0.0012909115379393888 0 -0.024349474881692004 0.0013101325741280458 0 -0.024349474881692004 0.0013101325741280458 0 -0.024189824013065665 0.0013789322927223657 0 -0.024302361752940187 0.0014421191704218051 0 -0.024203479952927136 0.0012909115379393888 0 -0.024349474881692004 0.0013101325741280458 0 -0.024189824013065665 0.0013789322927223657 0 -0.024364111337162212 0.0015621318530371 0 -0.024302361752940187 0.0014421191704218051 0 -0.024149093807153261 0.0015693364953395913 0 -0.024189824013065665 0.0013789322927223657 0 -0.024302361752940187 0.0014421191704218051 0 -0.024149093807153261 0.0015693364953395913 0 -0.024189824013065665 0.0013789322927223657 0 -0.024149093807153261 0.0015693364953395913 0 -0.024096523292100405 0.001400910826323589 0 -0.024149093807153261 0.0015693364953395913 0 -0.024000239140721049 0.0014524512190019641 0 -0.023913775475084401 0.001627582348080835 0 -0.024149093807153261 0.0015693364953395913 0 -0.024000239140721049 0.0014524512190019641 0 -0.024096523292100405 0.001400910826323589 0 -0.027007787746367331 0.00052119901430627347 0 -0.027340564333938267 0.00064524659174784586 0 -0.024189824013065665 0.0013789322927223657 0 -0.024096523292100405 0.001400910826323589 0 -0.024099633438675223 0.0012762382361457016 0 -0.025652782857279458 0.00014673455613165476 0 -0.026412691251450904 0.00013160005746634009 0 -0.026444585050358096 0.00029206602208128846 0 -0.024000239140721049 0.0014524512190019641 0 -0.024096523292100405 0.001400910826323589 0 -0.024099633438675223 0.0012762382361457016 0 -0.024219749870631045 0.0012096578765069298 0 -0.024203479952927136 0.0012909115379393888 0 -0.024124596013390672 0.0012523960667470402 0 -0.027344364803030329 0.00084213173653474767 0 -0.027340564333938267 0.00064524659174784586 0 -0.027437253570996696 0.0004382613008748873 0 -0.0276466870531181 0.00038782274627733384 0 -0.027655855317543093 0.00034893411372356108 0 -0.026412691251450904 0.00013160005746634009 0 -0.026461768752864517 0.00022002577260300991 0 -0.026444585050358096 0.00029206602208128846 0 -0.024203479952927136 0.0012909115379393888 0 -0.024189824013065665 0.0013789322927223657 0 -0.024124596013390672 0.0012523960667470402 0 -0.027807236923943962 0.00051317094286720648 0 -0.027619261617607964 0.0005369370072683628 0 -0.024189824013065665 0.0013789322927223657 0 -0.024099633438675223 0.0012762382361457016 0 -0.024108173225166573 0.0012475724130149007 0 -0.027777898062231476 0.00056138968371363576 0 -0.027619261617607964 0.0005369370072683628 0 -0.027619261617607964 0.0005369370072683628 0 -0.027340564333938267 0.00064524659174784586 0 -0.027330531106204002 0.00065617136169996251 0 -0.027340564333938267 0.00064524659174784586 0 -0.025652782857279458 0.00014673455613165476 0 -0.026444585050358096 0.00029206602208128846 0 -0.025250293552930726 0.00078782114419766744 0 -0.024000239140721049 0.0014524512190019641 0 -0.024099633438675223 0.0012762382361457016 0 -0.023777443865378018 0.0013809403394950423 0 -0.024099633438675223 0.0012762382361457016 0 -0.024107850077851947 0.0012482307197177471 0 -0.023777443865378018 0.0013809403394950423 0 -0.027340564333938267 0.00064524659174784586 0 -0.02321872498935313 0.00068870476156105006 0 -0.0208134217860396 0.0014595586739418094 0 -0.02321872498935313 0.00068870476156105006 0 -0.024000239140721049 0.0014524512190019641 0 -0.023913775475084401 0.001627582348080835 0 -0.023777443865378018 0.0013809403394950423 0 -0.0208134217860396 0.0014595586739418094 0 -0.019108346148511861 0.0021145168902120316 0 -0.015485450539943586 0.0023650468162461523 0 -0.015435885380782763 0.002244527079054268 0 -0.015514572269137781 0.0022993549440930242 0 -0.024149093807153261 0.0015693364953395913 0 -0.023913775475084401 0.001627582348080835 0 -0.024038468165846656 0.0018657073322598753 0 -0.019108346148511861 0.0021145168902120316 0 -0.016190722751657959 0.0023391183728231377 0 -0.015435885380782763 0.002244527079054268 0 -0.015508545155800866 0.0022217259907620708 0 -0.015514572269137781 0.0022993549440930242 0 -0.014259705882266757 0.0020902107106882221 0 -0.013952655453664836 0.0016987748586954692 0 -0.014430735097661783 0.0015382270901940359 0 -0.013788693381150664 0.0021505167444351501 0 -0.014259705882266757 0.0020902107106882221 0 -0.013952655453664836 0.0016987748586954692 0 -0.013788693381150664 0.0021505167444351501 0 -0.013952655453664836 0.0016987748586954692 0 -0.013475857090074334 0.0015477919212975846 0 -0.019108346148511861 0.0021145168902120316 0 -0.01794980624832105 0.0016371849356424542 0 -0.013952655453664836 0.0016987748586954692 0 -0.014048954695582724 0.0011663148189767841 0 -0.013475857090074334 0.0015477919212975846 0 -0.013952655453664836 0.0016987748586954692 0 -0.014048954695582724 0.0011663148189767841 0 -0.014430735097661783 0.0015382270901940359 0 -0.014048954695582724 0.0011663148189767841 0 -0.013988147205367734 0.00074923338530546405 0 -0.01367697601529335 0.00093277302415852503 0 -0.014048954695582724 0.0011663148189767841 0 -0.013988147205367734 0.00074923338530546405 0 -0.014189882387947408 0.00074045791638026207 0 -0.013988147205367734 0.00074923338530546405 0 -0.014111966656231111 0.00056605759571549464 0 -0.014013145952458433 0.00052858121561135513 0 -0.013988147205367734 0.00074923338530546405 0 -0.014189882387947408 0.00074045791638026207 0 -0.014111966656231111 0.00056605759571549464 0 -0.013988147205367734 0.00074923338530546405 0 -0.01367697601529335 0.00093277302415852503 0 -0.013872380254461948 0.00054656898829772208 0 -0.01367697601529335 0.00093277302415852503 0 -0.013872380254461948 0.00054656898829772208 0 -0.0134765353972608 0.00059272256797156004 0 -0.014048954695582724 0.0011663148189767841 0 -0.01367697601529335 0.00093277302415852503 0 -0.013475857090074334 0.0015477919212975846 0 -0.020556308207890412 0.0024207698361545086 0 -0.02056765724914662 0.0024145668556248166 0 -0.020542113243420486 0.0024002155638525782 0 -0.01367697601529335 0.00093277302415852503 0 -0.013195347616861345 0.00099217555716105328 0 -0.013475857090074334 0.0015477919212975846 0 -0.017803026866899326 0.00146756923507869 0 -0.01794980624832105 0.0016371849356424542 0 -0.017803026866899326 0.00146756923507869 0 -0.015426563327875021 0.0016570426220099427 0 -0.01367697601529335 0.00093277302415852503 0 -0.013195347616861345 0.00099217555716105328 0 -0.0134765353972608 0.00059272256797156004 0 -0.016484875985436097 0.0013382200038967926 0 -0.016229769559133727 0.0016877650521973985 0 -0.016505010785867177 0.0017751321097153616 0 -0.017803026866899326 0.00146756923507869 0 -0.020034048474506794 0.0025365398177283182 0 -0.020566275767158894 0.0024145520418679149 0 -0.020575895672737897 0.0024174104065640689 0 -0.02057389786151885 0.002418158138461812 0 -0.016484875985436097 0.0013382200038967926 0 -0.016505010785867177 0.0017751321097153616 0 -0.016731999641941761 0.001768864672708855 0 -0.020566275767158894 0.0024145520418679149 0 -0.02056765724914662 0.0024145668556248166 0 -0.020575895672737897 0.0024174104065640689 0 -0.017803026866899326 0.00146756923507869 0 -0.017934522549439336 0.0014394802827028964 0 -0.02056765724914662 0.0024145668556248166 0 -0.020572819296624422 0.0023992287963716125 0 -0.020595568970387501 0.0024009024922935604 0 -0.02056765724914662 0.0024145668556248166 0 -0.020572819296624422 0.0023992287963716125 0 -0.020542113243420486 0.0024002155638525782 0 -0.020585343771360443 0.0023768214528928013 0 -0.02056372304021872 0.0023636549728836601 0 -0.020542113243420486 0.0024002155638525782 0 -0.02056372304021872 0.0023636549728836601 0 -0.020518271335019274 0.0023691410532233827 0 -0.020542113243420486 0.0024002155638525782 0 -0.020585343771360443 0.0023768214528928013 0 -0.020572819296624422 0.0023992287963716125 0 -0.020542113243420486 0.0024002155638525782 0 -0.020585343771360443 0.0023768214528928013 0 -0.020572819296624422 0.0023992287963716125 0 -0.020595568970387501 0.0024009024922935604 0 -0.024198142310167228 0.00289208772009033 0 -0.02298351270944661 0.003070970053422595 0 -0.020616045715105509 0.0023688247647179689 0 -0.020585343771360443 0.0023768214528928013 0 -0.020595568970387501 0.0024009024922935604 0 -0.025186130623804731 0.0047118260421313918 0 -0.02500940690128577 0.0043816375720642162 0 -0.025264288234862153 0.0040706245771897449 0 -0.02500940690128577 0.0043816375720642162 0 -0.024949953965803313 0.004157900496166338 0 -0.025264288234862153 0.0040706245771897449 0 -0.024198142310167228 0.00289208772009033 0 -0.024925400033712571 0.0039062867210419979 0 -0.025186130623804731 0.0047118260421313918 0 -0.02500940690128577 0.0043816375720642162 0 -0.024680032644006603 0.0041718260241403651 0 -0.024930528846417655 0.0033843251054430116 0 -0.024798850490569957 0.0033177147619382207 0 -0.024995700786104781 0.0035323839892604262 0 -0.025385411234417114 0.0055638528018853127 0 -0.025114526042053935 0.0054310730814553978 0 -0.025188039977509735 0.0050504207869539455 0 -0.025053273815150719 0.0038257715756886169 0 -0.024925400033712571 0.0039062867210419979 0 -0.025114526042053935 0.0054310730814553978 0 -0.025188039977509735 0.0050504207869539455 0 -0.024988538858411811 0.0052273396868836777 0 -0.02500940690128577 0.0043816375720642162 0 -0.024871985510197193 0.0041948859249149126 0 -0.024949953965803313 0.004157900496166338 0 -0.02500940690128577 0.0043816375720642162 0 -0.024680032644006603 0.0041718260241403651 0 -0.024871985510197193 0.0041948859249149126 0 -0.024871985510197193 0.0041948859249149126 0 -0.024949953965803313 0.004157900496166338 0 -0.024828304354021415 0.0040767571442908148 0 -0.024680032644006603 0.0041718260241403651 0 -0.024871985510197193 0.0041948859249149126 0 -0.024828304354021415 0.0040767571442908148 0 -0.024828304354021415 0.0040767571442908148 0 -0.024933611329349882 0.0039813657242840162 0 -0.024688552178023848 0.0038308563694618046 0 -0.024949953965803313 0.004157900496166338 0 -0.024828304354021415 0.0040767571442908148 0 -0.024933611329349882 0.0039813657242840162 0 -0.024680032644006603 0.0041718260241403651 0 -0.024828304354021415 0.0040767571442908148 0 -0.024688552178023848 0.0038308563694618046 0 -0.024933611329349882 0.0039813657242840162 0 -0.024688552178023848 0.0038308563694618046 0 -0.024954133106852145 0.0036610064964632495 0 -0.024933611329349882 0.0039813657242840162 0 -0.025264288234862153 0.0040706245771897449 0 -0.024954133106852145 0.0036610064964632495 0 -0.025264288234862153 0.0040706245771897449 0 -0.025379307044096435 0.0033671964573053219 0 -0.024954133106852145 0.0036610064964632495 0 -0.02298351270944661 0.003070970053422595 0 -0.021832508724331862 0.0027896640452041948 0 -0.024949953965803313 0.004157900496166338 0 -0.024933611329349882 0.0039813657242840162 0 -0.025264288234862153 0.0040706245771897449 0 -0.02056765724914662 0.0024145668556248166 0 -0.020595568970387501 0.0024009024922935604 0 -0.020575895672737897 0.0024174104065640689 0 -0.025379307044096435 0.0033671964573053219 0 -0.024918271314905004 0.0030979909974076132 0 -0.024954133106852145 0.0036610064964632495 0 -0.021832508724331862 0.0027896640452041948 0 -0.020034048474506794 0.0025365398177283182 0 -0.025379307044096435 0.0033671964573053219 0 -0.024918271314905004 0.0030979909974076132 0 -0.025499423364894132 0.0025800284585782152 0 -0.024918271314905004 0.0030979909974076132 0 -0.024614578127378162 0.0034155330810706768 0 -0.02436752416650885 0.0028965406569456788 0 -0.024918271314905004 0.0030979909974076132 0 -0.02436752416650885 0.0028965406569456788 0 -0.024981488148323398 0.0025474040823113319 0 -0.024918271314905004 0.0030979909974076132 0 -0.024614578127378162 0.0034155330810706768 0 -0.024954133106852145 0.0036610064964632495 0 -0.024688552178023848 0.0038308563694618046 0 -0.024614578127378162 0.0034155330810706768 0 -0.024954133106852145 0.0036610064964632495 0 -0.024614578127378162 0.0034155330810706768 0 -0.024144417497960546 0.0035753369869499199 0 -0.02436752416650885 0.0028965406569456788 0 -0.024688552178023848 0.0038308563694618046 0 -0.024614578127378162 0.0034155330810706768 0 -0.024144417497960546 0.0035753369869499199 0 -0.024475798441681653 0.0037100850937441011 0 -0.024101227586158073 0.0033718830711511653 0 -0.024144417497960546 0.0035753369869499199 0 -0.02436752416650885 0.0028965406569456788 0 -0.023579033131290249 0.0030609126706520082 0 -0.024591544028970076 0.0041802675021612992 0 -0.023471748568736368 0.0040103961301294015 0 -0.023579033131290249 0.0030609126706520082 0 -0.024591544028970076 0.0041802675021612992 0 -0.024016584247094058 0.0047726001820761234 0 -0.023471748568736368 0.0040103961301294015 0 -0.024591544028970076 0.0041802675021612992 0 -0.024016584247094058 0.0047726001820761234 0 -0.024398569109710336 0.0049165252739591563 0 -0.024680032644006603 0.0041718260241403651 0 -0.024688552178023848 0.0038308563694618046 0 -0.024144417497960546 0.0035753369869499199 0 -0.024925400033712571 0.0039062867210419979 0 -0.024475798441681653 0.0037100850937441011 0 -0.024591544028970076 0.0041802675021612992 0 -0.024398569109710336 0.0049165252739591563 0 -0.024769771897226362 0.0050863985032600445 0 -0.025188039977509735 0.0050504207869539455 0 -0.024591544028970076 0.0041802675021612992 0 -0.024769771897226362 0.0050863985032600445 0 -0.024398569109710336 0.0049165252739591563 0 -0.024769771897226362 0.0050863985032600445 0 -0.024555605533161915 0.0051653088989192034 0 -0.024555605533161915 0.0051653088989192034 0 -0.024807088902954848 0.0052493617468357973 0 -0.02465804893589035 0.0053193301724223244 0 -0.024769771897226362 0.0050863985032600445 0 -0.024555605533161915 0.0051653088989192034 0 -0.024807088902954848 0.0052493617468357973 0 -0.024555605533161915 0.0051653088989192034 0 -0.02465804893589035 0.0053193301724223244 0 -0.02439324961769293 0.0053450085666166859 0 -0.025188039977509735 0.0050504207869539455 0 -0.024769771897226362 0.0050863985032600445 0 -0.024988538858411811 0.0052273396868836777 0 -0.024769771897226362 0.0050863985032600445 0 -0.024807088902954848 0.0052493617468357973 0 -0.024988538858411811 0.0052273396868836777 0 -0.025114526042053935 0.0054310730814553978 0 -0.024988538858411811 0.0052273396868836777 0 -0.024859024492475842 0.0055227378070400093 0 -0.024807088902954848 0.0052493617468357973 0 -0.024988538858411811 0.0052273396868836777 0 -0.024859024492475842 0.0055227378070400093 0 -0.024807088902954848 0.0052493617468357973 0 -0.024859024492475842 0.0055227378070400093 0 -0.02465804893589035 0.0053193301724223244 0 -0.024859024492475842 0.0055227378070400093 0 -0.02465804893589035 0.0053193301724223244 0 -0.02439324961769293 0.0053450085666166859 0 -0.024181053807689687 0.0055054782966696353 0 -0.024351326857445156 0.0054133517221048649 0 -0.024152605553258114 0.0053702329511166455 0 -0.024016584247094058 0.0047726001820761234 0 -0.024398569109710336 0.0049165252739591563 0 -0.024152605553258114 0.0053702329511166455 0 -0.024351326857445156 0.0054133517221048649 0 -0.02439324961769293 0.0053450085666166859 0 -0.024152605553258114 0.0053702329511166455 0 -0.024398569109710336 0.0049165252739591563 0 -0.024555605533161915 0.0051653088989192034 0 -0.02439324961769293 0.0053450085666166859 0 -0.024398569109710336 0.0049165252739591563 0 -0.02439324961769293 0.0053450085666166859 0 -0.024152605553258114 0.0053702329511166455 0 -0.024138082349596281 -5.4566655310593955e-05 0 -0.024264262949504341 8.9591578667140928e-06 0 -0.024278590645510398 -0.00016179511420231704 0 -0.024138082349596281 -5.4566655310593955e-05 0 -0.024264262949504341 8.9591578667140928e-06 0 -0.024028333084874402 0.00025555221601972829 0 -0.020768460520189727 0.001111346703140847 0 -0.020884265138493559 0.0012662622593070348 0 -0.024264262949504341 8.9591578667140928e-06 0 -0.024278590645510398 -0.00016179511420231704 0 -0.024412470011714045 -7.3560536043478587e-05 0 -0.016775256079461422 0.002583963489924907 0 -0.016694361651904747 0.002095914261019191 0 -0.016085469762627386 0.0021786874965883745 0 -0.016775256079461422 0.002583963489924907 0 -0.016694361651904747 0.002095914261019191 0 -0.017275527345696911 0.0017733606382721104 0 -0.016694361651904747 0.002095914261019191 0 -0.017275527345696911 0.0017733606382721104 0 -0.016882298415155057 0.0013139099581159401 0 -0.020768460520189727 0.001111346703140847 0 -0.02122145047157253 0.00066825026307452983 0 -0.016775256079461422 0.002583963489924907 0 -0.017275527345696911 0.0017733606382721104 0 -0.018598623272834989 0.0020441810261511285 0 -0.024028333084874402 0.00025555221601972829 0 -0.023411604880980659 -3.4229589231165935e-05 0 -0.023955270389242354 -8.4928128744708998e-07 0 -0.02122145047157253 0.00066825026307452983 0 -0.021723816041349951 1.0467629837558041e-06 0 -0.023411604880980659 -3.4229589231165935e-05 0 -0.023371085517828263 -4.8522842735263e-07 0 -0.021726849956791201 1.3269805896049143e-06 0 -0.024028333084874402 0.00025555221601972829 0 -0.023411604880980659 -3.4229589231165935e-05 0 -0.021726849956791201 1.3269805896049143e-06 0 -0.023411604880980659 -3.4229589231165935e-05 0 -0.024173021152934397 -0.0001789302324592177 0 -0.023371085517828263 -4.8522842735263e-07 0 -0.024138082349596281 -5.4566655310593955e-05 0 -0.023955270389242354 -8.4928128744708998e-07 0 -0.024098552993155185 -0.00016579218911134006 0 -0.024173021152934397 -0.0001789302324592177 0 -0.023955270389242354 -8.4928128744708998e-07 0 -0.024594249465737759 -0.0002545148790838346 0 -0.023411604880980659 -3.4229589231165935e-05 0 -0.024173021152934397 -0.0001789302324592177 0 -0.023955270389242354 -8.4928128744708998e-07 0 -0.024138082349596281 -5.4566655310593955e-05 0 -0.024028333084874402 0.00025555221601972829 0 -0.023955270389242354 -8.4928128744708998e-07 0 -0.025380973136922315 0.00015103536626896917 0 -0.025677229559116797 0.00022725960613202879 0 -0.024173021152934397 -0.0001789302324592177 0 -0.024594249465737759 -0.0002545148790838346 0 -0.024871649923058299 -0.00018119290744966402 0 -0.024173021152934397 -0.0001789302324592177 0 -0.025019354114034578 -1.0085023909617152e-06 0 -0.024871649923058299 -0.00018119290744966402 0 -0.024173021152934397 -0.0001789302324592177 0 -0.023371085517828263 -4.8522842735263e-07 0 -0.025019354114034578 -1.0085023909617152e-06 0 -0.026663327545095736 1.6929579796181177e-06 0 -0.025019354114034578 -1.0085023909617152e-06 0 -0.025546775362293418 -0.00012559885887865064 0 -0.025019354114034578 -1.0085023909617152e-06 0 -0.024871649923058299 -0.00018119290744966402 0 -0.025546775362293418 -0.00012559885887865064 0 -0.024594249465737759 -0.0002545148790838346 0 -0.024871649923058299 -0.00018119290744966402 0 -0.024893882325662808 4.7551941260200525e-06 0 -0.024594249465737759 -0.0002545148790838346 0 -0.024893882325662808 4.7551941260200525e-06 0 -0.024709112807223273 1.4737630492161706e-05 0 -0.024871649923058299 -0.00018119290744966402 0 -0.025546775362293418 -0.00012559885887865064 0 -0.024893882325662808 4.7551941260200525e-06 0 -0.026216644978656015 0.00067725424843384009 0 -0.026558437070977867 0.00071100228656529436 0 -0.024098552993155185 -0.00016579218911134006 0 -0.024163626787430569 -0.00030721365760203768 0 -0.024278590645510398 -0.00016179511420231704 0 -0.025677229559116797 0.00022725960613202879 0 -0.026558437070977867 0.00071100228656529436 0 -0.024138082349596281 -5.4566655310593955e-05 0 -0.024098552993155185 -0.00016579218911134006 0 -0.024278590645510398 -0.00016179511420231704 0 -0.024163626787430569 -0.00030721365760203768 0 -0.024278590645510398 -0.00016179511420231704 0 -0.024371167540233756 -0.00030049274325501566 0 -0.026558437070977867 0.00071100228656529436 0 -0.027629852465561176 0.00024416898924976941 0 -0.024278590645510398 -0.00016179511420231704 0 -0.024371167540233756 -0.00030049274325501566 0 -0.024461109375243924 -0.00020643939887494809 0 -0.024561289729761064 -0.00029720336426755937 0 -0.024371167540233756 -0.00030049274325501566 0 -0.024461109375243924 -0.00020643939887494809 0 -0.024561289729761064 -0.00029720336426755937 0 -0.024461109375243924 -0.00020643939887494809 0 -0.024571125870831746 -0.00014203954344241414 0 -0.026115285258068305 0.00017338742890231603 0 -0.027629852465561176 0.00024416898924976941 0 -0.024461109375243924 -0.00020643939887494809 0 -0.024571125870831746 -0.00014203954344241414 0 -0.024412470011714045 -7.3560536043478587e-05 0 -0.015658997934959649 0.0024753919673447477 0 -0.015667071193734755 0.0025032324700639476 0 -0.015971004031264471 0.0025852953800276218 0 -0.022861515152512935 0.00082549764843530308 0 -0.020884265138493559 0.0012662622593070348 0 -0.024278590645510398 -0.00016179511420231704 0 -0.024461109375243924 -0.00020643939887494809 0 -0.024412470011714045 -7.3560536043478587e-05 0 -0.024730479402713824 0.00039207849327734006 0 -0.024783185819685322 0.00049445632032607729 0 -0.024612575018663596 0.00056520427975896852 0 -0.02489739356072624 0.00016387498221782728 0 -0.025652782857279458 0.00014673455613165476 0 -0.025250293552930726 0.00078782114419766744 0 -0.026047887520036072 0.0006708155242003517 0 -0.02321872498935313 0.00068870476156105006 0 -0.024597308454393622 0.00039416999075264246 0 -0.024730479402713824 0.00039207849327734006 0 -0.024612575018663596 0.00056520427975896852 0 -0.026115285258068305 0.00017338742890231603 0 -0.022861515152512935 0.00082549764843530308 0 -0.015669842450326658 0.0024790205884785916 0 -0.015579362375489654 0.0024213705039644786 0 -0.01561525335863216 0.0024169517450737697 0 -0.015658997934959649 0.0024753919673447477 0 -0.015669842450326658 0.0024790205884785916 0 -0.01561525335863216 0.0024169517450737697 0 -0.02283596248639919 0.00083839637405693748 0 -0.022861515152512935 0.00082549764843530308 0 -0.015485450539943586 0.0023650468162461523 0 -0.01556908443591417 0.0024828636168355784 0 -0.015579362375489654 0.0024213705039644786 0 -0.02321872498935313 0.00068870476156105006 0 -0.022861515152512935 0.00082549764843530308 0 -0.01556908443591417 0.0024828636168355784 0 -0.015669842450326658 0.0024790205884785916 0 -0.015579362375489654 0.0024213705039644786 0 -0.015485450539943586 0.0023650468162461523 0 -0.015514572269137781 0.0022993549440930242 0 -0.015579362375489654 0.0024213705039644786 0 -0.015514572269137781 0.0022993549440930242 0 -0.015579362375489654 0.0024213705039644786 0 -0.015567151949578884 0.0023065261638356201 0 -0.015579362375489654 0.0024213705039644786 0 -0.015567151949578884 0.0023065261638356201 0 -0.01561525335863216 0.0024169517450737697 0 -0.015658997934959649 0.0024753919673447477 0 -0.015626655901595145 0.0023601789957250021 0 -0.015718205376185835 0.0023337337065999831 0 -0.015567151949578884 0.0023065261638356201 0 -0.01561525335863216 0.0024169517450737697 0 -0.015626655901595145 0.0023601789957250021 0 -0.015567151949578884 0.0023065261638356201 0 -0.015626655901595145 0.0023601789957250021 0 -0.015602508082638165 0.0022537092843895362 0 -0.015658997934959649 0.0024753919673447477 0 -0.01561525335863216 0.0024169517450737697 0 -0.015626655901595145 0.0023601789957250021 0 -0.015626655901595145 0.0023601789957250021 0 -0.015602508082638165 0.0022537092843895362 0 -0.015718205376185835 0.0023337337065999831 0 -0.015567151949578884 0.0023065261638356201 0 -0.015602508082638165 0.0022537092843895362 0 -0.015574385816912105 0.0021526844288996677 0 -0.015602508082638165 0.0022537092843895362 0 -0.015613799583306545 0.0019549731823743921 0 -0.015574385816912105 0.0021526844288996677 0 -0.015508545155800866 0.0022217259907620708 0 -0.015567151949578884 0.0023065261638356201 0 -0.015574385816912105 0.0021526844288996677 0 -0.015508545155800866 0.0022217259907620708 0 -0.015514572269137781 0.0022993549440930242 0 -0.015567151949578884 0.0023065261638356201 0 -0.015971004031264471 0.0025852953800276218 0 -0.015718205376185835 0.0023337337065999831 0 -0.016085469762627386 0.0021786874965883745 0 -0.016775256079461422 0.002583963489924907 0 -0.015971004031264471 0.0025852953800276218 0 -0.016085469762627386 0.0021786874965883745 0 -0.015658997934959649 0.0024753919673447477 0 -0.015971004031264471 0.0025852953800276218 0 -0.015718205376185835 0.0023337337065999831 0 -0.015718205376185835 0.0023337337065999831 0 -0.016085469762627386 0.0021786874965883745 0 -0.015613799583306545 0.0019549731823743921 0 -0.015602508082638165 0.0022537092843895362 0 -0.015718205376185835 0.0023337337065999831 0 -0.015613799583306545 0.0019549731823743921 0 -0.016085469762627386 0.0021786874965883745 0 -0.015613799583306545 0.0019549731823743921 0 -0.016150274835103572 0.0016182873029966084 0 -0.015613799583306545 0.0019549731823743921 0 -0.015389248610584988 0.0013992847573525838 0 -0.014976407265605458 0.0016223333536034192 0 -0.015613799583306545 0.0019549731823743921 0 -0.015389248610584988 0.0013992847573525838 0 -0.016150274835103572 0.0016182873029966084 0 -0.015389248610584988 0.0013992847573525838 0 -0.016150274835103572 0.0016182873029966084 0 -0.015649858187409701 0.00099409354823120971 0 -0.016128834341976369 0.0012979436665056256 0 -0.015761669463370404 0.00071549265146107213 0 -0.016260410622496224 0.00080244080577583491 0 -0.015827527750081363 0.00032100753469699891 0 -0.016562108622908051 0.00031574397521552249 0 -0.016190722751657959 0.0023391183728231377 0 -0.01560183935752287 0.0022924294483959618 0 -0.014259705882266757 0.0020902107106882221 0 -0.014803827945490417 0.0020612158514168185 0 -0.014430735097661783 0.0015382270901940359 0 -0.015589611457700834 0.0022443441119783763 0 -0.01560183935752287 0.0022924294483959618 0 -0.015613799583306545 0.0019549731823743921 0 -0.014803827945490417 0.0020612158514168185 0 -0.014976407265605458 0.0016223333536034192 0 -0.014803827945490417 0.0020612158514168185 0 -0.014976407265605458 0.0016223333536034192 0 -0.014430735097661783 0.0015382270901940359 0 -0.015389248610584988 0.0013992847573525838 0 -0.014976407265605458 0.0016223333536034192 0 -0.014769571833844962 0.001244731826736984 0 -0.014976407265605458 0.0016223333536034192 0 -0.014430735097661783 0.0015382270901940359 0 -0.014769571833844962 0.001244731826736984 0 -0.014048954695582724 0.0011663148189767841 0 -0.014430735097661783 0.0015382270901940359 0 -0.014380637819372473 0.00097616189101800191 0 -0.014430735097661783 0.0015382270901940359 0 -0.014380637819372473 0.00097616189101800191 0 -0.014769571833844962 0.001244731826736984 0 -0.014048954695582724 0.0011663148189767841 0 -0.014380637819372473 0.00097616189101800191 0 -0.014189882387947408 0.00074045791638026207 0 -0.015389248610584988 0.0013992847573525838 0 -0.014769571833844962 0.001244731826736984 0 -0.014819923858960521 0.00081257783255714907 0 -0.014380637819372473 0.00097616189101800191 0 -0.014769571833844962 0.001244731826736984 0 -0.014819923858960521 0.00081257783255714907 0 -0.014819923858960521 0.00081257783255714907 0 -0.014294775801303016 0.00056867022068092564 0 -0.01449682054521275 0.00040793699311107077 0 -0.014819923858960521 0.00081257783255714907 0 -0.015112917855352577 0.00033765604549902098 0 -0.01449682054521275 0.00040793699311107077 0 -0.014380637819372473 0.00097616189101800191 0 -0.014819923858960521 0.00081257783255714907 0 -0.014294775801303016 0.00056867022068092564 0 -0.014380637819372473 0.00097616189101800191 0 -0.014294775801303016 0.00056867022068092564 0 -0.014189882387947408 0.00074045791638026207 0 -0.014294775801303016 0.00056867022068092564 0 -0.014189882387947408 0.00074045791638026207 0 -0.014111966656231111 0.00056605759571549464 0 -0.015389248610584988 0.0013992847573525838 0 -0.014819923858960521 0.00081257783255714907 0 -0.015649858187409701 0.00099409354823120971 0 -0.015761669463370404 0.00071549265146107213 0 -0.015554457359570471 0.00042827249333133319 0 -0.014819923858960521 0.00081257783255714907 0 -0.015649858187409701 0.00099409354823120971 0 -0.015112917855352577 0.00033765604549902098 0 -0.015827527750081363 0.00032100753469699891 0 -0.016277230726790763 1.1673913989270693e-05 0 -0.015112917855352577 0.00033765604549902098 0 -0.016277230726790763 1.1673913989270693e-05 0 -0.017450983784644349 3.7811567953218114e-05 0 -0.017063697748976255 -0.00017171764162668982 0 -0.016277230726790763 1.1673913989270693e-05 0 -0.017450983784644349 3.7811567953218114e-05 0 -0.016562108622908051 0.00031574397521552249 0 -0.015827527750081363 0.00032100753469699891 0 -0.016277230726790763 1.1673913989270693e-05 0 -0.016562108622908051 0.00031574397521552249 0 -0.016260410622496224 0.00080244080577583491 0 -0.016562108622908051 0.00031574397521552249 0 -0.017485363868841992 0.00081104913173048589 0 -0.017450983784644349 3.7811567953218114e-05 0 -0.016562108622908051 0.00031574397521552249 0 -0.017485363868841992 0.00081104913173048589 0 -0.017275527345696911 0.0017733606382721104 0 -0.017485363868841992 0.00081104913173048589 0 -0.016882298415155057 0.0013139099581159401 0 -0.017275527345696911 0.0017733606382721104 0 -0.018598623272834989 0.0020441810261511285 0 -0.017485363868841992 0.00081104913173048589 0 -0.016359885932084196 0.0017142543689541291 0 -0.016128834341976369 0.0012979436665056256 0 -0.016694361651904747 0.002095914261019191 0 -0.016085469762627386 0.0021786874965883745 0 -0.016150274835103572 0.0016182873029966084 0 -0.016694361651904747 0.002095914261019191 0 -0.016260410622496224 0.00080244080577583491 0 -0.016882298415155057 0.0013139099581159401 0 -0.016260410622496224 0.00080244080577583491 0 -0.017485363868841992 0.00081104913173048589 0 -0.016882298415155057 0.0013139099581159401 0 -0.018598623272834989 0.0020441810261511285 0 -0.021719734882198052 4.6889331916872985e-06 0 -0.019043332096885652 0.00015379405435191084 0 -0.018598623272834989 0.0020441810261511285 0 -0.017485363868841992 0.00081104913173048589 0 -0.019043332096885652 0.00015379405435191084 0 -0.017450983784644349 3.7811567953218114e-05 0 -0.017485363868841992 0.00081104913173048589 0 -0.019043332096885652 0.00015379405435191084 0 -0.019043332096885652 0.00015379405435191084 0 -0.019773742975701107 -1.312378180041512e-06 0 -0.018195846184828637 -0.0001015139182565887 0 -0.021719734882198052 4.6889331916872985e-06 0 -0.019043332096885652 0.00015379405435191084 0 -0.019773742975701107 -1.312378180041512e-06 0 -0.019773742975701107 -1.312378180041512e-06 0 -0.018195846184828637 -0.0001015139182565887 0 -0.017822862928311423 -1.9789087278029569e-07 0 -0.017450983784644349 3.7811567953218114e-05 0 -0.019043332096885652 0.00015379405435191084 0 -0.018195846184828637 -0.0001015139182565887 0 -0.017450983784644349 3.7811567953218114e-05 0 -0.018195846184828637 -0.0001015139182565887 0 -0.017063697748976255 -0.00017171764162668982 0 -0.018195846184828637 -0.0001015139182565887 0 -0.017063697748976255 -0.00017171764162668982 0 -0.017822862928311423 -1.9789087278029569e-07 0 -0.017822862928311423 -1.9789087278029569e-07 0 -0.01623643041245678 -0.00025001957409002685 0 -0.015873419633066911 -4.4340287644401315e-07 0 -0.017063697748976255 -0.00017171764162668982 0 -0.017822862928311423 -1.9789087278029569e-07 0 -0.01623643041245678 -0.00025001957409002685 0 -0.017063697748976255 -0.00017171764162668982 0 -0.01623643041245678 -0.00025001957409002685 0 -0.016213589515553559 -0.00029278641198616812 0 -0.01623643041245678 -0.00025001957409002685 0 -0.016213589515553559 -0.00029278641198616812 0 -0.015360618989617377 -0.00036603451933761165 0 -0.01623643041245678 -0.00025001957409002685 0 -0.015873419633066911 -4.4340287644401315e-07 0 -0.015360618989617377 -0.00036603451933761165 0 -0.016277230726790763 1.1673913989270693e-05 0 -0.016213589515553559 -0.00029278641198616812 0 -0.015699560774359574 -0.00010285795575326387 0 -0.016277230726790763 1.1673913989270693e-05 0 -0.017063697748976255 -0.00017171764162668982 0 -0.016213589515553559 -0.00029278641198616812 0 -0.016213589515553559 -0.00029278641198616812 0 -0.015834695583160516 -0.00038321072116775392 0 -0.015360618989617377 -0.00036603451933761165 0 -0.016213589515553559 -0.00029278641198616812 0 -0.015834695583160516 -0.00038321072116775392 0 -0.015699560774359574 -0.00010285795575326387 0 -0.015834695583160516 -0.00038321072116775392 0 -0.015735983031786163 -0.00026019264649586332 0 -0.015399609990022527 -0.00055080274697752907 0 -0.015834695583160516 -0.00038321072116775392 0 -0.015735983031786163 -0.00026019264649586332 0 -0.015360618989617377 -0.00036603451933761165 0 -0.015735983031786163 -0.00026019264649586332 0 -0.015360618989617377 -0.00036603451933761165 0 -0.015009432909048595 0.00021753353786723708 0 -0.015873419633066911 -4.4340287644401315e-07 0 -0.015360618989617377 -0.00036603451933761165 0 -0.013923319944170036 -1.2087899360468493e-06 0 -0.015360618989617377 -0.00036603451933761165 0 -0.013856808045827337 2.8436295449914717e-05 0 -0.015009432909048595 0.00021753353786723708 0 -0.015360618989617377 -0.00036603451933761165 0 -0.013923319944170036 -1.2087899360468493e-06 0 -0.013856808045827337 2.8436295449914717e-05 0 -0.013923319944170036 -1.2087899360468493e-06 0 -0.013856808045827337 2.8436295449914717e-05 0 -0.011975898077153737 2.7024648445815969e-06 0 -0.013856808045827337 2.8436295449914717e-05 0 -0.011975898077153737 2.7024648445815969e-06 0 -0.013171597163022962 0.0009101027374183114 0 -0.01197237468495032 3.4598104639619046e-07 0 -0.011864189238649904 5.0844244957712883e-05 0 -0.011970892212060574 4.6198066277846373e-10 0 -0.011546672832134815 -8.9678767759585646e-07 0 -0.011135440804902566 -2.9536345445496015e-09 0 -0.0099779220421439552 0.00075802915087155604 0 -0.011130642868774169 1.4693860716643297e-06 0 -0.0098800201327254415 0.00013665984195164376 0 -0.011864189238649904 5.0844244957712883e-05 0 -0.011135822312068923 1.0270382044364193e-06 0 -0.014469182617749101 0.00074151144221619209 0 -0.014155718547691572 0.00074860577781789435 0 -0.014106106204087089 0.00098446954417938186 0 -0.014469182617749101 0.00074151144221619209 0 -0.014155718547691572 0.00074860577781789435 0 -0.014159630873297524 0.00049406649645834095 0 -0.0099779220421439552 0.00075802915087155604 0 -0.0098800201327254415 0.00013665984195164376 0 -0.0088749441013328528 4.398344797975901e-05 0 -0.011864189238649904 5.0844244957712883e-05 0 -0.01156091006560127 0.00025064739703195267 0 -0.011864189238649904 5.0844244957712883e-05 0 -0.013705394999718694 -1.8116284716337553e-05 0 -0.013856808045827337 2.8436295449914717e-05 0 -0.013171597163022962 0.0009101027374183114 0 -0.015009432909048595 0.00021753353786723708 0 -0.014236708843554524 9.2473697404210452e-05 0 -0.013705394999718694 -1.8116284716337553e-05 0 -0.013621811847167672 0.0011959318794787037 0 -0.014106106204087089 0.00098446954417938186 0 -0.013883071144502766 0.00077028065177520491 0 -0.013621811847167672 0.0011959318794787037 0 -0.013883071144502766 0.00077028065177520491 0 -0.013520885305567 0.00098272709561045626 0 -0.013883071144502766 0.00077028065177520491 0 -0.013604248648835155 0.00064878974514698945 0 -0.013520885305567 0.00098272709561045626 0 -0.014155718547691572 0.00074860577781789435 0 -0.013883071144502766 0.00077028065177520491 0 -0.014159630873297524 0.00049406649645834095 0 -0.014155718547691572 0.00074860577781789435 0 -0.014106106204087089 0.00098446954417938186 0 -0.013883071144502766 0.00077028065177520491 0 -0.011070556303118963 0.00030659179371505418 0 -0.01156091006560127 0.00025064739703195267 0 -0.0089738744476949191 -5.5316096221963914e-06 0 -0.0088170432132096393 -6.0119678263864234e-05 0 -0.0088749441013328528 4.398344797975901e-05 0 -0.013883071144502766 0.00077028065177520491 0 -0.01391173088133333 0.00019381023461501705 0 -0.014159630873297524 0.00049406649645834095 0 -0.01391173088133333 0.00019381023461501705 0 -0.013594846348759959 0.00016187213946646236 0 -0.013604248648835155 0.00064878974514698945 0 -0.013883071144502766 0.00077028065177520491 0 -0.01391173088133333 0.00019381023461501705 0 -0.013604248648835155 0.00064878974514698945 0 -0.01391173088133333 0.00019381023461501705 0 -0.013594846348759959 0.00016187213946646236 0 -0.013601897571252235 -0.00034958917454005182 0 -0.011070556303118963 0.00030659179371505418 0 -0.010126790130269136 0.00030344056416580428 0 -0.0089738744476949191 -5.5316096221963914e-06 0 -0.0088170432132096393 -6.0119678263864234e-05 0 -0.0089443780635195032 0.00013197817911379228 0 -0.0088170432132096393 -6.0119678263864234e-05 0 -0.0083083138309743947 0.00012934629174429215 0 -0.0093948140872143031 -6.0228816391897525e-05 0 -0.0088170432132096393 -6.0119678263864234e-05 0 -0.0083083138309743947 0.00012934629174429215 0 -0.0089443780635195032 0.00013197817911379228 0 -0.009067519239157976 -2.5414391826395219e-07 0 -0.0083083138309743947 0.00012934629174429215 0 -0.0093948140872143031 -6.0228816391897525e-05 0 -0.011130642868774169 1.4693860716643297e-06 0 -0.009067519239157976 -2.5414391826395219e-07 0 -0.0093948140872143031 -6.0228816391897525e-05 0 -0.011130642868774169 1.4693860716643297e-06 0 -0.0093948140872143031 -6.0228816391897525e-05 0 -0.0098800201327254415 0.00013665984195164376 0 -0.0093948140872143031 -6.0228816391897525e-05 0 -0.0098800201327254415 0.00013665984195164376 0 -0.0088749441013328528 4.398344797975901e-05 0 -0.0088170432132096393 -6.0119678263864234e-05 0 -0.0093948140872143031 -6.0228816391897525e-05 0 -0.0088749441013328528 4.398344797975901e-05 0 -0.012956384928336269 0.00070553061391164169 0 -0.012427058868728923 0.00075519025008377681 0 -0.012682242178110297 0.00018592912013195865 0 -0.012427058868728923 0.00075519025008377681 0 -0.012151183277386488 2.0739727881012983e-05 0 -0.012682242178110297 0.00018592912013195865 0 -0.012956384928336269 0.00070553061391164169 0 -0.012682242178110297 0.00018592912013195865 0 -0.01305626552264489 0.0001845876588753519 0 -0.012427058868728923 0.00075519025008377681 0 -0.012151183277386488 2.0739727881012983e-05 0 -0.011220386411162422 0.00019092558367899258 0 -0.012427058868728923 0.00075519025008377681 0 -0.011977432488477482 0.0012767911651328319 0 -0.011220386411162422 0.00019092558367899258 0 -0.012151183277386488 2.0739727881012983e-05 0 -0.011757384831052037 -0.00059687506595989246 0 -0.011220386411162422 0.00019092558367899258 0 -0.012151183277386488 2.0739727881012983e-05 0 -0.011757384831052037 -0.00059687506595989246 0 -0.012471333028305333 -0.00042447579367303707 0 -0.012151183277386488 2.0739727881012983e-05 0 -0.012471333028305333 -0.00042447579367303707 0 -0.012682242178110297 0.00018592912013195865 0 -0.012682242178110297 0.00018592912013195865 0 -0.0128272616349336 -0.00026291391249349763 0 -0.01305626552264489 0.0001845876588753519 0 -0.012471333028305333 -0.00042447579367303707 0 -0.012682242178110297 0.00018592912013195865 0 -0.0128272616349336 -0.00026291391249349763 0 -0.012471333028305333 -0.00042447579367303707 0 -0.0128272616349336 -0.00026291391249349763 0 -0.012781550784394793 -0.00061099630518642479 0 -0.0128272616349336 -0.00026291391249349763 0 -0.013139698218469652 -0.00020928654734225194 0 -0.012992037534143998 -0.0005337918362525411 0 -0.013139698218469652 -0.00020928654734225194 0 -0.013230842445301457 -0.00044872034640370206 0 -0.012992037534143998 -0.0005337918362525411 0 -0.013139698218469652 -0.00020928654734225194 0 -0.013317924916124423 9.859687131811918e-05 0 -0.013379392409068387 -0.00017856815973608483 0 -0.013139698218469652 -0.00020928654734225194 0 -0.013379392409068387 -0.00017856815973608483 0 -0.013230842445301457 -0.00044872034640370206 0 -0.013139698218469652 -0.00020928654734225194 0 -0.013317924916124423 9.859687131811918e-05 0 -0.01305626552264489 0.0001845876588753519 0 -0.0128272616349336 -0.00026291391249349763 0 -0.013139698218469652 -0.00020928654734225194 0 -0.01305626552264489 0.0001845876588753519 0 -0.013379392409068387 -0.00017856815973608483 0 -0.013594846348759959 0.00016187213946646236 0 -0.013601897571252235 -0.00034958917454005182 0 -0.013317924916124423 9.859687131811918e-05 0 -0.013379392409068387 -0.00017856815973608483 0 -0.013594846348759959 0.00016187213946646236 0 -0.013594846348759959 0.00016187213946646236 0 -0.01331273894403876 0.00049275400664397333 0 -0.013604248648835155 0.00064878974514698945 0 -0.013317924916124423 9.859687131811918e-05 0 -0.013594846348759959 0.00016187213946646236 0 -0.01331273894403876 0.00049275400664397333 0 -0.012956384928336269 0.00070553061391164169 0 -0.01305626552264489 0.0001845876588753519 0 -0.01331273894403876 0.00049275400664397333 0 -0.013317924916124423 9.859687131811918e-05 0 -0.01305626552264489 0.0001845876588753519 0 -0.01331273894403876 0.00049275400664397333 0 -0.012956384928336269 0.00070553061391164169 0 -0.01331273894403876 0.00049275400664397333 0 -0.013251288313447001 0.0010322118474877962 0 -0.01331273894403876 0.00049275400664397333 0 -0.013251288313447001 0.0010322118474877962 0 -0.013604248648835155 0.00064878974514698945 0 -0.013251288313447001 0.0010322118474877962 0 -0.013604248648835155 0.00064878974514698945 0 -0.013520885305567 0.00098272709561045626 0 -0.013621811847167672 0.0011959318794787037 0 -0.013520885305567 0.00098272709561045626 0 -0.013332979937981436 0.0011569468755576607 0 -0.013251288313447001 0.0010322118474877962 0 -0.013520885305567 0.00098272709561045626 0 -0.013332979937981436 0.0011569468755576607 0 -0.013251288313447001 0.0010322118474877962 0 -0.013184206705886303 0.0012868857351729232 0 -0.013332979937981436 0.0011569468755576607 0 -0.013184206705886303 0.0012868857351729232 0 -0.012789534176299822 0.0012421344409199305 0 -0.012954236999314778 0.0014337986438744501 0 -0.013251288313447001 0.0010322118474877962 0 -0.013184206705886303 0.0012868857351729232 0 -0.012789534176299822 0.0012421344409199305 0 -0.013184206705886303 0.0012868857351729232 0 -0.012954236999314778 0.0014337986438744501 0 -0.013272562718320044 0.0012545910918917347 0 -0.012956384928336269 0.00070553061391164169 0 -0.013251288313447001 0.0010322118474877962 0 -0.012789534176299822 0.0012421344409199305 0 -0.012956384928336269 0.00070553061391164169 0 -0.012427058868728923 0.00075519025008377681 0 -0.012789534176299822 0.0012421344409199305 0 -0.011977432488477482 0.0012767911651328319 0 -0.012531051936336924 0.0015280206956008748 0 -0.01161301004754039 0.0018125861409019795 0 -0.012789534176299822 0.0012421344409199305 0 -0.011977432488477482 0.0012767911651328319 0 -0.012531051936336924 0.0015280206956008748 0 -0.012427058868728923 0.00075519025008377681 0 -0.012789534176299822 0.0012421344409199305 0 -0.011977432488477482 0.0012767911651328319 0 -0.012531051936336924 0.0015280206956008748 0 -0.01161301004754039 0.0018125861409019795 0 -0.012591410400874125 0.0014936372407006028 0 -0.012789534176299822 0.0012421344409199305 0 -0.012531051936336924 0.0015280206956008748 0 -0.012954236999314778 0.0014337986438744501 0 -0.012531051936336924 0.0015280206956008748 0 -0.012954236999314778 0.0014337986438744501 0 -0.01305062106052317 0.0015349376743407986 0 -0.012531051936336924 0.0015280206956008748 0 -0.01305062106052317 0.0015349376743407986 0 -0.012591410400874125 0.0014936372407006028 0 -0.012827760990716872 0.0017568552511120852 0 -0.01269470872009089 0.0019262313164587685 0 -0.01305062106052317 0.0015349376743407986 0 -0.012448967879101326 0.0023888656347800033 0 -0.012591410400874125 0.0014936372407006028 0 -0.01305062106052317 0.0015349376743407986 0 -0.013466878276166078 0.0011067428064665946 0 -0.013976205189114323 0.00097435916759405295 0 -0.013466878276166078 0.0011067428064665946 0 -0.013727836521161652 0.00080561893775637605 0 -0.013976205189114323 0.00097435916759405295 0 -0.013466878276166078 0.0011067428064665946 0 -0.013272562718320044 0.0012545910918917347 0 -0.013641482818495905 0.00086057672817044847 0 -0.01305062106052317 0.0015349376743407986 0 -0.013466878276166078 0.0011067428064665946 0 -0.013272562718320044 0.0012545910918917347 0 -0.012954236999314778 0.0014337986438744501 0 -0.01305062106052317 0.0015349376743407986 0 -0.013272562718320044 0.0012545910918917347 0 -0.013184206705886303 0.0012868857351729232 0 -0.013272562718320044 0.0012545910918917347 0 -0.013483380157412963 0.0010528295335568796 0 -0.013272562718320044 0.0012545910918917347 0 -0.013641482818495905 0.00086057672817044847 0 -0.013483380157412963 0.0010528295335568796 0 -0.013641482818495905 0.00086057672817044847 0 -0.013864782692944971 0.00058258098906151679 0 -0.014166107392158761 0.00019244514910925735 0 -0.013641482818495905 0.00086057672817044847 0 -0.013483380157412963 0.0010528295335568796 0 -0.014166107392158761 0.00019244514910925735 0 -0.013864782692944971 0.00058258098906151679 0 -0.013727836521161652 0.00080561893775637605 0 -0.013952982392931993 0.00061357203431741528 0 -0.013864782692944971 0.00058258098906151679 0 -0.01400611510217325 0.00043833726623373207 0 -0.013952982392931993 0.00061357203431741528 0 -0.013727836521161652 0.00080561893775637605 0 -0.013976205189114323 0.00097435916759405295 0 -0.013952982392931993 0.00061357203431741528 0 -0.013641482818495905 0.00086057672817044847 0 -0.013864782692944971 0.00058258098906151679 0 -0.013727836521161652 0.00080561893775637605 0 -0.013466878276166078 0.0011067428064665946 0 -0.013641482818495905 0.00086057672817044847 0 -0.013727836521161652 0.00080561893775637605 0 -0.014236708843554524 9.2473697404210452e-05 0 -0.014282834586731684 0.00015852299680241142 0 -0.013621811847167672 0.0011959318794787037 0 -0.013332979937981436 0.0011569468755576607 0 -0.013259085997023485 0.0010083331111889443 0 -0.013332979937981436 0.0011569468755576607 0 -0.013483380157412963 0.0010528295335568796 0 -0.013259085997023485 0.0010083331111889443 0 -0.013184206705886303 0.0012868857351729232 0 -0.013332979937981436 0.0011569468755576607 0 -0.013483380157412963 0.0010528295335568796 0 -0.013483380157412963 0.0010528295335568796 0 -0.013259085997023485 0.0010083331111889443 0 -0.014166107392158761 0.00019244514910925735 0 -0.014282834586731684 0.00015852299680241142 0 -0.014254929452334631 0.00017824330992577278 0 -0.015834695583160516 -0.00038321072116775392 0 -0.015399609990022527 -0.00055080274697752907 0 -0.015699560774359574 -0.00010285795575326387 0 -0.015399609990022527 -0.00055080274697752907 0 -0.015699560774359574 -0.00010285795575326387 0 -0.014166107392158761 0.00019244514910925735 0 -0.015699560774359574 -0.00010285795575326387 0 -0.015112917855352577 0.00033765604549902098 0 -0.014166107392158761 0.00019244514910925735 0 -0.016277230726790763 1.1673913989270693e-05 0 -0.015699560774359574 -0.00010285795575326387 0 -0.015112917855352577 0.00033765604549902098 0 -0.01400611510217325 0.00043833726623373207 0 -0.014169740366837534 0.00038384872824254439 0 -0.014045925939386788 0.00043725673333366253 0 -0.01400611510217325 0.00043833726623373207 0 -0.014039498086756435 0.00049449769215084867 0 -0.013952982392931993 0.00061357203431741528 0 -0.01400611510217325 0.00043833726623373207 0 -0.014045925939386788 0.00043725673333366253 0 -0.014039498086756435 0.00049449769215084867 0 -0.014166107392158761 0.00019244514910925735 0 -0.01449682054521275 0.00040793699311107077 0 -0.014169740366837534 0.00038384872824254439 0 -0.013864782692944971 0.00058258098906151679 0 -0.01400611510217325 0.00043833726623373207 0 -0.014166107392158761 0.00019244514910925735 0 -0.01400611510217325 0.00043833726623373207 0 -0.014166107392158761 0.00019244514910925735 0 -0.014169740366837534 0.00038384872824254439 0 -0.015112917855352577 0.00033765604549902098 0 -0.014166107392158761 0.00019244514910925735 0 -0.01449682054521275 0.00040793699311107077 0 -0.014294775801303016 0.00056867022068092564 0 -0.01449682054521275 0.00040793699311107077 0 -0.014169740366837534 0.00038384872824254439 0 -0.014294775801303016 0.00056867022068092564 0 -0.014169740366837534 0.00038384872824254439 0 -0.014128869969752975 0.00045910645140341164 0 -0.014169740366837534 0.00038384872824254439 0 -0.014128869969752975 0.00045910645140341164 0 -0.014045925939386788 0.00043725673333366253 0 -0.014294775801303016 0.00056867022068092564 0 -0.014128869969752975 0.00045910645140341164 0 -0.014111966656231111 0.00056605759571549464 0 -0.014111966656231111 0.00056605759571549464 0 -0.014013145952458433 0.00052858121561135513 0 -0.014055601965114801 0.00045663914461206809 0 -0.014128869969752975 0.00045910645140341164 0 -0.014111966656231111 0.00056605759571549464 0 -0.014055601965114801 0.00045663914461206809 0 -0.013988147205367734 0.00074923338530546405 0 -0.014013145952458433 0.00052858121561135513 0 -0.013872380254461948 0.00054656898829772208 0 -0.014013145952458433 0.00052858121561135513 0 -0.013977748274563967 0.00048999787138690896 0 -0.013872380254461948 0.00054656898829772208 0 -0.014013145952458433 0.00052858121561135513 0 -0.013977748274563967 0.00048999787138690896 0 -0.01401715273621356 0.00046165595218535085 0 -0.013977748274563967 0.00048999787138690896 0 -0.01401715273621356 0.00046165595218535085 0 -0.014001468405607904 0.00042975874359465447 0 -0.014013145952458433 0.00052858121561135513 0 -0.01401715273621356 0.00046165595218535085 0 -0.014055601965114801 0.00045663914461206809 0 -0.01401715273621356 0.00046165595218535085 0 -0.014055601965114801 0.00045663914461206809 0 -0.014026925009183195 0.00044194749776000529 0 -0.01401715273621356 0.00046165595218535085 0 -0.014026925009183195 0.00044194749776000529 0 -0.014001468405607904 0.00042975874359465447 0 -0.014128869969752975 0.00045910645140341164 0 -0.014055601965114801 0.00045663914461206809 0 -0.014045925939386788 0.00043725673333366253 0 -0.014026925009183195 0.00044194749776000529 0 -0.014039498086756435 0.00049449769215084867 0 -0.014143042689308303 0.00058178939027836495 0 -0.014045925939386788 0.00043725673333366253 0 -0.014026925009183195 0.00044194749776000529 0 -0.014039498086756435 0.00049449769215084867 0 -0.012851650087336292 0.0017263048784966701 0 -0.012604871550966165 0.0020714351052432134 0 -0.014055601965114801 0.00045663914461206809 0 -0.014045925939386788 0.00043725673333366253 0 -0.014026925009183195 0.00044194749776000529 0 -0.014026925009183195 0.00044194749776000529 0 -0.014001468405607904 0.00042975874359465447 0 -0.014143042689308303 0.00058178939027836495 0 -0.013121168239240727 0.0022890115765342458 0 -0.01169824556389823 0.0027416958136857288 0 -0.012656878772321441 0.0021730694528769054 0 -0.012753827711315566 0.0022888582025780346 0 -0.012810602517219206 0.0019521599675413094 0 -0.013121168239240727 0.0022890115765342458 0 -0.013312855923439894 0.0025424048246455357 0 -0.013121168239240727 0.0022890115765342458 0 -0.012604871550966165 0.0020714351052432134 0 -0.013121168239240727 0.0022890115765342458 0 -0.012851650087336292 0.0017263048784966701 0 -0.013121168239240727 0.0022890115765342458 0 -0.015426563327875021 0.0016570426220099427 0 -0.013764912447218239 0.0001904953908930517 0 -0.013902054082768601 0.00035196129912567261 0 -0.013872380254461948 0.00054656898829772208 0 -0.013764912447218239 0.0001904953908930517 0 -0.013872380254461948 0.00054656898829772208 0 -0.0134765353972608 0.00059272256797156004 0 -0.012851650087336292 0.0017263048784966701 0 -0.012910749964039103 0.0015550721639424117 0 -0.013977748274563967 0.00048999787138690896 0 -0.014001468405607904 0.00042975874359465447 0 -0.013872380254461948 0.00054656898829772208 0 -0.015957133160271326 0.0020551726188543459 0 -0.016229769559133727 0.0016877650521973985 0 -0.016296248742350299 0.0019895352538123108 0 -0.016229769559133727 0.0016877650521973985 0 -0.016505010785867177 0.0017751321097153616 0 -0.016296248742350299 0.0019895352538123108 0 -0.016596549327282387 0.0019219261460303005 0 -0.016699058215745431 0.0020724447138648011 0 -0.016731999641941761 0.001768864672708855 0 -0.016505010785867177 0.0017751321097153616 0 -0.016472400115986538 0.0019437804120758715 0 -0.016596549327282387 0.0019219261460303005 0 -0.016505010785867177 0.0017751321097153616 0 -0.016472400115986538 0.0019437804120758715 0 -0.016296248742350299 0.0019895352538123108 0 -0.016505010785867177 0.0017751321097153616 0 -0.016596549327282387 0.0019219261460303005 0 -0.016731999641941761 0.001768864672708855 0 -0.016699058215745431 0.0020724447138648011 0 -0.016575728107917305 0.002232597441156369 0 -0.016753850861707484 0.0023802470768587271 0 -0.016596549327282387 0.0019219261460303005 0 -0.016699058215745431 0.0020724447138648011 0 -0.016517045170434411 0.0020669739256918905 0 -0.016472400115986538 0.0019437804120758715 0 -0.016517045170434411 0.0020669739256918905 0 -0.016296248742350299 0.0019895352538123108 0 -0.016472400115986538 0.0019437804120758715 0 -0.016596549327282387 0.0019219261460303005 0 -0.016517045170434411 0.0020669739256918905 0 -0.016517045170434411 0.0020669739256918905 0 -0.016575728107917305 0.002232597441156369 0 -0.016400240207068661 0.0021834685687212307 0 -0.016699058215745431 0.0020724447138648011 0 -0.016517045170434411 0.0020669739256918905 0 -0.016575728107917305 0.002232597441156369 0 -0.015957133160271326 0.0020551726188543459 0 -0.016296248742350299 0.0019895352538123108 0 -0.016193715246029451 0.0022248853902601604 0 -0.013036018771868319 0.0026320329512480103 0 -0.012668376251591009 0.0023553703120151219 0 -0.012557096616505994 0.0020474713593638377 0 -0.016517045170434411 0.0020669739256918905 0 -0.016296248742350299 0.0019895352538123108 0 -0.016400240207068661 0.0021834685687212307 0 -0.016296248742350299 0.0019895352538123108 0 -0.016400240207068661 0.0021834685687212307 0 -0.016193715246029451 0.0022248853902601604 0 -0.013312855923439894 0.0025424048246455357 0 -0.01292346090139042 0.0025889188274425363 0 -0.016400240207068661 0.0021834685687212307 0 -0.016193715246029451 0.0022248853902601604 0 -0.016419332479274875 0.0024039763144546003 0 -0.012668376251591009 0.0023553703120151219 0 -0.012557096616505994 0.0020474713593638377 0 -0.01231323515752749 0.002061048308232308 0 -0.01169824556389823 0.0027416958136857288 0 -0.01292346090139042 0.0025889188274425363 0 -0.01497092076580153 0.0029799860316334823 0 -0.014492543453911808 0.0030038506921180636 0 -0.014353370553444633 0.0024464162689820878 0 -0.01292346090139042 0.0025889188274425363 0 -0.015902990025367349 0.0023267358705368929 0 -0.0091112580962078773 0.0058670063556947412 0 -0.0083185038287380258 0.0059213165922025884 0 -0.0075680425835600341 0.004255627207194179 0 -0.016575728107917305 0.002232597441156369 0 -0.016419332479274875 0.0024039763144546003 0 -0.016753850861707484 0.0023802470768587271 0 -0.016575728107917305 0.002232597441156369 0 -0.016400240207068661 0.0021834685687212307 0 -0.016419332479274875 0.0024039763144546003 0 -0.010765688730772986 0.0029817476737504841 0 -0.010311970855471617 0.0025134240158586141 0 -0.010209240997455802 0.0024592666290713409 0 -0.01292346090139042 0.0025889188274425363 0 -0.011205610765463484 0.0023400102408473096 0 -0.0083185038287380258 0.0059213165922025884 0 -0.0075680425835600341 0.004255627207194179 0 -0.0062270126725914362 0.0042753761059861192 0 -0.01169824556389823 0.0027416958136857288 0 -0.0095123358609739816 0.0026175206570530122 0 -0.010283038952390329 0.0025126681638292644 0 -0.010513470690094388 0.0023020820662526596 0 -0.010256149282590945 0.0022231015861611278 0 -0.010311970855471617 0.0025134240158586141 0 -0.010209240997455802 0.0024592666290713409 0 -0.009874960498823606 0.0020434656798213454 0 -0.010670772246023202 0.0029601980495575836 0 -0.010737909796842717 0.0025186931702315366 0 -0.011120878380815456 0.0025470928575176558 0 -0.010670772246023202 0.0029601980495575836 0 -0.010283038952390329 0.0025126681638292644 0 -0.010737909796842717 0.0025186931702315366 0 -0.01169824556389823 0.0027416958136857288 0 -0.010963380950912115 0.002336653367810671 0 -0.010283038952390329 0.0025126681638292644 0 -0.010737909796842717 0.0025186931702315366 0 -0.010513470690094388 0.0023020820662526596 0 -0.010737909796842717 0.0025186931702315366 0 -0.010971126342550349 0.0021378260481179122 0 -0.010513470690094388 0.0023020820662526596 0 -0.010737909796842717 0.0025186931702315366 0 -0.011120878380815456 0.0025470928575176558 0 -0.010971126342550349 0.0021378260481179122 0 -0.012355446048037502 0.0022280033905643999 0 -0.011422502156608014 0.0023841811569447983 0 -0.011120878380815456 0.0025470928575176558 0 -0.011476825935541142 0.0029052663642169028 0 -0.011585211008289501 0.0022323662600199829 0 -0.012448967879101326 0.0023888656347800033 0 -0.01221395834976358 0.0014380109867977485 0 -0.012591410400874125 0.0014936372407006028 0 -0.012448967879101326 0.0023888656347800033 0 -0.012001023209662471 0.0027644357226300782 0 -0.01221395834976358 0.0014380109867977485 0 -0.012448967879101326 0.0023888656347800033 0 -0.012001023209662471 0.0027644357226300782 0 -0.01218720421781606 0.0027658589827234009 0 -0.012454941961691841 0.0023867847737538725 0 -0.012336268648319597 0.0023856715050650742 0 -0.012492550773390952 0.0021586425839838596 0 -0.012355446048037502 0.0022280033905643999 0 -0.012509141012210897 0.0021507654456727771 0 -0.013976205189114323 0.00097435916759405295 0 -0.014100646974527984 0.00074945765471393728 0 -0.013952982392931993 0.00061357203431741528 0 -0.01269470872009089 0.0019262313164587685 0 -0.012509141012210897 0.0021507654456727771 0 -0.014100646974527984 0.00074945765471393728 0 -0.013952982392931993 0.00061357203431741528 0 -0.014143042689308303 0.00058178939027836495 0 -0.014039498086756435 0.00049449769215084867 0 -0.013952982392931993 0.00061357203431741528 0 -0.014143042689308303 0.00058178939027836495 0 -0.012355446048037502 0.0022280033905643999 0 -0.012604871550966165 0.0020714351052432134 0 -0.012509141012210897 0.0021507654456727771 0 -0.012604871550966165 0.0020714351052432134 0 -0.010670772246023202 0.0029601980495575836 0 -0.011120878380815456 0.0025470928575176558 0 -0.011476825935541142 0.0029052663642169028 0 -0.01169824556389823 0.0027416958136857288 0 -0.012355446048037502 0.0022280033905643999 0 -0.012450673087720861 0.0024175038231888627 0 -0.01257135856506139 0.0024090464313679281 0 -0.012567271630047264 0.0024356842853394288 0 -0.012524016268215431 0.0024990060471345391 0 -0.012450673087720861 0.0024175038231888627 0 -0.012567271630047264 0.0024356842853394288 0 -0.02387776464217119 0.0022101463159306363 0 -0.023649762945809394 0.0013820795478293375 0 -0.022890743767834253 0.001965771612926129 0 -0.02387776464217119 0.0022101463159306363 0 -0.024353325650468549 0.0014497658483079491 0 -0.023649762945809394 0.0013820795478293375 0 -0.02436752416650885 0.0028965406569456788 0 -0.02387776464217119 0.0022101463159306363 0 -0.023579033131290249 0.0030609126706520082 0 -0.02436752416650885 0.0028965406569456788 0 -0.02387776464217119 0.0022101463159306363 0 -0.024623593077919018 0.0021087471451572489 0 -0.02387776464217119 0.0022101463159306363 0 -0.024623593077919018 0.0021087471451572489 0 -0.024353325650468549 0.0014497658483079491 0 -0.024623593077919018 0.0021087471451572489 0 -0.024948318852688084 0.0014547430284748131 0 -0.024353325650468549 0.0014497658483079491 0 -0.024623593077919018 0.0021087471451572489 0 -0.024981488148323398 0.0025474040823113319 0 -0.025238276432028698 0.0020333841771342123 0 -0.024623593077919018 0.0021087471451572489 0 -0.025238276432028698 0.0020333841771342123 0 -0.024948318852688084 0.0014547430284748131 0 -0.02436752416650885 0.0028965406569456788 0 -0.024623593077919018 0.0021087471451572489 0 -0.024981488148323398 0.0025474040823113319 0 -0.020034048474506794 0.0025365398177283182 0 -0.019874950104067673 0.0023483847946445353 0 -0.024981488148323398 0.0025474040823113319 0 -0.025499423364894132 0.0025800284585782152 0 -0.025238276432028698 0.0020333841771342123 0 -0.024918271314905004 0.0030979909974076132 0 -0.024981488148323398 0.0025474040823113319 0 -0.025499423364894132 0.0025800284585782152 0 -0.016699058215745431 0.0020724447138648011 0 -0.016731999641941761 0.001768864672708855 0 -0.016909268373837348 0.0020604707063003502 0 -0.019874950104067673 0.0023483847946445353 0 -0.019210438408223611 0.0019595666608431049 0 -0.016699058215745431 0.0020724447138648011 0 -0.016909268373837348 0.0020604707063003502 0 -0.016753850861707484 0.0023802470768587271 0 -0.016909268373837348 0.0020604707063003502 0 -0.016753850861707484 0.0023802470768587271 0 -0.017090051951020202 0.0023565353204443897 0 -0.014492543453911808 0.0030038506921180636 0 -0.014353370553444633 0.0024464162689820878 0 -0.014001230136291572 0.0030376018923968786 0 -0.015902990025367349 0.0023267358705368929 0 -0.019210438408223611 0.0019595666608431049 0 -0.014353370553444633 0.0024464162689820878 0 -0.013673146380532727 0.0024802428963862757 0 -0.014001230136291572 0.0030376018923968786 0 -0.024798303450854639 0.00036439192820624238 0 -0.025251522691921553 0.0012332716306575077 0 -0.024443149868512735 0.0012908706207422056 0 -0.017737693061309717 0.0019388050058262835 0 -0.019210438408223611 0.0019595666608431049 0 -0.019210438408223611 0.0019595666608431049 0 -0.022363726801908738 0.0016830185565659551 0 -0.022363726801908738 0.0016830185565659551 0 -0.022947139697083421 0.0016208516256452925 0 -0.024798303450854639 0.00036439192820624238 0 -0.024443149868512735 0.0012908706207422056 0 -0.02382249594323859 0.00047688802943800148 0 -0.024798303450854639 0.00036439192820624238 0 -0.02382249594323859 0.00047688802943800148 0 -0.02430322925702285 -0.00057163330438709723 0 -0.02382249594323859 0.00047688802943800148 0 -0.022976784896835998 0.00092222276794959822 0 -0.023094901655299312 6.4045405836555728e-05 0 -0.02382249594323859 0.00047688802943800148 0 -0.023519156363416758 -0.00019921458234478149 0 -0.023094901655299312 6.4045405836555728e-05 0 -0.02382249594323859 0.00047688802943800148 0 -0.023649762945809394 0.0013820795478293375 0 -0.022976784896835998 0.00092222276794959822 0 -0.024443149868512735 0.0012908706207422056 0 -0.02382249594323859 0.00047688802943800148 0 -0.023649762945809394 0.0013820795478293375 0 -0.023736650506843992 -0.0015535824218227332 0 -0.023607002551365573 -0.0012400278010646056 0 -0.02430322925702285 -0.00057163330438709723 0 -0.023270804315044268 -0.0014700669766826706 0 -0.023607002551365573 -0.0012400278010646056 0 -0.023491694119038838 -0.0017886939288577766 0 -0.023270804315044268 -0.0014700669766826706 0 -0.023607002551365573 -0.0012400278010646056 0 -0.023245761420162304 -0.0010612435704580672 0 -0.023270804315044268 -0.0014700669766826706 0 -0.023245761420162304 -0.0010612435704580672 0 -0.022900872695267711 -0.0014395210787221066 0 -0.023736650506843992 -0.0015535824218227332 0 -0.023607002551365573 -0.0012400278010646056 0 -0.023436982188679133 -0.0017686348679932758 0 -0.011888600668462219 0.00094383452001076075 0 -0.011391470388875457 0.0010349961526667133 0 -0.023607002551365573 -0.0012400278010646056 0 -0.023664917339599977 -0.00069611422816744691 0 -0.02430322925702285 -0.00057163330438709723 0 -0.023607002551365573 -0.0012400278010646056 0 -0.023245761420162304 -0.0010612435704580672 0 -0.023664917339599977 -0.00069611422816744691 0 -0.023245761420162304 -0.0010612435704580672 0 -0.0232050051514744 -0.00055151922820658285 0 -0.023664917339599977 -0.00069611422816744691 0 -0.02382249594323859 0.00047688802943800148 0 -0.023519156363416758 -0.00019921458234478149 0 -0.02430322925702285 -0.00057163330438709723 0 -0.0232050051514744 -0.00055151922820658285 0 -0.023519156363416758 -0.00019921458234478149 0 -0.023664917339599977 -0.00069611422816744691 0 -0.023519156363416758 -0.00019921458234478149 0 -0.023664917339599977 -0.00069611422816744691 0 -0.02430322925702285 -0.00057163330438709723 0 -0.0232050051514744 -0.00055151922820658285 0 -0.023519156363416758 -0.00019921458234478149 0 -0.023094901655299312 6.4045405836555728e-05 0 -0.013673146380532727 0.0024802428963862757 0 -0.013327135661804846 0.001891312913368333 0 -0.013692001380430835 0.0018735489072991434 0 -0.017737693061309717 0.0019388050058262835 0 -0.015504433859187917 0.0017717592852656927 0 -0.011537205949224555 0.0011760500128756442 0 -0.010307469955816247 0.0015261120512447821 0 -0.011537205949224555 0.0011760500128756442 0 -0.015504433859187917 0.0017717592852656927 0 -0.012984104557427446 0.0012690378844377166 0 -0.013327135661804846 0.001891312913368333 0 -0.013692001380430835 0.0018735489072991434 0 -0.0031630816778121271 0.0015443250650410826 0 -0.0039824091869504162 0.0017139714613874323 0 -0.0043275950513993145 0.0026936289300647804 0 -0.0039824091869504162 0.0017139714613874323 0 -0.0049502441981392753 0.0018352995197646986 0 -0.0040108395598197483 0.0011728034486072623 0 -0.0044556586606010603 0.0020311088655173308 0 -0.0052379570297990561 0.0019048818481738907 0 -0.0044925613677875616 0.0013237167617254873 0 -0.0049502441981392753 0.0018352995197646986 0 -0.0043275950513993145 0.0026936289300647804 0 -0.0052137665091691546 0.0026283718643239778 0 -0.0039824091869504162 0.0017139714613874323 0 -0.0049502441981392753 0.0018352995197646986 0 -0.0043275950513993145 0.0026936289300647804 0 -0.014353370553444633 0.0024464162689820878 0 -0.013673146380532727 0.0024802428963862757 0 -0.013692001380430835 0.0018735489072991434 0 -0.0062270126725914362 0.0042753761059861192 0 -0.0043275950513993145 0.0026936289300647804 0 -0.0052137665091691546 0.0026283718643239778 0 -0.011205610765463484 0.0023400102408473096 0 -0.010307469955816247 0.0015261120512447821 0 -0.0072123695365230419 0.0019422251947948004 0 -0.0074565416642471813 0.0019433641600363131 0 -0.0075680425835600341 0.004255627207194179 0 -0.0062270126725914362 0.0042753761059861192 0 -0.0060729629733083396 0.0027295854097731261 0 -0.0062270126725914362 0.0042753761059861192 0 -0.0052137665091691546 0.0026283718643239778 0 -0.0060729629733083396 0.0027295854097731261 0 -0.010209240997455802 0.0024592666290713409 0 -0.0096850154309611174 0.0019307035814907494 0 -0.009874960498823606 0.0020434656798213454 0 -0.0095123358609739816 0.0026175206570530122 0 -0.0074565416642471813 0.0019433641600363131 0 -0.0051781385034343225 0.003045743122867517 0 -0.0052379570297990561 0.0019048818481738907 0 -0.0060680531589691602 0.0023831016294736172 0 -0.0044556586606010603 0.0020311088655173308 0 -0.0051781385034343225 0.003045743122867517 0 -0.0052379570297990561 0.0019048818481738907 0 -0.0062969981177721764 0.0014823413182518538 0 -0.0074565416642471813 0.0019433641600363131 0 -0.0049502441981392753 0.0018352995197646986 0 -0.0052137665091691546 0.0026283718643239778 0 -0.0059074746844685541 0.0027221096103658589 0 -0.0050303808790590409 0.00095016989731585406 0 -0.0060541056524661737 0.0014266940176551235 0 -0.00573398821113256 0.00020415491124955792 0 -0.0052379570297990561 0.0019048818481738907 0 -0.0050303808790590409 0.00095016989731585406 0 -0.0060541056524661737 0.0014266940176551235 0 -0.0052379570297990561 0.0019048818481738907 0 -0.0050303808790590409 0.00095016989731585406 0 -0.0044925613677875616 0.0013237167617254873 0 -0.0050303808790590409 0.00095016989731585406 0 -0.0048274107123165788 0.00019571504214509048 0 -0.00573398821113256 0.00020415491124955792 0 -0.0048274107123165788 0.00019571504214509048 0 -0.00573398821113256 0.00020415491124955792 0 -0.005094007199732499 -0.00048476247288543694 0 -0.0048274107123165788 0.00019571504214509048 0 -0.004135646071589086 0.00057583624343212237 0 -0.0042550589085274312 -0.00038078387362007048 0 -0.0050303808790590409 0.00095016989731585406 0 -0.0048274107123165788 0.00019571504214509048 0 -0.004135646071589086 0.00057583624343212237 0 -0.004135646071589086 0.00057583624343212237 0 -0.0044925613677875616 0.0013237167617254873 0 -0.0040108395598197483 0.0011728034486072623 0 -0.0050303808790590409 0.00095016989731585406 0 -0.004135646071589086 0.00057583624343212237 0 -0.0044925613677875616 0.0013237167617254873 0 -0.0044556586606010603 0.0020311088655173308 0 -0.0044925613677875616 0.0013237167617254873 0 -0.0040108395598197483 0.0011728034486072623 0 -0.0062969981177721764 0.0014823413182518538 0 -0.0058628468965213603 0.0012548024234852245 0 -0.0031630816778121271 0.0015443250650410826 0 -0.0039824091869504162 0.0017139714613874323 0 -0.0036280472679015791 0.0012104391024249015 0 -0.0039824091869504162 0.0017139714613874323 0 -0.0040108395598197483 0.0011728034486072623 0 -0.0036280472679015791 0.0012104391024249015 0 -0.0031630816778121271 0.0015443250650410826 0 -0.0036280472679015791 0.0012104391024249015 0 -0.0032783278375905032 0.0010588421895539625 0 -0.0036280472679015791 0.0012104391024249015 0 -0.0034890142516867881 0.00074803487766211298 0 -0.0032783278375905032 0.0010588421895539625 0 -0.0036280472679015791 0.0012104391024249015 0 -0.0037930376418422377 0.00080978363820229647 0 -0.0034890142516867881 0.00074803487766211298 0 -0.0040108395598197483 0.0011728034486072623 0 -0.0036280472679015791 0.0012104391024249015 0 -0.0037930376418422377 0.00080978363820229647 0 -0.004135646071589086 0.00057583624343212237 0 -0.0040108395598197483 0.0011728034486072623 0 -0.0037930376418422377 0.00080978363820229647 0 -0.004135646071589086 0.00057583624343212237 0 -0.0037930376418422377 0.00080978363820229647 0 -0.0035869631223519401 0.00046464778967516402 0 -0.0035439842594089687 0.00032136098548187761 0 -0.003270681754119595 7.4251511575493208e-05 0 -0.004135646071589086 0.00057583624343212237 0 -0.0035869631223519401 0.00046464778967516402 0 -0.0035900413002588004 -3.6836919089062192e-06 0 -0.0035869631223519401 0.00046464778967516402 0 -0.0033253252613436898 0.00051350067727882619 0 -0.003307089853036562 0.00026866247582315136 0 -0.0035869631223519401 0.00046464778967516402 0 -0.003307089853036562 0.00026866247582315136 0 -0.0035900413002588004 -3.6836919089062192e-06 0 -0.0035869631223519401 0.00046464778967516402 0 -0.0034890142516867881 0.00074803487766211298 0 -0.0033253252613436898 0.00051350067727882619 0 -0.0037930376418422377 0.00080978363820229647 0 -0.0035869631223519401 0.00046464778967516402 0 -0.0034890142516867881 0.00074803487766211298 0 -0.0034890142516867881 0.00074803487766211298 0 -0.0031692106418953329 0.00069616016877959265 0 -0.0033253252613436898 0.00051350067727882619 0 -0.0031692106418953329 0.00069616016877959265 0 -0.0033253252613436898 0.00051350067727882619 0 -0.0030874964749763381 0.00041566977544436759 0 -0.003307089853036562 0.00026866247582315136 0 -0.0030874964749763381 0.00041566977544436759 0 -0.003164015802923205 5.2841732536388852e-05 0 -0.0033253252613436898 0.00051350067727882619 0 -0.003307089853036562 0.00026866247582315136 0 -0.0030874964749763381 0.00041566977544436759 0 -0.0030874964749763381 0.00041566977544436759 0 -0.0029847002583953757 0.00045817861383462842 0 -0.003164015802923205 5.2841732536388852e-05 0 -0.0075654974227508135 0.0010934678316686078 0 -0.0076684270337191145 0.0010691861108919714 0 -0.0089069159235203241 0.00035730934016987842 0 -0.0090546732797709122 0.0010198456705862915 0 -0.0087136177903057183 0.00043258043912780997 0 -0.0076684270337191145 0.0010691861108919714 0 -0.0098445542880237456 0.00089554564089394737 0 -0.0076684270337191145 0.0010691861108919714 0 -0.0079265755358907987 0.00093786896205810301 0 -0.0098445542880237456 0.00089554564089394737 0 -0.0079265755358907987 0.00093786896205810301 0 -0.0031692106418953329 0.00069616016877959265 0 -0.002937464813705647 0.00047124281830804207 0 -0.0029828901272112339 0.001007677587350306 0 -0.0031692106418953329 0.00069616016877959265 0 -0.0030874964749763381 0.00041566977544436759 0 -0.002937464813705647 0.00047124281830804207 0 -0.010372317559959486 0.00043958274280045498 0 -0.010513644727523853 0.0010991043341676721 0 -0.0088441058026584723 -0.00026494196885552677 0 -0.0034890142516867881 0.00074803487766211298 0 -0.0031692106418953329 0.00069616016877959265 0 -0.0032783278375905032 0.0010588421895539625 0 -0.0031692106418953329 0.00069616016877959265 0 -0.0029828901272112339 0.001007677587350306 0 -0.0032783278375905032 0.0010588421895539625 0 -0.01068404330271774 0.0014206903993220989 0 -0.010483184312271396 0.001073189448528336 0 -0.010533517047495344 0.0012993241736752414 0 -0.0031630816778121271 0.0015443250650410826 0 -0.0029828901272112339 0.001007677587350306 0 -0.0032783278375905032 0.0010588421895539625 0 -0.011537205949224555 0.0011760500128756442 0 -0.0098445542880237456 0.00089554564089394737 0 -0.011537205949224555 0.0011760500128756442 0 -0.011391470388875457 0.0010349961526667133 0 -0.023270804315044268 -0.0014700669766826706 0 -0.023491694119038838 -0.0017886939288577766 0 -0.022948747535761409 -0.0018264316386485315 0 -0.0098445542880237456 0.00089554564089394737 0 -0.011391470388875457 0.0010349961526667133 0 -0.010063134500969385 0.0026892426809165086 0 -0.0087995331234670196 0.0016528564845950014 0 -0.01047972839645543 0.0011929661709810934 0 -0.010063134500969385 0.0026892426809165086 0 -0.0087995331234670196 0.0016528564845950014 0 -0.0087154136236625435 0.0037983834496183697 0 -0.010063134500969385 0.0026892426809165086 0 -0.01161301004754039 0.0018125861409019795 0 -0.01047972839645543 0.0011929661709810934 0 -0.011977432488477482 0.0012767911651328319 0 -0.01161301004754039 0.0018125861409019795 0 -0.01047972839645543 0.0011929661709810934 0 -0.010063134500969385 0.0026892426809165086 0 -0.01161301004754039 0.0018125861409019795 0 -0.011141769325355077 0.0042878424579905223 0 -0.011487941966488219 0.0021666010366921842 0 -0.011422502156608014 0.0023841811569447983 0 -0.01161301004754039 0.0018125861409019795 0 -0.012526031142966002 0.0015218226675396752 0 -0.012591410400874125 0.0014936372407006028 0 -0.011422502156608014 0.0023841811569447983 0 -0.011486884591507516 0.0023751997284109324 0 -0.011422502156608014 0.0023841811569447983 0 -0.010020373213046189 0.0024315259739022782 0 -0.011120878380815456 0.0025470928575176558 0 -0.011585211008289501 0.0022323662600199829 0 -0.010971126342550349 0.0021378260481179122 0 -0.010063134500969385 0.0026892426809165086 0 -0.011141769325355077 0.0042878424579905223 0 -0.0087154136236625435 0.0037983834496183697 0 -0.0087154136236625435 0.0037983834496183697 0 -0.0067752772908688192 0.003449382413890889 0 -0.0072189344672351731 0.0021552072513055759 0 -0.010020373213046189 0.0024315259739022782 0 -0.0087064205992424797 0.0022745816004742766 0 -0.010971126342550349 0.0021378260481179122 0 -0.010513470690094388 0.0023020820662526596 0 -0.010346593872809735 0.0020327393104918766 0 -0.0074565416642471813 0.0019433641600363131 0 -0.0087064205992424797 0.0022745816004742766 0 -0.0096850154309611174 0.0019307035814907494 0 -0.009874960498823606 0.0020434656798213454 0 -0.010346593872809735 0.0020327393104918766 0 -0.0051781385034343225 0.003045743122867517 0 -0.0067752772908688192 0.003449382413890889 0 -0.0060680531589691602 0.0023831016294736172 0 -0.010283038952390329 0.0025126681638292644 0 -0.009874960498823606 0.0020434656798213454 0 -0.010256149282590945 0.0022231015861611278 0 -0.009874960498823606 0.0020434656798213454 0 -0.010256149282590945 0.0022231015861611278 0 -0.010346593872809735 0.0020327393104918766 0 -0.010963380950912115 0.002336653367810671 0 -0.010688642913706969 0.0021524937479710173 0 -0.010513470690094388 0.0023020820662526596 0 -0.010256149282590945 0.0022231015861611278 0 -0.010346593872809735 0.0020327393104918766 0 -0.0067752772908688192 0.003449382413890889 0 -0.0060680531589691602 0.0023831016294736172 0 -0.0072189344672351731 0.0021552072513055759 0 -0.0060680531589691602 0.0023831016294736172 0 -0.0072189344672351731 0.0021552072513055759 0 -0.0060541056524661737 0.0014266940176551235 0 -0.0052379570297990561 0.0019048818481738907 0 -0.0060680531589691602 0.0023831016294736172 0 -0.0060541056524661737 0.0014266940176551235 0 -0.0087995331234670196 0.0016528564845950014 0 -0.0087154136236625435 0.0037983834496183697 0 -0.0072189344672351731 0.0021552072513055759 0 -0.0087995331234670196 0.0016528564845950014 0 -0.0072189344672351731 0.0021552072513055759 0 -0.0072801126547417877 0.00086888722768592853 0 -0.0072801126547417877 0.00086888722768592853 0 -0.0060541056524661737 0.0014266940176551235 0 -0.00573398821113256 0.00020415491124955792 0 -0.0072189344672351731 0.0021552072513055759 0 -0.0072801126547417877 0.00086888722768592853 0 -0.0060541056524661737 0.0014266940176551235 0 -0.0072801126547417877 0.00086888722768592853 0 -0.00573398821113256 0.00020415491124955792 0 -0.0072448375098987852 -0.00042460494876801064 0 -0.0072801126547417877 0.00086888722768592853 0 -0.0072448375098987852 -0.00042460494876801064 0 -0.0092009428898683181 0.00038576156259126961 0 -0.0072448375098987852 -0.00042460494876801064 0 -0.0092009428898683181 0.00038576156259126961 0 -0.0099867696267492631 -0.0012754909060547265 0 -0.0087995331234670196 0.0016528564845950014 0 -0.0092009428898683181 0.00038576156259126961 0 -0.01047972839645543 0.0011929661709810934 0 -0.0087995331234670196 0.0016528564845950014 0 -0.0072801126547417877 0.00086888722768592853 0 -0.0092009428898683181 0.00038576156259126961 0 -0.0092009428898683181 0.00038576156259126961 0 -0.01047972839645543 0.0011929661709810934 0 -0.011220386411162422 0.00019092558367899258 0 -0.011977432488477482 0.0012767911651328319 0 -0.01047972839645543 0.0011929661709810934 0 -0.011220386411162422 0.00019092558367899258 0 -0.011757384831052037 -0.00059687506595989246 0 -0.011220386411162422 0.00019092558367899258 0 -0.0099867696267492631 -0.0012754909060547265 0 -0.0092009428898683181 0.00038576156259126961 0 -0.011220386411162422 0.00019092558367899258 0 -0.0099867696267492631 -0.0012754909060547265 0 -0.0086231012001315079 -0.00084111525503736116 0 -0.0089404325696437973 -0.00092815736588373172 0 -0.0076340237950467925 -0.00062675426112826418 0 -0.0077919382332146568 -0.00097858970031099819 0 -0.0082777693593995907 -0.00083529328954202835 0 -0.011757384831052037 -0.00059687506595989246 0 -0.0099867696267492631 -0.0012754909060547265 0 -0.011751481472576507 -0.0013087698962566774 0 -0.0077919382332146568 -0.00097858970031099819 0 -0.0075506121007763872 -0.0014018592934131747 0 -0.0082236073640210728 -0.0011460279478459638 0 -0.0051476722523898467 -0.0011341763796387622 0 -0.005628916823273369 -0.00090911171350392173 0 -0.0025356131964338652 -0.00098422650154954901 0 -0.002334174530125202 -0.00075253322007416549 0 -0.0023444877336265316 -0.00057406321370448129 0 -0.0075506121007763872 -0.0014018592934131747 0 -0.007205420436006053 -0.00088716687721874848 0 -0.0063368272588710649 -0.0017250358127130255 0 -0.0077919382332146568 -0.00097858970031099819 0 -0.0075506121007763872 -0.0014018592934131747 0 -0.007205420436006053 -0.00088716687721874848 0 -0.0076340237950467925 -0.00062675426112826418 0 -0.0077919382332146568 -0.00097858970031099819 0 -0.007205420436006053 -0.00088716687721874848 0 -0.0072448375098987852 -0.00042460494876801064 0 -0.0076340237950467925 -0.00062675426112826418 0 -0.007205420436006053 -0.00088716687721874848 0 -0.0081427732175570026 -0.0007045760061758677 0 -0.0086231012001315079 -0.00084111525503736116 0 -0.0072448375098987852 -0.00042460494876801064 0 -0.007205420436006053 -0.00088716687721874848 0 -0.0062046965650725218 -0.00077628267737013513 0 -0.00573398821113256 0.00020415491124955792 0 -0.0072448375098987852 -0.00042460494876801064 0 -0.0062046965650725218 -0.00077628267737013513 0 -0.00573398821113256 0.00020415491124955792 0 -0.0062046965650725218 -0.00077628267737013513 0 -0.005094007199732499 -0.00048476247288543694 0 -0.0062046965650725218 -0.00077628267737013513 0 -0.0051665804663602226 -0.0010426589304221609 0 -0.005094007199732499 -0.00048476247288543694 0 -0.0062046965650725218 -0.00077628267737013513 0 -0.0051665804663602226 -0.0010426589304221609 0 -0.0063368272588710649 -0.0017250358127130255 0 -0.007205420436006053 -0.00088716687721874848 0 -0.0062046965650725218 -0.00077628267737013513 0 -0.0063368272588710649 -0.0017250358127130255 0 -0.0051476722523898467 -0.0011341763796387622 0 -0.0048523258981700177 -0.0012897108426878439 0 -0.0025356131964338652 -0.00098422650154954901 0 -0.0030419222847355037 -0.0013653302238346905 0 -0.0028187474770390653 -0.00093981691541500975 0 -0.0048523258981700177 -0.0012897108426878439 0 -0.0046777753894032721 -0.001342778996949019 0 -0.0030419222847355037 -0.0013653302238346905 0 -0.0028187474770390653 -0.00093981691541500975 0 -0.0041262581188159578 -0.0014373590663833095 0 -0.0051665804663602226 -0.0010426589304221609 0 -0.0063368272588710649 -0.0017250358127130255 0 -0.0041262581188159578 -0.0014373590663833095 0 -0.0028187474770390653 -0.00093981691541500975 0 -0.0041262581188159578 -0.0014373590663833095 0 -0.0031653538077663626 -0.00083703361505597571 0 -0.0028187474770390653 -0.00093981691541500975 0 -0.0024620842880478601 -0.00072753619823371903 0 -0.0024729173385459394 -0.00066071963096638042 0 -0.0024620842880478601 -0.00072753619823371903 0 -0.0024729173385459394 -0.00066071963096638042 0 -0.0023536194505485554 -0.00052075204674576609 0 -0.0024620842880478601 -0.00072753619823371903 0 -0.0023536194505485554 -0.00052075204674576609 0 -0.0023444877336265316 -0.00057406321370448129 0 -0.0025356131964338652 -0.00098422650154954901 0 -0.0024620842880478601 -0.00072753619823371903 0 -0.0023444877336265316 -0.00057406321370448129 0 -0.0025356131964338652 -0.00098422650154954901 0 -0.0028187474770390653 -0.00093981691541500975 0 -0.0024620842880478601 -0.00072753619823371903 0 -0.0027801998880053473 -0.00014021158265046621 0 -0.003270681754119595 7.4251511575493208e-05 0 -0.0031666222660928288 -0.00053605371005309031 0 -0.003164015802923205 5.2841732536388852e-05 0 -0.0028857556066938473 -0.00020085142342197708 0 -0.0029847002583953757 0.00045817861383462842 0 -0.003164015802923205 5.2841732536388852e-05 0 -0.0028857556066938473 -0.00020085142342197708 0 -0.0031666222660928288 -0.00053605371005309031 0 -0.003164015802923205 5.2841732536388852e-05 0 -0.0035900413002588004 -3.6836919089062192e-06 0 -0.0076684270337191145 0.0010691861108919714 0 -0.0046776109291189454 0.00025266651824219338 0 -0.003307089853036562 0.00026866247582315136 0 -0.003164015802923205 5.2841732536388852e-05 0 -0.0035900413002588004 -3.6836919089062192e-06 0 -0.0032522172369348346 -0.00085076071027776563 0 -0.0035209424496744708 -0.00038129314243520919 0 -0.0034950709181489877 -0.00099960940498913147 0 -0.0035209424496744708 -0.00038129314243520919 0 -0.003848229229107842 -0.00097640043543535822 0 -0.0034950709181489877 -0.00099960940498913147 0 -0.003848229229107842 -0.00097640043543535822 0 -0.0044088489166163652 -0.00089611932549384999 0 -0.0041262581188159578 -0.0014373590663833095 0 -0.003848229229107842 -0.00097640043543535822 0 -0.0042550589085274312 -0.00038078387362007048 0 -0.0044088489166163652 -0.00089611932549384999 0 -0.004135646071589086 0.00057583624343212237 0 -0.0035209424496744708 -0.00038129314243520919 0 -0.0042550589085274312 -0.00038078387362007048 0 -0.0035209424496744708 -0.00038129314243520919 0 -0.003848229229107842 -0.00097640043543535822 0 -0.0042550589085274312 -0.00038078387362007048 0 -0.0042550589085274312 -0.00038078387362007048 0 -0.005094007199732499 -0.00048476247288543694 0 -0.0044088489166163652 -0.00089611932549384999 0 -0.0048274107123165788 0.00019571504214509048 0 -0.0042550589085274312 -0.00038078387362007048 0 -0.005094007199732499 -0.00048476247288543694 0 -0.0051665804663602226 -0.0010426589304221609 0 -0.0044088489166163652 -0.00089611932549384999 0 -0.0041262581188159578 -0.0014373590663833095 0 -0.0051665804663602226 -0.0010426589304221609 0 -0.005094007199732499 -0.00048476247288543694 0 -0.0044088489166163652 -0.00089611932549384999 0 -0.0041262581188159578 -0.0014373590663833095 0 -0.0037258963565767601 -0.0010745612360611308 0 -0.003758684895002092 -0.0011752563226892442 0 -0.0041262581188159578 -0.0014373590663833095 0 -0.0037258963565767601 -0.0010745612360611308 0 -0.0031653538077663626 -0.00083703361505597571 0 -0.0037258963565767601 -0.0010745612360611308 0 -0.003758684895002092 -0.0011752563226892442 0 -0.003538859211451324 -0.0010033197802968036 0 -0.003758684895002092 -0.0011752563226892442 0 -0.0034402325837012914 -0.0010954738825463435 0 -0.003538859211451324 -0.0010033197802968036 0 -0.003848229229107842 -0.00097640043543535822 0 -0.0041262581188159578 -0.0014373590663833095 0 -0.003758684895002092 -0.0011752563226892442 0 -0.003848229229107842 -0.00097640043543535822 0 -0.003758684895002092 -0.0011752563226892442 0 -0.0034950709181489877 -0.00099960940498913147 0 -0.003758684895002092 -0.0011752563226892442 0 -0.0034950709181489877 -0.00099960940498913147 0 -0.0034402325837012914 -0.0010954738825463435 0 -0.0034950709181489877 -0.00099960940498913147 0 -0.0034402325837012914 -0.0010954738825463435 0 -0.0032955714674317944 -0.0010343587485884161 0 -0.0034402325837012914 -0.0010954738825463435 0 -0.0032033085799314351 -0.0010916448588214256 0 -0.0031903231367971688 -0.0010529687457715672 0 -0.0034402325837012914 -0.0010954738825463435 0 -0.0032033085799314351 -0.0010916448588214256 0 -0.0032955714674317944 -0.0010343587485884161 0 -0.0032033085799314351 -0.0010916448588214256 0 -0.0032955714674317944 -0.0010343587485884161 0 -0.0031324718332600256 -0.0010461667140035055 0 -0.0032033085799314351 -0.0010916448588214256 0 -0.0031069912267600273 -0.0011168725280655497 0 -0.0031324718332600256 -0.0010461667140035055 0 -0.0032522172369348346 -0.00085076071027776563 0 -0.0032955714674317944 -0.0010343587485884161 0 -0.0031324718332600256 -0.0010461667140035055 0 -0.0032522172369348346 -0.00085076071027776563 0 -0.0034950709181489877 -0.00099960940498913147 0 -0.0032955714674317944 -0.0010343587485884161 0 -0.0027801998880053473 -0.00014021158265046621 0 -0.0022616879253447189 0.00018792989091371662 0 -0.00070916537017235738 0.0016320617645194473 0 -0.0013658516150734607 0.00098427945713083602 0 -0.0011544900317773275 0.00065216618228866857 0 -0.0015406047764940159 0.00063162135841766324 0 0.00083767198374516238 0.0024391225120026401 0 0.00086576913191396842 0.0024907771852500211 0 0.00086814438334997205 0.0025855114223215878 0 -0.0012158863772458006 0.001253380325483223 0 -0.001102412576031848 0.001746433470672688 0 -0.001329902405632338 0.00097434357008327889 0 -0.0027725998718462369 -0.001046399162790085 0 -0.0029489208983075181 -0.0011054645306684675 0 -0.0031069912267600273 -0.0011168725280655497 0 0.00083767198374516238 0.0024391225120026401 0 0.00086576913191396842 0.0024907771852500211 0 0.00087376357017096443 0.0023135439552516598 0 -0.00099567134225484887 0.0013971055249248525 0 -0.00070916537017235738 0.0016320617645194473 0 -0.0027725998718462369 -0.001046399162790085 0 -0.0026449527875875875 -0.0011675974613330027 0 -0.0019469653750676203 -0.00055686499434570626 0 -0.0026449527875875875 -0.0011675974613330027 0 -0.0029489208983075181 -0.0011054645306684675 0 -0.0029885664722635111 -0.0010655997727982956 0 -0.0027725998718462369 -0.001046399162790085 0 -0.0026449527875875875 -0.0011675974613330027 0 -0.0029489208983075181 -0.0011054645306684675 0 -0.0030964027231288145 -0.0010878813007268956 0 -0.0029489208983075181 -0.0011054645306684675 0 -0.0031069912267600273 -0.0011168725280655497 0 -0.00099567134225484887 0.0013971055249248525 0 -0.0015406047764940159 0.00063162135841766324 0 -0.0032033085799314351 -0.0010916448588214256 0 -0.0030964027231288145 -0.0010878813007268956 0 -0.0031069912267600273 -0.0011168725280655497 0 -0.0032033085799314351 -0.0010916448588214256 0 -0.0030964027231288145 -0.0010878813007268956 0 -0.0031903231367971688 -0.0010529687457715672 0 -0.0030964027231288145 -0.0010878813007268956 0 -0.0029489208983075181 -0.0011054645306684675 0 -0.0031903231367971688 -0.0010529687457715672 0 -0.0029489208983075181 -0.0011054645306684675 0 -0.0031903231367971688 -0.0010529687457715672 0 -0.0029885664722635111 -0.0010655997727982956 0 -0.0031903231367971688 -0.0010529687457715672 0 -0.003204867126349006 -0.0010126513302142379 0 -0.0029885664722635111 -0.0010655997727982956 0 -0.0031903231367971688 -0.0010529687457715672 0 -0.003204867126349006 -0.0010126513302142379 0 -0.003538859211451324 -0.0010033197802968036 0 -0.0034402325837012914 -0.0010954738825463435 0 -0.0031903231367971688 -0.0010529687457715672 0 -0.003538859211451324 -0.0010033197802968036 0 -0.0024488231881590566 -0.00077102277143251813 0 -0.0022825738620431894 -0.00066246962746399087 0 -0.0026449527875875875 -0.0011675974613330027 0 -0.00082008444716748501 -0.00062442136340749713 0 -0.0019469653750676203 -0.00055686499434570626 0 -0.0026449527875875875 -0.0011675974613330027 0 -0.003204867126349006 -0.0010126513302142379 0 -0.0035526587596535456 -0.00097005533831250902 0 -0.0026449527875875875 -0.0011675974613330027 0 -0.003204867126349006 -0.0010126513302142379 0 -0.0029885664722635111 -0.0010655997727982956 0 -0.003204867126349006 -0.0010126513302142379 0 -0.0035526587596535456 -0.00097005533831250902 0 -0.003538859211451324 -0.0010033197802968036 0 -0.0035526587596535456 -0.00097005533831250902 0 -0.003538859211451324 -0.0010033197802968036 0 -0.0035153484386832162 -0.00084529531290529448 0 -0.0037258963565767601 -0.0010745612360611308 0 -0.0035153484386832162 -0.00084529531290529448 0 -0.0031653538077663626 -0.00083703361505597571 0 -0.0037258963565767601 -0.0010745612360611308 0 -0.003538859211451324 -0.0010033197802968036 0 -0.0035153484386832162 -0.00084529531290529448 0 -0.0035526587596535456 -0.00097005533831250902 0 -0.0035153484386832162 -0.00084529531290529448 0 -0.0032219587123011595 -0.00041969930464148391 0 -0.0022825738620431894 -0.00066246962746399087 0 -0.0021421322921626167 -0.00048314871149296733 0 -0.00082008444716748501 -0.00062442136340749713 0 -0.00079465008536298376 -0.00029508422789005691 0 -0.0010419922484141439 -7.548002268837306e-05 0 -0.00079465008536298376 -0.00029508422789005691 0 -0.00091723937516662133 -0.00031260869826213884 0 -0.0010419922484141439 -7.548002268837306e-05 0 -0.00079465008536298376 -0.00029508422789005691 0 -0.00091723937516662133 -0.00031260869826213884 0 -0.00075002274363875803 -0.00014170727270233148 0 -0.00091723937516662133 -0.00031260869826213884 0 -0.00075002274363875803 -0.00014170727270233148 0 -0.00073859071836708306 -0.00026200139616117487 0 -0.00079465008536298376 -0.00029508422789005691 0 -0.00075002274363875803 -0.00014170727270233148 0 -0.0010859054453859472 -0.00020489981778287313 0 -0.00075002274363875803 -0.00014170727270233148 0 -0.00076970659357094402 4.5188532665496524e-05 0 -0.00050210228556904208 -4.8506825834532973e-05 0 -0.00075002274363875803 -0.00014170727270233148 0 -0.0010859054453859472 -0.00020489981778287313 0 -0.00076970659357094402 4.5188532665496524e-05 0 -0.00082008444716748501 -0.00062442136340749713 0 -0.00079465008536298376 -0.00029508422789005691 0 -0.0010859054453859472 -0.00020489981778287313 0 -0.00082008444716748501 -0.00062442136340749713 0 -0.0019469653750676203 -0.00055686499434570626 0 -0.0010859054453859472 -0.00020489981778287313 0 -0.0019469653750676203 -0.00055686499434570626 0 -0.0014346914279124189 -0.00019347351268732017 0 -0.0015973277146027036 3.7252571581181543e-06 0 -0.0019469653750676203 -0.00055686499434570626 0 -0.0014346914279124189 -0.00019347351268732017 0 -0.0010859054453859472 -0.00020489981778287313 0 -0.0010859054453859472 -0.00020489981778287313 0 -0.001213242304753237 -8.7102428267254309e-05 0 -0.00076970659357094402 4.5188532665496524e-05 0 -0.00089408975919195478 0.00060749245482366956 0 -0.00081996556317490295 0.00044442120751391536 0 -0.00076970659357094402 4.5188532665496524e-05 0 -0.0015973277146027036 3.7252571581181543e-06 0 -0.00014688683594975499 0.00023314028534730973 0 -0.0014346914279124189 -0.00019347351268732017 0 -0.0010859054453859472 -0.00020489981778287313 0 -0.001213242304753237 -8.7102428267254309e-05 0 -0.001213242304753237 -8.7102428267254309e-05 0 -0.00076970659357094402 4.5188532665496524e-05 0 -0.0015973277146027036 3.7252571581181543e-06 0 -0.0014346914279124189 -0.00019347351268732017 0 -0.001213242304753237 -8.7102428267254309e-05 0 -0.0015973277146027036 3.7252571581181543e-06 0 0.0011045037659140602 0.0027288096414885316 0 0.0012651401938421594 0.0019981940824004736 0 0.00075542971723311357 0.00087391086913745242 0 0.00055486893916237648 0.0020313527185851542 0 0.00084681726144008934 0.0020523809963533465 0 0.00075542971723311357 0.00087391086913745242 0 -0.00013105479057280649 0.0020552308638647522 0 -3.6565501363718377e-05 0.0018429025712242235 0 0.0014508202967447228 0.0016284898000479249 0 0.0012651401938421594 0.0019981940824004736 0 0.00075542971723311357 0.00087391086913745242 0 0.0016099312606927395 0.0022173505019470827 0 0.0019382113580103224 0.0025540983648473519 0 0.0019701636201092652 0.0018678400130288993 0 0.0014508202967447228 0.0016284898000479249 0 0.0016099312606927395 0.0022173505019470827 0 0.0019701636201092652 0.0018678400130288993 0 0.0014508202967447228 0.0016284898000479249 0 0.0012651401938421594 0.0019981940824004736 0 0.0016099312606927395 0.0022173505019470827 0 0.0012651401938421594 0.0019981940824004736 0 0.0016099312606927395 0.0022173505019470827 0 0.001452735525212367 0.0024191644849954628 0 0.0016099312606927395 0.0022173505019470827 0 0.001452735525212367 0.0024191644849954628 0 0.0019382113580103224 0.0025540983648473519 0 0.0011045037659140602 0.0027288096414885316 0 0.001452735525212367 0.0024191644849954628 0 0.0019382113580103224 0.0025540983648473519 0 0.0011045037659140602 0.0027288096414885316 0 0.0012651401938421594 0.0019981940824004736 0 0.001452735525212367 0.0024191644849954628 0 -0.00013105479057280649 0.0020552308638647522 0 -0.00070916537017235738 0.0016320617645194473 0 0.00083767198374516238 0.0024391225120026401 0 0.00055486893916237648 0.0020313527185851542 0 0.00087376357017096443 0.0023135439552516598 0 -0.0013943869879580418 0.0015073985468808809 0 -0.0014446041285520845 0.0013269668580955546 0 -0.0016568665085772874 0.0013504955217637389 0 -0.0027725998718462369 -0.001046399162790085 0 -0.0019469653750676203 -0.00055686499434570626 0 -0.0015973277146027036 3.7252571581181543e-06 0 -0.0011544900317773275 0.00065216618228866857 0 -0.00089408975919195478 0.00060749245482366956 0 0.00055486893916237648 0.0020313527185851542 0 0.00084681726144008934 0.0020523809963533465 0 0.00087376357017096443 0.0023135439552516598 0 -0.0022876838920231897 -0.00046556107565665024 0 -0.0025953086583821519 -0.00061148286530515836 0 -0.0021157494404265434 -0.00021975016536430957 0 -0.0022876838920231897 -0.00046556107565665024 0 -0.0021157494404265434 -0.00021975016536430957 0 -0.0021906575626982278 -0.00043044614106511523 0 -0.0022876838920231897 -0.00046556107565665024 0 -0.0021906575626982278 -0.00043044614106511523 0 -0.0023306249746059444 -0.00045692145055547899 0 -0.0023536194505485554 -0.00052075204674576609 0 -0.0022876838920231897 -0.00046556107565665024 0 -0.0023306249746059444 -0.00045692145055547899 0 -0.0024729173385459394 -0.00066071963096638042 0 -0.0023536194505485554 -0.00052075204674576609 0 -0.0022876838920231897 -0.00046556107565665024 0 -0.0024729173385459394 -0.00066071963096638042 0 -0.0022876838920231897 -0.00046556107565665024 0 -0.0025953086583821519 -0.00061148286530515836 0 -0.0028187474770390653 -0.00093981691541500975 0 -0.0024729173385459394 -0.00066071963096638042 0 -0.0025953086583821519 -0.00061148286530515836 0 -0.0028187474770390653 -0.00093981691541500975 0 -0.0025953086583821519 -0.00061148286530515836 0 -0.0031653538077663626 -0.00083703361505597571 0 -0.0025953086583821519 -0.00061148286530515836 0 -0.0031653538077663626 -0.00083703361505597571 0 -0.0032219587123011595 -0.00041969930464148391 0 -0.0035153484386832162 -0.00084529531290529448 0 -0.0031653538077663626 -0.00083703361505597571 0 -0.0032219587123011595 -0.00041969930464148391 0 -0.0025953086583821519 -0.00061148286530515836 0 -0.0032219587123011595 -0.00041969930464148391 0 -0.0021157494404265434 -0.00021975016536430957 0 -0.0021421322921626167 -0.00048314871149296733 0 -0.0020991608989797974 -0.00041474420640074479 0 -0.0010419922484141439 -7.548002268837306e-05 0 -0.001471355697283246 -0.00054567804769319517 0 -0.0021157494404265434 -0.00021975016536430957 0 -0.00091723937516662133 -0.00031260869826213884 0 -0.0010419922484141439 -7.548002268837306e-05 0 -0.001471355697283246 -0.00054567804769319517 0 -0.00091723937516662133 -0.00031260869826213884 0 -0.001471355697283246 -0.00054567804769319517 0 -0.0008938004240986756 -0.00052516305102418546 0 -0.001471355697283246 -0.00054567804769319517 0 -0.0019338502874804181 -0.00060506977327301676 0 -0.0021157494404265434 -0.00021975016536430957 0 -0.0019338502874804181 -0.00060506977327301676 0 -0.0021157494404265434 -0.00021975016536430957 0 -0.0021906575626982278 -0.00043044614106511523 0 -0.0019338502874804181 -0.00060506977327301676 0 -0.0021906575626982278 -0.00043044614106511523 0 -0.0021714988312633117 -0.00064732500321104463 0 -0.0021714988312633117 -0.00064732500321104463 0 -0.0025332523114522062 -0.000629012327727225 0 -0.0024066409433079689 -0.00050588536882593212 0 -0.0021714988312633117 -0.00064732500321104463 0 -0.0025332523114522062 -0.000629012327727225 0 -0.002181487875584219 -0.00086947932293508301 0 -0.0025332523114522062 -0.000629012327727225 0 -0.0024066409433079689 -0.00050588536882593212 0 -0.0026805656032330514 -0.00052122870625425917 0 -0.0021906575626982278 -0.00043044614106511523 0 -0.0021714988312633117 -0.00064732500321104463 0 -0.0024066409433079689 -0.00050588536882593212 0 -0.0024066409433079689 -0.00050588536882593212 0 -0.0025144225713785067 -0.00045107070577581613 0 -0.0023306249746059444 -0.00045692145055547899 0 -0.0021906575626982278 -0.00043044614106511523 0 -0.0024066409433079689 -0.00050588536882593212 0 -0.0023306249746059444 -0.00045692145055547899 0 -0.0024066409433079689 -0.00050588536882593212 0 -0.0025144225713785067 -0.00045107070577581613 0 -0.0026805656032330514 -0.00052122870625425917 0 -0.0025144225713785067 -0.00045107070577581613 0 -0.0024483701190564549 -0.00042698095926387746 0 -0.0026425019979724193 -0.00035082120273461145 0 -0.0025144225713785067 -0.00045107070577581613 0 -0.0023306249746059444 -0.00045692145055547899 0 -0.0024483701190564549 -0.00042698095926387746 0 -0.0023536194505485554 -0.00052075204674576609 0 -0.0023306249746059444 -0.00045692145055547899 0 -0.0024483701190564549 -0.00042698095926387746 0 -0.0030085952580595587 -0.00042785471961667677 0 -0.0030153979567762723 -0.00051380395796841907 0 -0.003338005040566363 -0.00041444891776353069 0 -0.0030085952580595587 -0.00042785471961667677 0 -0.0027925321168458662 -0.0004498289403258049 0 -0.0028939796847680414 -0.00029487659935301152 0 -0.0030085952580595587 -0.00042785471961667677 0 -0.003338005040566363 -0.00041444891776353069 0 -0.0032340455476794782 -9.5820711480649529e-05 0 -0.0027925321168458662 -0.0004498289403258049 0 -0.0026425019979724193 -0.00035082120273461145 0 -0.0028939796847680414 -0.00029487659935301152 0 -0.0025144225713785067 -0.00045107070577581613 0 -0.0027925321168458662 -0.0004498289403258049 0 -0.0026425019979724193 -0.00035082120273461145 0 -0.0025144225713785067 -0.00045107070577581613 0 -0.0027925321168458662 -0.0004498289403258049 0 -0.0026805656032330514 -0.00052122870625425917 0 -0.0027925321168458662 -0.0004498289403258049 0 -0.0030153979567762723 -0.00051380395796841907 0 -0.0026805656032330514 -0.00052122870625425917 0 -0.0030085952580595587 -0.00042785471961667677 0 -0.0027925321168458662 -0.0004498289403258049 0 -0.0030153979567762723 -0.00051380395796841907 0 -0.0030153979567762723 -0.00051380395796841907 0 -0.0028404187153491969 -0.00057573504122399846 0 -0.0029785674358214546 -0.00053760786943688149 0 -0.0030153979567762723 -0.00051380395796841907 0 -0.0028404187153491969 -0.00057573504122399846 0 -0.0026805656032330514 -0.00052122870625425917 0 -0.0025332523114522062 -0.000629012327727225 0 -0.0028404187153491969 -0.00057573504122399846 0 -0.0026805656032330514 -0.00052122870625425917 0 -0.0025332523114522062 -0.000629012327727225 0 -0.0028404187153491969 -0.00057573504122399846 0 -0.0027856053337624695 -0.00075202777975646171 0 -0.0028404187153491969 -0.00057573504122399846 0 -0.0029334538834879195 -0.00055809210307843755 0 -0.0027856053337624695 -0.00075202777975646171 0 -0.0029334538834879195 -0.00055809210307843755 0 -0.0026717517584560263 -0.00050610949757447785 0 -0.0029155285847418397 -0.0004690383573137764 0 -0.0026717517584560263 -0.00050610949757447785 0 -0.0029155285847418397 -0.0004690383573137764 0 -0.002766543088973083 -0.00038414442381024205 0 -0.0029334538834879195 -0.00055809210307843755 0 -0.0029155285847418397 -0.0004690383573137764 0 -0.0031286879886354229 -0.00049702613184908896 0 -0.0029155285847418397 -0.0004690383573137764 0 -0.0031808450483488625 -0.00041340091939546245 0 -0.0030202932387361093 -0.00031184938525897436 0 -0.0029155285847418397 -0.0004690383573137764 0 -0.0031808450483488625 -0.00041340091939546245 0 -0.0031286879886354229 -0.00049702613184908896 0 -0.0030153979567762723 -0.00051380395796841907 0 -0.0031286879886354229 -0.00049702613184908896 0 -0.0029785674358214546 -0.00053760786943688149 0 -0.0028404187153491969 -0.00057573504122399846 0 -0.0029334538834879195 -0.00055809210307843755 0 -0.0029785674358214546 -0.00053760786943688149 0 -0.0029334538834879195 -0.00055809210307843755 0 -0.0031286879886354229 -0.00049702613184908896 0 -0.0029785674358214546 -0.00053760786943688149 0 -0.00080410323920229536 5.1782369835741766e-07 0 -0.00048866077555174026 1.3979295076172546e-05 0 0.0011186984422938888 -6.3283123062060322e-05 0 -0.002785347117287586 -0.00036094875191773753 0 -0.0025106222985695867 -0.00043267001471957665 0 -0.002766543088973083 -0.00038414442381024205 0 -0.002785347117287586 -0.00036094875191773753 0 -0.002766543088973083 -0.00038414442381024205 0 -0.0028671921801472315 -0.00022411424891649481 0 -0.0026717517584560263 -0.00050610949757447785 0 -0.0025106222985695867 -0.00043267001471957665 0 -0.002766543088973083 -0.00038414442381024205 0 -0.0029155285847418397 -0.0004690383573137764 0 -0.002766543088973083 -0.00038414442381024205 0 -0.0030202932387361093 -0.00031184938525897436 0 -0.0030202932387361093 -0.00031184938525897436 0 -0.0028671921801472315 -0.00022411424891649481 0 -0.0030589830381289058 -0.0002154302591380782 0 -0.002766543088973083 -0.00038414442381024205 0 -0.0030202932387361093 -0.00031184938525897436 0 -0.0028671921801472315 -0.00022411424891649481 0 -0.00080410323920229536 5.1782369835741766e-07 0 -0.00048866077555174026 1.3979295076172546e-05 0 -0.0025910048328311544 -3.4951898617011868e-05 0 -0.002785347117287586 -0.00036094875191773753 0 -0.0028671921801472315 -0.00022411424891649481 0 -0.0025910048328311544 -3.4951898617011868e-05 0 -0.00080410323920229536 5.1782369835741766e-07 0 -0.0028708480801678334 -6.8223845770547147e-07 0 -0.0025910048328311544 -3.4951898617011868e-05 0 -0.00070210131645844897 -0.0004098724108269787 0 -0.00097715669839580134 -0.00046708836181143883 0 -0.0028671921801472315 -0.00022411424891649481 0 -0.0025910048328311544 -3.4951898617011868e-05 0 -0.0030589830381289058 -0.0002154302591380782 0 -0.0028708480801678334 -6.8223845770547147e-07 0 -0.0032079373794282441 -0.00017663592657838042 0 -0.0039884323668658381 -0.00019144202399216486 0 -0.0028708480801678334 -6.8223845770547147e-07 0 -0.0025910048328311544 -3.4951898617011868e-05 0 -0.0032079373794282441 -0.00017663592657838042 0 -0.0025910048328311544 -3.4951898617011868e-05 0 -0.0032079373794282441 -0.00017663592657838042 0 -0.0030589830381289058 -0.0002154302591380782 0 -0.0032079373794282441 -0.00017663592657838042 0 -0.0034006806888439963 -0.00032420130838163732 0 -0.0039884323668658381 -0.00019144202399216486 0 -0.0032079373794282441 -0.00017663592657838042 0 -0.0034006806888439963 -0.00032420130838163732 0 -0.0030589830381289058 -0.0002154302591380782 0 -0.0030202932387361093 -0.00031184938525897436 0 -0.0034006806888439963 -0.00032420130838163732 0 -0.0030589830381289058 -0.0002154302591380782 0 -0.0031808450483488625 -0.00041340091939546245 0 -0.0030202932387361093 -0.00031184938525897436 0 -0.0034006806888439963 -0.00032420130838163732 0 -0.0034006806888439963 -0.00032420130838163732 0 -0.0039084969398425718 -0.00034915907593189731 0 -0.0034193883900499934 -0.00043125006186708127 0 -0.0034006806888439963 -0.00032420130838163732 0 -0.0039084969398425718 -0.00034915907593189731 0 -0.0039884323668658381 -0.00019144202399216486 0 -0.0039084969398425718 -0.00034915907593189731 0 -0.0039884323668658381 -0.00019144202399216486 0 -0.0045490548338891403 -0.00018327417563937184 0 -0.0028708480801678334 -6.8223845770547147e-07 0 -0.0039884323668658381 -0.00019144202399216486 0 -0.0049361044657145357 -4.5850540484428586e-07 0 -0.0030153979567762723 -0.00051380395796841907 0 -0.0031286879886354229 -0.00049702613184908896 0 -0.0032726509058797894 -0.00046871394521095464 0 -0.0030153979567762723 -0.00051380395796841907 0 -0.0032726509058797894 -0.00046871394521095464 0 -0.003338005040566363 -0.00041444891776353069 0 -0.0031286879886354229 -0.00049702613184908896 0 -0.0032726509058797894 -0.00046871394521095464 0 -0.0034193883900499934 -0.00043125006186708127 0 -0.0031808450483488625 -0.00041340091939546245 0 -0.0031286879886354229 -0.00049702613184908896 0 -0.0034193883900499934 -0.00043125006186708127 0 -0.0031808450483488625 -0.00041340091939546245 0 -0.0034006806888439963 -0.00032420130838163732 0 -0.0034193883900499934 -0.00043125006186708127 0 -0.0032726509058797894 -0.00046871394521095464 0 -0.0034193883900499934 -0.00043125006186708127 0 -0.0036036331206795134 -0.00039453466553394354 0 -0.0039084969398425718 -0.00034915907593189731 0 -0.0036036331206795134 -0.00039453466553394354 0 -0.0039500187102925986 -0.00026870052293853896 0 -0.0039084969398425718 -0.00034915907593189731 0 -0.0034193883900499934 -0.00043125006186708127 0 -0.0036036331206795134 -0.00039453466553394354 0 -0.0036036331206795134 -0.00039453466553394354 0 -0.003338005040566363 -0.00041444891776353069 0 -0.0039500187102925986 -0.00026870052293853896 0 -0.0032726509058797894 -0.00046871394521095464 0 -0.0036036331206795134 -0.00039453466553394354 0 -0.003338005040566363 -0.00041444891776353069 0 -0.003338005040566363 -0.00041444891776353069 0 -0.0039500187102925986 -0.00026870052293853896 0 -0.0032340455476794782 -9.5820711480649529e-05 0 -0.0039500187102925986 -0.00026870052293853896 0 -0.0054749413431084528 4.2890702588899987e-05 0 -0.003821343428332828 0.00046682938353939343 0 -0.0052501647636435372 7.8402043872665076e-05 0 -0.0051293569475739809 0.00010254836394888327 0 -0.0039500187102925986 -0.00026870052293853896 0 -0.003821343428332828 0.00046682938353939343 0 -0.0032340455476794782 -9.5820711480649529e-05 0 -0.003821343428332828 0.00046682938353939343 0 -0.0031379174986400703 0.00037199966412159352 0 -0.0032340455476794782 -9.5820711480649529e-05 0 -0.0039884323668658381 -0.00019144202399216486 0 -0.0049361044657145357 -4.5850540484428586e-07 0 -0.0045490548338891403 -0.00018327417563937184 0 -0.0039084969398425718 -0.00034915907593189731 0 -0.0039500187102925986 -0.00026870052293853896 0 -0.0045490548338891403 -0.00018327417563937184 0 -0.0039500187102925986 -0.00026870052293853896 0 -0.0045490548338891403 -0.00018327417563937184 0 -0.0054749413431084528 4.2890702588899987e-05 0 -0.0049361044657145357 -4.5850540484428586e-07 0 -0.0045490548338891403 -0.00018327417563937184 0 -0.0054749413431084528 4.2890702588899987e-05 0 -0.0049361044657145357 -4.5850540484428586e-07 0 -0.0054749413431084528 4.2890702588899987e-05 0 -0.0070011856288928389 4.6945842165512724e-08 0 -0.0054749413431084528 4.2890702588899987e-05 0 -0.0070011856288928389 4.6945842165512724e-08 0 -0.0067495508879283584 -6.0347579125289631e-05 0 -0.0054749413431084528 4.2890702588899987e-05 0 -0.0067495508879283584 -6.0347579125289631e-05 0 -0.0061221961157433002 -8.5417059986895075e-05 0 -0.0083083138309743947 0.00012934629174429215 0 -0.0067495508879283584 -6.0347579125289631e-05 0 -0.0061734399533622808 0.00029360878897751993 0 -0.0077947365944216387 8.6577205169417081e-05 0 -0.0076374778924912495 4.7559481816241998e-05 0 -0.0083083138309743947 0.00012934629174429215 0 -0.0070011856288928389 4.6945842165512724e-08 0 -0.0067495508879283584 -6.0347579125289631e-05 0 -0.009067519239157976 -2.5414391826395219e-07 0 -0.0083083138309743947 0.00012934629174429215 0 -0.0070011856288928389 4.6945842165512724e-08 0 -0.0051293569475739809 0.00010254836394888327 0 -0.0052323198339327736 3.8879508005934226e-05 0 -0.0060743501602876079 3.9542399586391843e-05 0 -0.0059758527332657574 9.5782957539774236e-05 0 -0.0059502806078599929 1.0680335681686936e-05 0 -0.0060743501602876079 3.9542399586391843e-05 0 -0.0061478361118501995 -5.2500477626991096e-06 0 -0.0059502806078599929 1.0680335681686936e-05 0 -0.0054749413431084528 4.2890702588899987e-05 0 -0.0061478361118501995 -5.2500477626991096e-06 0 -0.0061221961157433002 -8.5417059986895075e-05 0 -0.0060743501602876079 3.9542399586391843e-05 0 -0.0061478361118501995 -5.2500477626991096e-06 0 -0.0061221961157433002 -8.5417059986895075e-05 0 -0.0067495508879283584 -6.0347579125289631e-05 0 -0.0061221961157433002 -8.5417059986895075e-05 0 -0.0061734399533622808 0.00029360878897751993 0 -0.0060743501602876079 3.9542399586391843e-05 0 -0.0061221961157433002 -8.5417059986895075e-05 0 -0.0061734399533622808 0.00029360878897751993 0 -0.0089738744476949191 -5.5316096221963914e-06 0 -0.0089443780635195032 0.00013197817911379228 0 -0.0090515648581301154 0.00011383097295777136 0 -0.0060743501602876079 3.9542399586391843e-05 0 -0.0061734399533622808 0.00029360878897751993 0 -0.0059758527332657574 9.5782957539774236e-05 0 -0.0089738744476949191 -5.5316096221963914e-06 0 -0.0090725649533040676 7.841342728979496e-05 0 -0.0090515648581301154 0.00011383097295777136 0 -0.0076374778924912495 4.7559481816241998e-05 0 -0.0075352672653419099 -5.5866001920761059e-05 0 -0.0090725649533040676 7.841342728979496e-05 0 -0.0090515648581301154 0.00011383097295777136 0 -0.0091099772410866229 0.00010014656974280903 0 -0.0075352672653419099 -5.5866001920761059e-05 0 -0.0073389579796079929 -0.0002900227522500457 0 -0.013379392409068387 -0.00017856815973608483 0 -0.013601897571252235 -0.00034958917454005182 0 -0.013230842445301457 -0.00044872034640370206 0 -0.0059758527332657574 9.5782957539774236e-05 0 -0.0059502806078599929 1.0680335681686936e-05 0 -0.00586779203321325 4.0322181572564294e-05 0 -0.0031379174986400703 0.00037199966412159352 0 -0.0028612124305373065 0.00012472160341014813 0 -0.002719666552223437 0.00029498742625312787 0 -0.0059502806078599929 1.0680335681686936e-05 0 -0.0058573318698813704 3.1605512485104307e-05 0 -0.00586779203321325 4.0322181572564294e-05 0 -0.0052323198339327736 3.8879508005934226e-05 0 -0.0067775248063974428 -0.00042135517007747618 0 -0.0028612124305373065 0.00012472160341014813 0 -0.002719666552223437 0.00029498742625312787 0 -0.0026767047159874727 2.7455577051417711e-05 0 -0.012992279207170958 -0.001137849223282673 0 -0.012876297266726738 -0.0010725352573889102 0 -0.012813955592890053 -0.0012076987636353038 0 -0.0073389579796079929 -0.0002900227522500457 0 -0.007084953013259114 -0.00047106532239594528 0 -0.0067124481471123971 -0.00057656872153845665 0 -0.0066594911750481227 -0.00061092570621698182 0 -0.006760813532374582 -0.00059222197776937391 0 -0.0067775248063974428 -0.00042135517007747618 0 -0.0073389579796079929 -0.0002900227522500457 0 -0.013601897571252235 -0.00034958917454005182 0 -0.013106144516636279 -0.00076955086761644302 0 -0.013230842445301457 -0.00044872034640370206 0 -0.012992279207170958 -0.001137849223282673 0 -0.012953684996986682 -0.00097053460570414082 0 -0.013106144516636279 -0.00076955086761644302 0 -0.012953684996986682 -0.00097053460570414082 0 -0.012876297266726738 -0.0010725352573889102 0 -0.012839954562876496 -0.00090623139728877129 0 -0.013601897571252235 -0.00034958917454005182 0 -0.012992279207170958 -0.001137849223282673 0 -0.013106144516636279 -0.00076955086761644302 0 -0.012992279207170958 -0.001137849223282673 0 -0.012953684996986682 -0.00097053460570414082 0 -0.012876297266726738 -0.0010725352573889102 0 -0.010126790130269136 0.00030344056416580428 0 -0.0073389579796079929 -0.0002900227522500457 0 -0.012953684996986682 -0.00097053460570414082 0 -0.013106144516636279 -0.00076955086761644302 0 -0.012839954562876496 -0.00090623139728877129 0 -0.012992037534143998 -0.0005337918362525411 0 -0.012781550784394793 -0.00061099630518642479 0 -0.012839954562876496 -0.00090623139728877129 0 -0.013106144516636279 -0.00076955086761644302 0 -0.012992037534143998 -0.0005337918362525411 0 -0.012839954562876496 -0.00090623139728877129 0 -0.013106144516636279 -0.00076955086761644302 0 -0.013230842445301457 -0.00044872034640370206 0 -0.012992037534143998 -0.0005337918362525411 0 -0.012471333028305333 -0.00042447579367303707 0 -0.012781550784394793 -0.00061099630518642479 0 -0.0125863310730648 -0.0007893565802447153 0 -0.012551224239248137 -0.0010612072278297934 0 -0.011751481472576507 -0.0013087698962566774 0 -0.012813955592890053 -0.0012076987636353038 0 -0.0128272616349336 -0.00026291391249349763 0 -0.012992037534143998 -0.0005337918362525411 0 -0.012781550784394793 -0.00061099630518642479 0 -0.012266897752674246 -0.00091848427986479574 0 -0.012551224239248137 -0.0010612072278297934 0 -0.011751481472576507 -0.0013087698962566774 0 -0.0089404325696437973 -0.00092815736588373172 0 -0.007084953013259114 -0.00047106532239594528 0 -0.012781550784394793 -0.00061099630518642479 0 -0.0125863310730648 -0.0007893565802447153 0 -0.012839954562876496 -0.00090623139728877129 0 -0.012471333028305333 -0.00042447579367303707 0 -0.0125863310730648 -0.0007893565802447153 0 -0.012266897752674246 -0.00091848427986479574 0 -0.0125863310730648 -0.0007893565802447153 0 -0.012266897752674246 -0.00091848427986479574 0 -0.012551224239248137 -0.0010612072278297934 0 -0.012876297266726738 -0.0010725352573889102 0 -0.01277084588986465 -0.0010641892208696406 0 -0.012813955592890053 -0.0012076987636353038 0 -0.012876297266726738 -0.0010725352573889102 0 -0.01277084588986465 -0.0010641892208696406 0 -0.012839954562876496 -0.00090623139728877129 0 -0.012551224239248137 -0.0010612072278297934 0 -0.01277084588986465 -0.0010641892208696406 0 -0.012839954562876496 -0.00090623139728877129 0 -0.012551224239248137 -0.0010612072278297934 0 -0.01277084588986465 -0.0010641892208696406 0 -0.012813955592890053 -0.0012076987636353038 0 -0.0125863310730648 -0.0007893565802447153 0 -0.012551224239248137 -0.0010612072278297934 0 -0.012839954562876496 -0.00090623139728877129 0 -0.011757384831052037 -0.00059687506595989246 0 -0.012266897752674246 -0.00091848427986479574 0 -0.011751481472576507 -0.0013087698962566774 0 -0.011757384831052037 -0.00059687506595989246 0 -0.012471333028305333 -0.00042447579367303707 0 -0.012266897752674246 -0.00091848427986479574 0 -0.0082777693593995907 -0.00083529328954202835 0 -0.0082236073640210728 -0.0011460279478459638 0 -0.0088061029130235748 -0.00097862141199167823 0 -0.002334174530125202 -0.00075253322007416549 0 -0.0023238505581497939 -0.0007198156398692824 0 -0.0023444877336265316 -0.00057406321370448129 0 -0.0077919382332146568 -0.00097858970031099819 0 -0.0082777693593995907 -0.00083529328954202835 0 -0.0082236073640210728 -0.0011460279478459638 0 -0.002334174530125202 -0.00075253322007416549 0 -0.0023627317556549694 -0.0006917052324282208 0 -0.0023238505581497939 -0.0007198156398692824 0 -0.005628916823273369 -0.00090911171350392173 0 -0.007084953013259114 -0.00047106532239594528 0 -0.0023705243183336799 -0.00069281709394159135 0 -0.0023627317556549694 -0.0006917052324282208 0 -0.0023238505581497939 -0.0007198156398692824 0 -0.0067775248063974428 -0.00042135517007747618 0 -0.007084953013259114 -0.00047106532239594528 0 -0.0067775248063974428 -0.00042135517007747618 0 -0.0045123218906672159 -0.0010827584955780704 0 -0.002719666552223437 0.00029498742625312787 0 -0.0024771046965998411 -4.075042257132878e-05 0 -0.0026767047159874727 2.7455577051417711e-05 0 -0.0026767047159874727 2.7455577051417711e-05 0 -0.0025234827271675216 -0.00026507386372269471 0 -0.0027727250873026323 -0.00011417657128536114 0 -0.0024771046965998411 -4.075042257132878e-05 0 -0.0026767047159874727 2.7455577051417711e-05 0 -0.0025234827271675216 -0.00026507386372269471 0 -0.0024771046965998411 -4.075042257132878e-05 0 -0.0025234827271675216 -0.00026507386372269471 0 -0.0023444877336265316 -0.00057406321370448129 0 -0.0025234827271675216 -0.00026507386372269471 0 -0.0023444877336265316 -0.00057406321370448129 0 -0.0023995744366648282 -0.00045158366920534687 0 -0.0045123218906672159 -0.0010827584955780704 0 -0.0039530498943142903 -0.0012031142465440388 0 -0.0025234827271675216 -0.00026507386372269471 0 -0.0024483701190564549 -0.00042698095926387746 0 -0.0023995744366648282 -0.00045158366920534687 0 -0.0023536194505485554 -0.00052075204674576609 0 -0.0023444877336265316 -0.00057406321370448129 0 -0.0023995744366648282 -0.00045158366920534687 0 -0.0023536194505485554 -0.00052075204674576609 0 -0.0024483701190564549 -0.00042698095926387746 0 -0.0023995744366648282 -0.00045158366920534687 0 -0.0025234827271675216 -0.00026507386372269471 0 -0.0026425019979724193 -0.00035082120273461145 0 -0.0027727250873026323 -0.00011417657128536114 0 -0.0025234827271675216 -0.00026507386372269471 0 -0.0024483701190564549 -0.00042698095926387746 0 -0.0026425019979724193 -0.00035082120273461145 0 -0.0028939796847680414 -0.00029487659935301152 0 -0.0029882276798698761 -2.1276478629136398e-06 0 -0.0027727250873026323 -0.00011417657128536114 0 -0.0026425019979724193 -0.00035082120273461145 0 -0.0028939796847680414 -0.00029487659935301152 0 -0.0027727250873026323 -0.00011417657128536114 0 -0.0028939796847680414 -0.00029487659935301152 0 -0.0032340455476794782 -9.5820711480649529e-05 0 -0.0029882276798698761 -2.1276478629136398e-06 0 -0.0030085952580595587 -0.00042785471961667677 0 -0.0028939796847680414 -0.00029487659935301152 0 -0.0032340455476794782 -9.5820711480649529e-05 0 -0.0031379174986400703 0.00037199966412159352 0 -0.0032340455476794782 -9.5820711480649529e-05 0 -0.0029882276798698761 -2.1276478629136398e-06 0 -0.0031379174986400703 0.00037199966412159352 0 -0.0028612124305373065 0.00012472160341014813 0 -0.0029882276798698761 -2.1276478629136398e-06 0 -0.0028612124305373065 0.00012472160341014813 0 -0.0029882276798698761 -2.1276478629136398e-06 0 -0.0027727250873026323 -0.00011417657128536114 0 -0.0028612124305373065 0.00012472160341014813 0 -0.0026767047159874727 2.7455577051417711e-05 0 -0.0027727250873026323 -0.00011417657128536114 0 -0.0024725487538153107 0.00057795565345515566 0 -0.002174862582700097 -0.00011739888096136087 0 -0.0031570629912887429 -0.00046997440713171285 0 -0.0024725487538153107 0.00057795565345515566 0 -0.0014544395240399259 8.8029106268760658e-05 0 -0.002174862582700097 -0.00011739888096136087 0 -0.0064559490542128398 0.0002774648560709092 0 -0.0067266152086284565 0.00043400734989965095 0 -0.0024725487538153107 0.00057795565345515566 0 -0.0038158481746512502 0.00064721493080737889 0 -0.0031570629912887429 -0.00046997440713171285 0 -0.0038158481746512502 0.00064721493080737889 0 -0.0031570629912887429 -0.00046997440713171285 0 -0.004893146548791783 0.00037795293664662997 0 -0.0024725487538153107 0.00057795565345515566 0 -0.0032064382114821901 0.001110026771745579 0 -0.0038158481746512502 0.00064721493080737889 0 -0.0032064382114821901 0.001110026771745579 0 -0.0038158481746512502 0.00064721493080737889 0 -0.0037550469987279738 0.0015261103368936978 0 -0.0038158481746512502 0.00064721493080737889 0 -0.0037550469987279738 0.0015261103368936978 0 -0.0048859251592280502 0.0011487264828252265 0 -0.0038158481746512502 0.00064721493080737889 0 -0.004893146548791783 0.00037795293664662997 0 -0.0048859251592280502 0.0011487264828252265 0 -0.0037550469987279738 0.0015261103368936978 0 -0.0048859251592280502 0.0011487264828252265 0 -0.0044111392747762709 0.0020671633966793733 0 -0.0032064382114821901 0.001110026771745579 0 -0.0037550469987279738 0.0015261103368936978 0 -0.0028210280228719931 0.00184277925576372 0 -0.0037550469987279738 0.0015261103368936978 0 -0.0028210280228719931 0.00184277925576372 0 -0.0035155515543896106 0.0023431389397568724 0 -0.0024725487538153107 0.00057795565345515566 0 -0.0028210280228719931 0.00184277925576372 0 -0.0013731699746505556 0.0016106372116458055 0 -0.0024725487538153107 0.00057795565345515566 0 -0.0032064382114821901 0.001110026771745579 0 -0.0028210280228719931 0.00184277925576372 0 -0.0015870731693485654 0.0012707714528133577 0 -0.0010172339840502896 0.0011565975542723705 0 -0.0014544395240399259 8.8029106268760658e-05 0 -0.0015870731693485654 0.0012707714528133577 0 -0.0010172339840502896 0.0011565975542723705 0 -0.00087240911378483755 0.0019186914734654855 0 -0.00079781283099277054 0.00085432482517159734 0 -0.0010172339840502896 0.0011565975542723705 0 -0.00061318769853857048 0.0014544484781199136 0 -0.00079781283099277054 0.00085432482517159734 0 -0.00092562684168265178 0.00030836034811905624 0 -0.0014544395240399259 8.8029106268760658e-05 0 -0.00079781283099277054 0.00085432482517159734 0 -0.0010172339840502896 0.0011565975542723705 0 -0.0014544395240399259 8.8029106268760658e-05 0 -0.0013560111565974029 0.001847761010647713 0 -0.00128894180634961 0.00099286824724613356 0 -0.0024725487538153107 0.00057795565345515566 0 -0.0013731699746505556 0.0016106372116458055 0 -0.0014544395240399259 8.8029106268760658e-05 0 -0.0014544395240399259 8.8029106268760658e-05 0 -0.00094187889524127331 -5.7945418662663438e-05 0 -0.0017066701672382688 -0.00047243848373031551 0 -0.0014544395240399259 8.8029106268760658e-05 0 -0.0017066701672382688 -0.00047243848373031551 0 -0.002174862582700097 -0.00011739888096136087 0 -0.00092562684168265178 0.00030836034811905624 0 -0.0014544395240399259 8.8029106268760658e-05 0 -0.00094187889524127331 -5.7945418662663438e-05 0 -0.00094187889524127331 -5.7945418662663438e-05 0 -0.0017066701672382688 -0.00047243848373031551 0 -0.0010512643684360446 -0.00053991375705404103 0 -0.0060817672704826129 0.00016207249182081121 0 -0.0057503250006119321 -2.0173349932962616e-07 0 -0.01075848951471579 0.0010096042935774105 0 -0.011192857851645565 0.0011741066736828036 0 -0.010212249506809105 0.00090859805996850514 0 -0.0096782486268634348 0.00091674647993430223 0 -0.010177079444374746 0.0011503483483247907 0 -0.010212249506809105 0.00090859805996850514 0 -0.0092519670090192036 8.5918582762139204e-05 0 -0.0096782486268634348 0.00091674647993430223 0 -0.0060817672704826129 0.00016207249182081121 0 -0.0064559490542128398 0.0002774648560709092 0 -0.0017066701672382688 -0.00047243848373031551 0 -0.002174862582700097 -0.00011739888096136087 0 -0.0031570629912887429 -0.00046997440713171285 0 -0.0092519670090192036 8.5918582762139204e-05 0 -0.0085140221566238142 0.00056363348174903402 0 -0.0096782486268634348 0.00091674647993430223 0 -0.0092519670090192036 8.5918582762139204e-05 0 -0.0085140221566238142 0.00056363348174903402 0 -0.0077089150327211836 0.00018897402646675664 0 -0.0085140221566238142 0.00056363348174903402 0 -0.0096782486268634348 0.00091674647993430223 0 -0.0083443425971145395 0.0012960340858997089 0 -0.0096782486268634348 0.00091674647993430223 0 -0.0083443425971145395 0.0012960340858997089 0 -0.010780161343545466 0.0020297866166736475 0 -0.0095365338872037339 0.0010279167761786713 0 -0.0086118433173378913 0.0010729249384737408 0 -0.0082899748947590102 0.00069808366619019736 0 -0.0095365338872037339 0.0010279167761786713 0 -0.0086118433173378913 0.0010729249384737408 0 -0.0088413471661592923 0.0017409552625484014 0 -0.0078472339402102832 0.0011036072805534641 0 -0.0078576182864489551 0.0014013453400238043 0 -0.0082592037925983981 0.0015070588986904252 0 -0.0078263527665931726 0.00086809043636272315 0 -0.0086118433173378913 0.0010729249384737408 0 -0.0088413471661592923 0.0017409552625484014 0 -0.0078263527665931726 0.00086809043636272315 0 -0.0078472339402102832 0.0011036072805534641 0 -0.0082592037925983981 0.0015070588986904252 0 -0.0086091709889905641 0.0010726137408749424 0 -0.0089793487582182589 0.0013638423645811481 0 -0.0078472339402102832 0.0011036072805534641 0 -0.0075624403275104746 0.0012999427757946988 0 -0.0078576182864489551 0.0014013453400238043 0 -0.0078263527665931726 0.00086809043636272315 0 -0.0086118433173378913 0.0010729249384737408 0 -0.0082899748947590102 0.00069808366619019736 0 -0.0078263527665931726 0.00086809043636272315 0 -0.0078472339402102832 0.0011036072805534641 0 -0.0076184024137640098 0.00036614009072224503 0 -0.0078263527665931726 0.00086809043636272315 0 -0.0082899748947590102 0.00069808366619019736 0 -0.0076184024137640098 0.00036614009072224503 0 -0.0082899748947590102 0.00069808366619019736 0 -0.0082018748720094851 0.00025437838604735748 0 -0.0076184024137640098 0.00036614009072224503 0 -0.0095365338872037339 0.0010279167761786713 0 -0.0082899748947590102 0.00069808366619019736 0 -0.0082018748720094851 0.00025437838604735748 0 -0.0085140221566238142 0.00056363348174903402 0 -0.0083443425971145395 0.0012960340858997089 0 -0.0076861643186202852 0.00046491967079219951 0 -0.0083443425971145395 0.0012960340858997089 0 -0.0068309495336727737 0.00030612480187464531 0 -0.0076861643186202852 0.00046491967079219951 0 -0.0068309495336727737 0.00030612480187464531 0 -0.0076861643186202852 0.00046491967079219951 0 -0.0070715325528861589 0.00019245388066911672 0 -0.0088224567710407271 0.0010832224138232999 0 -0.0080434251967097178 0.00051243312803896861 0 -0.0085140221566238142 0.00056363348174903402 0 -0.0076861643186202852 0.00046491967079219951 0 -0.0077089150327211836 0.00018897402646675664 0 0.00148022382291722 0.0028925589694674949 0 0.001507048781903275 0.0031320484457447711 0 -0.0071846476469686364 0.0013433585656543881 0 -0.0073802285989884872 0.00097032114668335731 0 -0.0070121038637275951 0.00074856201285687467 0 -0.0071846476469686364 0.0013433585656543881 0 -0.0070121038637275951 0.00074856201285687467 0 -0.0066363553254624808 0.0014490975405397294 0 -0.0071846476469686364 0.0013433585656543881 0 -0.0073802285989884872 0.00097032114668335731 0 -0.0075624403275104746 0.0012999427757946988 0 -0.0078472339402102832 0.0011036072805534641 0 -0.0075624403275104746 0.0012999427757946988 0 -0.0075853050575574836 0.00098487572659126011 0 -0.0073802285989884872 0.00097032114668335731 0 -0.0075624403275104746 0.0012999427757946988 0 -0.0075853050575574836 0.00098487572659126011 0 -0.0026570847714290175 0.0023884479481477631 0 -0.0017165147336917971 0.0024294594008561778 0 -0.0073802285989884872 0.00097032114668335731 0 -0.0075348164837768829 0.00059830697314935055 0 -0.0070121038637275951 0.00074856201285687467 0 -0.0078472339402102832 0.0011036072805534641 0 -0.0075853050575574836 0.00098487572659126011 0 -0.0075348164837768829 0.00059830697314935055 0 -0.0073802285989884872 0.00097032114668335731 0 -0.0075853050575574836 0.00098487572659126011 0 -0.0075348164837768829 0.00059830697314935055 0 0.010743036185583314 0.0046417991738544658 0 0.010695887597129873 0.0046744189377560192 0 0.010586917894007978 0.00467443677209709 0 0.00148022382291722 0.0028925589694674949 0 0.0012746090784789292 0.0029417579258188371 0 0.010743036185583314 0.0046417991738544658 0 0.010695887597129873 0.0046744189377560192 0 0.010749257406054452 0.0046797884658005707 0 0.010695887597129873 0.0046744189377560192 0 0.010643741306693216 0.0046592599438690253 0 0.010725668406632988 0.0046784674224306941 0 0.010695887597129873 0.0046744189377560192 0 0.010586917894007978 0.00467443677209709 0 0.010643741306693216 0.0046592599438690253 0 -0.0017165147336917971 0.0024294594008561778 0 0.0012746090784789292 0.0029417579258188371 0 -0.0076184024137640098 0.00036614009072224503 0 -0.0072742197148032246 0.00013009611648001141 0 -0.0072375368441337674 0.0001482291994049122 0 -0.0075348164837768829 0.00059830697314935055 0 -0.0070121038637275951 0.00074856201285687467 0 -0.0073097795549656331 0.00012475287255798198 0 0.0093897503684974588 0.0064157190340705505 0 0.0087390354054038433 0.0051059980886496367 0 0.0098547839288426805 0.0052832499729384783 0 0.0012746090784789292 0.0029417579258188371 0 0.0016555406847105511 0.0048929979027454717 0 -0.0072375368441337674 0.0001482291994049122 0 -0.0070375509098817924 0.00026843034705358027 0 -0.0070323674345710938 0.00085544906779400998 0 -0.0072742197148032246 0.00013009611648001141 0 -0.0072375368441337674 0.0001482291994049122 0 -0.0070323674345710938 0.00085544906779400998 0 0.0012746090784789292 0.0029417579258188371 0 0.0046389110193228002 0.0031416208377529802 0 0.010586917894007978 0.00467443677209709 0 0.010643741306693216 0.0046592599438690253 0 0.010489584125157997 0.0045566084415352487 0 0.010643741306693216 0.0046592599438690253 0 0.010489584125157997 0.0045566084415352487 0 0.010744332247640735 0.0046375008210285396 0 0.010643741306693216 0.0046592599438690253 0 0.010725668406632988 0.0046784674224306941 0 0.010744332247640735 0.0046375008210285396 0 -0.0092519670090192036 8.5918582762139204e-05 0 -0.0077089150327211836 0.00018897402646675664 0 -0.0063991944210849052 0.00010845877520997879 0 -0.0031570629912887429 -0.00046997440713171285 0 -0.004893146548791783 0.00037795293664662997 0 -0.0063991944210849052 0.00010845877520997879 0 -0.0070395783285723884 0.00013858541006717422 0 -0.0077089150327211836 0.00018897402646675664 0 -0.0063991944210849052 0.00010845877520997879 0 -0.0070395783285723884 0.00013858541006717422 0 -0.0067276705098983708 0.00011662316034049485 0 -0.0067978208662774079 0.00013467698337383795 0 -0.0067276705098983708 0.00011662316034049485 0 -0.0066480224005704865 0.00014888945372758914 0 -0.0067978208662774079 0.00013467698337383795 0 -0.0067276705098983708 0.00011662316034049485 0 -0.0066480224005704865 0.00014888945372758914 0 -0.0063991944210849052 0.00010845877520997879 0 -0.0070395783285723884 0.00013858541006717422 0 -0.0067276705098983708 0.00011662316034049485 0 -0.0063991944210849052 0.00010845877520997879 0 -0.0070395783285723884 0.00013858541006717422 0 -0.0070715325528861589 0.00019245388066911672 0 -0.0067978208662774079 0.00013467698337383795 0 -0.0070395783285723884 0.00013858541006717422 0 -0.0077089150327211836 0.00018897402646675664 0 -0.0070715325528861589 0.00019245388066911672 0 -0.0076861643186202852 0.00046491967079219951 0 -0.0077089150327211836 0.00018897402646675664 0 -0.0070715325528861589 0.00019245388066911672 0 -0.0068309495336727737 0.00030612480187464531 0 -0.0068983084688628753 0.00018503707324823651 0 -0.0069682206848890064 0.00019279285279470769 0 -0.0082018748720094851 0.00025437838604735748 0 -0.0076184024137640098 0.00036614009072224503 0 -0.0072375368441337674 0.0001482291994049122 0 -0.0068309495336727737 0.00030612480187464531 0 -0.0072375368441337674 0.0001482291994049122 0 -0.0069682206848890064 0.00019279285279470769 0 -0.0080434251967097178 0.00051243312803896861 0 -0.0077838643968984184 0.00033935195118515798 0 -0.0070715325528861589 0.00019245388066911672 0 -0.0068983084688628753 0.00018503707324823651 0 -0.0067978208662774079 0.00013467698337383795 0 -0.0068309495336727737 0.00030612480187464531 0 -0.0070715325528861589 0.00019245388066911672 0 -0.0068983084688628753 0.00018503707324823651 0 -0.0072375368441337674 0.0001482291994049122 0 -0.0069682206848890064 0.00019279285279470769 0 -0.0070375509098817924 0.00026843034705358027 0 -0.0069682206848890064 0.00019279285279470769 0 -0.0067978208662774079 0.00013467698337383795 0 -0.0068501538271498515 0.00030344442226459557 0 -0.0068983084688628753 0.00018503707324823651 0 -0.0069682206848890064 0.00019279285279470769 0 -0.0067978208662774079 0.00013467698337383795 0 -0.0067978208662774079 0.00013467698337383795 0 -0.0067188073136729733 0.00021662695500093443 0 -0.0068501538271498515 0.00030344442226459557 0 -0.0066480224005704865 0.00014888945372758914 0 -0.0067978208662774079 0.00013467698337383795 0 -0.0067188073136729733 0.00021662695500093443 0 -0.00062656947325193601 0.004474321426654322 0 0.0016555406847105511 0.0048929979027454717 0 -0.0067188073136729733 0.00021662695500093443 0 -0.0068501538271498515 0.00030344442226459557 0 -0.0065428961691720309 0.00033908831180598124 0 -0.0068501538271498515 0.00030344442226459557 0 -0.0070375509098817924 0.00026843034705358027 0 -0.0070323674345710938 0.00085544906779400998 0 -0.0065428961691720309 0.00033908831180598124 0 -0.0063902322472681097 0.0019395084903871388 0 -0.0075439965362751214 0.0026017760206174193 0 -0.0068501538271498515 0.00030344442226459557 0 -0.0065428961691720309 0.00033908831180598124 0 -0.0070323674345710938 0.00085544906779400998 0 -0.0069682206848890064 0.00019279285279470769 0 -0.0068501538271498515 0.00030344442226459557 0 -0.0070375509098817924 0.00026843034705358027 0 -0.0058564686429470802 0.0015225453713870289 0 -0.0065428961691720309 0.00033908831180598124 0 -0.0063902322472681097 0.0019395084903871388 0 -0.0058564686429470802 0.0015225453713870289 0 -0.0060333839532836732 0.00074129663958542261 0 -0.0055804604918838078 0.0011158589665011781 0 -0.0058564686429470802 0.0015225453713870289 0 -0.0060333839532836732 0.00074129663958542261 0 -0.0065428961691720309 0.00033908831180598124 0 -0.0060333839532836732 0.00074129663958542261 0 -0.0055551207304777262 0.00071339336583323425 0 -0.0055804604918838078 0.0011158589665011781 0 -0.0060333839532836732 0.00074129663958542261 0 -0.0063991944210849052 0.00010845877520997879 0 -0.0055551207304777262 0.00071339336583323425 0 -0.0066480224005704865 0.00014888945372758914 0 -0.0063991944210849052 0.00010845877520997879 0 -0.0065428961691720309 0.00033908831180598124 0 -0.0060333839532836732 0.00074129663958542261 0 -0.0063991944210849052 0.00010845877520997879 0 -0.0065428961691720309 0.00033908831180598124 0 -0.0066480224005704865 0.00014888945372758914 0 -0.0067188073136729733 0.00021662695500093443 0 -0.0065428961691720309 0.00033908831180598124 0 -0.004893146548791783 0.00037795293664662997 0 -0.0055551207304777262 0.00071339336583323425 0 -0.0048859251592280502 0.0011487264828252265 0 -0.004893146548791783 0.00037795293664662997 0 -0.0063991944210849052 0.00010845877520997879 0 -0.0055551207304777262 0.00071339336583323425 0 -0.0055551207304777262 0.00071339336583323425 0 -0.0048859251592280502 0.0011487264828252265 0 -0.0055804604918838078 0.0011158589665011781 0 -0.0048859251592280502 0.0011487264828252265 0 -0.0052160514492533092 0.0016903500058888658 0 -0.0044111392747762709 0.0020671633966793733 0 -0.0048859251592280502 0.0011487264828252265 0 -0.0055804604918838078 0.0011158589665011781 0 -0.0052160514492533092 0.0016903500058888658 0 -0.0058564686429470802 0.0015225453713870289 0 -0.0055804604918838078 0.0011158589665011781 0 -0.0052160514492533092 0.0016903500058888658 0 -0.0052160514492533092 0.0016903500058888658 0 -0.0052541140892308708 0.0024978607670221708 0 -0.0044111392747762709 0.0020671633966793733 0 -0.0058564686429470802 0.0015225453713870289 0 -0.0052160514492533092 0.0016903500058888658 0 -0.0052541140892308708 0.0024978607670221708 0 -0.0052541140892308708 0.0024978607670221708 0 -0.0049294950184223304 0.0038577774802694377 0 -0.0039860291642775832 0.0031034809689742759 0 -0.0052541140892308708 0.0024978607670221708 0 -0.0060038716475825241 0.0030782311112372879 0 -0.0049294950184223304 0.0038577774802694377 0 -0.0052541140892308708 0.0024978607670221708 0 -0.0060038716475825241 0.0030782311112372879 0 -0.0063902322472681097 0.0019395084903871388 0 -0.0058564686429470802 0.0015225453713870289 0 -0.0052541140892308708 0.0024978607670221708 0 -0.0063902322472681097 0.0019395084903871388 0 -0.0060038716475825241 0.0030782311112372879 0 -0.0063902322472681097 0.0019395084903871388 0 -0.0075439965362751214 0.0026017760206174193 0 -0.0060038716475825241 0.0030782311112372879 0 -0.0075439965362751214 0.0026017760206174193 0 -0.0062537955131465473 0.0047341206082767515 0 0.0016555406847105511 0.0048929979027454717 0 0.0013318006014813233 0.006701150028094004 0 0.0073104097506760659 0.012531407773965495 0 0.0064788190408132107 0.010957984493340293 0 0.0074866554391811663 0.010886355611962575 0 -0.0060038716475825241 0.0030782311112372879 0 -0.0062537955131465473 0.0047341206082767515 0 -0.0049294950184223304 0.0038577774802694377 0 -0.0062537955131465473 0.0047341206082767515 0 -0.0049294950184223304 0.0038577774802694377 0 -0.0045906901828298308 0.0052531621823072245 0 0.010489584125157997 0.0045566084415352487 0 0.010810036859204316 0.0045428702786537581 0 0.010790406364365804 0.0043191888614864688 0 0.0046389110193228002 0.0031416208377529802 0 0.0056675181351424934 0.0030779359002883911 0 0.010489584125157997 0.0045566084415352487 0 0.010744332247640735 0.0046375008210285396 0 0.010810036859204316 0.0045428702786537581 0 0.0087390354054038433 0.0051059980886496367 0 0.0098547839288426805 0.0052832499729384783 0 0.0096438945974634555 0.004029246000191688 0 0.0073104097506760659 0.012531407773965495 0 0.0083757480095624087 0.011246098387152121 0 0.0074866554391811663 0.010886355611962575 0 0.0016555406847105511 0.0048929979027454717 0 0.0061470696457971248 0.0056548114761754255 0 0.0098547839288426805 0.0052832499729384783 0 0.0096438945974634555 0.004029246000191688 0 0.010370060909221551 0.0041208348849306351 0 0.010489584125157997 0.0045566084415352487 0 0.010370060909221551 0.0041208348849306351 0 0.010790406364365804 0.0043191888614864688 0 0.0096438945974634555 0.004029246000191688 0 0.010370060909221551 0.0041208348849306351 0 0.0102990413752164 0.003681039378878394 0 0.010370060909221551 0.0041208348849306351 0 0.010584573689485883 0.0037147097018496774 0 0.0102990413752164 0.003681039378878394 0 0.010370060909221551 0.0041208348849306351 0 0.010584573689485883 0.0037147097018496774 0 0.010677632283372165 0.0040229770527109923 0 0.010370060909221551 0.0041208348849306351 0 0.010677632283372165 0.0040229770527109923 0 0.010790406364365804 0.0043191888614864688 0 0.0083757480095624087 0.011246098387152121 0 0.0095500727104366571 0.0099557944300999648 0 0.009428260358231742 0.010012217579004289 0 0.0096438945974634555 0.004029246000191688 0 0.010372251074983725 0.0030876857500640657 0 0.0102990413752164 0.003681039378878394 0 0.0083757480095624087 0.011246098387152121 0 0.009428260358231742 0.010012217579004289 0 0.0082298710532514186 0.010074202342375761 0 0.0061470696457971248 0.0056548114761754255 0 0.0090516506433411196 0.0057128321769466233 0 0.0095659382172475979 0.0099633523839384695 0 0.009428260358231742 0.010012217579004289 0 0.0094848839024768601 0.0096763054399979578 0 0.0090516506433411196 0.0057128321769466233 0 0.0090469109562850789 0.0057210304389270616 0 0.010372251074983725 0.0030876857500640657 0 0.010478019488141841 0.003452742339500083 0 0.010749581334641281 0.0032740798575404723 0 0.010478019488141841 0.003452742339500083 0 0.010584573689485883 0.0037147097018496774 0 0.010749581334641281 0.0032740798575404723 0 0.010372251074983725 0.0030876857500640657 0 0.010478019488141841 0.003452742339500083 0 0.0102990413752164 0.003681039378878394 0 0.010478019488141841 0.003452742339500083 0 0.010584573689485883 0.0037147097018496774 0 0.0102990413752164 0.003681039378878394 0 0.009428260358231742 0.010012217579004289 0 0.0082298710532514186 0.010074202342375761 0 0.0090988962911930076 0.0094686333687451184 0 0.0083757480095624087 0.011246098387152121 0 0.0082298710532514186 0.010074202342375761 0 0.0074866554391811663 0.010886355611962575 0 0.0082298710532514186 0.010074202342375761 0 0.0074866554391811663 0.010886355611962575 0 0.007100534130834492 0.0097873391666652293 0 0.0081317050266762145 0.0091846256807770511 0 0.0088832468589848806 0.0086893306279916434 0 0.0073195386541304985 0.0084775802455468712 0 0.0081317050266762145 0.0091846256807770511 0 0.007100534130834492 0.0097873391666652293 0 0.0073195386541304985 0.0084775802455468712 0 0.0082298710532514186 0.010074202342375761 0 0.0081317050266762145 0.0091846256807770511 0 0.007100534130834492 0.0097873391666652293 0 0.0082298710532514186 0.010074202342375761 0 0.0081317050266762145 0.0091846256807770511 0 0.0090988962911930076 0.0094686333687451184 0 0.0090988962911930076 0.0094686333687451184 0 0.0088832468589848806 0.0086893306279916434 0 0.0096954412484242507 0.0091937093356390526 0 0.0081317050266762145 0.0091846256807770511 0 0.0090988962911930076 0.0094686333687451184 0 0.0088832468589848806 0.0086893306279916434 0 0.0088832468589848806 0.0086893306279916434 0 0.0096954412484242507 0.0091937093356390526 0 0.0099772809577371706 0.0085050599283642107 0 0.0096954412484242507 0.0091937093356390526 0 0.0094848839024768601 0.0096763054399979578 0 0.0098469450281289984 0.0097174103753751937 0 0.0090988962911930076 0.0094686333687451184 0 0.0096954412484242507 0.0091937093356390526 0 0.0094848839024768601 0.0096763054399979578 0 0.009428260358231742 0.010012217579004289 0 0.0090988962911930076 0.0094686333687451184 0 0.0094848839024768601 0.0096763054399979578 0 0.0095659382172475979 0.0099633523839384695 0 0.0094848839024768601 0.0096763054399979578 0 0.0098469450281289984 0.0097174103753751937 0 0.0090516506433411196 0.0057128321769466233 0 0.0090149296679070175 0.0058054598948184518 0 0.0013318006014813233 0.006701150028094004 0 0.0011998027900200919 0.0068529468927567457 0 -0.0062537955131465473 0.0047341206082767515 0 -0.0045906901828298308 0.0052531621823072245 0 -0.004938083672215386 0.0070848875633873617 0 0.0064788190408132107 0.010957984493340293 0 0.0074866554391811663 0.010886355611962575 0 0.007100534130834492 0.0097873391666652293 0 0.0064788190408132107 0.010957984493340293 0 0.007100534130834492 0.0097873391666652293 0 0.0055834765784811228 0.0092985217096727604 0 0.0011998027900200919 0.0068529468927567457 0 0.0051757413272302093 0.0070134453987136724 0 0.007100534130834492 0.0097873391666652293 0 0.0055834765784811228 0.0092985217096727604 0 0.0073195386541304985 0.0084775802455468712 0 0.0030006253367714682 0.010758825885133088 0 0.006225529995860896 0.0091635545471129409 0 0.0037541149514440093 0.0084017088095266843 0 0.0011998027900200919 0.0068529468927567457 0 0.0010277020588119949 0.0067430346007638321 0 -0.00055675309443905326 0.0053548038792998924 0 -0.00049397809715839966 0.0053577020573976871 0 -0.00039510929216931802 0.0054970362196372297 0 -0.00049397809715839966 0.0053577020573976871 0 -0.00089609292838157336 0.005280161590008943 0 -0.00067453188157270126 0.0053289415906055109 0 0.0011998027900200919 0.0068529468927567457 0 -0.00016440936474945023 0.006874341933598066 0 -0.00055675309443905326 0.0053548038792998924 0 -0.00049397809715839966 0.0053577020573976871 0 -0.00067453188157270126 0.0053289415906055109 0 -0.00089609292838157336 0.005280161590008943 0 -0.00048076561464401756 0.0052322953571635631 0 -0.00026774815212761216 0.0054763888859979603 0 -0.00049397809715839966 0.0053577020573976871 0 -0.00089609292838157336 0.005280161590008943 0 -0.00026774815212761216 0.0054763888859979603 0 -0.0014445397032332153 0.0043209545888415728 0 -0.0014478243681119731 0.003489716959819466 0 -0.00089609292838157336 0.005280161590008943 0 -0.0014015441175796275 0.0050998540964498733 0 -0.00067453188157270126 0.0053289415906055109 0 -0.00089609292838157336 0.005280161590008943 0 -0.0014015441175796275 0.0050998540964498733 0 -0.0014266794115028727 0.0043491696920248133 0 -0.00039922514486549472 0.0067756470601593637 0 -0.00016440936474945023 0.006874341933598066 0 -0.0014015441175796275 0.0050998540964498733 0 -0.0033517782602883188 0.0063060658069273518 0 -0.0034245821163475091 0.0043671292436281662 0 -0.0045906901828298308 0.0052531621823072245 0 -0.0033517782602883188 0.0063060658069273518 0 -0.0034245821163475091 0.0043671292436281662 0 -0.0045906901828298308 0.0052531621823072245 0 -0.004938083672215386 0.0070848875633873617 0 -0.0033517782602883188 0.0063060658069273518 0 -0.0049294950184223304 0.0038577774802694377 0 -0.0045906901828298308 0.0052531621823072245 0 -0.0034245821163475091 0.0043671292436281662 0 -0.0049294950184223304 0.0038577774802694377 0 -0.0034245821163475091 0.0043671292436281662 0 -0.0039860291642775832 0.0031034809689742759 0 -0.0034245821163475091 0.0043671292436281662 0 -0.0026295827593044215 0.0031971660556541891 0 -0.0039860291642775832 0.0031034809689742759 0 -0.0014015441175796275 0.0050998540964498733 0 -0.0034245821163475091 0.0043671292436281662 0 -0.0021735243004313673 0.0042842771320567227 0 -0.0014015441175796275 0.0050998540964498733 0 -0.0021735243004313673 0.0042842771320567227 0 -0.0014266794115028727 0.0043491696920248133 0 -0.0021735243004313673 0.0042842771320567227 0 -0.0026295827593044215 0.0031971660556541891 0 -0.0014266794115028727 0.0043491696920248133 0 -0.0034245821163475091 0.0043671292436281662 0 -0.0021735243004313673 0.0042842771320567227 0 -0.0026295827593044215 0.0031971660556541891 0 -0.0028210280228719931 0.00184277925576372 0 -0.0013731699746505556 0.0016106372116458055 0 -0.0026295827593044215 0.0031971660556541891 0 -0.0013731699746505556 0.0016106372116458055 0 -0.0026295827593044215 0.0031971660556541891 0 -0.0014266794115028727 0.0043491696920248133 0 -0.0028210280228719931 0.00184277925576372 0 -0.0026295827593044215 0.0031971660556541891 0 -0.0035155515543896106 0.0023431389397568724 0 -0.0052541140892308708 0.0024978607670221708 0 -0.0044111392747762709 0.0020671633966793733 0 -0.0039860291642775832 0.0031034809689742759 0 -0.0035155515543896106 0.0023431389397568724 0 -0.0044111392747762709 0.0020671633966793733 0 -0.0039860291642775832 0.0031034809689742759 0 -0.0037550469987279738 0.0015261103368936978 0 -0.0035155515543896106 0.0023431389397568724 0 -0.0044111392747762709 0.0020671633966793733 0 -0.0026295827593044215 0.0031971660556541891 0 -0.0035155515543896106 0.0023431389397568724 0 -0.0039860291642775832 0.0031034809689742759 0 -0.0010172339840502896 0.0011565975542723705 0 -0.00087240911378483755 0.0019186914734654855 0 -0.00061318769853857048 0.0014544484781199136 0 -0.00087240911378483755 0.0019186914734654855 0 -0.00061318769853857048 0.0014544484781199136 0 -0.00064342012838040615 0.0018360085570849958 0 -0.0015870731693485654 0.0012707714528133577 0 -0.00087240911378483755 0.0019186914734654855 0 -0.001603697551078081 0.0033900097242603867 0 -0.0013560111565974029 0.001847761010647713 0 -0.0014478243681119731 0.003489716959819466 0 -0.00087240911378483755 0.0019186914734654855 0 -0.001603697551078081 0.0033900097242603867 0 -0.00064371537594549847 0.0035201920666078205 0 -0.00032912440957412475 0.0020828895790872604 0 0.00010197018380601525 0.0023925106654631755 0 -0.00087240911378483755 0.0019186914734654855 0 -0.00064371537594549847 0.0035201920666078205 0 0.00032103140115821125 0.0039100857495710951 0 -0.00041726657828775271 0.0046361891590937787 0 4.8735933422389072e-05 0.0046997106568342521 0 0.00032103140115821125 0.0039100857495710951 0 -0.00064371537594549847 0.0035201920666078205 0 -0.00041726657828775271 0.0046361891590937787 0 0.00032103140115821125 0.0039100857495710951 0 -0.00089609292838157336 0.005280161590008943 0 -0.001603697551078081 0.0033900097242603867 0 -0.00041726657828775271 0.0046361891590937787 0 -0.001603697551078081 0.0033900097242603867 0 -0.00064371537594549847 0.0035201920666078205 0 -0.00041726657828775271 0.0046361891590937787 0 -0.00041726657828775271 0.0046361891590937787 0 -0.00048076561464401756 0.0052322953571635631 0 -0.00022794753558147432 0.0051483547732509259 0 -0.00089609292838157336 0.005280161590008943 0 -0.00041726657828775271 0.0046361891590937787 0 -0.00048076561464401756 0.0052322953571635631 0 -0.00041726657828775271 0.0046361891590937787 0 4.8735933422389072e-05 0.0046997106568342521 0 -0.00022794753558147432 0.0051483547732509259 0 4.8735933422389072e-05 0.0046997106568342521 0 3.7505757985978807e-05 0.0049818022062124495 0 -0.00022794753558147432 0.0051483547732509259 0 -0.00031152685795262476 0.0022051815875324021 0 -3.4143735270726115e-05 0.0017736309977765294 0 -0.00064342012838040615 0.0018360085570849958 0 4.8735933422389072e-05 0.0046997106568342521 0 0.00026330503375603044 0.0047987646092542916 0 3.7505757985978807e-05 0.0049818022062124495 0 0.0010007786632178705 0.0026282715814228805 0 0.00010197018380601525 0.0023925106654631755 0 4.8735933422389072e-05 0.0046997106568342521 0 0.00026330503375603044 0.0047987646092542916 0 0.00032103140115821125 0.0039100857495710951 0 0.0010007786632178705 0.0026282715814228805 0 0.0031005036839093984 0.0027835974933751915 0 -0.00031152685795262476 0.0022051815875324021 0 0.00026103311211064968 0.0022692404561161436 0 6.8130400695579662e-05 0.0026274197077154325 0 0.0074079539342298655 0.0027032449059692844 0 0.0063358399135204305 0.0023144991478370276 0 0.0065703041221787687 0.0039695026773633865 0 0.0074079539342298655 0.0027032449059692844 0 0.0063358399135204305 0.0023144991478370276 0 0.007523570709519015 0.0018977789255147065 0 0.0029948843704716323 0.0022703749616747285 0 0.0023344977548508238 0.002065042257280319 0 0.00026103311211064968 0.0022692404561161436 0 -3.4143735270726115e-05 0.0017736309977765294 0 0.00047691378943834822 0.001902260984994484 0 -0.00031152685795262476 0.0022051815875324021 0 0.00026103311211064968 0.0022692404561161436 0 -3.4143735270726115e-05 0.0017736309977765294 0 -3.4143735270726115e-05 0.0017736309977765294 0 0.00031247161500288096 0.0015808393365518991 0 0.00047691378943834822 0.001902260984994484 0 -3.4143735270726115e-05 0.0017736309977765294 0 0.00031247161500288096 0.0015808393365518991 0 7.8867745964567856e-05 0.0011330473542221749 0 0.00031247161500288096 0.0015808393365518991 0 7.8867745964567856e-05 0.0011330473542221749 0 0.00074023363271434649 0.0014851530019649208 0 0.00058876279120985843 0.0010766224540703644 0 0.0013131675572251253 0.0013422021747879257 0 -3.4143735270726115e-05 0.0017736309977765294 0 7.8867745964567856e-05 0.0011330473542221749 0 -0.00032241784810712525 0.0014460923137029845 0 7.8867745964567856e-05 0.0011330473542221749 0 -0.00032241784810712525 0.0014460923137029845 0 -0.00031073628738242318 0.00096160218140645267 0 -0.00032241784810712525 0.0014460923137029845 0 -0.00061318769853857048 0.0014544484781199136 0 -0.00031073628738242318 0.00096160218140645267 0 -3.4143735270726115e-05 0.0017736309977765294 0 -0.00032241784810712525 0.0014460923137029845 0 -0.00064342012838040615 0.0018360085570849958 0 -0.00032241784810712525 0.0014460923137029845 0 -0.00061318769853857048 0.0014544484781199136 0 -0.00064342012838040615 0.0018360085570849958 0 -0.0014446041285520845 0.0013269668580955546 0 -0.0016568665085772874 0.0013504955217637389 0 -0.0016010282081867935 0.0011960743919485976 0 -0.00013105479057280649 0.0020552308638647522 0 0.00061589579084833754 0.0021814981661883461 0 0.0011045037659140602 0.0027288096414885316 0 0.0027665891694480514 0.0036303884983808626 0 0.0019382113580103224 0.0025540983648473519 0 0.0027665891694480514 0.0036303884983808626 0 0.0026474767232390552 0.0022497607665111041 0 0.0034135564436315719 0.0024867037109590514 0 0.0027665891694480514 0.0036303884983808626 0 0.0019382113580103224 0.0025540983648473519 0 0.0026474767232390552 0.0022497607665111041 0 0.0019382113580103224 0.0025540983648473519 0 0.0019701636201092652 0.0018678400130288993 0 0.0026474767232390552 0.0022497607665111041 0 0.0019701636201092652 0.0018678400130288993 0 0.0026474767232390552 0.0022497607665111041 0 0.0024051146113903883 0.0014578322983288033 0 0.0026474767232390552 0.0022497607665111041 0 0.0024051146113903883 0.0014578322983288033 0 0.0031184085121502051 0.0016139284859660724 0 0.0026474767232390552 0.0022497607665111041 0 0.0034135564436315719 0.0024867037109590514 0 0.0031184085121502051 0.0016139284859660724 0 0.0034135564436315719 0.0024867037109590514 0 0.004170517081120287 0.0019161654852059972 0 0.0042155769005772165 0.003258744961811159 0 0.0034135564436315719 0.0024867037109590514 0 0.004170517081120287 0.0019161654852059972 0 0.0031184085121502051 0.0016139284859660724 0 0.0027665891694480514 0.0036303884983808626 0 0.0034135564436315719 0.0024867037109590514 0 0.0042155769005772165 0.003258744961811159 0 0.0027665891694480514 0.0036303884983808626 0 0.0042155769005772165 0.003258744961811159 0 0.0042899279620520073 0.0044914362569014703 0 0.00061589579084833754 0.0021814981661883461 0 0.0012387958130071629 0.0020857841597441149 0 0.0042155769005772165 0.003258744961811159 0 0.005314421864714286 0.0039443425993636854 0 0.0042899279620520073 0.0044914362569014703 0 0.0042155769005772165 0.003258744961811159 0 0.005314421864714286 0.0039443425993636854 0 0.0052546069434551883 0.0027555384420065547 0 0.004170517081120287 0.0019161654852059972 0 0.0042155769005772165 0.003258744961811159 0 0.0052546069434551883 0.0027555384420065547 0 0.004170517081120287 0.0019161654852059972 0 0.0052546069434551883 0.0027555384420065547 0 0.0049556157979146068 0.0011761037624450606 0 0.0052546069434551883 0.0027555384420065547 0 0.0063358399135204305 0.0023144991478370276 0 0.0049556157979146068 0.0011761037624450606 0 0.0052546069434551883 0.0027555384420065547 0 0.0063358399135204305 0.0023144991478370276 0 0.0065703041221787687 0.0039695026773633865 0 0.005314421864714286 0.0039443425993636854 0 0.0052546069434551883 0.0027555384420065547 0 0.0065703041221787687 0.0039695026773633865 0 0.00031247161500288096 0.0015808393365518991 0 0.00047691378943834822 0.001902260984994484 0 0.00074023363271434649 0.0014851530019649208 0 0.0023344977548508238 0.002065042257280319 0 0.0013131675572251253 0.0013422021747879257 0 0.005314421864714286 0.0039443425993636854 0 0.0065703041221787687 0.0039695026773633865 0 0.0057672937289729651 0.0053001717294645454 0 0.000322370913713638 0.0011780729671802793 0 0.00045493444100937961 0.00092985047039620384 0 0.00027851431808980178 0.0010090293163213923 0 7.8867745964567856e-05 0.0011330473542221749 0 0.000322370913713638 0.0011780729671802793 0 0.00027851431808980178 0.0010090293163213923 0 0.0013131675572251253 0.0013422021747879257 0 -0.00030418131887304943 0.00097589494911244374 0 -0.0020640074712554887 0.0010671879766883882 0 -0.0018682347627213172 0.00097336446166930684 0 -0.001944634564043433 0.0008506568376666436 0 -0.0020640074712554887 0.0010671879766883882 0 -0.0018784831311131126 0.0011958263979264094 0 -0.0018682347627213172 0.00097336446166930684 0 0.0013131675572251253 0.0013422021747879257 0 0.0012387958130071629 0.0020857841597441149 0 0.005314421864714286 0.0039443425993636854 0 0.0057672937289729651 0.0053001717294645454 0 0.0042899279620520073 0.0044914362569014703 0 -0.0018784831311131126 0.0011958263979264094 0 -0.0017380166796719322 0.0010942149837616115 0 -0.0018682347627213172 0.00097336446166930684 0 -0.0016568665085772874 0.0013504955217637389 0 -0.0018784831311131126 0.0011958263979264094 0 -0.0017380166796719322 0.0010942149837616115 0 -0.0017380166796719322 0.0010942149837616115 0 -0.0018682347627213172 0.00097336446166930684 0 -0.0017622215597797126 0.00089753136278895743 0 -0.0017622215597797126 0.00089753136278895743 0 -0.0015489466763644155 0.0010271487490370011 0 -0.0016330001128089136 0.00076155983634992072 0 -0.0013658516150734607 0.00098427945713083602 0 -0.0018951902648476006 0.00043155204318483242 0 -0.001328073250154357 0.00076009767564155621 0 -0.001329902405632338 0.00097434357008327889 0 -0.00152436205200405 0.00029498346021440474 0 -0.0017380166796719322 0.0010942149837616115 0 -0.0017622215597797126 0.00089753136278895743 0 -0.0015489466763644155 0.0010271487490370011 0 -0.0012158863772458006 0.001253380325483223 0 -0.001328073250154357 0.00076009767564155621 0 -0.001329902405632338 0.00097434357008327889 0 -0.0017380166796719322 0.0010942149837616115 0 -0.0015489466763644155 0.0010271487490370011 0 -0.0016010282081867935 0.0011960743919485976 0 -0.0016568665085772874 0.0013504955217637389 0 -0.0017380166796719322 0.0010942149837616115 0 -0.0016010282081867935 0.0011960743919485976 0 -0.0014446041285520845 0.0013269668580955546 0 -0.0015489466763644155 0.0010271487490370011 0 -0.0016010282081867935 0.0011960743919485976 0 -0.0031666222660928288 -0.00053605371005309031 0 -0.0027526831861478828 -0.00079421838816990265 0 -0.00279974101520299 -0.0010361653093095015 0 -0.0018504037908560402 0.00072426669259025261 0 -0.0018371054856694353 0.00072691597546202969 0 -0.0018931966216852879 0.00073986846705084762 0 -0.0018371054856694353 0.00072691597546202969 0 -0.0017674873721050376 0.0007965817561551039 0 -0.001828275028303489 0.00080006850994974359 0 -0.0020039078911007445 0.00042763968374884238 0 -0.0020422881963286562 0.00031129488490192462 0 -0.0018371054856694353 0.00072691597546202969 0 -0.00186197311457713 0.00068221703742520144 0 -0.0018514565398448826 0.00066669435353381519 0 -0.0018504037908560402 0.00072426669259025261 0 -0.0018371054856694353 0.00072691597546202969 0 -0.00186197311457713 0.00068221703742520144 0 -0.0027940647032447443 6.0385496847159903e-05 0 -0.0022616879253447189 0.00018792989091371662 0 -0.0018801810993065661 0.00062616817622353715 0 -0.0019591951118835536 0.00025100605053896067 0 -0.0019869285934949596 0.00036455597633981089 0 -0.0015406047764940159 0.00063162135841766324 0 -0.0022616879253447189 0.00018792989091371662 0 -0.0019591951118835536 0.00025100605053896067 0 -0.0019869285934949596 0.00036455597633981089 0 -0.0020011332870404478 0.00031202195920776351 0 -0.0022616879253447189 0.00018792989091371662 0 -0.0020422881963286562 0.00031129488490192462 0 -0.0018951902648476006 0.00043155204318483242 0 -0.0020422881963286562 0.00031129488490192462 0 -0.0015406047764940159 0.00063162135841766324 0 -0.0018951902648476006 0.00043155204318483242 0 -0.0017622215597797126 0.00089753136278895743 0 -0.0016330001128089136 0.00076155983634992072 0 -0.0016436335484040353 0.00072273813254192004 0 -0.0020529840372902077 0.00042127282888925654 0 -0.0020422881963286562 0.00031129488490192462 0 -0.001828275028303489 0.00080006850994974359 0 -0.0018470055276579242 0.00071577498233674544 0 -0.001944634564043433 0.0008506568376666436 0 -0.0018682347627213172 0.00097336446166930684 0 -0.0017622215597797126 0.00089753136278895743 0 -0.001828275028303489 0.00080006850994974359 0 -0.0018682347627213172 0.00097336446166930684 0 -0.001828275028303489 0.00080006850994974359 0 -0.001944634564043433 0.0008506568376666436 0 -0.0017622215597797126 0.00089753136278895743 0 -0.0017674873721050376 0.0007965817561551039 0 -0.001828275028303489 0.00080006850994974359 0 -0.0018371054856694353 0.00072691597546202969 0 -0.001828275028303489 0.00080006850994974359 0 -0.0018470055276579242 0.00071577498233674544 0 -0.0018371054856694353 0.00072691597546202969 0 -0.0018470055276579242 0.00071577498233674544 0 -0.0018931966216852879 0.00073986846705084762 0 -0.0014878542666119071 0.00033046074497568068 0 -0.00030418131887304943 0.00097589494911244374 0 0.00063373839131151803 0.00057597823506891127 0 0.00037759966956316116 0.0006732210750589997 0 0.00021305697266718626 0.00042473328141821864 0 0.00063373839131151803 0.00057597823506891127 0 0.00037759966956316116 0.0006732210750589997 0 0.00045493444100937961 0.00092985047039620384 0 0.00037759966956316116 0.0006732210750589997 0 0.00045493444100937961 0.00092985047039620384 0 0.0002411460475753488 0.00073653919743126299 0 0.00045493444100937961 0.00092985047039620384 0 0.00027851431808980178 0.0010090293163213923 0 0.0002411460475753488 0.00073653919743126299 0 0.0002411460475753488 0.00073653919743126299 0 0.00021305697266718626 0.00042473328141821864 0 3.7653647461531655e-05 0.00055639732981839116 0 0.00037759966956316116 0.0006732210750589997 0 0.0002411460475753488 0.00073653919743126299 0 0.00021305697266718626 0.00042473328141821864 0 -0.00062766467020626245 0.00052471399180498309 0 -0.0010192462887939112 0.00040683069610509762 0 0.00014720013506440026 -0.00017664682349423393 0 -0.00065185014474688802 2.1765761846984884e-05 0 -0.00047059005909211722 -0.0006349905919248699 0 0.00021305697266718626 0.00042473328141821864 0 0.00014720013506440026 -0.00017664682349423393 0 -0.00065185014474688802 2.1765761846984884e-05 0 0.00014720013506440026 -0.00017664682349423393 0 0.00050351833226556651 0.00018445140414576335 0 0.00055874265106317666 -0.00014998494282437793 0 0.00014720013506440026 -0.00017664682349423393 0 0.00055874265106317666 -0.00014998494282437793 0 0.00043500321374178018 -0.00046521561158417832 0 0.00063373839131151803 0.00057597823506891127 0 0.00021305697266718626 0.00042473328141821864 0 0.00050351833226556651 0.00018445140414576335 0 0.00021305697266718626 0.00042473328141821864 0 0.00014720013506440026 -0.00017664682349423393 0 0.00050351833226556651 0.00018445140414576335 0 -0.0018470055276579242 0.00071577498233674544 0 -0.0018829502747997467 0.00080220202017556121 0 -0.0018931966216852879 0.00073986846705084762 0 -0.0014878542666119071 0.00033046074497568068 0 -0.0033506403067789289 -0.00016934267770474685 0 0.00063373839131151803 0.00057597823506891127 0 0.00050351833226556651 0.00018445140414576335 0 0.0009068149867242284 6.0521591185375399e-05 0 0.00055874265106317666 -0.00014998494282437793 0 0.0009068149867242284 6.0521591185375399e-05 0 0.00074767608927035485 -0.0003635263209610335 0 0.00050351833226556651 0.00018445140414576335 0 0.00055874265106317666 -0.00014998494282437793 0 0.0009068149867242284 6.0521591185375399e-05 0 -0.0020983496795741003 0.0010192778852166349 0 -0.0020056881999119596 0.00091435799180748637 0 -0.0019895316537307936 0.00079995380907697258 0 -0.0033506403067789289 -0.00016934267770474685 0 -0.0079265755358907987 0.00093786896205810301 0 -0.0018829502747997467 0.00080220202017556121 0 -0.0020056881999119596 0.00091435799180748637 0 -0.0020526397127236381 0.0010390728421625047 0 0.0009068149867242284 6.0521591185375399e-05 0 0.0011707942186137022 -0.00050548749286787248 0 0.00074767608927035485 -0.0003635263209610335 0 -0.0018829502747997467 0.00080220202017556121 0 -0.0020056881999119596 0.00091435799180748637 0 -0.0019895316537307936 0.00079995380907697258 0 -0.0031666222660928288 -0.00053605371005309031 0 -0.0027526831861478828 -0.00079421838816990265 0 -0.0028857556066938473 -0.00020085142342197708 0 -0.0019054318367836413 0.00063417382149572759 0 -0.0019895316537307936 0.00079995380907697258 0 -0.0018931966216852879 0.00073986846705084762 0 -0.0027940647032447443 6.0385496847159903e-05 0 -0.0046776109291189454 0.00025266651824219338 0 -0.0018829502747997467 0.00080220202017556121 0 -0.0019895316537307936 0.00079995380907697258 0 -0.0018931966216852879 0.00073986846705084762 0 -0.0027940647032447443 6.0385496847159903e-05 0 -0.0027035040986386791 0.00024817291364176707 0 -0.00031073628738242318 0.00096160218140645267 0 3.7653647461531655e-05 0.00055639732981839116 0 -0.00049273627610840244 0.0003380648076997452 0 -0.00079781283099277054 0.00085432482517159734 0 -0.00092562684168265178 0.00030836034811905624 0 -0.00049273627610840244 0.0003380648076997452 0 -0.00079781283099277054 0.00085432482517159734 0 -0.00031073628738242318 0.00096160218140645267 0 -0.00049273627610840244 0.0003380648076997452 0 -0.00079781283099277054 0.00085432482517159734 0 -0.00061318769853857048 0.0014544484781199136 0 -0.00031073628738242318 0.00096160218140645267 0 7.8867745964567856e-05 0.0011330473542221749 0 -0.00031073628738242318 0.00096160218140645267 0 3.7653647461531655e-05 0.00055639732981839116 0 7.8867745964567856e-05 0.0011330473542221749 0 0.0002411460475753488 0.00073653919743126299 0 3.7653647461531655e-05 0.00055639732981839116 0 7.8867745964567856e-05 0.0011330473542221749 0 0.00027851431808980178 0.0010090293163213923 0 0.0002411460475753488 0.00073653919743126299 0 3.7653647461531655e-05 0.00055639732981839116 0 -0.00019607993803124593 7.8160766019407869e-05 0 -0.00049273627610840244 0.0003380648076997452 0 0.00021305697266718626 0.00042473328141821864 0 3.7653647461531655e-05 0.00055639732981839116 0 0.00014255536748951922 8.1008722865121366e-05 0 3.7653647461531655e-05 0.00055639732981839116 0 0.00014255536748951922 8.1008722865121366e-05 0 -0.00019607993803124593 7.8160766019407869e-05 0 -0.0010192462887939112 0.00040683069610509762 0 -0.0021892883361523652 0.00017252499695078876 0 0.00014255536748951922 8.1008722865121366e-05 0 -0.00019607993803124593 7.8160766019407869e-05 0 -0.00016406823497203474 -0.00040634459920855549 0 -0.00019607993803124593 7.8160766019407869e-05 0 -0.0005662659775786292 -0.00023663758073481477 0 -0.00016406823497203474 -0.00040634459920855549 0 -0.00019607993803124593 7.8160766019407869e-05 0 -0.0005662659775786292 -0.00023663758073481477 0 -0.00049273627610840244 0.0003380648076997452 0 -0.00094187889524127331 -5.7945418662663438e-05 0 -0.0005662659775786292 -0.00023663758073481477 0 -0.00049273627610840244 0.0003380648076997452 0 -0.00092562684168265178 0.00030836034811905624 0 -0.00094187889524127331 -5.7945418662663438e-05 0 -0.00049273627610840244 0.0003380648076997452 0 -0.00094187889524127331 -5.7945418662663438e-05 0 -0.0005662659775786292 -0.00023663758073481477 0 -0.0010512643684360446 -0.00053991375705404103 0 -0.0005662659775786292 -0.00023663758073481477 0 -0.00056591113470993656 -0.00080873923285696325 0 -0.0010512643684360446 -0.00053991375705404103 0 -0.0051510832401737592 -0.0006257397736012197 0 -0.0057503250006119321 -2.0173349932962616e-07 0 -0.010151344558745907 0.0011018778742910649 0 -0.010142610778255167 0.0011059425607072002 0 -0.01023623847866968 0.00111402418928222 0 -0.010197226012042239 0.0010945316691397884 0 -0.010151344558745907 0.0011018778742910649 0 -0.01023623847866968 0.00111402418928222 0 -0.010197226012042239 0.0010945316691397884 0 -0.010151344558745907 0.0011018778742910649 0 -0.010163017203610698 0.0010854981146826046 0 -0.010139905428519447 0.0010917265783964342 0 -0.010138009641497074 0.0011116330554875799 0 -0.010116776160811015 0.0010781980198616443 0 -0.010149839589478814 0.0010888828661229206 0 -0.010151344558745907 0.0011018778742910649 0 -0.010163017203610698 0.0010854981146826046 0 -0.010139905428519447 0.0010917265783964342 0 -0.010149839589478814 0.0010888828661229206 0 -0.010151344558745907 0.0011018778742910649 0 -0.010139905428519447 0.0010917265783964342 0 -0.010151344558745907 0.0011018778742910649 0 -0.010138009641497074 0.0011116330554875799 0 -0.0051877347743933891 -0.00063719434524276471 0 -0.0051510832401737592 -0.0006257397736012197 0 -0.0005662659775786292 -0.00023663758073481477 0 -0.00056591113470993656 -0.00080873923285696325 0 -0.00016406823497203474 -0.00040634459920855549 0 -0.0051510832401737592 -0.0006257397736012197 0 -0.0021892883361523652 0.00017252499695078876 0 -0.0014476704202517161 -0.00051710999893993302 0 -0.00097847212125864048 -0.0010915655433508572 0 -0.00047059005909211722 -0.0006349905919248699 0 -0.00065185014474688802 2.1765761846984884e-05 0 -0.0014476704202517161 -0.00051710999893993302 0 -0.00047059005909211722 -0.0006349905919248699 0 -0.00097847212125864048 -0.0010915655433508572 0 -0.0013666586065898207 -0.0017830889408897359 0 -0.00032788089245006422 -0.0013308504131905108 0 -0.00097847212125864048 -0.0010915655433508572 0 -0.00047059005909211722 -0.0006349905919248699 0 -0.00032788089245006422 -0.0013308504131905108 0 -0.00097847212125864048 -0.0010915655433508572 0 -0.0014810815723327203 -0.0011374637234375486 0 -0.0013666586065898207 -0.0017830889408897359 0 -0.0022248737029769371 -0.0011352150801907598 0 -0.0014476704202517161 -0.00051710999893993302 0 -0.0014810815723327203 -0.0011374637234375486 0 -0.0022248737029769371 -0.0011352150801907598 0 -0.0014810815723327203 -0.0011374637234375486 0 -0.0013666586065898207 -0.0017830889408897359 0 -0.0014476704202517161 -0.00051710999893993302 0 -0.00097847212125864048 -0.0010915655433508572 0 -0.0014810815723327203 -0.0011374637234375486 0 -0.0104624520056751 0.00012938221975701154 0 -0.012461813155218443 4.4687952533029673e-05 0 -0.010061365328303892 0.0010595589886918842 0 -0.010116776160811015 0.0010781980198616443 0 -0.010126079205149914 0.0010322749100920971 0 -0.018581411445751605 -0.0012716984625419582 0 -0.01934840815324505 -0.00072929475667420053 0 -0.020038981131394261 -0.0010663497936731769 0 -0.018581411445751605 -0.0012716984625419582 0 -0.020115809290997173 -0.0018156919851040304 0 -0.020038981131394261 -0.0010663497936731769 0 -0.0104624520056751 0.00012938221975701154 0 -0.010606524549899948 -0.0004854053061307502 0 -0.0104624520056751 0.00012938221975701154 0 -0.01250906014938081 0.00091374423039626931 0 -0.01934840815324505 -0.00072929475667420053 0 -0.01854512351581683 -0.00041210959754891396 0 -0.019618269617472772 7.5847897497085501e-05 0 -0.018643282813157431 -0.0012822336377767013 0 -0.01934840815324505 -0.00072929475667420053 0 -0.01854512351581683 -0.00041210959754891396 0 -0.018643282813157431 -0.0012822336377767013 0 -0.01854512351581683 -0.00041210959754891396 0 -0.01783168304006285 -0.00098493901043672266 0 -0.01854512351581683 -0.00041210959754891396 0 -0.01783168304006285 -0.00098493901043672266 0 -0.017590455545105663 -0.00011868670307761157 0 -0.017039323327925984 -0.00069092695066208726 0 -0.01783168304006285 -0.00098493901043672266 0 -0.017590455545105663 -0.00011868670307761157 0 -0.013020298465833378 0.00038817127541642538 0 -0.012461813155218443 4.4687952533029673e-05 0 -0.013020298465833378 0.00038817127541642538 0 -0.013785131547404531 0.000707008213925679 0 -0.016864865389211503 -0.00095301846870565309 0 -0.016672947684880975 0.00039822930421447284 0 -0.015436783001456733 -0.00043286603919267966 0 -0.013020298465833378 0.00038817127541642538 0 -0.013447363747944707 0.00029287587447987388 0 -0.010197226012042239 0.0010945316691397884 0 -0.010171225506909519 0.0010618509428486304 0 -0.010228357224552981 0.0011039903510225706 0 -0.010188546929906795 0.001013807931096795 0 -0.010171225506909519 0.0010618509428486304 0 -0.010228357224552981 0.0011039903510225706 0 -0.013020298465833378 0.00038817127541642538 0 -0.011743394475962829 0.00093674165657837668 0 -0.010197226012042239 0.0010945316691397884 0 -0.010171225506909519 0.0010618509428486304 0 -0.010163017203610698 0.0010854981146826046 0 -0.010171225506909519 0.0010618509428486304 0 -0.010163017203610698 0.0010854981146826046 0 -0.010145199182889158 0.0010753463855772748 0 -0.0051510832401737592 -0.0006257397736012197 0 -0.0104624520056751 0.00012938221975701154 0 -0.010138009641497074 0.0011116330554875799 0 -0.010061365328303892 0.0010595589886918842 0 -0.010116776160811015 0.0010781980198616443 0 -0.010149839589478814 0.0010888828661229206 0 -0.010163017203610698 0.0010854981146826046 0 -0.010145199182889158 0.0010753463855772748 0 -0.010139905428519447 0.0010917265783964342 0 -0.010149839589478814 0.0010888828661229206 0 -0.010145199182889158 0.0010753463855772748 0 -0.010139905428519447 0.0010917265783964342 0 -0.010145199182889158 0.0010753463855772748 0 -0.010116776160811015 0.0010781980198616443 0 -0.010145199182889158 0.0010753463855772748 0 -0.010116776160811015 0.0010781980198616443 0 -0.010126079205149914 0.0010322749100920971 0 -0.010188546929906795 0.001013807931096795 0 -0.010171225506909519 0.0010618509428486304 0 -0.010126079205149914 0.0010322749100920971 0 -0.010171225506909519 0.0010618509428486304 0 -0.010145199182889158 0.0010753463855772748 0 -0.010126079205149914 0.0010322749100920971 0 -0.023491694119038838 -0.0017886939288577766 0 -0.022948747535761409 -0.0018264316386485315 0 -0.022459713939228347 -0.0026243281171550877 0 -0.011391470388875457 0.0010349961526667133 0 -0.010825355988603118 0.00056933156403786054 0 -0.022551288768854313 -0.00180578785205764 0 -0.022459713939228347 -0.0026243281171550877 0 -0.021964803740173674 -0.0017814341930291427 0 -0.022948747535761409 -0.0018264316386485315 0 -0.022551288768854313 -0.00180578785205764 0 -0.022900872695267711 -0.0014395210787221066 0 -0.022948747535761409 -0.0018264316386485315 0 -0.022551288768854313 -0.00180578785205764 0 -0.022459713939228347 -0.0026243281171550877 0 -0.010372317559959486 0.00043958274280045498 0 -0.0097657106115873679 -0.00062377475098090442 0 -0.0088441058026584723 -0.00026494196885552677 0 0.0011707942186137022 -0.00050548749286787248 0 0.00092465932581633657 -0.00062047101687196372 0 0.00074767608927035485 -0.0003635263209610335 0 -0.0079265755358907987 0.00093786896205810301 0 -0.010825355988603118 0.00056933156403786054 0 -0.0020983496795741003 0.0010192778852166349 0 -0.0020056881999119596 0.00091435799180748637 0 -0.0020526397127236381 0.0010390728421625047 0 0.00074767608927035485 -0.0003635263209610335 0 0.00052857679762730611 -0.00085942177739208199 0 0.00043500321374178018 -0.00046521561158417832 0 0.00092465932581633657 -0.00062047101687196372 0 0.00074767608927035485 -0.0003635263209610335 0 0.00052857679762730611 -0.00085942177739208199 0 0.00055874265106317666 -0.00014998494282437793 0 0.00074767608927035485 -0.0003635263209610335 0 0.00043500321374178018 -0.00046521561158417832 0 -0.010825355988603118 0.00056933156403786054 0 -0.010839366034990923 -0.00018954884761221939 0 -0.021600682582953348 -0.0023100714520668279 0 -0.021964803740173674 -0.0017814341930291427 0 -0.021284040834101018 -0.0012927393900669139 0 -0.022459713939228347 -0.0026243281171550877 0 -0.021600682582953348 -0.0023100714520668279 0 -0.021964803740173674 -0.0017814341930291427 0 -0.010839366034990923 -0.00018954884761221939 0 -0.010606524549899948 -0.0004854053061307502 0 0.00052857679762730611 -0.00085942177739208199 0 7.6248694060224785e-05 -0.00068971695516101207 0 -0.00032788089245006422 -0.0013308504131905108 0 -0.021600682582953348 -0.0023100714520668279 0 -0.020115809290997173 -0.0018156919851040304 0 -0.021284040834101018 -0.0012927393900669139 0 0.00052857679762730611 -0.00085942177739208199 0 7.6248694060224785e-05 -0.00068971695516101207 0 0.00043500321374178018 -0.00046521561158417832 0 0.00014720013506440026 -0.00017664682349423393 0 7.6248694060224785e-05 -0.00068971695516101207 0 0.00043500321374178018 -0.00046521561158417832 0 0.00014720013506440026 -0.00017664682349423393 0 7.6248694060224785e-05 -0.00068971695516101207 0 -0.00047059005909211722 -0.0006349905919248699 0 7.6248694060224785e-05 -0.00068971695516101207 0 -0.00047059005909211722 -0.0006349905919248699 0 -0.00032788089245006422 -0.0013308504131905108 0 -0.020038981131394261 -0.0010663497936731769 0 -0.020544708993777933 -0.00046979809325949323 0 -0.021284040834101018 -0.0012927393900669139 0 -0.020115809290997173 -0.0018156919851040304 0 -0.020038981131394261 -0.0010663497936731769 0 -0.021284040834101018 -0.0012927393900669139 0 -0.01934840815324505 -0.00072929475667420053 0 -0.020038981131394261 -0.0010663497936731769 0 -0.020544708993777933 -0.00046979809325949323 0 -0.01934840815324505 -0.00072929475667420053 0 -0.020544708993777933 -0.00046979809325949323 0 -0.019618269617472772 7.5847897497085501e-05 0 -0.020544708993777933 -0.00046979809325949323 0 -0.02143726622452858 -0.00052886848202356369 0 -0.021284040834101018 -0.0012927393900669139 0 -0.020544708993777933 -0.00046979809325949323 0 -0.020979200106769708 3.1584746449835348e-05 0 -0.020426391825062069 0.00020197079521725556 0 -0.020544708993777933 -0.00046979809325949323 0 -0.02143726622452858 -0.00052886848202356369 0 -0.020979200106769708 3.1584746449835348e-05 0 -0.02143726622452858 -0.00052886848202356369 0 -0.021693948433993013 0.00021486282605260082 0 -0.020979200106769708 3.1584746449835348e-05 0 -0.021964803740173674 -0.0017814341930291427 0 -0.021284040834101018 -0.0012927393900669139 0 -0.021879616269441803 -0.001022718334882233 0 -0.021964803740173674 -0.0017814341930291427 0 -0.021879616269441803 -0.001022718334882233 0 -0.022403655127675708 -0.0012949033910308507 0 -0.022551288768854313 -0.00180578785205764 0 -0.021964803740173674 -0.0017814341930291427 0 -0.022403655127675708 -0.0012949033910308507 0 -0.021879616269441803 -0.001022718334882233 0 -0.022212808687969356 -0.00052759612178648429 0 -0.022403655127675708 -0.0012949033910308507 0 -0.02143726622452858 -0.00052886848202356369 0 -0.021284040834101018 -0.0012927393900669139 0 -0.021879616269441803 -0.001022718334882233 0 -0.02143726622452858 -0.00052886848202356369 0 -0.021879616269441803 -0.001022718334882233 0 -0.022212808687969356 -0.00052759612178648429 0 -0.02143726622452858 -0.00052886848202356369 0 -0.022212808687969356 -0.00052759612178648429 0 -0.021693948433993013 0.00021486282605260082 0 -0.022212808687969356 -0.00052759612178648429 0 -0.022754810096724577 -0.00036719208067296697 0 -0.022416736678758348 0.00034003155393907449 0 -0.022212808687969356 -0.00052759612178648429 0 -0.022754810096724577 -0.00036719208067296697 0 -0.022806060349687744 -0.00094554507010022196 0 -0.0232050051514744 -0.00055151922820658285 0 -0.022754810096724577 -0.00036719208067296697 0 -0.023094901655299312 6.4045405836555728e-05 0 -0.0232050051514744 -0.00055151922820658285 0 -0.022754810096724577 -0.00036719208067296697 0 -0.022806060349687744 -0.00094554507010022196 0 -0.023245761420162304 -0.0010612435704580672 0 -0.0232050051514744 -0.00055151922820658285 0 -0.022806060349687744 -0.00094554507010022196 0 -0.023245761420162304 -0.0010612435704580672 0 -0.022806060349687744 -0.00094554507010022196 0 -0.022900872695267711 -0.0014395210787221066 0 -0.022212808687969356 -0.00052759612178648429 0 -0.022806060349687744 -0.00094554507010022196 0 -0.022403655127675708 -0.0012949033910308507 0 -0.022806060349687744 -0.00094554507010022196 0 -0.022403655127675708 -0.0012949033910308507 0 -0.022900872695267711 -0.0014395210787221066 0 -0.022551288768854313 -0.00180578785205764 0 -0.022403655127675708 -0.0012949033910308507 0 -0.022900872695267711 -0.0014395210787221066 0 -0.023270804315044268 -0.0014700669766826706 0 -0.022948747535761409 -0.0018264316386485315 0 -0.022900872695267711 -0.0014395210787221066 0 -0.022976784896835998 0.00092222276794959822 0 -0.022416736678758348 0.00034003155393907449 0 -0.022349148616244482 0.0012049275645555648 0 -0.023649762945809394 0.0013820795478293375 0 -0.022976784896835998 0.00092222276794959822 0 -0.022890743767834253 0.001965771612926129 0 -0.022976784896835998 0.00092222276794959822 0 -0.022349148616244482 0.0012049275645555648 0 -0.022890743767834253 0.001965771612926129 0 -0.022976784896835998 0.00092222276794959822 0 -0.023094901655299312 6.4045405836555728e-05 0 -0.022416736678758348 0.00034003155393907449 0 -0.022754810096724577 -0.00036719208067296697 0 -0.023094901655299312 6.4045405836555728e-05 0 -0.022416736678758348 0.00034003155393907449 0 -0.022212808687969356 -0.00052759612178648429 0 -0.022416736678758348 0.00034003155393907449 0 -0.021693948433993013 0.00021486282605260082 0 -0.022416736678758348 0.00034003155393907449 0 -0.021693948433993013 0.00021486282605260082 0 -0.021841606642949863 0.00083910452590709535 0 -0.022349148616244482 0.0012049275645555648 0 -0.021841606642949863 0.00083910452590709535 0 -0.021670713933021269 0.0018584895806260239 0 -0.022416736678758348 0.00034003155393907449 0 -0.022349148616244482 0.0012049275645555648 0 -0.021841606642949863 0.00083910452590709535 0 -0.02240872830791724 -0.00048757782971602033 0 -0.021299107789313768 0.00040347518760573204 0 -0.022730499853027546 0.0011228260750887353 0 -0.021544311522388709 0.00092652984924371001 0 -0.022008916262941481 0.0016131506688535535 0 -0.021841606642949863 0.00083910452590709535 0 -0.021271694354881982 0.00070593455178844281 0 -0.021670713933021269 0.0018584895806260239 0 -0.021693948433993013 0.00021486282605260082 0 -0.021841606642949863 0.00083910452590709535 0 -0.021271694354881982 0.00070593455178844281 0 -0.021612408669709687 0.00081737384216033911 0 -0.021544311522388709 0.00092652984924371001 0 -0.021693948433993013 0.00021486282605260082 0 -0.020979200106769708 3.1584746449835348e-05 0 -0.020884428509745423 0.00071784220518427138 0 -0.020979200106769708 3.1584746449835348e-05 0 -0.020884428509745423 0.00071784220518427138 0 -0.020426391825062069 0.00020197079521725556 0 -0.020544708993777933 -0.00046979809325949323 0 -0.020426391825062069 0.00020197079521725556 0 -0.019618269617472772 7.5847897497085501e-05 0 -0.020884428509745423 0.00071784220518427138 0 -0.020426391825062069 0.00020197079521725556 0 -0.020186056666032161 0.0006832528405906255 0 -0.020426391825062069 0.00020197079521725556 0 -0.020186056666032161 0.0006832528405906255 0 -0.019618269617472772 7.5847897497085501e-05 0 -0.021544311522388709 0.00092652984924371001 0 -0.020756450295411982 0.0011923032136466896 0 -0.020186056666032161 0.0006832528405906255 0 -0.019913249529365774 0.0013464667455605212 0 -0.019490777224363997 0.00074870522703078535 0 -0.020884428509745423 0.00071784220518427138 0 -0.020186056666032161 0.0006832528405906255 0 -0.019913249529365774 0.0013464667455605212 0 -0.021299107789313768 0.00040347518760573204 0 -0.021703840856221981 0.0017070727270627089 0 -0.022730499853027546 0.0011228260750887353 0 -0.021703840856221981 0.0017070727270627089 0 -0.023013555673738983 0.0027222896962483213 0 -0.021228221308254469 0.0029390753854773724 0 -0.022008916262941481 0.0016131506688535535 0 -0.022439863029639719 0.0027477731137366974 0 -0.021703840856221981 0.0017070727270627089 0 -0.022730499853027546 0.0011228260750887353 0 -0.023013555673738983 0.0027222896962483213 0 -0.022349148616244482 0.0012049275645555648 0 -0.021670713933021269 0.0018584895806260239 0 -0.022890743767834253 0.001965771612926129 0 -0.021670713933021269 0.0018584895806260239 0 -0.022890743767834253 0.001965771612926129 0 -0.022134825105504845 0.0029715497119273716 0 -0.022890743767834253 0.001965771612926129 0 -0.023579033131290249 0.0030609126706520082 0 -0.022134825105504845 0.0029715497119273716 0 -0.02387776464217119 0.0022101463159306363 0 -0.022890743767834253 0.001965771612926129 0 -0.023579033131290249 0.0030609126706520082 0 -0.017915949458006297 0.00087389798032179835 0 -0.018097410394558901 0.0018109074076364481 0 -0.01690370235745629 0.0015717280603482278 0 -0.017915949458006297 0.00087389798032179835 0 -0.016672947684880975 0.00039822930421447284 0 -0.01690370235745629 0.0015717280603482278 0 -0.016672947684880975 0.00039822930421447284 0 -0.01690370235745629 0.0015717280603482278 0 -0.015053427351494883 0.001255428914532733 0 -0.016864865389211503 -0.00095301846870565309 0 -0.016672947684880975 0.00039822930421447284 0 -0.017590455545105663 -0.00011868670307761157 0 -0.017915949458006297 0.00087389798032179835 0 -0.017590455545105663 -0.00011868670307761157 0 -0.018252614163079908 0.00015193650411187616 0 -0.017915949458006297 0.00087389798032179835 0 -0.016672947684880975 0.00039822930421447284 0 -0.017590455545105663 -0.00011868670307761157 0 -0.017915949458006297 0.00087389798032179835 0 -0.018252614163079908 0.00015193650411187616 0 -0.018867090445613813 0.00046214579762268384 0 -0.01854512351581683 -0.00041210959754891396 0 -0.017590455545105663 -0.00011868670307761157 0 -0.018252614163079908 0.00015193650411187616 0 -0.01854512351581683 -0.00041210959754891396 0 -0.018252614163079908 0.00015193650411187616 0 -0.018867090445613813 0.00046214579762268384 0 -0.01854512351581683 -0.00041210959754891396 0 -0.018867090445613813 0.00046214579762268384 0 -0.019618269617472772 7.5847897497085501e-05 0 -0.018867090445613813 0.00046214579762268384 0 -0.019618269617472772 7.5847897497085501e-05 0 -0.019490777224363997 0.00074870522703078535 0 -0.020186056666032161 0.0006832528405906255 0 -0.019618269617472772 7.5847897497085501e-05 0 -0.019490777224363997 0.00074870522703078535 0 -0.019913249529365774 0.0013464667455605212 0 -0.019490777224363997 0.00074870522703078535 0 -0.018883968072958501 0.0012152590575553845 0 -0.018867090445613813 0.00046214579762268384 0 -0.019490777224363997 0.00074870522703078535 0 -0.018883968072958501 0.0012152590575553845 0 -0.017915949458006297 0.00087389798032179835 0 -0.018883968072958501 0.0012152590575553845 0 -0.018097410394558901 0.0018109074076364481 0 -0.017915949458006297 0.00087389798032179835 0 -0.018867090445613813 0.00046214579762268384 0 -0.018883968072958501 0.0012152590575553845 0 -0.01906040263257525 0.001952709480158964 0 -0.018556573183165007 0.0024468412959737342 0 -0.018097410394558901 0.0018109074076364481 0 -0.018883968072958501 0.0012152590575553845 0 -0.01906040263257525 0.001952709480158964 0 -0.018097410394558901 0.0018109074076364481 0 -0.019913249529365774 0.0013464667455605212 0 -0.018883968072958501 0.0012152590575553845 0 -0.01906040263257525 0.001952709480158964 0 -0.020756450295411982 0.0011923032136466896 0 -0.01988505512471116 0.0017103310153963832 0 -0.021299107789313768 0.00040347518760573204 0 -0.021703840856221981 0.0017070727270627089 0 -0.020112328000133014 0.0012934185721521123 0 -0.021703840856221981 0.0017070727270627089 0 -0.020112328000133014 0.0012934185721521123 0 -0.021228221308254469 0.0029390753854773724 0 -0.020112328000133014 0.0012934185721521123 0 -0.021228221308254469 0.0029390753854773724 0 -0.019805222431018888 0.0031729206996378096 0 -0.01988505512471116 0.0017103310153963832 0 -0.019417869408352172 0.0020324180541457649 0 -0.020112328000133014 0.0012934185721521123 0 -0.018556573183165007 0.0024468412959737342 0 -0.019805222431018888 0.0031729206996378096 0 -0.018556573183165007 0.0024468412959737342 0 -0.018097410394558901 0.0018109074076364481 0 -0.017124169426137915 0.0026728951069527112 0 -0.018097410394558901 0.0018109074076364481 0 -0.01690370235745629 0.0015717280603482278 0 -0.017124169426137915 0.0026728951069527112 0 -0.01690370235745629 0.0015717280603482278 0 -0.017124169426137915 0.0026728951069527112 0 -0.016019177203388028 0.0021926044531794843 0 -0.017124169426137915 0.0026728951069527112 0 -0.015646960637227123 0.0031682071739752363 0 -0.016019177203388028 0.0021926044531794843 0 -0.015646960637227123 0.0031682071739752363 0 -0.014981441632363228 0.002279102169901754 0 -0.016019177203388028 0.0021926044531794843 0 -0.01467658805057624 0.0028711490627853476 0 -0.014273996852556229 0.0034384347322439384 0 -0.015646960637227123 0.0031682071739752363 0 -0.014981441632363228 0.002279102169901754 0 -0.014627740142025529 0.003346151965865931 0 -0.014981441632363228 0.002279102169901754 0 -0.015053427351494883 0.001255428914532733 0 -0.014359007815834114 0.0014888320582029395 0 -0.014981441632363228 0.002279102169901754 0 -0.013943989207665576 0.0017158652016077112 0 -0.014359007815834114 0.0014888320582029395 0 -0.014981441632363228 0.002279102169901754 0 -0.016019177203388028 0.0021926044531794843 0 -0.015053427351494883 0.001255428914532733 0 -0.01690370235745629 0.0015717280603482278 0 -0.016019177203388028 0.0021926044531794843 0 -0.015053427351494883 0.001255428914532733 0 -0.013538794075823016 0.0024456646571014025 0 -0.012663088375158924 0.0030373798025830289 0 -0.013223612194460069 0.0036913006972130536 0 -0.013538794075823016 0.0024456646571014025 0 -0.013223612194460069 0.0036913006972130536 0 -0.013935476901426418 0.0034688678335870766 0 -0.014981441632363228 0.002279102169901754 0 -0.013538794075823016 0.0024456646571014025 0 -0.013935476901426418 0.0034688678335870766 0 -0.014981441632363228 0.002279102169901754 0 -0.013943989207665576 0.0017158652016077112 0 -0.013538794075823016 0.0024456646571014025 0 -0.013943989207665576 0.0017158652016077112 0 -0.013538794075823016 0.0024456646571014025 0 -0.013362482097839995 0.0017166737219637416 0 -0.013538794075823016 0.0024456646571014025 0 -0.01281614067594071 0.0015701927790230715 0 -0.012663088375158924 0.0030373798025830289 0 -0.010731328638515149 0.0029714804167778586 0 -0.011498946120378519 0.003418151400603284 0 -0.013538794075823016 0.0024456646571014025 0 -0.013362482097839995 0.0017166737219637416 0 -0.01281614067594071 0.0015701927790230715 0 -0.010409612120256208 0.0029127396611021727 0 -0.01145713044419339 0.0029665598223562913 0 -0.010731328638515149 0.0029714804167778586 0 -0.01145713044419339 0.0029665598223562913 0 -0.01078552031380909 0.003012592013160678 0 -0.010773425169250344 0.0030682974394849144 0 -0.010879989750862878 0.0030453409153211562 0 -0.013362482097839995 0.0017166737219637416 0 -0.01281614067594071 0.0015701927790230715 0 -0.013681905014418223 0.0012226166717014728 0 -0.010409612120256208 0.0029127396611021727 0 -0.010731328638515149 0.0029714804167778586 0 -0.0087532381355907591 0.0035631794387682388 0 -0.0087333124029536427 0.0036926773229397792 0 -0.0086429045044483319 0.0035861373220367442 0 -0.013283717657585329 0.00092297961688936391 0 -0.013681905014418223 0.0012226166717014728 0 -0.013457264505547602 0.00079586016044208422 0 -0.013943989207665576 0.0017158652016077112 0 -0.013362482097839995 0.0017166737219637416 0 -0.013681905014418223 0.0012226166717014728 0 -0.013943989207665576 0.0017158652016077112 0 -0.013681905014418223 0.0012226166717014728 0 -0.014359007815834114 0.0014888320582029395 0 -0.013681905014418223 0.0012226166717014728 0 -0.013457264505547602 0.00079586016044208422 0 -0.013922061015267722 0.0010159131461504511 0 -0.013681905014418223 0.0012226166717014728 0 -0.014359007815834114 0.0014888320582029395 0 -0.013922061015267722 0.0010159131461504511 0 -0.013457264505547602 0.00079586016044208422 0 -0.013096614521518612 0.0011002206042181172 0 -0.013408425326971231 0.0009814204554462946 0 -0.013457264505547602 0.00079586016044208422 0 -0.0134566278533996 0.00051460289252467652 0 -0.013096614521518612 0.0011002206042181172 0 -0.013457264505547602 0.00079586016044208422 0 -0.013922061015267722 0.0010159131461504511 0 -0.0134566278533996 0.00051460289252467652 0 -0.013283717657585329 0.00092297961688936391 0 -0.013457264505547602 0.00079586016044208422 0 -0.013408425326971231 0.0009814204554462946 0 -0.0088149435745271607 0.0036339565461210358 0 -0.0089335658261615186 0.0030769369348359827 0 -0.0085205049073348756 0.0031772172017086367 0 -0.010409612120256208 0.0029127396611021727 0 -0.010724962725385881 0.002289566917988063 0 -0.015053427351494883 0.001255428914532733 0 -0.014359007815834114 0.0014888320582029395 0 -0.013922061015267722 0.0010159131461504511 0 -0.015053427351494883 0.001255428914532733 0 -0.013922061015267722 0.0010159131461504511 0 -0.0134566278533996 0.00051460289252467652 0 -0.013476181014746477 0.0003098504003433498 0 -0.013447363747944707 0.00029287587447987388 0 -0.015053427351494883 0.001255428914532733 0 -0.0134566278533996 0.00051460289252467652 0 -0.015436783001456733 -0.00043286603919267966 0 -0.016672947684880975 0.00039822930421447284 0 -0.015053427351494883 0.001255428914532733 0 -0.015436783001456733 -0.00043286603919267966 0 -0.011905748775824102 0.001022434307885275 0 -0.012485233600677107 0.0015581042813220419 0 -0.011978247991970965 0.0022275359737536373 0 -0.01113198299826507 0.0013319600931658506 0 -0.011905748775824102 0.001022434307885275 0 -0.011978247991970965 0.0022275359737536373 0 -0.012231066018524717 0.0020557520195059911 0 -0.012485233600677107 0.0015581042813220419 0 -0.011978247991970965 0.0022275359737536373 0 -0.012231066018524717 0.0020557520195059911 0 -0.01252551534929101 0.0018184340042197761 0 -0.012194374068773297 0.002206756204782852 0 -0.012231066018524717 0.0020557520195059911 0 -0.012485233600677107 0.0015581042813220419 0 -0.01252551534929101 0.0018184340042197761 0 -0.012485233600677107 0.0015581042813220419 0 -0.013096614521518612 0.0011002206042181172 0 -0.01252551534929101 0.0018184340042197761 0 -0.0134566278533996 0.00051460289252467652 0 -0.011905748775824102 0.001022434307885275 0 -0.012485233600677107 0.0015581042813220419 0 -0.0134566278533996 0.00051460289252467652 0 -0.012485233600677107 0.0015581042813220419 0 -0.013096614521518612 0.0011002206042181172 0 -0.013096614521518612 0.0011002206042181172 0 -0.013408425326971231 0.0009814204554462946 0 -0.012890498867310007 0.0016816221168902245 0 -0.013096614521518612 0.0011002206042181172 0 -0.01252551534929101 0.0018184340042197761 0 -0.012890498867310007 0.0016816221168902245 0 -0.0089335658261615186 0.0030769369348359827 0 -0.008799562932043101 0.0026973195135474373 0 -0.0090582305394199692 0.0025210755341314151 0 -0.013408425326971231 0.0009814204554462946 0 -0.013093305258252957 0.0019427187555972182 0 -0.012890498867310007 0.0016816221168902245 0 -0.0089335658261615186 0.0030769369348359827 0 -0.0085236848102875507 0.0027450309394993176 0 -0.0085205049073348756 0.0031772172017086367 0 -0.010724962725385881 0.002289566917988063 0 -0.010811187695954551 0.0020995629281627026 0 -0.0089335658261615186 0.0030769369348359827 0 -0.008799562932043101 0.0026973195135474373 0 -0.0085236848102875507 0.0027450309394993176 0 -0.0090582305394199692 0.0025210755341314151 0 -0.0086817518640643059 0.0024457503407005251 0 -0.0086589697811790944 0.0020247913370685087 0 -0.008799562932043101 0.0026973195135474373 0 -0.0086817518640643059 0.0024457503407005251 0 -0.0085236848102875507 0.0027450309394993176 0 -0.008799562932043101 0.0026973195135474373 0 -0.0090582305394199692 0.0025210755341314151 0 -0.0086817518640643059 0.0024457503407005251 0 -0.012747134662591805 0.0019834433821222515 0 -0.012384695252175041 0.0020931581224919089 0 -0.011425540961777622 0.0024817986631284665 0 -0.01252551534929101 0.0018184340042197761 0 -0.012890498867310007 0.0016816221168902245 0 -0.012384695252175041 0.0020931581224919089 0 -0.012747134662591805 0.0019834433821222515 0 -0.012890498867310007 0.0016816221168902245 0 -0.012384695252175041 0.0020931581224919089 0 -0.010811187695954551 0.0020995629281627026 0 -0.010874580308536091 0.0021230053858953195 0 -0.01252551534929101 0.0018184340042197761 0 -0.012384695252175041 0.0020931581224919089 0 -0.012194374068773297 0.002206756204782852 0 -0.010811187695954551 0.0020995629281627026 0 -0.010903933406113956 0.0020790307278256842 0 -0.011425540961777622 0.0024817986631284665 0 -0.010780161343545466 0.0020297866166736475 0 -0.01204568820998966 0.0022674023482217613 0 -0.012194374068773297 0.002206756204782852 0 -0.011425540961777622 0.0024817986631284665 0 -0.01204568820998966 0.0022674023482217613 0 -0.012384695252175041 0.0020931581224919089 0 -0.012194374068773297 0.002206756204782852 0 -0.011425540961777622 0.0024817986631284665 0 -0.011142248304999467 0.0037803041962462115 0 -0.011425540961777622 0.0024817986631284665 0 -0.009927442425820103 0.0025231281775562804 0 -0.010811187695954551 0.0020995629281627026 0 -0.0097783038680966106 0.0018311428817681275 0 -0.011425540961777622 0.0024817986631284665 0 -0.010780161343545466 0.0020297866166736475 0 -0.009927442425820103 0.0025231281775562804 0 -0.0088224567710407271 0.0010832224138232999 0 -0.0094157707452804367 0.0015318068311692527 0 -0.0095365338872037339 0.0010279167761786713 0 -0.010780161343545466 0.0020297866166736475 0 -0.0097741745886301412 0.0018426381989646308 0 -0.010780161343545466 0.0020297866166736475 0 -0.0097741745886301412 0.0018426381989646308 0 -0.009927442425820103 0.0025231281775562804 0 -0.0096782486268634348 0.00091674647993430223 0 -0.010780161343545466 0.0020297866166736475 0 -0.011970196538133689 0.0019753300718427613 0 -0.010780161343545466 0.0020297866166736475 0 -0.011970196538133689 0.0019753300718427613 0 -0.01204568820998966 0.0022674023482217613 0 -0.010212249506809105 0.00090859805996850514 0 -0.010177079444374746 0.0011503483483247907 0 -0.01023623847866968 0.00111402418928222 0 -0.010177079444374746 0.0011503483483247907 0 -0.01023623847866968 0.00111402418928222 0 -0.010228357224552981 0.0011039903510225706 0 -0.010197226012042239 0.0010945316691397884 0 -0.01023623847866968 0.00111402418928222 0 -0.010228357224552981 0.0011039903510225706 0 -0.011970196538133689 0.0019753300718427613 0 -0.011978247991970965 0.0022275359737536373 0 -0.01204568820998966 0.0022674023482217613 0 -0.012231066018524717 0.0020557520195059911 0 -0.011978247991970965 0.0022275359737536373 0 -0.01204568820998966 0.0022674023482217613 0 -0.011192857851645565 0.0011741066736828036 0 -0.011743394475962829 0.00093674165657837668 0 -0.012231066018524717 0.0020557520195059911 0 -0.012194374068773297 0.002206756204782852 0 -0.01204568820998966 0.0022674023482217613 0 -0.0074512269150658322 0.0019939292614442592 0 -0.0077694563170820465 0.0021854490472099585 0 -0.0075733163456527088 0.0024757340274887286 0 -0.0074512269150658322 0.0019939292614442592 0 -0.0077525899640239638 0.0016861948708437684 0 -0.0077694563170820465 0.0021854490472099585 0 -0.0074512269150658322 0.0019939292614442592 0 -0.0072429480830502879 0.0022348425860912275 0 -0.0075733163456527088 0.0024757340274887286 0 -0.0070298749212136724 0.0018674827539915044 0 -0.0069115429533999932 0.002367297891278194 0 -0.0066679412020732168 0.0020656108173480107 0 -0.0072429480830502879 0.0022348425860912275 0 -0.0070298749212136724 0.0018674827539915044 0 -0.0069115429533999932 0.002367297891278194 0 -0.0074512269150658322 0.0019939292614442592 0 -0.0072429480830502879 0.0022348425860912275 0 -0.0070298749212136724 0.0018674827539915044 0 -0.0071846476469686364 0.0013433585656543881 0 -0.0070298749212136724 0.0018674827539915044 0 -0.0066363553254624808 0.0014490975405397294 0 -0.0070298749212136724 0.0018674827539915044 0 -0.0066363553254624808 0.0014490975405397294 0 -0.0066679412020732168 0.0020656108173480107 0 -0.0071846476469686364 0.0013433585656543881 0 -0.0070298749212136724 0.0018674827539915044 0 -0.0074095857620172815 0.0016654867603064407 0 -0.0071846476469686364 0.0013433585656543881 0 -0.0075624403275104746 0.0012999427757946988 0 -0.0074095857620172815 0.0016654867603064407 0 -0.0074512269150658322 0.0019939292614442592 0 -0.0070298749212136724 0.0018674827539915044 0 -0.0074095857620172815 0.0016654867603064407 0 -0.0074512269150658322 0.0019939292614442592 0 -0.0074095857620172815 0.0016654867603064407 0 -0.0077525899640239638 0.0016861948708437684 0 -0.0075624403275104746 0.0012999427757946988 0 -0.0078576182864489551 0.0014013453400238043 0 -0.0077525899640239638 0.0016861948708437684 0 -0.0075624403275104746 0.0012999427757946988 0 -0.0074095857620172815 0.0016654867603064407 0 -0.0077525899640239638 0.0016861948708437684 0 -0.0078576182864489551 0.0014013453400238043 0 -0.0077525899640239638 0.0016861948708437684 0 -0.0082592037925983981 0.0015070588986904252 0 -0.0077525899640239638 0.0016861948708437684 0 -0.0082592037925983981 0.0015070588986904252 0 -0.0080993163535549462 0.0020338892058000837 0 -0.0089793487582182589 0.0013638423645811481 0 -0.0097783038680966106 0.0018311428817681275 0 -0.0082592037925983981 0.0015070588986904252 0 -0.0086589697811790944 0.0020247913370685087 0 -0.0080993163535549462 0.0020338892058000837 0 -0.0097741745886301412 0.0018426381989646308 0 -0.0088413471661592923 0.0017409552625484014 0 -0.009927442425820103 0.0025231281775562804 0 -0.0095365338872037339 0.0010279167761786713 0 -0.0097741745886301412 0.0018426381989646308 0 -0.0088413471661592923 0.0017409552625484014 0 -0.0086589697811790944 0.0020247913370685087 0 -0.0080993163535549462 0.0020338892058000837 0 -0.00837688432388526 0.0023348822540238973 0 -0.0086817518640643059 0.0024457503407005251 0 -0.0086589697811790944 0.0020247913370685087 0 -0.00837688432388526 0.0023348822540238973 0 -0.0077694563170820465 0.0021854490472099585 0 -0.0080993163535549462 0.0020338892058000837 0 -0.0080485274466358045 0.0025382597147683874 0 -0.0077525899640239638 0.0016861948708437684 0 -0.0077694563170820465 0.0021854490472099585 0 -0.0080993163535549462 0.0020338892058000837 0 -0.0080993163535549462 0.0020338892058000837 0 -0.0080485274466358045 0.0025382597147683874 0 -0.00837688432388526 0.0023348822540238973 0 -0.0077694563170820465 0.0021854490472099585 0 -0.0080485274466358045 0.0025382597147683874 0 -0.0075733163456527088 0.0024757340274887286 0 -0.0080485274466358045 0.0025382597147683874 0 -0.0077504942278587962 0.002822274673664043 0 -0.0075733163456527088 0.0024757340274887286 0 -0.0080485274466358045 0.0025382597147683874 0 -0.00837688432388526 0.0023348822540238973 0 -0.0085236848102875507 0.0027450309394993176 0 -0.0086817518640643059 0.0024457503407005251 0 -0.00837688432388526 0.0023348822540238973 0 -0.0085236848102875507 0.0027450309394993176 0 -0.0080485274466358045 0.0025382597147683874 0 -0.0085236848102875507 0.0027450309394993176 0 -0.0081181122335710777 0.0030043467629187713 0 -0.0085236848102875507 0.0027450309394993176 0 -0.0081181122335710777 0.0030043467629187713 0 -0.0085205049073348756 0.0031772172017086367 0 -0.0081181122335710777 0.0030043467629187713 0 -0.0077504942278587962 0.002822274673664043 0 -0.0076034301910549986 0.0031916028690992682 0 -0.0080485274466358045 0.0025382597147683874 0 -0.0081181122335710777 0.0030043467629187713 0 -0.0077504942278587962 0.002822274673664043 0 -0.0077504942278587962 0.002822274673664043 0 -0.0073781621762823487 0.0028910752164903989 0 -0.0076034301910549986 0.0031916028690992682 0 -0.0075733163456527088 0.0024757340274887286 0 -0.0072402910458229134 0.0025407911545411331 0 -0.0073781621762823487 0.0028910752164903989 0 -0.0077504942278587962 0.002822274673664043 0 -0.0075733163456527088 0.0024757340274887286 0 -0.0073781621762823487 0.0028910752164903989 0 -0.0072429480830502879 0.0022348425860912275 0 -0.0075733163456527088 0.0024757340274887286 0 -0.0072402910458229134 0.0025407911545411331 0 -0.0069115429533999932 0.002367297891278194 0 -0.0069175862282117697 0.0026649825898415695 0 -0.0065524414571627946 0.002505630991799341 0 -0.0069115429533999932 0.002367297891278194 0 -0.0072402910458229134 0.0025407911545411331 0 -0.0069175862282117697 0.0026649825898415695 0 -0.0072429480830502879 0.0022348425860912275 0 -0.0069115429533999932 0.002367297891278194 0 -0.0072402910458229134 0.0025407911545411331 0 -0.0072402910458229134 0.0025407911545411331 0 -0.0069175862282117697 0.0026649825898415695 0 -0.0073781621762823487 0.0028910752164903989 0 -0.0073781621762823487 0.0028910752164903989 0 -0.0072357533259957332 0.0029430779057754175 0 -0.0076034301910549986 0.0031916028690992682 0 -0.0078399160931676599 0.0028661321164983526 0 -0.0081491284031816793 0.0029082983568453772 0 -0.0060567674021984493 0.0032690516418900093 0 -0.0049411778524677983 0.0033612077931855252 0 -0.0073781621762823487 0.0028910752164903989 0 -0.0072357533259957332 0.0029430779057754175 0 -0.0069882251176256642 0.0027932911500538576 0 -0.0069175862282117697 0.0026649825898415695 0 -0.0073781621762823487 0.0028910752164903989 0 -0.0065273935084974102 0.0030008680462951477 0 -0.0072357533259957332 0.0029430779057754175 0 -0.0073257814276192906 0.0032338343744552091 0 -0.0081652351161024643 0.0032043434987070042 0 -0.0072357533259957332 0.0029430779057754175 0 -0.0073257814276192906 0.0032338343744552091 0 -0.0069866729527614446 0.0031238239549772422 0 -0.0073257814276192906 0.0032338343744552091 0 -0.0075098917585985992 0.0034947637377475168 0 -0.0081652351161024643 0.0032043434987070042 0 -0.0073257814276192906 0.0032338343744552091 0 -0.0075098917585985992 0.0034947637377475168 0 -0.0068712386429275619 0.0034313749682971756 0 -0.0075098917585985992 0.0034947637377475168 0 -0.0079663402516164869 0.003533590857364175 0 -0.0076883829355058556 0.0037452684195703181 0 -0.0081652351161024643 0.0032043434987070042 0 -0.0079663402516164869 0.003533590857364175 0 -0.0083600537720552835 0.0037563099697250609 0 -0.0075098917585985992 0.0034947637377475168 0 -0.0081652351161024643 0.0032043434987070042 0 -0.0079663402516164869 0.003533590857364175 0 -0.0079663402516164869 0.003533590857364175 0 -0.0083600537720552835 0.0037563099697250609 0 -0.0076883829355058556 0.0037452684195703181 0 -0.0083600537720552835 0.0037563099697250609 0 -0.0088965609401597517 0.0035641747551923984 0 -0.008645315863700067 0.0035987491227666541 0 -0.0080478530939949444 0.0036865743849142118 0 -0.0078023968912331069 0.003710311837407808 0 -0.0083600537720552835 0.0037563099697250609 0 -0.0083724140530471881 0.0036729333301832 0 -0.008645315863700067 0.0035987491227666541 0 -0.0083600537720552835 0.0037563099697250609 0 -0.0073874375660954502 0.0041563924188526679 0 -0.0076883829355058556 0.0037452684195703181 0 -0.0075098917585985992 0.0034947637377475168 0 -0.0076883829355058556 0.0037452684195703181 0 -0.0072245307056519594 0.0037872717650748663 0 -0.0073874375660954502 0.0041563924188526679 0 -0.0076883829355058556 0.0037452684195703181 0 -0.0072245307056519594 0.0037872717650748663 0 -0.010409612120256208 0.0029127396611021727 0 -0.0088756964356036718 0.0029223678592343776 0 -0.0088149435745271607 0.0036339565461210358 0 -0.0085205049073348756 0.0031772172017086367 0 -0.008209766081009413 0.0034263442686966379 0 -0.0087532381355907591 0.0035631794387682388 0 -0.0085640914434539171 0.0034707060286753603 0 -0.0086429045044483319 0.0035861373220367442 0 -0.0081181122335710777 0.0030043467629187713 0 -0.0085205049073348756 0.0031772172017086367 0 -0.008209766081009413 0.0034263442686966379 0 -0.0081181122335710777 0.0030043467629187713 0 -0.0076034301910549986 0.0031916028690992682 0 -0.008209766081009413 0.0034263442686966379 0 -0.0081491284031816793 0.0029082983568453772 0 -0.0088756964356036718 0.0029223678592343776 0 -0.0081652351161024643 0.0032043434987070042 0 -0.0083600537720552835 0.0037563099697250609 0 -0.0085640914434539171 0.0034707060286753603 0 -0.0083600537720552835 0.0037563099697250609 0 -0.0085253696894024983 0.0036348030054906867 0 -0.0083724140530471881 0.0036729333301832 0 -0.0083600537720552835 0.0037563099697250609 0 -0.0085640914434539171 0.0034707060286753603 0 -0.0085253696894024983 0.0036348030054906867 0 -0.0087333124029536427 0.0036926773229397792 0 -0.0085253696894024983 0.0036348030054906867 0 -0.0083724140530471881 0.0036729333301832 0 -0.0087333124029536427 0.0036926773229397792 0 -0.0085253696894024983 0.0036348030054906867 0 -0.0086429045044483319 0.0035861373220367442 0 -0.0085640914434539171 0.0034707060286753603 0 -0.0085253696894024983 0.0036348030054906867 0 -0.0086429045044483319 0.0035861373220367442 0 -0.010173574095148772 0.0030972839659087576 0 -0.0099240885643125804 0.0033490042943774057 0 -0.01003517369151424 0.0036780530997971355 0 -0.010173574095148772 0.0030972839659087576 0 -0.0099240885643125804 0.0033490042943774057 0 -0.0095874674084823822 0.0032265743332163307 0 -0.010731328638515149 0.0029714804167778586 0 -0.0092976923624445325 0.0033422042241096294 0 -0.0099240885643125804 0.0033490042943774057 0 -0.0095874674084823822 0.0032265743332163307 0 -0.0097110462727542524 0.0035693119370843302 0 -0.0095874674084823822 0.0032265743332163307 0 -0.0097110462727542524 0.0035693119370843302 0 -0.0093588099193621967 0.0036377709202539848 0 -0.0097110462727542524 0.0035693119370843302 0 -0.0093588099193621967 0.0036377709202539848 0 -0.0096336053303381682 0.0039233873412122073 0 -0.0097110462727542524 0.0035693119370843302 0 -0.01003517369151424 0.0036780530997971355 0 -0.0096336053303381682 0.0039233873412122073 0 -0.0099240885643125804 0.0033490042943774057 0 -0.0097110462727542524 0.0035693119370843302 0 -0.01003517369151424 0.0036780530997971355 0 -0.0088899734008937407 0.0034366633535851719 0 -0.008843487173878074 0.0034887020707084762 0 -0.008875645463403024 0.003595091134625617 0 -0.0088965609401597517 0.0035641747551923984 0 -0.0088899734008937407 0.0034366633535851719 0 -0.008843487173878074 0.0034887020707084762 0 -0.0088965609401597517 0.0035641747551923984 0 -0.0088899734008937407 0.0034366633535851719 0 -0.008645315863700067 0.0035987491227666541 0 -0.0083724140530471881 0.0036729333301832 0 -0.0088899734008937407 0.0034366633535851719 0 -0.008645315863700067 0.0035987491227666541 0 -0.0092976923624445325 0.0033422042241096294 0 -0.0090492008989645802 0.00340374807835854 0 -0.0095874674084823822 0.0032265743332163307 0 -0.0088899734008937407 0.0034366633535851719 0 -0.0093588099193621967 0.0036377709202539848 0 -0.0088899734008937407 0.0034366633535851719 0 -0.0093588099193621967 0.0036377709202539848 0 -0.0090600823404049496 0.0036714154798364188 0 -0.0093588099193621967 0.0036377709202539848 0 -0.0090600823404049496 0.0036714154798364188 0 -0.0092519010667219456 0.0039565465036217563 0 -0.0088899734008937407 0.0034366633535851719 0 -0.0090600823404049496 0.0036714154798364188 0 -0.008875645463403024 0.003595091134625617 0 -0.0090600823404049496 0.0036714154798364188 0 -0.0089658378257980627 0.0038190635701583491 0 -0.008875645463403024 0.003595091134625617 0 -0.0089658378257980627 0.0038190635701583491 0 -0.0092519010667219456 0.0039565465036217563 0 -0.0089772191399907272 0.004112199128249238 0 -0.0090600823404049496 0.0036714154798364188 0 -0.0089658378257980627 0.0038190635701583491 0 -0.0092519010667219456 0.0039565465036217563 0 -0.0092519010667219456 0.0039565465036217563 0 -0.0094327013545288454 0.0041853821679337152 0 -0.0096336053303381682 0.0039233873412122073 0 -0.0093588099193621967 0.0036377709202539848 0 -0.0092519010667219456 0.0039565465036217563 0 -0.0096336053303381682 0.0039233873412122073 0 -0.0092519010667219456 0.0039565465036217563 0 -0.0094327013545288454 0.0041853821679337152 0 -0.0092472902440325234 0.0042735633535582566 0 -0.0094327013545288454 0.0041853821679337152 0 -0.0092472902440325234 0.0042735633535582566 0 -0.0095348036267096405 0.0043787519701324112 0 -0.0092472902440325234 0.0042735633535582566 0 -0.0089772191399907272 0.004112199128249238 0 -0.0090120005463025059 0.0045115950231517559 0 -0.0092519010667219456 0.0039565465036217563 0 -0.0092472902440325234 0.0042735633535582566 0 -0.0089772191399907272 0.004112199128249238 0 -0.0092472902440325234 0.0042735633535582566 0 -0.0090120005463025059 0.0045115950231517559 0 -0.0093567428692280328 0.0045339046079268747 0 -0.0092472902440325234 0.0042735633535582566 0 -0.0093567428692280328 0.0045339046079268747 0 -0.0095348036267096405 0.0043787519701324112 0 -0.0093567428692280328 0.0045339046079268747 0 -0.0095818264728460383 0.0046482156255207288 0 -0.0095348036267096405 0.0043787519701324112 0 -0.0093567428692280328 0.0045339046079268747 0 -0.0094059653528149045 0.0048569496498383621 0 -0.0095818264728460383 0.0046482156255207288 0 -0.0094059653528149045 0.0048569496498383621 0 -0.0096608070614282379 0.0048476617979480042 0 -0.0095818264728460383 0.0046482156255207288 0 -0.02252074868129577 -0.0015153573789985786 0 -0.022246160398720578 -0.0017735664132596703 0 -0.022645399117546223 -0.0018153333698169968 0 -0.0090120005463025059 0.0045115950231517559 0 -0.0093567428692280328 0.0045339046079268747 0 -0.0094059653528149045 0.0048569496498383621 0 -0.015903977209381623 0.0014614018125652659 0 -0.016311693890105047 0.0016477858819656122 0 -0.013029955847723497 0.0057724289455423766 0 -0.012758964569920766 0.005712012133381481 0 -0.012931969575151168 0.0054807172306602795 0 -0.013501072039439028 0.0055864564833428216 0 -0.01328314773884033 0.0059548448412230651 0 -0.013707720233056234 0.0060007832586529515 0 -0.013029955847723497 0.0057724289455423766 0 -0.013501072039439028 0.0055864564833428216 0 -0.01328314773884033 0.0059548448412230651 0 -0.013029955847723497 0.0057724289455423766 0 -0.012931969575151168 0.0054807172306602795 0 -0.013501072039439028 0.0055864564833428216 0 -0.01328314773884033 0.0059548448412230651 0 -0.013707720233056234 0.0060007832586529515 0 -0.013300701142296818 0.0063356590994300323 0 -0.013029955847723497 0.0057724289455423766 0 -0.012758964569920766 0.005712012133381481 0 -0.01293654027153672 0.0061250911765204519 0 -0.01328314773884033 0.0059548448412230651 0 -0.01293654027153672 0.0061250911765204519 0 -0.013300701142296818 0.0063356590994300323 0 -0.013029955847723497 0.0057724289455423766 0 -0.01328314773884033 0.0059548448412230651 0 -0.01293654027153672 0.0061250911765204519 0 -0.0098479020485677474 0.0046984973730264199 0 -0.0096608070614282379 0.0048476617979480042 0 -0.0095818264728460383 0.0046482156255207288 0 -0.0098479020485677474 0.0046984973730264199 0 -0.0095818264728460383 0.0046482156255207288 0 -0.0096861215109250338 0.0045157822479137523 0 -0.0095818264728460383 0.0046482156255207288 0 -0.0096861215109250338 0.0045157822479137523 0 -0.0095348036267096405 0.0043787519701324112 0 -0.0098479020485677474 0.0046984973730264199 0 -0.0096861215109250338 0.0045157822479137523 0 -0.0097435135607477092 0.0043832312061070277 0 -0.0096861215109250338 0.0045157822479137523 0 -0.0095348036267096405 0.0043787519701324112 0 -0.0097435135607477092 0.0043832312061070277 0 -0.0098479020485677474 0.0046984973730264199 0 -0.0097435135607477092 0.0043832312061070277 0 -0.0099161999312321596 0.0042086467368355855 0 -0.013883542576581651 0.0050855663759341108 0 -0.012278343523591452 0.0043601670421639016 0 -0.012931969575151168 0.0054807172306602795 0 -0.012662875139147265 0.0043888895136286491 0 -0.01326678967064234 0.0044438522166625697 0 -0.013221734813210493 0.0049194338935362198 0 -0.013614963567967564 0.0043660870018317234 0 -0.012758964569920766 0.005712012133381481 0 -0.012931969575151168 0.0054807172306602795 0 -0.012662875139147265 0.0043888895136286491 0 -0.012931969575151168 0.0054807172306602795 0 -0.013501072039439028 0.0055864564833428216 0 -0.013932825783225626 0.0043809350077952825 0 -0.0094327013545288454 0.0041853821679337152 0 -0.0096598687196054033 0.0042070409736395609 0 -0.0096336053303381682 0.0039233873412122073 0 -0.0099161999312321596 0.0042086467368355855 0 -0.0096598687196054033 0.0042070409736395609 0 -0.0096336053303381682 0.0039233873412122073 0 -0.0095348036267096405 0.0043787519701324112 0 -0.0097435135607477092 0.0043832312061070277 0 -0.0096598687196054033 0.0042070409736395609 0 -0.0094327013545288454 0.0041853821679337152 0 -0.0095348036267096405 0.0043787519701324112 0 -0.0096598687196054033 0.0042070409736395609 0 -0.0097435135607477092 0.0043832312061070277 0 -0.0099161999312321596 0.0042086467368355855 0 -0.0096598687196054033 0.0042070409736395609 0 -0.012663088375158924 0.0030373798025830289 0 -0.012662875139147265 0.0043888895136286491 0 -0.013223612194460069 0.0036913006972130536 0 -0.011498946120378519 0.003418151400603284 0 -0.012278343523591452 0.0043601670421639016 0 -0.01003517369151424 0.0036780530997971355 0 -0.0099161999312321596 0.0042086467368355855 0 -0.0096336053303381682 0.0039233873412122073 0 -0.013223612194460069 0.0036913006972130536 0 -0.013935476901426418 0.0034688678335870766 0 -0.01326678967064234 0.0044438522166625697 0 -0.014273996852556229 0.0034384347322439384 0 -0.013614963567967564 0.0043660870018317234 0 -0.014627740142025529 0.003346151965865931 0 -0.014670767333448112 0.0043208912012354722 0 -0.015372465500584237 0.0041072091779563611 0 -0.014670767333448112 0.0043208912012354722 0 -0.015372465500584237 0.0041072091779563611 0 -0.014995730007310375 0.0049029338355793062 0 -0.014627740142025529 0.003346151965865931 0 -0.014670767333448112 0.0043208912012354722 0 -0.013932825783225626 0.0043809350077952825 0 -0.012662875139147265 0.0043888895136286491 0 -0.013223612194460069 0.0036913006972130536 0 -0.01326678967064234 0.0044438522166625697 0 -0.014670767333448112 0.0043208912012354722 0 -0.013932825783225626 0.0043809350077952825 0 -0.014433810237008824 0.0049059471666421696 0 -0.017124169426137915 0.0026728951069527112 0 -0.015646960637227123 0.0031682071739752363 0 -0.016567089444660038 0.0038866611744743339 0 -0.015646960637227123 0.0031682071739752363 0 -0.016567089444660038 0.0038866611744743339 0 -0.015372465500584237 0.0041072091779563611 0 -0.015646960637227123 0.0031682071739752363 0 -0.014627740142025529 0.003346151965865931 0 -0.015372465500584237 0.0041072091779563611 0 -0.015372465500584237 0.0041072091779563611 0 -0.016027483320840304 0.0051248116688252486 0 -0.014995730007310375 0.0049029338355793062 0 -0.016567089444660038 0.0038866611744743339 0 -0.016027483320840304 0.0051248116688252486 0 -0.017170314665324791 0.0049826871379667053 0 -0.016567089444660038 0.0038866611744743339 0 -0.015372465500584237 0.0041072091779563611 0 -0.016027483320840304 0.0051248116688252486 0 -0.016027483320840304 0.0051248116688252486 0 -0.017170314665324791 0.0049826871379667053 0 -0.016950838325517983 0.0062507840056967622 0 -0.016027483320840304 0.0051248116688252486 0 -0.015269805195856811 0.0055656901429846049 0 -0.014995730007310375 0.0049029338355793062 0 -0.01576503057017082 0.0060896088371187517 0 -0.015269805195856811 0.0055656901429846049 0 -0.014993743506600434 0.0060647841109786691 0 -0.01576503057017082 0.0060896088371187517 0 -0.014993743506600434 0.0060647841109786691 0 -0.01543597802736156 0.0065937951190059426 0 -0.016027483320840304 0.0051248116688252486 0 -0.01576503057017082 0.0060896088371187517 0 -0.015269805195856811 0.0055656901429846049 0 -0.016027483320840304 0.0051248116688252486 0 -0.01576503057017082 0.0060896088371187517 0 -0.016950838325517983 0.0062507840056967622 0 -0.013501072039439028 0.0055864564833428216 0 -0.013932825783225626 0.0043809350077952825 0 -0.014052311350162312 0.0054058430202757598 0 -0.013932825783225626 0.0043809350077952825 0 -0.014052311350162312 0.0054058430202757598 0 -0.014433810237008824 0.0049059471666421696 0 -0.014052311350162312 0.0054058430202757598 0 -0.014433810237008824 0.0049059471666421696 0 -0.014631327309349814 0.0055606511294133141 0 -0.014670767333448112 0.0043208912012354722 0 -0.014433810237008824 0.0049059471666421696 0 -0.014995730007310375 0.0049029338355793062 0 -0.015269805195856811 0.0055656901429846049 0 -0.014995730007310375 0.0049029338355793062 0 -0.014631327309349814 0.0055606511294133141 0 -0.014433810237008824 0.0049059471666421696 0 -0.014995730007310375 0.0049029338355793062 0 -0.014631327309349814 0.0055606511294133141 0 -0.014631327309349814 0.0055606511294133141 0 -0.014993743506600434 0.0060647841109786691 0 -0.014241472287432494 0.0059744041967833231 0 -0.015269805195856811 0.0055656901429846049 0 -0.014631327309349814 0.0055606511294133141 0 -0.014993743506600434 0.0060647841109786691 0 -0.014993743506600434 0.0060647841109786691 0 -0.014241472287432494 0.0059744041967833231 0 -0.014376900451733024 0.006484567981841014 0 -0.014241472287432494 0.0059744041967833231 0 -0.013969530063769536 0.006357610986540559 0 -0.014376900451733024 0.006484567981841014 0 -0.014052311350162312 0.0054058430202757598 0 -0.014631327309349814 0.0055606511294133141 0 -0.014241472287432494 0.0059744041967833231 0 -0.014052311350162312 0.0054058430202757598 0 -0.014241472287432494 0.0059744041967833231 0 -0.013707720233056234 0.0060007832586529515 0 -0.013501072039439028 0.0055864564833428216 0 -0.014052311350162312 0.0054058430202757598 0 -0.013707720233056234 0.0060007832586529515 0 -0.014241472287432494 0.0059744041967833231 0 -0.013707720233056234 0.0060007832586529515 0 -0.013969530063769536 0.006357610986540559 0 -0.013707720233056234 0.0060007832586529515 0 -0.013630530807782469 0.006461304893003509 0 -0.013969530063769536 0.006357610986540559 0 -0.013630530807782469 0.006461304893003509 0 -0.013969530063769536 0.006357610986540559 0 -0.013898053130782927 0.006855683984159624 0 -0.013630530807782469 0.006461304893003509 0 -0.013898053130782927 0.006855683984159624 0 -0.013397732847027851 0.0068874980292557893 0 -0.013898053130782927 0.006855683984159624 0 -0.014288609613135408 0.0069679261476052632 0 -0.014376900451733024 0.006484567981841014 0 -0.013969530063769536 0.006357610986540559 0 -0.013898053130782927 0.006855683984159624 0 -0.014376900451733024 0.006484567981841014 0 -0.017716828007213734 0.0065880105923281735 0 -0.018088033900208279 0.0066029222805246831 0 -0.014993743506600434 0.0060647841109786691 0 -0.01543597802736156 0.0065937951190059426 0 -0.015111205648913868 0.0069122386286203773 0 -0.014993743506600434 0.0060647841109786691 0 -0.014376900451733024 0.006484567981841014 0 -0.014780425852592195 0.0069885817098009756 0 -0.017841420973961346 0.0067357206022858164 0 -0.018088033900208279 0.0066029222805246831 0 -0.014288609613135408 0.0069679261476052632 0 -0.014376900451733024 0.006484567981841014 0 -0.014780425852592195 0.0069885817098009756 0 -0.01543597802736156 0.0065937951190059426 0 -0.015485234892733802 0.0067203415833708988 0 -0.015742328026505836 0.0071029819447312598 0 -0.015485234892733802 0.0067203415833708988 0 -0.015742328026505836 0.0071029819447312598 0 -0.015565925321736604 0.0074074714149205021 0 -0.019760452351084076 0.0058308561464820727 0 -0.020273648643177839 0.0053783767684539886 0 -0.01990069981334134 0.0049952720806526385 0 -0.018088033900208279 0.0066029222805246831 0 -0.019757632395844545 0.0059737636519354587 0 -0.014100025644247534 0.0075345369488134207 0 -0.013458913169430294 0.0080829931167111565 0 -0.013448927638991897 0.0074677718331209939 0 -0.018552943484662889 0.0057584822904965353 0 -0.020341174084330838 0.0038725591935063926 0 -0.013898053130782927 0.006855683984159624 0 -0.014100025644247534 0.0075345369488134207 0 -0.013448927638991897 0.0074677718331209939 0 -0.014288609613135408 0.0069679261476052632 0 -0.014780425852592195 0.0069885817098009756 0 -0.014100025644247534 0.0075345369488134207 0 -0.018088033900208279 0.0066029222805246831 0 -0.018552943484662889 0.0057584822904965353 0 -0.013898053130782927 0.006855683984159624 0 -0.014288609613135408 0.0069679261476052632 0 -0.014100025644247534 0.0075345369488134207 0 -0.016881111777604839 0.006435302251069178 0 -0.017907820282800524 0.0057918401107033314 0 -0.01576503057017082 0.0060896088371187517 0 -0.015928188767447411 0.0067600101566569733 0 -0.016950838325517983 0.0062507840056967622 0 -0.017436177527889545 0.0060539478761895355 0 -0.018082927137394865 0.0067526599989871311 0 -0.018812099098503395 0.0053331638099429896 0 -0.01576503057017082 0.0060896088371187517 0 -0.01543597802736156 0.0065937951190059426 0 -0.015928188767447411 0.0067600101566569733 0 -0.015742328026505836 0.0071029819447312598 0 -0.017436177527889545 0.0060539478761895355 0 -0.01714101206292111 0.0072232905564963935 0 -0.01543597802736156 0.0065937951190059426 0 -0.015742328026505836 0.0071029819447312598 0 -0.015928188767447411 0.0067600101566569733 0 -0.016348064382158651 0.0067907284659734805 0 -0.016881111777604839 0.006435302251069178 0 -0.017436177527889545 0.0060539478761895355 0 -0.01714101206292111 0.0072232905564963935 0 -0.018082927137394865 0.0067526599989871311 0 -0.018082927137394865 0.0067526599989871311 0 -0.018271129167024589 0.0078982937498298916 0 -0.01902623362783273 0.0068198581765198749 0 -0.01714101206292111 0.0072232905564963935 0 -0.018271129167024589 0.0078982937498298916 0 -0.017144277694995741 0.0082327223485804679 0 -0.01714101206292111 0.0072232905564963935 0 -0.018082927137394865 0.0067526599989871311 0 -0.018271129167024589 0.0078982937498298916 0 -0.01714101206292111 0.0072232905564963935 0 -0.017144277694995741 0.0082327223485804679 0 -0.016338025850635179 0.0077016954647115519 0 -0.015742328026505836 0.0071029819447312598 0 -0.01714101206292111 0.0072232905564963935 0 -0.016338025850635179 0.0077016954647115519 0 -0.017144277694995741 0.0082327223485804679 0 -0.016338025850635179 0.0077016954647115519 0 -0.016269860880551084 0.0083387884024078568 0 -0.017144277694995741 0.0082327223485804679 0 -0.016967778923069127 0.0091135083558824999 0 -0.018040992299057222 0.0090155418214809477 0 -0.017144277694995741 0.0082327223485804679 0 -0.016967778923069127 0.0091135083558824999 0 -0.016269860880551084 0.0083387884024078568 0 -0.018271129167024589 0.0078982937498298916 0 -0.018040992299057222 0.0090155418214809477 0 -0.018856465467199632 0.0088945122712217866 0 -0.018271129167024589 0.0078982937498298916 0 -0.017144277694995741 0.0082327223485804679 0 -0.018040992299057222 0.0090155418214809477 0 -0.020245528741270689 0.0048700025403834541 0 -0.01990069981334134 0.0049952720806526385 0 -0.020038623062388392 0.0041810752767073162 0 -0.022366122288025231 0.0043736281730252253 0 -0.020341174084330838 0.0038725591935063926 0 -0.020245528741270689 0.0048700025403834541 0 -0.020038623062388392 0.0041810752767073162 0 -0.02076972712879897 0.0049318337486613977 0 -0.020273648643177839 0.0053783767684539886 0 -0.020245528741270689 0.0048700025403834541 0 -0.02076972712879897 0.0049318337486613977 0 -0.020273648643177839 0.0053783767684539886 0 -0.020245528741270689 0.0048700025403834541 0 -0.01990069981334134 0.0049952720806526385 0 -0.019757632395844545 0.0059737636519354587 0 -0.022366122288025231 0.0043736281730252253 0 -0.015565925321736604 0.0074074714149205021 0 -0.016269860880551084 0.0083387884024078568 0 -0.015429761636321865 0.0088073584331015906 0 -0.015742328026505836 0.0071029819447312598 0 -0.015565925321736604 0.0074074714149205021 0 -0.016338025850635179 0.0077016954647115519 0 -0.015565925321736604 0.0074074714149205021 0 -0.016338025850635179 0.0077016954647115519 0 -0.016269860880551084 0.0083387884024078568 0 -0.016967778923069127 0.0091135083558824999 0 -0.016269860880551084 0.0083387884024078568 0 -0.015429761636321865 0.0088073584331015906 0 -0.026335042554511599 0.0017518154604265208 0 -0.0265802772396635 0.001736343382101791 0 -0.02654150449869766 0.0019502585139578889 0 -0.026335042554511599 0.0017518154604265208 0 -0.0265802772396635 0.001736343382101791 0 -0.026472086443770734 0.0016213824282187766 0 -0.0265802772396635 0.001736343382101791 0 -0.02654150449869766 0.0019502585139578889 0 -0.026689720582978891 0.0018019721302062429 0 -0.0265802772396635 0.001736343382101791 0 -0.026700648252852614 0.0016742244837072207 0 -0.026684097419808095 0.0015990722792195774 0 -0.0265802772396635 0.001736343382101791 0 -0.026689720582978891 0.0018019721302062429 0 -0.026700648252852614 0.0016742244837072207 0 -0.020341174084330838 0.0038725591935063926 0 -0.022384511955911592 0.0021413050242867246 0 -0.02018520409276198 0.002799929249323515 0 -0.020724632161794973 0.0029661485695091088 0 -0.020777916941639923 0.0022710002108210234 0 -0.025181522055651107 0.0011475714527421283 0 -0.025521678503461338 0.0010834118380876521 0 -0.025036566795454244 0.0016633772066199845 0 -0.020724632161794973 0.0029661485695091088 0 -0.02118139907622707 0.0026122076428384119 0 -0.02097710717736103 0.00346761516710443 0 -0.020724632161794973 0.0029661485695091088 0 -0.02118139907622707 0.0026122076428384119 0 -0.020777916941639923 0.0022710002108210234 0 -0.022384511955911592 0.0021413050242867246 0 -0.023326632101299004 0.0010987653304972572 0 -0.02140930777721229 0.0017570643894232528 0 -0.023326632101299004 0.0010987653304972572 0 -0.02118139907622707 0.0026122076428384119 0 -0.020777916941639923 0.0022710002108210234 0 -0.021389159113590194 0.0017343504990680739 0 -0.026689720582978891 0.0018019721302062429 0 -0.026700648252852614 0.0016742244837072207 0 -0.026760859159988694 0.0016719697901243981 0 -0.025313737444380684 0.00068027769038073876 0 -0.025500632309192479 0.00064970282804984424 0 -0.025596502203013675 0.00079658403395157346 0 -0.025313737444380684 0.00068027769038073876 0 -0.025596502203013675 0.00079658403395157346 0 -0.025521678503461338 0.0010834118380876521 0 -0.025596502203013675 0.00079658403395157346 0 -0.025854781267784045 0.0010228678994399149 0 -0.025644017014599764 0.00044232957746505189 0 -0.025181522055651107 0.0011475714527421283 0 -0.025313737444380684 0.00068027769038073876 0 -0.025521678503461338 0.0010834118380876521 0 -0.025500632309192479 0.00064970282804984424 0 -0.025596502203013675 0.00079658403395157346 0 -0.025644017014599764 0.00044232957746505189 0 -0.025596502203013675 0.00079658403395157346 0 -0.025854781267784045 0.0010228678994399149 0 -0.025521678503461338 0.0010834118380876521 0 -0.025700827541682757 0.00092566087617853665 0 -0.025631139913062245 0.00083620346573238342 0 -0.025985101095590758 0.00086064024631891478 0 -0.025854781267784045 0.0010228678994399149 0 -0.026021905123448291 0.00076351428995945149 0 -0.026027119924306993 0.00084281693546102063 0 -0.025985101095590758 0.00086064024631891478 0 -0.026028594952397434 0.00095419079603402824 0 -0.025985101095590758 0.00086064024631891478 0 -0.026028594952397434 0.00095419079603402824 0 -0.025854781267784045 0.0010228678994399149 0 -0.026028594952397434 0.00095419079603402824 0 -0.025784416027750206 0.0012694460665927932 0 -0.0262177318536519 0.00096464721941970702 0 -0.026028594952397434 0.00095419079603402824 0 -0.025854781267784045 0.0010228678994399149 0 -0.025784416027750206 0.0012694460665927932 0 -0.023633837919489788 0.00016069823513962281 0 -0.025452630868037472 -0.00048778721821815009 0 -0.025784416027750206 0.0012694460665927932 0 -0.025521678503461338 0.0010834118380876521 0 -0.025036566795454244 0.0016633772066199845 0 -0.025854781267784045 0.0010228678994399149 0 -0.025784416027750206 0.0012694460665927932 0 -0.025521678503461338 0.0010834118380876521 0 -0.022380281801930222 -0.0022782799724410125 0 -0.022210743015585108 -0.0020299392398371355 0 -0.021964648465500225 -0.0020589337075610382 0 -0.023633837919489788 0.00016069823513962281 0 -0.018841741197062983 0.0026767527463616818 0 -0.022380281801930222 -0.0022782799724410125 0 -0.022505044693725718 -0.0020214302428602643 0 -0.022672253762756073 -0.0021920012224296878 0 -0.022380281801930222 -0.0022782799724410125 0 -0.022210743015585108 -0.0020299392398371355 0 -0.022505044693725718 -0.0020214302428602643 0 -0.022246160398720578 -0.0017735664132596703 0 -0.022505044693725718 -0.0020214302428602643 0 -0.022645399117546223 -0.0018153333698169968 0 -0.016311693890105047 0.0016477858819656122 0 -0.018123486270768492 0.0029890789156377827 0 -0.022246160398720578 -0.0017735664132596703 0 -0.022210743015585108 -0.0020299392398371355 0 -0.022505044693725718 -0.0020214302428602643 0 -0.022246160398720578 -0.0017735664132596703 0 -0.022210743015585108 -0.0020299392398371355 0 -0.021956417184656882 -0.0020209510089835118 0 -0.0098479020485677474 0.0046984973730264199 0 -0.0096608070614282379 0.0048476617979480042 0 -0.0098046609334547247 0.0051872157524059988 0 -0.012758964569920766 0.005712012133381481 0 -0.01293654027153672 0.0061250911765204519 0 -0.01254890951761788 0.0071944738204840365 0 -0.013883542576581651 0.0050855663759341108 0 -0.018123486270768492 0.0029890789156377827 0 -0.0094059653528149045 0.0048569496498383621 0 -0.0096608070614282379 0.0048476617979480042 0 -0.0098046609334547247 0.0051872157524059988 0 -0.01293654027153672 0.0061250911765204519 0 -0.012974581139588692 0.0065110347647310794 0 -0.01254890951761788 0.0071944738204840365 0 -0.01293654027153672 0.0061250911765204519 0 -0.012974581139588692 0.0065110347647310794 0 -0.013300701142296818 0.0063356590994300323 0 -0.012974581139588692 0.0065110347647310794 0 -0.013300701142296818 0.0063356590994300323 0 -0.013210833789670041 0.0066044447056411541 0 -0.013630530807782469 0.006461304893003509 0 -0.013210833789670041 0.0066044447056411541 0 -0.013397732847027851 0.0068874980292557893 0 -0.013707720233056234 0.0060007832586529515 0 -0.013630530807782469 0.006461304893003509 0 -0.013300701142296818 0.0063356590994300323 0 -0.013630530807782469 0.006461304893003509 0 -0.013300701142296818 0.0063356590994300323 0 -0.013210833789670041 0.0066044447056411541 0 -0.012974581139588692 0.0065110347647310794 0 -0.013020873790140953 0.0068602470493204781 0 -0.01254890951761788 0.0071944738204840365 0 -0.013210833789670041 0.0066044447056411541 0 -0.013397732847027851 0.0068874980292557893 0 -0.013020873790140953 0.0068602470493204781 0 -0.012974581139588692 0.0065110347647310794 0 -0.013210833789670041 0.0066044447056411541 0 -0.013020873790140953 0.0068602470493204781 0 -0.013397732847027851 0.0068874980292557893 0 -0.013159589591874256 0.007026996356035764 0 -0.013020873790140953 0.0068602470493204781 0 -0.013159589591874256 0.007026996356035764 0 -0.013020873790140953 0.0068602470493204781 0 -0.01290973167808853 0.0071230154790396525 0 -0.02018520409276198 0.002799929249323515 0 -0.020724632161794973 0.0029661485695091088 0 -0.020887365001461357 0.0035133374081760958 0 -0.01290973167808853 0.0071230154790396525 0 -0.013448927638991897 0.0074677718331209939 0 -0.012632363442164479 0.0072646933618692733 0 -0.020341174084330838 0.0038725591935063926 0 -0.018367334980614783 0.0030223064858832306 0 -0.013159589591874256 0.007026996356035764 0 -0.01290973167808853 0.0071230154790396525 0 -0.013448927638991897 0.0074677718331209939 0 -0.013458913169430294 0.0080829931167111565 0 -0.013448927638991897 0.0074677718331209939 0 -0.012632363442164479 0.0072646933618692733 0 -0.013898053130782927 0.006855683984159624 0 -0.013397732847027851 0.0068874980292557893 0 -0.013448927638991897 0.0074677718331209939 0 -0.013397732847027851 0.0068874980292557893 0 -0.013159589591874256 0.007026996356035764 0 -0.013448927638991897 0.0074677718331209939 0 -0.020724632161794973 0.0029661485695091088 0 -0.02097710717736103 0.00346761516710443 0 -0.020887365001461357 0.0035133374081760958 0 -0.022210743015585108 -0.0020299392398371355 0 -0.021956417184656882 -0.0020209510089835118 0 -0.021964648465500225 -0.0020589337075610382 0 -0.02140930777721229 0.0017570643894232528 0 -0.018841741197062983 0.0026767527463616818 0 -0.013020873790140953 0.0068602470493204781 0 -0.01290973167808853 0.0071230154790396525 0 -0.01254890951761788 0.0071944738204840365 0 -0.018123486270768492 0.0029890789156377827 0 -0.018367334980614783 0.0030223064858832306 0 -0.0179846356107899 0.0032395094217050253 0 -0.018367334980614783 0.0030223064858832306 0 -0.01290973167808853 0.0071230154790396525 0 -0.01254890951761788 0.0071944738204840365 0 -0.012624994665231535 0.0072674162614991163 0 -0.018123486270768492 0.0029890789156377827 0 -0.018841741197062983 0.0026767527463616818 0 -0.017460472182202702 0.0025684371006414672 0 -0.016848224388066439 0.0054000611513003293 0 -0.019117013275447875 0.0042425559456361894 0 -0.018841741197062983 0.0026767527463616818 0 -0.018367334980614783 0.0030223064858832306 0 -0.024016584247094058 0.0047726001820761234 0 -0.024152605553258114 0.0053702329511166455 0 -0.023924444831001923 0.0053421126564807669 0 -0.023924444831001923 0.0053421126564807669 0 -0.023427841944935968 0.005134147823176372 0 -0.023942619358258036 0.0056856075699230294 0 -0.024016584247094058 0.0047726001820761234 0 -0.023924444831001923 0.0053421126564807669 0 -0.023427841944935968 0.005134147823176372 0 -0.024152605553258114 0.0053702329511166455 0 -0.023924444831001923 0.0053421126564807669 0 -0.024094132218807771 0.005599124746328025 0 -0.022955338962870532 0.0043332432242217458 0 -0.02278725920558405 0.0038002239450504916 0 -0.023427841944935968 0.005134147823176372 0 -0.023471748568736368 0.0040103961301294015 0 -0.022670720524943802 0.0041030008425003602 0 -0.023427841944935968 0.005134147823176372 0 -0.023261525976629508 0.0040819722670106919 0 -0.022714143516628493 0.0049067890101301831 0 -0.024016584247094058 0.0047726001820761234 0 -0.023427841944935968 0.005134147823176372 0 -0.023471748568736368 0.0040103961301294015 0 -0.023471748568736368 0.0040103961301294015 0 -0.023579033131290249 0.0030609126706520082 0 -0.022134825105504845 0.0029715497119273716 0 -0.02278725920558405 0.0038002239450504916 0 -0.022439863029639719 0.0027477731137366974 0 -0.023471748568736368 0.0040103961301294015 0 -0.022670720524943802 0.0041030008425003602 0 -0.022134825105504845 0.0029715497119273716 0 -0.023261525976629508 0.0040819722670106919 0 -0.023013555673738983 0.0027222896962483213 0 -0.021966751425703937 0.0041789041411350869 0 -0.023013555673738983 0.0027222896962483213 0 -0.021228221308254469 0.0029390753854773724 0 -0.021966751425703937 0.0041789041411350869 0 -0.021966751425703937 0.0041789041411350869 0 -0.022714143516628493 0.0049067890101301831 0 -0.02179872880981441 0.0051848881342692558 0 -0.022714143516628493 0.0049067890101301831 0 -0.02179872880981441 0.0051848881342692558 0 -0.023564400566842839 0.0060322182878277475 0 -0.023427841944935968 0.005134147823176372 0 -0.022714143516628493 0.0049067890101301831 0 -0.023564400566842839 0.0060322182878277475 0 -0.023261525976629508 0.0040819722670106919 0 -0.021966751425703937 0.0041789041411350869 0 -0.022714143516628493 0.0049067890101301831 0 -0.02179872880981441 0.0051848881342692558 0 -0.020677949646886604 0.0053524523602102563 0 -0.021792590011712618 0.0059878175425964126 0 -0.020677949646886604 0.0053524523602102563 0 -0.019883635862046511 0.0047825416647973183 0 -0.019931951265463991 0.0059755224725250057 0 -0.019569932791753605 0.0047357798318771122 0 -0.018967732669505234 0.0051320231924668674 0 -0.020677949646886604 0.0053524523602102563 0 -0.020334491058665655 0.0043695320839640065 0 -0.019883635862046511 0.0047825416647973183 0 -0.021966751425703937 0.0041789041411350869 0 -0.02179872880981441 0.0051848881342692558 0 -0.020334491058665655 0.0043695320839640065 0 -0.02179872880981441 0.0051848881342692558 0 -0.020677949646886604 0.0053524523602102563 0 -0.020334491058665655 0.0043695320839640065 0 -0.021228221308254469 0.0029390753854773724 0 -0.021966751425703937 0.0041789041411350869 0 -0.020334491058665655 0.0043695320839640065 0 -0.021228221308254469 0.0029390753854773724 0 -0.019805222431018888 0.0031729206996378096 0 -0.020334491058665655 0.0043695320839640065 0 -0.018556573183165007 0.0024468412959737342 0 -0.019805222431018888 0.0031729206996378096 0 -0.01821975202098372 0.0038610933745857438 0 -0.020334491058665655 0.0043695320839640065 0 -0.01821975202098372 0.0038610933745857438 0 -0.018343567967157148 0.0055918778643505255 0 -0.019805222431018888 0.0031729206996378096 0 -0.020334491058665655 0.0043695320839640065 0 -0.01821975202098372 0.0038610933745857438 0 -0.018556573183165007 0.0024468412959737342 0 -0.017124169426137915 0.0026728951069527112 0 -0.01821975202098372 0.0038610933745857438 0 -0.017124169426137915 0.0026728951069527112 0 -0.016567089444660038 0.0038866611744743339 0 -0.01821975202098372 0.0038610933745857438 0 -0.016567089444660038 0.0038866611744743339 0 -0.01821975202098372 0.0038610933745857438 0 -0.017170314665324791 0.0049826871379667053 0 -0.017170314665324791 0.0049826871379667053 0 -0.018343567967157148 0.0055918778643505255 0 -0.016950838325517983 0.0062507840056967622 0 -0.01821975202098372 0.0038610933745857438 0 -0.017170314665324791 0.0049826871379667053 0 -0.018343567967157148 0.0055918778643505255 0 -0.019883635862046511 0.0047825416647973183 0 -0.018812099098503395 0.0053331638099429896 0 -0.019931951265463991 0.0059755224725250057 0 -0.018967732669505234 0.0051320231924668674 0 -0.017907820282800524 0.0057918401107033314 0 -0.018082927137394865 0.0067526599989871311 0 -0.018812099098503395 0.0053331638099429896 0 -0.01902623362783273 0.0068198581765198749 0 -0.018812099098503395 0.0053331638099429896 0 -0.019931951265463991 0.0059755224725250057 0 -0.01902623362783273 0.0068198581765198749 0 -0.019931951265463991 0.0059755224725250057 0 -0.01902623362783273 0.0068198581765198749 0 -0.020142656519788447 0.0071716290045524198 0 -0.023097941493657601 0.0066206964000948814 0 -0.024063274814277578 0.0067654836983493611 0 -0.018271129167024589 0.0078982937498298916 0 -0.01902623362783273 0.0068198581765198749 0 -0.019347737379555023 0.0082162366693282161 0 -0.018271129167024589 0.0078982937498298916 0 -0.019347737379555023 0.0082162366693282161 0 -0.018856465467199632 0.0088945122712217866 0 -0.019347737379555023 0.0082162366693282161 0 -0.018856465467199632 0.0088945122712217866 0 -0.01974658862772535 0.0095115059738069274 0 -0.024063274814277578 0.0067654836983493611 0 -0.026998021399108469 0.0064108409928518564 0 -0.019389447583220042 0.0079522272721168422 0 -0.020371549561778841 0.0082658952815179172 0 -0.019766463133236663 0.0090387869439626876 0 -0.025013051434354373 0.0080192711503374939 0 -0.026998021399108469 0.0064108409928518564 0 -0.020371549561778841 0.0082658952815179172 0 -0.02056994952183815 0.0088899989237163964 0 -0.019863660668089866 0.0089780499116189506 0 -0.01902623362783273 0.0068198581765198749 0 -0.019389447583220042 0.0079522272721168422 0 -0.020142656519788447 0.0071716290045524198 0 -0.019389447583220042 0.0079522272721168422 0 -0.020142656519788447 0.0071716290045524198 0 -0.020371549561778841 0.0082658952815179172 0 -0.020142656519788447 0.0071716290045524198 0 -0.020851332115374321 0.0076460422626328179 0 -0.020371549561778841 0.0082658952815179172 0 -0.020371549561778841 0.0082658952815179172 0 -0.021255432011750217 0.0086738182889111032 0 -0.02056994952183815 0.0088899989237163964 0 -0.020851332115374321 0.0076460422626328179 0 -0.020371549561778841 0.0082658952815179172 0 -0.021255432011750217 0.0086738182889111032 0 -0.021255432011750217 0.0086738182889111032 0 -0.021775545179756058 0.0076122778756864068 0 -0.022209474574715754 0.0084489181005593071 0 -0.020851332115374321 0.0076460422626328179 0 -0.021255432011750217 0.0086738182889111032 0 -0.021775545179756058 0.0076122778756864068 0 -0.020851332115374321 0.0076460422626328179 0 -0.021775545179756058 0.0076122778756864068 0 -0.021022140158962994 0.0066472927534310189 0 -0.021775545179756058 0.0076122778756864068 0 -0.021022140158962994 0.0066472927534310189 0 -0.022218265055660848 0.0067759242500883094 0 -0.021022140158962994 0.0066472927534310189 0 -0.021792590011712618 0.0059878175425964126 0 -0.022218265055660848 0.0067759242500883094 0 -0.019931951265463991 0.0059755224725250057 0 -0.020142656519788447 0.0071716290045524198 0 -0.021022140158962994 0.0066472927534310189 0 -0.020142656519788447 0.0071716290045524198 0 -0.020851332115374321 0.0076460422626328179 0 -0.021022140158962994 0.0066472927534310189 0 -0.020677949646886604 0.0053524523602102563 0 -0.019931951265463991 0.0059755224725250057 0 -0.021022140158962994 0.0066472927534310189 0 -0.020677949646886604 0.0053524523602102563 0 -0.021022140158962994 0.0066472927534310189 0 -0.021792590011712618 0.0059878175425964126 0 -0.02179872880981441 0.0051848881342692558 0 -0.021792590011712618 0.0059878175425964126 0 -0.023564400566842839 0.0060322182878277475 0 -0.024490464063677334 0.0058645633852035155 0 -0.024639168876560948 0.0059995046920110597 0 -0.023564400566842839 0.0060322182878277475 0 -0.022218265055660848 0.0067759242500883094 0 -0.02319685019115867 0.0075307360002280057 0 -0.023564400566842839 0.0060322182878277475 0 -0.025290433910425389 0.0056405190441462137 0 -0.024270048103086125 0.0058664279360525918 0 -0.021792590011712618 0.0059878175425964126 0 -0.023564400566842839 0.0060322182878277475 0 -0.022218265055660848 0.0067759242500883094 0 -0.021775545179756058 0.0076122778756864068 0 -0.022209474574715754 0.0084489181005593071 0 -0.02319685019115867 0.0075307360002280057 0 -0.021775545179756058 0.0076122778756864068 0 -0.022218265055660848 0.0067759242500883094 0 -0.02319685019115867 0.0075307360002280057 0 -0.022209474574715754 0.0084489181005593071 0 -0.022982198874209631 0.0086762530212973789 0 -0.02319685019115867 0.0075307360002280057 0 -0.024970124567686339 0.0060045850641745162 0 -0.024639168876560948 0.0059995046920110597 0 -0.026835046884662081 0.0043534755766949478 0 -0.025290433910425389 0.0056405190441462137 0 -0.025685497180758153 0.0048557952618583202 0 -0.026835046884662081 0.0043534755766949478 0 -0.025685497180758153 0.0048557952618583202 0 -0.026245462313614704 0.0040093091686332662 0 -0.025290433910425389 0.0056405190441462137 0 -0.024795159825452669 0.0052810093463567598 0 -0.024270048103086125 0.0058664279360525918 0 -0.025290433910425389 0.0056405190441462137 0 -0.024795159825452669 0.0052810093463567598 0 -0.025685497180758153 0.0048557952618583202 0 -0.024795159825452669 0.0052810093463567598 0 -0.025685497180758153 0.0048557952618583202 0 -0.025249566650079405 0.0046681415429959778 0 -0.025685497180758153 0.0048557952618583202 0 -0.025249566650079405 0.0046681415429959778 0 -0.026245462313614704 0.0040093091686332662 0 -0.024795159825452669 0.0052810093463567598 0 -0.025249566650079405 0.0046681415429959778 0 -0.024242186964053204 0.0043919345237054611 0 -0.024097679863779087 0.0051808589606976855 0 -0.024795159825452669 0.0052810093463567598 0 -0.024242186964053204 0.0043919345237054611 0 -0.024795159825452669 0.0052810093463567598 0 -0.024213114238771181 0.0056370587562947373 0 -0.024270048103086125 0.0058664279360525918 0 -0.024097679863779087 0.0051808589606976855 0 -0.024795159825452669 0.0052810093463567598 0 -0.024213114238771181 0.0056370587562947373 0 -0.024077716827661966 0.0056665632420648043 0 -0.024213114238771181 0.0056370587562947373 0 -0.024124120313539932 0.0057377785016602366 0 -0.024077716827661966 0.0056665632420648043 0 -0.024124120313539932 0.0057377785016602366 0 -0.024094132218807771 0.005599124746328025 0 -0.024213114238771181 0.0056370587562947373 0 -0.024124120313539932 0.0057377785016602366 0 -0.024270048103086125 0.0058664279360525918 0 -0.023564400566842839 0.0060322182878277475 0 -0.024270048103086125 0.0058664279360525918 0 -0.023942619358258036 0.0056856075699230294 0 -0.024124120313539932 0.0057377785016602366 0 -0.024270048103086125 0.0058664279360525918 0 -0.023942619358258036 0.0056856075699230294 0 -0.023427841944935968 0.005134147823176372 0 -0.023564400566842839 0.0060322182878277475 0 -0.023942619358258036 0.0056856075699230294 0 -0.023924444831001923 0.0053421126564807669 0 -0.023942619358258036 0.0056856075699230294 0 -0.024094132218807771 0.005599124746328025 0 -0.024124120313539932 0.0057377785016602366 0 -0.023942619358258036 0.0056856075699230294 0 -0.024094132218807771 0.005599124746328025 0 -0.030665025984836516 0.00062854168776725291 0 -0.030452647065573532 7.2016833834648826e-05 0 -0.025150655810507492 -8.4350901887313614e-05 0 -0.02620645475380624 0.00069669785686791964 0 -0.026816136288520101 -0.00062831605115984586 0 -0.02620645475380624 0.00069669785686791964 0 -0.027112796241146167 0.00082024590080051517 0 -0.026570763532849952 0.0014985701550860424 0 -0.025150655810507492 -8.4350901887313614e-05 0 -0.02620645475380624 0.00069669785686791964 0 -0.025718679734882864 0.00090480102092205131 0 -0.02620645475380624 0.00069669785686791964 0 -0.027112796241146167 0.00082024590080051517 0 -0.026816136288520101 -0.00062831605115984586 0 -0.02798043125287393 0.00031385434113114099 0 -0.027112796241146167 0.00082024590080051517 0 -0.026816136288520101 -0.00062831605115984586 0 -0.02798043125287393 0.00031385434113114099 0 -0.0304806054401567 -0.0011473111394834934 0 -0.026816136288520101 -0.00062831605115984586 0 -0.02798043125287393 0.00031385434113114099 0 -0.029078880406915846 0.00024682860837528791 0 -0.0304806054401567 -0.0011473111394834934 0 -0.029078880406915846 0.00024682860837528791 0 -0.027924481125462582 0.0010406013011424924 0 -0.028457547043586388 0.00099533111369433749 0 -0.02798043125287393 0.00031385434113114099 0 -0.029078880406915846 0.00024682860837528791 0 -0.027924481125462582 0.0010406013011424924 0 -0.02798043125287393 0.00031385434113114099 0 -0.027924481125462582 0.0010406013011424924 0 -0.027112796241146167 0.00082024590080051517 0 -0.027924481125462582 0.0010406013011424924 0 -0.027112796241146167 0.00082024590080051517 0 -0.02717679264681434 0.0014907825841616611 0 -0.027924481125462582 0.0010406013011424924 0 -0.02717679264681434 0.0014907825841616611 0 -0.027470265843250692 0.001839763721147753 0 -0.02717679264681434 0.0014907825841616611 0 -0.026878101376613936 0.0021414416519773944 0 -0.026570763532849952 0.0014985701550860424 0 -0.027924481125462582 0.0010406013011424924 0 -0.027470265843250692 0.001839763721147753 0 -0.028172343241648787 0.0014810144696116732 0 -0.027924481125462582 0.0010406013011424924 0 -0.028172343241648787 0.0014810144696116732 0 -0.028457547043586388 0.00099533111369433749 0 -0.027470265843250692 0.001839763721147753 0 -0.026878101376613936 0.0021414416519773944 0 -0.027079328856862248 0.0025870421138424831 0 -0.027470265843250692 0.001839763721147753 0 -0.027840862625103893 0.0020404350768374025 0 -0.028172343241648787 0.0014810144696116732 0 -0.027470265843250692 0.001839763721147753 0 -0.027079328856862248 0.0025870421138424831 0 -0.027840862625103893 0.0020404350768374025 0 -0.02717679264681434 0.0014907825841616611 0 -0.027470265843250692 0.001839763721147753 0 -0.026878101376613936 0.0021414416519773944 0 -0.026878101376613936 0.0021414416519773944 0 -0.02637718514486101 0.0019902264748350817 0 -0.026570763532849952 0.0014985701550860424 0 -0.027112796241146167 0.00082024590080051517 0 -0.02717679264681434 0.0014907825841616611 0 -0.026570763532849952 0.0014985701550860424 0 -0.02637718514486101 0.0019902264748350817 0 -0.026570763532849952 0.0014985701550860424 0 -0.025963478602333327 0.0015205278508159941 0 -0.02620645475380624 0.00069669785686791964 0 -0.025718679734882864 0.00090480102092205131 0 -0.025963478602333327 0.0015205278508159941 0 -0.02620645475380624 0.00069669785686791964 0 -0.026570763532849952 0.0014985701550860424 0 -0.025963478602333327 0.0015205278508159941 0 -0.025542963907494921 0.0014733269771077244 0 -0.025718679734882864 0.00090480102092205131 0 -0.025963478602333327 0.0015205278508159941 0 -0.025481366692100008 0.0016910756790426413 0 -0.025963478602333327 0.0015205278508159941 0 -0.025914606434299096 0.0020491046175322215 0 -0.02637718514486101 0.0019902264748350817 0 -0.025963478602333327 0.0015205278508159941 0 -0.025914606434299096 0.0020491046175322215 0 -0.025639567298365983 0.0024252412078053461 0 -0.025914606434299096 0.0020491046175322215 0 -0.026443302575419547 0.0025581817549282654 0 -0.02637718514486101 0.0019902264748350817 0 -0.025914606434299096 0.0020491046175322215 0 -0.026443302575419547 0.0025581817549282654 0 -0.026878101376613936 0.0021414416519773944 0 -0.02637718514486101 0.0019902264748350817 0 -0.026443302575419547 0.0025581817549282654 0 -0.025604376826971666 0.0027011968061508066 0 -0.025621466419839808 0.0032523380958608405 0 -0.026065049693962301 0.0034635152042611071 0 -0.025209398888614992 0.0030578961430352196 0 -0.025604376826971666 0.0027011968061508066 0 -0.025621466419839808 0.0032523380958608405 0 -0.025209398888614992 0.0030578961430352196 0 -0.025621466419839808 0.0032523380958608405 0 -0.025504494879156677 0.0038075606944284138 0 -0.025621466419839808 0.0032523380958608405 0 -0.025504494879156677 0.0038075606944284138 0 -0.026065049693962301 0.0034635152042611071 0 -0.025312204696196723 0.0036622462105285187 0 -0.025694862146001151 0.0037448309254894578 0 -0.025504494879156677 0.0038075606944284138 0 -0.026245462313614704 0.0040093091686332662 0 -0.026065049693962301 0.0034635152042611071 0 -0.025249566650079405 0.0046681415429959778 0 -0.024242186964053204 0.0043919345237054611 0 -0.026245462313614704 0.0040093091686332662 0 -0.026245462313614704 0.0040093091686332662 0 -0.026065049693962301 0.0034635152042611071 0 -0.026888898314421178 0.0033745270999833033 0 -0.026878101376613936 0.0021414416519773944 0 -0.026443302575419547 0.0025581817549282654 0 -0.027079328856862248 0.0025870421138424831 0 -0.026639741871458168 0.0021313617384261757 0 -0.026701661850067733 0.0021929444647597559 0 -0.026065049693962301 0.0034635152042611071 0 -0.027079328856862248 0.0025870421138424831 0 -0.026888898314421178 0.0033745270999833033 0 -0.025604376826971666 0.0027011968061508066 0 -0.026065049693962301 0.0034635152042611071 0 -0.027079328856862248 0.0025870421138424831 0 -0.027079328856862248 0.0025870421138424831 0 -0.028086018186192201 0.0027063038679893303 0 -0.027840862625103893 0.0020404350768374025 0 -0.027079328856862248 0.0025870421138424831 0 -0.028086018186192201 0.0027063038679893303 0 -0.026888898314421178 0.0033745270999833033 0 -0.028086018186192201 0.0027063038679893303 0 -0.02831921557795963 0.0017203820880532246 0 -0.027840862625103893 0.0020404350768374025 0 -0.022982198874209631 0.0086762530212973789 0 -0.022836722278727687 0.0097725012759927038 0 -0.022434299271941103 0.0091489070417471695 0 -0.026835046884662081 0.0043534755766949478 0 -0.028086018186192201 0.0027063038679893303 0 -0.026888898314421178 0.0033745270999833033 0 -0.024970124567686339 0.0060045850641745162 0 -0.0253472521274529 0.0056948776290128211 0 -0.026835046884662081 0.0043534755766949478 0 -0.026245462313614704 0.0040093091686332662 0 -0.026888898314421178 0.0033745270999833033 0 -0.022209474574715754 0.0084489181005593071 0 -0.022434299271941103 0.0091489070417471695 0 -0.02195079042634213 0.0091239711108478914 0 -0.022209474574715754 0.0084489181005593071 0 -0.022982198874209631 0.0086762530212973789 0 -0.022434299271941103 0.0091489070417471695 0 -0.022434299271941103 0.0091489070417471695 0 -0.022183579812355764 0.0096970394047859333 0 -0.02195079042634213 0.0091239711108478914 0 -0.022836722278727687 0.0097725012759927038 0 -0.022434299271941103 0.0091489070417471695 0 -0.022183579812355764 0.0096970394047859333 0 -0.022836722278727687 0.0097725012759927038 0 -0.022183579812355764 0.0096970394047859333 0 -0.022396160249941999 0.010145078882628574 0 -0.022183579812355764 0.0096970394047859333 0 -0.022396160249941999 0.010145078882628574 0 -0.021820016954133808 0.010251112236190501 0 -0.022836722278727687 0.0097725012759927038 0 -0.022396160249941999 0.010145078882628574 0 -0.022745341887004476 0.010822773268318238 0 -0.032154652171906398 0.0014311718964915396 0 -0.031149427362094376 0.0013818985720819355 0 -0.032675322924770725 0.0021962194599242997 0 -0.025735833511482054 0.0045751838926501439 0 -0.02683711413231284 0.0057214346498210339 0 -0.022396160249941999 0.010145078882628574 0 -0.022745341887004476 0.010822773268318238 0 -0.021820016954133808 0.010251112236190501 0 -0.028086018186192201 0.0027063038679893303 0 -0.02831921557795963 0.0017203820880532246 0 -0.02882339265376456 0.0013010285066516445 0 -0.0253472521274529 0.0056948776290128211 0 -0.025735833511482054 0.0045751838926501439 0 -0.02831921557795963 0.0017203820880532246 0 -0.027840862625103893 0.0020404350768374025 0 -0.028172343241648787 0.0014810144696116732 0 -0.02831921557795963 0.0017203820880532246 0 -0.028172343241648787 0.0014810144696116732 0 -0.028619121420440888 0.001145798805209034 0 -0.028172343241648787 0.0014810144696116732 0 -0.028619121420440888 0.001145798805209034 0 -0.028457547043586388 0.00099533111369433749 0 -0.02831921557795963 0.0017203820880532246 0 -0.028619121420440888 0.001145798805209034 0 -0.02882339265376456 0.0013010285066516445 0 -0.031055034982443813 0.00082810961464586615 0 -0.030448909593883477 -0.00025208389298358975 0 -0.030660009334120015 -0.0010311299134974916 0 -0.025735833511482054 0.0045751838926501439 0 -0.025785772521053775 0.0044500213884768334 0 -0.029078880406915846 0.00024682860837528791 0 -0.031008236362075069 0.0013495092772958179 0 -0.031055034982443813 0.00082810961464586615 0 -0.029078880406915846 0.00024682860837528791 0 -0.031055034982443813 0.00082810961464586615 0 -0.030448909593883477 -0.00025208389298358975 0 -0.029078880406915846 0.00024682860837528791 0 -0.028619121420440888 0.001145798805209034 0 -0.028457547043586388 0.00099533111369433749 0 -0.026242871068436785 0.0040897604718058284 0 -0.025735833511482054 0.0045751838926501439 0 -0.029078880406915846 0.00024682860837528791 0 -0.028619121420440888 0.001145798805209034 0 -0.02882339265376456 0.0013010285066516445 0 -0.029078880406915846 0.00024682860837528791 0 -0.030448909593883477 -0.00025208389298358975 0 -0.0304806054401567 -0.0011473111394834934 0 -0.032499875179421975 0.00058227812752370696 0 -0.032527236208732435 0.00024089002075316926 0 -0.032154652171906398 0.0014311718964915396 0 -0.032641804648387819 0.0012573158631537539 0 -0.03242258065328444 0.0010698152128347494 0 -0.032154652171906398 0.0014311718964915396 0 -0.031055034982443813 0.00082810961464586615 0 -0.030660009334120015 -0.0010311299134974916 0 -0.032154652171906398 0.0014311718964915396 0 -0.03242258065328444 0.0010698152128347494 0 -0.032183740219530847 0.00098606959155168655 0 -0.032154652171906398 0.0014311718964915396 0 -0.031149427362094376 0.0013818985720819355 0 -0.031055034982443813 0.00082810961464586615 0 -0.032987282322722938 0.0014812991864155197 0 -0.032641804648387819 0.0012573158631537539 0 -0.032712984471344971 0.0016743684419186185 0 -0.032154652171906398 0.0014311718964915396 0 -0.032641804648387819 0.0012573158631537539 0 -0.032712984471344971 0.0016743684419186185 0 -0.032641804648387819 0.0012573158631537539 0 -0.03295383271155887 0.0012017650975751008 0 -0.032717034605218728 0.00093685858395707946 0 -0.032987282322722938 0.0014812991864155197 0 -0.032641804648387819 0.0012573158631537539 0 -0.03295383271155887 0.0012017650975751008 0 -0.032987282322722938 0.0014812991864155197 0 -0.03295383271155887 0.0012017650975751008 0 -0.033202373819871532 0.0013199691298699052 0 -0.03295383271155887 0.0012017650975751008 0 -0.033202373819871532 0.0013199691298699052 0 -0.033219750761001893 0.0010555207191217969 0 -0.033202373819871532 0.0013199691298699052 0 -0.033530306280570271 0.0013246971638147065 0 -0.033219750761001893 0.0010555207191217969 0 -0.033202373819871532 0.0013199691298699052 0 -0.033330970570987002 0.0016453656631234435 0 -0.033530306280570271 0.0013246971638147065 0 -0.032987282322722938 0.0014812991864155197 0 -0.033202373819871532 0.0013199691298699052 0 -0.033330970570987002 0.0016453656631234435 0 -0.032987282322722938 0.0014812991864155197 0 -0.033330970570987002 0.0016453656631234435 0 -0.033182649487006929 0.0019928253118540119 0 -0.033330970570987002 0.0016453656631234435 0 -0.033182649487006929 0.0019928253118540119 0 -0.03368612605272793 0.0021298117972592449 0 -0.033182649487006929 0.0019928253118540119 0 -0.032712984471344971 0.0016743684419186185 0 -0.032675322924770725 0.0021962194599242997 0 -0.032987282322722938 0.0014812991864155197 0 -0.033182649487006929 0.0019928253118540119 0 -0.032712984471344971 0.0016743684419186185 0 -0.032154652171906398 0.0014311718964915396 0 -0.032712984471344971 0.0016743684419186185 0 -0.032675322924770725 0.0021962194599242997 0 -0.022183579812355764 0.0096970394047859333 0 -0.021820016954133808 0.010251112236190501 0 -0.021558173804435685 0.0095721895709058973 0 -0.021820016954133808 0.010251112236190501 0 -0.021558173804435685 0.0095721895709058973 0 -0.020821021066798485 0.0096330555476691893 0 -0.02683711413231284 0.0057214346498210339 0 -0.026965402150965493 0.0060867351332134405 0 -0.021255432011750217 0.0086738182889111032 0 -0.022209474574715754 0.0084489181005593071 0 -0.02195079042634213 0.0091239711108478914 0 -0.021255432011750217 0.0086738182889111032 0 -0.021558173804435685 0.0095721895709058973 0 -0.02195079042634213 0.0091239711108478914 0 -0.021255432011750217 0.0086738182889111032 0 -0.021558173804435685 0.0095721895709058973 0 -0.020821021066798485 0.0096330555476691893 0 -0.022183579812355764 0.0096970394047859333 0 -0.021558173804435685 0.0095721895709058973 0 -0.02195079042634213 0.0091239711108478914 0 -0.021255432011750217 0.0086738182889111032 0 -0.02056994952183815 0.0088899989237163964 0 -0.020821021066798485 0.0096330555476691893 0 -0.02056994952183815 0.0088899989237163964 0 -0.020821021066798485 0.0096330555476691893 0 -0.019863660668089866 0.0089780499116189506 0 -0.033182649487006929 0.0019928253118540119 0 -0.033231528583281357 0.0025178260260017788 0 -0.03368612605272793 0.0021298117972592449 0 -0.033182649487006929 0.0019928253118540119 0 -0.032675322924770725 0.0021962194599242997 0 -0.033231528583281357 0.0025178260260017788 0 -0.033231528583281357 0.0025178260260017788 0 -0.033766299937419426 0.0029306384948955106 0 -0.03368612605272793 0.0021298117972592449 0 -0.033727283307248709 0.003329076116779513 0 -0.034176500129265076 0.0027795400667558743 0 -0.033645739865429979 0.0024370555460872002 0 -0.026998021399108469 0.0064108409928518564 0 -0.030306096388615821 0.0033128327426300433 0 -0.026965402150965493 0.0060867351332134405 0 -0.026998021399108469 0.0064108409928518564 0 -0.01974658862772535 0.0095115059738069274 0 -0.018777211798825567 0.0096617808869112979 0 -0.018948963960426467 0.01049250318541293 0 -0.026998021399108469 0.0064108409928518564 0 -0.026925002128059813 0.0056780235041582333 0 -0.018040992299057222 0.0090155418214809477 0 -0.018856465467199632 0.0088945122712217866 0 -0.018777211798825567 0.0096617808869112979 0 -0.018856465467199632 0.0088945122712217866 0 -0.01974658862772535 0.0095115059738069274 0 -0.018777211798825567 0.0096617808869112979 0 -0.018777211798825567 0.0096617808869112979 0 -0.018948963960426467 0.01049250318541293 0 -0.018040162093688455 0.010135982471309823 0 -0.034176500129265076 0.0027795400667558743 0 -0.03421079687293474 0.0023963238366747795 0 -0.033645739865429979 0.0024370555460872002 0 -0.034176500129265076 0.0027795400667558743 0 -0.03421079687293474 0.0023963238366747795 0 -0.034530335959867091 0.0023048288276955888 0 -0.026925002128059813 0.0056780235041582333 0 -0.027677226332135159 0.0038343970779173404 0 -0.03421079687293474 0.0023963238366747795 0 -0.034298989317824546 0.0020614974670968614 0 -0.034530335959867091 0.0023048288276955888 0 -0.034298989317824546 0.0020614974670968614 0 -0.033979932369278619 0.0021692098800218346 0 -0.033889981860344927 0.0017919397146453646 0 -0.03421079687293474 0.0023963238366747795 0 -0.033979932369278619 0.0021692098800218346 0 -0.033645739865429979 0.0024370555460872002 0 -0.03421079687293474 0.0023963238366747795 0 -0.034298989317824546 0.0020614974670968614 0 -0.033979932369278619 0.0021692098800218346 0 -0.030306096388615821 0.0033128327426300433 0 -0.031674808889986458 0.0020980312797703841 0 -0.033330970570987002 0.0016453656631234435 0 -0.03368612605272793 0.0021298117972592449 0 -0.033530306280570271 0.0013246971638147065 0 -0.033979932369278619 0.0021692098800218346 0 -0.033645739865429979 0.0024370555460872002 0 -0.033889981860344927 0.0017919397146453646 0 -0.033645739865429979 0.0024370555460872002 0 -0.033889981860344927 0.0017919397146453646 0 -0.033607274782072726 0.0016638953297311348 0 -0.033607274782072726 0.0016638953297311348 0 -0.033936556874382934 0.0015313329118322738 0 -0.033769063569492497 0.0012222530226816606 0 -0.033889981860344927 0.0017919397146453646 0 -0.033607274782072726 0.0016638953297311348 0 -0.033936556874382934 0.0015313329118322738 0 -0.029961162712353426 0.0036781017421254713 0 -0.031028142464585066 0.0036693118908995839 0 -0.034305859702130757 0.0020655491313081196 0 -0.033889981860344927 0.0017919397146453646 0 -0.033936556874382934 0.0015313329118322738 0 -0.029961162712353426 0.0036781017421254713 0 -0.031128293102783661 0.0038011659631401878 0 -0.034145217599615196 0.001824234433982379 0 -0.033936556874382934 0.0015313329118322738 0 -0.034094235023398721 0.0015854967058657439 0 -0.034145217599615196 0.001824234433982379 0 -0.034094235023398721 0.0015854967058657439 0 -0.034266276484849784 0.0019032860439739062 0 -0.031764971377202356 0.0026741655418456188 0 -0.029038232439530114 0.0029103536098907092 0 -0.034242346076145229 0.0010071873863829262 0 -0.034262757842598725 0.00097748574315371321 0 -0.034270166726301378 0.00094453162756295492 0 -0.034242346076145229 0.0010071873863829262 0 -0.034270421035935472 0.00089565997354306944 0 -0.033923058802675987 0.00091164133110111011 0 -0.034270421035935472 0.00089565997354306944 0 -0.034273168288779562 0.00086259553833105027 0 -0.034276891869874961 0.00090370251856668193 0 -0.034270421035935472 0.00089565997354306944 0 -0.034276891869874961 0.00090370251856668193 0 -0.034270166726301378 0.00094453162756295492 0 -0.034242346076145229 0.0010071873863829262 0 -0.034270421035935472 0.00089565997354306944 0 -0.034270166726301378 0.00094453162756295492 0 -0.033936556874382934 0.0015313329118322738 0 -0.034094235023398721 0.0015854967058657439 0 -0.033923058802675987 0.00091164133110111011 0 -0.033936556874382934 0.0015313329118322738 0 -0.033769063569492497 0.0012222530226816606 0 -0.033923058802675987 0.00091164133110111011 0 -0.034270421035935472 0.00089565997354306944 0 -0.033923058802675987 0.00091164133110111011 0 -0.034249067325623946 0.00081171922880910027 0 -0.031764971377202356 0.0026741655418456188 0 -0.032293900326770916 0.0023402195036749569 0 -0.033769063569492497 0.0012222530226816606 0 -0.033923058802675987 0.00091164133110111011 0 -0.033523824236891091 0.00074432509277896192 0 -0.033923058802675987 0.00091164133110111011 0 -0.034249067325623946 0.00081171922880910027 0 -0.034052107458024443 0.00044558019699818166 0 -0.033923058802675987 0.00091164133110111011 0 -0.034052107458024443 0.00044558019699818166 0 -0.033523824236891091 0.00074432509277896192 0 -0.034249067325623946 0.00081171922880910027 0 -0.034052107458024443 0.00044558019699818166 0 -0.034523794841899637 0.00029962455678719942 0 -0.034249067325623946 0.00081171922880910027 0 -0.034523794841899637 0.00029962455678719942 0 -0.035005914184694065 8.144838807190989e-05 0 -0.034249067325623946 0.00081171922880910027 0 -0.034273168288779562 0.00086259553833105027 0 -0.034278070537445145 0.00086831772006788961 0 -0.034401171850800993 0.00060499922075310346 0 -0.034520639917498812 0.00044879079131009939 0 -0.034270421035935472 0.00089565997354306944 0 -0.034249067325623946 0.00081171922880910027 0 -0.034273168288779562 0.00086259553833105027 0 -0.034523794841899637 0.00029962455678719942 0 -0.034741830652664667 -8.0709952479276659e-05 0 -0.035005914184694065 8.144838807190989e-05 0 -0.034999720234986507 -1.6250977987740237e-07 0 -0.034741830652664667 -8.0709952479276659e-05 0 -0.034999642583293258 7.5042252488896544e-08 0 -0.034999720234986507 -1.6250977987740237e-07 0 -0.034741830652664667 -8.0709952479276659e-05 0 -0.035005914184694065 8.144838807190989e-05 0 -0.034741830652664667 -8.0709952479276659e-05 0 -0.034999642583293258 7.5042252488896544e-08 0 -0.034983024745581369 -8.1610230097223542e-05 0 -0.034052107458024443 0.00044558019699818166 0 -0.034523794841899637 0.00029962455678719942 0 -0.034741830652664667 -8.0709952479276659e-05 0 -0.034369105797469858 2.2575933955778248e-05 0 -0.034268860088187282 5.8802503702538979e-05 0 -0.034052107458024443 0.00044558019699818166 0 -0.034741830652664667 -8.0709952479276659e-05 0 -0.033688473058687135 -4.9362590585289961e-05 0 -0.033688473058687135 -4.9362590585289961e-05 0 -0.033258816207758973 0.00045257044654967035 0 -0.033627883756479494 0.00040478600926380877 0 -0.034052107458024443 0.00044558019699818166 0 -0.033688473058687135 -4.9362590585289961e-05 0 -0.033627883756479494 0.00040478600926380877 0 -0.033688473058687135 -4.9362590585289961e-05 0 -0.032970961041677904 0.0001429848140508268 0 -0.033258816207758973 0.00045257044654967035 0 -0.034268860088187282 5.8802503702538979e-05 0 -0.034113925413582054 0.00014090521333070413 0 -0.034999642583293258 7.5042252488896544e-08 0 -0.034983024745581369 -8.1610230097223542e-05 0 -0.035000254783606057 -9.3497903112953326e-08 0 -0.034983024745581369 -8.1610230097223542e-05 0 -0.035000254783606057 -9.3497903112953326e-08 0 -0.03502731063385945 -9.1641917378540184e-05 0 -0.034998491708208367 -7.4569410566698158e-08 0 -0.034113925413582054 0.00014090521333070413 0 -0.03500004150143219 1.4661570869598159e-08 0 -0.035002889228829645 2.5942911829917192e-05 0 -0.034995005763238045 1.4943411682778017e-05 0 -0.034113925413582054 0.00014090521333070413 0 -0.033659259107585042 0.00015627470709284137 0 -0.032845182245891898 0.00011153506212536449 0 -0.032776712366958213 0.00052158932348822268 0 -0.032374392549541268 0.00026866920524254607 0 -0.032891324519577249 0.00060989134559995576 0 -0.033258816207758973 0.00045257044654967035 0 -0.033135903049660839 0.00078718108382512444 0 -0.034113925413582054 0.00014090521333070413 0 -0.033795832235033713 0.00047254443069467245 0 -0.032970961041677904 0.0001429848140508268 0 -0.032891324519577249 0.00060989134559995576 0 -0.033258816207758973 0.00045257044654967035 0 -0.033258816207758973 0.00045257044654967035 0 -0.033627883756479494 0.00040478600926380877 0 -0.033523824236891091 0.00074432509277896192 0 -0.034052107458024443 0.00044558019699818166 0 -0.033627883756479494 0.00040478600926380877 0 -0.033523824236891091 0.00074432509277896192 0 -0.033258816207758973 0.00045257044654967035 0 -0.033523824236891091 0.00074432509277896192 0 -0.033135903049660839 0.00078718108382512444 0 -0.033523824236891091 0.00074432509277896192 0 -0.033135903049660839 0.00078718108382512444 0 -0.033219750761001893 0.0010555207191217969 0 -0.033530306280570271 0.0013246971638147065 0 -0.033523824236891091 0.00074432509277896192 0 -0.033219750761001893 0.0010555207191217969 0 -0.031674808889986458 0.0020980312797703841 0 -0.032033264259706588 0.0015972513841166736 0 -0.033607274782072726 0.0016638953297311348 0 -0.033769063569492497 0.0012222530226816606 0 -0.033523824236891091 0.00074432509277896192 0 -0.03295383271155887 0.0012017650975751008 0 -0.033219750761001893 0.0010555207191217969 0 -0.032717034605218728 0.00093685858395707946 0 -0.032641804648387819 0.0012573158631537539 0 -0.032717034605218728 0.00093685858395707946 0 -0.03242258065328444 0.0010698152128347494 0 -0.032776712366958213 0.00052158932348822268 0 -0.032717034605218728 0.00093685858395707946 0 -0.032393758675899408 0.00067391346647621556 0 -0.033795832235033713 0.00047254443069467245 0 -0.033687593104093021 0.00061952849914783813 0 -0.032891324519577249 0.00060989134559995576 0 -0.033135903049660839 0.00078718108382512444 0 -0.032717034605218728 0.00093685858395707946 0 -0.033135903049660839 0.00078718108382512444 0 -0.033219750761001893 0.0010555207191217969 0 -0.032717034605218728 0.00093685858395707946 0 -0.032717034605218728 0.00093685858395707946 0 -0.03242258065328444 0.0010698152128347494 0 -0.032393758675899408 0.00067391346647621556 0 -0.03242258065328444 0.0010698152128347494 0 -0.032183740219530847 0.00098606959155168655 0 -0.032393758675899408 0.00067391346647621556 0 -0.032183740219530847 0.00098606959155168655 0 -0.031928807862957383 0.00042377727897240477 0 -0.032393758675899408 0.00067391346647621556 0 -0.030660009334120015 -0.0010311299134974916 0 -0.030650392711175759 0.00050664549085155212 0 -0.031310268558510788 -0.00039631242728909664 0 -0.030448909593883477 -0.00025208389298358975 0 -0.030660009334120015 -0.0010311299134974916 0 -0.0304806054401567 -0.0011473111394834934 0 -0.030660009334120015 -0.0010311299134974916 0 -0.0304806054401567 -0.0011473111394834934 0 -0.031310268558510788 -0.00039631242728909664 0 -0.032527236208732435 0.00024089002075316926 0 -0.033179166656793851 0.00017879235010619376 0 -0.033179166656793851 0.00017879235010619376 0 -0.033659259107585042 0.00015627470709284137 0 -0.031928807862957383 0.00042377727897240477 0 -0.032393758675899408 0.00067391346647621556 0 -0.032374392549541268 0.00026866920524254607 0 -0.032776712366958213 0.00052158932348822268 0 -0.032393758675899408 0.00067391346647621556 0 -0.032374392549541268 0.00026866920524254607 0 -0.035002889228829645 2.5942911829917192e-05 0 -0.034985277724974249 3.8909339549254825e-05 0 -0.034995005763238045 1.4943411682778017e-05 0 -0.034985277724974249 3.8909339549254825e-05 0 -0.034995005763238045 1.4943411682778017e-05 0 -0.034977746241777859 2.7013329153767898e-05 0 -0.034999940444125167 -1.2376467883593776e-09 0 -0.034995005763238045 1.4943411682778017e-05 0 -0.034977746241777859 2.7013329153767898e-05 0 -0.03500004150143219 1.4661570869598159e-08 0 -0.034999940444125167 -1.2376467883593776e-09 0 -0.034995005763238045 1.4943411682778017e-05 0 -0.034999940444125167 -1.2376467883593776e-09 0 -0.034947725706217563 3.0161784186275013e-05 0 -0.034925665914263507 -1.3737883544648026e-08 0 -0.034999940444125167 -1.2376467883593776e-09 0 -0.034977746241777859 2.7013329153767898e-05 0 -0.034947725706217563 3.0161784186275013e-05 0 -0.033179166656793851 0.00017879235010619376 0 -0.033654099690689318 0.00016083898739279435 0 -0.034957808929104571 5.2102621595733433e-05 0 -0.034977746241777859 2.7013329153767898e-05 0 -0.034947725706217563 3.0161784186275013e-05 0 -0.034957808929104571 5.2102621595733433e-05 0 -0.034985277724974249 3.8909339549254825e-05 0 -0.034977746241777859 2.7013329153767898e-05 0 -0.033940890316296088 1.5149378600692035e-05 0 -0.034076248849159073 -1.3769338982998247e-05 0 -0.033789129916093515 -4.6748687966523471e-05 0 -0.034076248849159073 -1.3769338982998247e-05 0 -0.034555791225144891 3.8296815403904696e-05 0 -0.034148685915604132 4.8354557661775019e-05 0 -0.034076248849159073 -1.3769338982998247e-05 0 -0.034148685915604132 4.8354557661775019e-05 0 -0.033789129916093515 -4.6748687966523471e-05 0 -0.034076248849159073 -1.3769338982998247e-05 0 -0.034555791225144891 3.8296815403904696e-05 0 -0.034924068184820169 3.8456247129151853e-07 0 -0.033654099690689318 0.00016083898739279435 0 -0.033805879341187395 0.00012770168834519066 0 -0.034555791225144891 3.8296815403904696e-05 0 -0.034924068184820169 3.8456247129151853e-07 0 -0.034677281810212082 8.438302676487876e-05 0 -0.034999915785441711 1.3355000639059974e-07 0 -0.034924068184820169 3.8456247129151853e-07 0 -0.034677281810212082 8.438302676487876e-05 0 -0.034555791225144891 3.8296815403904696e-05 0 -0.034677281810212082 8.438302676487876e-05 0 -0.034148685915604132 4.8354557661775019e-05 0 -0.034883886565872824 7.2972441705259912e-05 0 -0.034677281810212082 8.438302676487876e-05 0 -0.034148685915604132 4.8354557661775019e-05 0 -0.034752079716215453 -0.00043907269010543838 0 -0.034148685915604132 4.8354557661775019e-05 0 -0.034072598248405146 -0.00071193185406919185 0 -0.034148685915604132 4.8354557661775019e-05 0 -0.033243507342408767 -7.1998923281454597e-05 0 -0.034072598248405146 -0.00071193185406919185 0 -0.033940890316296088 1.5149378600692035e-05 0 -0.033789129916093515 -4.6748687966523471e-05 0 -0.033243507342408767 -7.1998923281454597e-05 0 -0.033179166656793851 0.00017879235010619376 0 -0.0331648074168686 0.00015348373088340764 0 -0.034148685915604132 4.8354557661775019e-05 0 -0.033789129916093515 -4.6748687966523471e-05 0 -0.033243507342408767 -7.1998923281454597e-05 0 -0.030650392711175759 0.00050664549085155212 0 -0.031310268558510788 -0.00039631242728909664 0 -0.033243507342408767 -7.1998923281454597e-05 0 -0.031310268558510788 -0.00039631242728909664 0 -0.033243507342408767 -7.1998923281454597e-05 0 -0.033359934121731119 -0.0017688425634846501 0 -0.030464515323314057 -0.00010682820477840677 0 -0.030452647065573532 7.2016833834648826e-05 0 -0.0304806054401567 -0.0011473111394834934 0 -0.031310268558510788 -0.00039631242728909664 0 -0.033359934121731119 -0.0017688425634846501 0 -0.033243507342408767 -7.1998923281454597e-05 0 -0.034072598248405146 -0.00071193185406919185 0 -0.033359934121731119 -0.0017688425634846501 0 -0.034805006346898974 -0.0018294405574384299 0 -0.034072598248405146 -0.00071193185406919185 0 -0.033359934121731119 -0.0017688425634846501 0 -0.026746850825060921 0.0016623982795386043 0 -0.026782895824743361 0.001660552431610716 0 -0.02677072642150834 0.0016973548964140243 0 -0.026746850825060921 0.0016623982795386043 0 -0.026782895824743361 0.001660552431610716 0 -0.026740846237222338 0.0016229710263527223 0 -0.026746850825060921 0.0016623982795386043 0 -0.026713704448109457 0.0016434973876812528 0 -0.026733243731095358 0.0016281430188965654 0 -0.026782895824743361 0.001660552431610716 0 -0.026804728050012674 0.0017216986518373079 0 -0.026857947933524362 0.0016841254281318937 0 -0.026782895824743361 0.001660552431610716 0 -0.026804728050012674 0.0017216986518373079 0 -0.02677072642150834 0.0016973548964140243 0 -0.026804728050012674 0.0017216986518373079 0 -0.02677072642150834 0.0016973548964140243 0 -0.026784094339406494 0.0017062152687654165 0 -0.026804728050012674 0.0017216986518373079 0 -0.026784094339406494 0.0017062152687654165 0 -0.026803881172851606 0.0017143118423612687 0 -0.026746850825060921 0.0016623982795386043 0 -0.02677072642150834 0.0016973548964140243 0 -0.026748799730499376 0.0017002497380073035 0 -0.02677072642150834 0.0016973548964140243 0 -0.026748799730499376 0.0017002497380073035 0 -0.026784094339406494 0.0017062152687654165 0 -0.027367793392480712 0.00072166163205992877 0 -0.027855502491799487 0.00091869062835963885 0 -0.02873093509232022 0.00051711783257624036 0 -0.028747403795340052 0.00041712077057751157 0 -0.028824765625984537 0.00061069908926707434 0 -0.026538389316538426 0.0012907090304941067 0 -0.026299595527341155 0.0010230309869155517 0 -0.026455166100201901 0.0014759632067091297 0 -0.026093440071688314 0.00094829577170212108 0 -0.026299595527341155 0.0010230309869155517 0 -0.026455166100201901 0.0014759632067091297 0 -0.028747361963924762 0.00059568512744059246 0 -0.02873093509232022 0.00051711783257624036 0 -0.028824765625984537 0.00061069908926707434 0 -0.031044814960199875 0.00082107009249528045 0 -0.030119348994525931 0.00091921581087698483 0 -0.027691025838884609 0.0025591631287145279 0 -0.027780181002902228 0.0023460295260088588 0 -0.028241071626999785 0.002903983227736804 0 -0.028747361963924762 0.00059568512744059246 0 -0.02873093509232022 0.00051711783257624036 0 -0.028642627802010271 0.00051296924486065741 0 -0.028884610435555878 0.00098072793652830849 0 -0.030119348994525931 0.00091921581087698483 0 -0.02873093509232022 0.00051711783257624036 0 -0.028692116352649982 0.00044961142438041692 0 -0.028642627802010271 0.00051296924486065741 0 -0.02873093509232022 0.00051711783257624036 0 -0.028692116352649982 0.00044961142438041692 0 -0.028747403795340052 0.00041712077057751157 0 -0.028692116352649982 0.00044961142438041692 0 -0.028747403795340052 0.00041712077057751157 0 -0.028694159739018163 0.0003742296945999861 0 -0.028692116352649982 0.00044961142438041692 0 -0.028694159739018163 0.0003742296945999861 0 -0.028640469337530797 0.00039753757117134156 0 -0.026029260956729736 0.0014918905380302972 0 -0.025480854059768836 0.00099563136209279268 0 -0.026746850825060921 0.0016623982795386043 0 -0.026748799730499376 0.0017002497380073035 0 -0.026713704448109457 0.0016434973876812528 0 -0.026538389316538426 0.0012907090304941067 0 -0.026299595527341155 0.0010230309869155517 0 -0.026319913409641994 0.000826530292936726 0 -0.026093440071688314 0.00094829577170212108 0 -0.026299595527341155 0.0010230309869155517 0 -0.026239629645021717 0.00089007818911872739 0 -0.025512154853785302 0.00098151750892903227 0 -0.025480854059768836 0.00099563136209279268 0 -0.025480854059768836 0.00099563136209279268 0 -0.024625974406011188 0.00093221872162179808 0 -0.025498264831701284 -1.3226904488804262e-05 0 -0.025429838419406579 0.00031314837932656177 0 -0.025644017014599764 0.00044232957746505189 0 -0.026713704448109457 0.0016434973876812528 0 -0.026733251074604062 0.001615159603538071 0 -0.026733243731095358 0.0016281430188965654 0 -0.026239629645021717 0.00089007818911872739 0 -0.026076317445799566 0.0008200033021540839 0 -0.026021905123448291 0.00076351428995945149 0 -0.025480854059768836 0.00099563136209279268 0 -0.025631139913062245 0.00083620346573238342 0 -0.026093440071688314 0.00094829577170212108 0 -0.026239629645021717 0.00089007818911872739 0 -0.026076317445799566 0.0008200033021540839 0 -0.028747403795340052 0.00041712077057751157 0 -0.028694159739018163 0.0003742296945999861 0 -0.028702192168571516 0.0002155100969765674 0 -0.026093440071688314 0.00094829577170212108 0 -0.026076317445799566 0.0008200033021540839 0 -0.026021817182166916 0.00075921168965113511 0 -0.027367793392480712 0.00072166163205992877 0 -0.026810390445723177 0.00051305768001613458 0 -0.028694159739018163 0.0003742296945999861 0 -0.028702192168571516 0.0002155100969765674 0 -0.028660912463687026 0.00033071225816659968 0 -0.026076317445799566 0.0008200033021540839 0 -0.026025008780607393 0.00077746386168457725 0 -0.026021817182166916 0.00075921168965113511 0 -0.026076317445799566 0.0008200033021540839 0 -0.026025008780607393 0.00077746386168457725 0 -0.026021905123448291 0.00076351428995945149 0 -0.026025008780607393 0.00077746386168457725 0 -0.026013494107915671 0.0008026813549219915 0 -0.026021905123448291 0.00076351428995945149 0 -0.025985101095590758 0.00086064024631891478 0 -0.026013494107915671 0.0008026813549219915 0 -0.026021905123448291 0.00076351428995945149 0 -0.026027119924306993 0.00084281693546102063 0 -0.026025008780607393 0.00077746386168457725 0 -0.026021817182166916 0.00075921168965113511 0 -0.026027119924306993 0.00084281693546102063 0 -0.026025008780607393 0.00077746386168457725 0 -0.026013494107915671 0.0008026813549219915 0 -0.026027119924306993 0.00084281693546102063 0 -0.025985101095590758 0.00086064024631891478 0 -0.026013494107915671 0.0008026813549219915 0 -0.025335579452088631 0.00067043332520565517 0 -0.025429838419406579 0.00031314837932656177 0 -0.025519240702951394 0.00051366473183980463 0 -0.023326632101299004 0.0010987653304972572 0 -0.024625974406011188 0.00093221872162179808 0 -0.025429838419406579 0.00031314837932656177 0 -0.025644017014599764 0.00044232957746505189 0 -0.025519240702951394 0.00051366473183980463 0 -0.025500632309192479 0.00064970282804984424 0 -0.025644017014599764 0.00044232957746505189 0 -0.025519240702951394 0.00051366473183980463 0 -0.025313737444380684 0.00068027769038073876 0 -0.025500632309192479 0.00064970282804984424 0 -0.025519240702951394 0.00051366473183980463 0 -0.023326632101299004 0.0010987653304972572 0 -0.02362633953792544 0.0009020232413848359 0 -0.026726087955487681 0.0016189115950399806 0 -0.026740846237222338 0.0016229710263527223 0 -0.026684097419808095 0.0015990722792195774 0 -0.026700648252852614 0.0016742244837072207 0 -0.026760859159988694 0.0016719697901243981 0 -0.026726087955487681 0.0016189115950399806 0 -0.026760859159988694 0.0016719697901243981 0 -0.026733251074604062 0.001615159603538071 0 -0.026726087955487681 0.0016189115950399806 0 -0.026700648252852614 0.0016742244837072207 0 -0.026726087955487681 0.0016189115950399806 0 -0.026684097419808095 0.0015990722792195774 0 -0.026726087955487681 0.0016189115950399806 0 -0.026740846237222338 0.0016229710263527223 0 -0.026733243731095358 0.0016281430188965654 0 -0.026733251074604062 0.001615159603538071 0 -0.026726087955487681 0.0016189115950399806 0 -0.026733243731095358 0.0016281430188965654 0 -0.026746850825060921 0.0016623982795386043 0 -0.026740846237222338 0.0016229710263527223 0 -0.026733243731095358 0.0016281430188965654 0 -0.026740846237222338 0.0016229710263527223 0 -0.026781681998324286 0.0016112160704396473 0 -0.026684097419808095 0.0015990722792195774 0 -0.026782895824743361 0.001660552431610716 0 -0.026781681998324286 0.0016112160704396473 0 -0.026834775198803187 0.0016410107811084893 0 -0.026782895824743361 0.001660552431610716 0 -0.026740846237222338 0.0016229710263527223 0 -0.026781681998324286 0.0016112160704396473 0 -0.0265802772396635 0.001736343382101791 0 -0.026684097419808095 0.0015990722792195774 0 -0.026472086443770734 0.0016213824282187766 0 -0.026684097419808095 0.0015990722792195774 0 -0.026472086443770734 0.0016213824282187766 0 -0.02637283265087708 0.0014539404452542913 0 -0.022366122288025231 0.0043736281730252253 0 -0.025311833947121123 0.002226725241484138 0 -0.026781681998324286 0.0016112160704396473 0 -0.026684097419808095 0.0015990722792195774 0 -0.026871469068476681 0.0015695456908730611 0 -0.025924802188953277 0.0022528598621341855 0 -0.025311833947121123 0.002226725241484138 0 -0.026335042554511599 0.0017518154604265208 0 -0.026472086443770734 0.0016213824282187766 0 -0.02637283265087708 0.0014539404452542913 0 -0.0246371731543913 0.0016975744536529718 0 -0.024430083173765074 0.0031889877138424269 0 -0.025991736324817404 0.0030209058426720124 0 -0.022366122288025231 0.0043736281730252253 0 -0.02373962065968958 0.004563494099452072 0 -0.016967778923069127 0.0091135083558824999 0 -0.015429761636321865 0.0088073584331015906 0 -0.01685460593526342 0.010123241726496328 0 -0.024430083173765074 0.0031889877138424269 0 -0.025991736324817404 0.0030209058426720124 0 -0.025993989769899369 0.0033482135873825407 0 -0.025311833947121123 0.002226725241484138 0 -0.026725567642100993 0.0025007791652729861 0 -0.024430083173765074 0.0031889877138424269 0 -0.025993989769899369 0.0033482135873825407 0 -0.025734291124981476 0.0038300508637410277 0 -0.026985625818969995 0.0016267633613749064 0 -0.026885756784009722 0.0015301302748701336 0 -0.027109353924700843 0.0016215640731106987 0 -0.026985625818969995 0.0016267633613749064 0 -0.026877142250387905 0.0015955010917921867 0 -0.026900714956874787 0.0016486226762561741 0 -0.026877142250387905 0.0015955010917921867 0 -0.026834775198803187 0.0016410107811084893 0 -0.026900714956874787 0.0016486226762561741 0 -0.026781681998324286 0.0016112160704396473 0 -0.026877142250387905 0.0015955010917921867 0 -0.026834775198803187 0.0016410107811084893 0 -0.026781681998324286 0.0016112160704396473 0 -0.026877142250387905 0.0015955010917921867 0 -0.026871469068476681 0.0015695456908730611 0 -0.026985625818969995 0.0016267633613749064 0 -0.026877142250387905 0.0015955010917921867 0 -0.026885756784009722 0.0015301302748701336 0 -0.025340565769758551 0.0021806265353470464 0 -0.025311833947121123 0.002226725241484138 0 -0.018040992299057222 0.0090155418214809477 0 -0.018777211798825567 0.0096617808869112979 0 -0.018040162093688455 0.010135982471309823 0 -0.016967778923069127 0.0091135083558824999 0 -0.018040992299057222 0.0090155418214809477 0 -0.018040162093688455 0.010135982471309823 0 -0.016967778923069127 0.0091135083558824999 0 -0.018040162093688455 0.010135982471309823 0 -0.01685460593526342 0.010123241726496328 0 -0.025993989769899369 0.0033482135873825407 0 -0.025734291124981476 0.0038300508637410277 0 -0.027049036426119069 0.0044516369997550072 0 -0.025991736324817404 0.0030209058426720124 0 -0.025993989769899369 0.0033482135873825407 0 -0.02740449911914301 0.0044012262012358208 0 -0.027940976386121429 0.0027818366760008111 0 -0.028606569221960493 0.0028395389120882573 0 -0.018948963960426467 0.01049250318541293 0 -0.018040162093688455 0.010135982471309823 0 -0.018238882843835548 0.011385337374592339 0 -0.02373962065968958 0.004563494099452072 0 -0.027677226332135159 0.0038343970779173404 0 -0.018040162093688455 0.010135982471309823 0 -0.01685460593526342 0.010123241726496328 0 -0.018238882843835548 0.011385337374592339 0 -0.025993989769899369 0.0033482135873825407 0 -0.02740449911914301 0.0044012262012358208 0 -0.027083235694998174 0.004511469420677496 0 -0.029445250992425419 0.0039199094441462034 0 -0.027499190493997308 0.0019546894461172836 0 -0.026773610072502767 0.0028534245875163878 0 -0.029961162712353426 0.0036781017421254713 0 -0.027677226332135159 0.0038343970779173404 0 -0.029961162712353426 0.0036781017421254713 0 -0.029038232439530114 0.0029103536098907092 0 -0.02740449911914301 0.0044012262012358208 0 -0.027083235694998174 0.004511469420677496 0 -0.027209367751165815 0.0046477919979839603 0 -0.027677226332135159 0.0038343970779173404 0 -0.029038232439530114 0.0029103536098907092 0 -0.028606569221960493 0.0028395389120882573 0 -0.029038232439530114 0.0029103536098907092 0 -0.027140618473659228 0.001699340113321375 0 -0.027119151836012278 0.0016894600501560328 0 -0.027167632003902976 0.001684575820572089 0 -0.026725567642100993 0.0025007791652729861 0 -0.028606569221960493 0.0028395389120882573 0 -0.027119151836012278 0.0016894600501560328 0 -0.027167632003902976 0.001684575820572089 0 -0.027200721804782554 0.001450367913395348 0 -0.027109353924700843 0.0016215640731106987 0 -0.027140618473659228 0.001699340113321375 0 -0.027167632003902976 0.001684575820572089 0 -0.027167632003902976 0.001684575820572089 0 -0.027059621115999712 0.0016873590572446314 0 -0.027025841304829469 0.0018019153368278649 0 -0.027109353924700843 0.0016215640731106987 0 -0.027167632003902976 0.001684575820572089 0 -0.027059621115999712 0.0016873590572446314 0 -0.027200721804782554 0.001450367913395348 0 -0.027568719666929392 0.0014547218707817334 0 -0.027484200921451343 0.0010739913195348093 0 -0.027167632003902976 0.001684575820572089 0 -0.027200721804782554 0.001450367913395348 0 -0.027568719666929392 0.0014547218707817334 0 -0.027789933962331342 0.0018928661760157783 0 -0.028085036274158783 0.0017939384556503446 0 -0.03424531759332531 0.0010041010891291887 0 -0.034279868286787633 0.00096844145039912002 0 -0.034262757842598725 0.00097748574315371321 0 -0.029038232439530114 0.0029103536098907092 0 -0.030208527685620792 0.0015890170788340377 0 -0.034242346076145229 0.0010071873863829262 0 -0.03424531759332531 0.0010041010891291887 0 -0.034262757842598725 0.00097748574315371321 0 -0.034279868286787633 0.00096844145039912002 0 -0.034262757842598725 0.00097748574315371321 0 -0.034276233159098272 0.00094206247664116265 0 -0.034262757842598725 0.00097748574315371321 0 -0.034270166726301378 0.00094453162756295492 0 -0.034276233159098272 0.00094206247664116265 0 -0.026857947933524362 0.0016841254281318937 0 -0.02695918533384567 0.0016992063014681317 0 -0.02691315961455024 0.0017583396831376229 0 -0.026804728050012674 0.0017216986518373079 0 -0.026857947933524362 0.0016841254281318937 0 -0.02691315961455024 0.0017583396831376229 0 -0.026782895824743361 0.001660552431610716 0 -0.026834775198803187 0.0016410107811084893 0 -0.026857947933524362 0.0016841254281318937 0 -0.026834775198803187 0.0016410107811084893 0 -0.026857947933524362 0.0016841254281318937 0 -0.026900714956874787 0.0016486226762561741 0 -0.026857947933524362 0.0016841254281318937 0 -0.026900714956874787 0.0016486226762561741 0 -0.02695918533384567 0.0016992063014681317 0 -0.027059621115999712 0.0016873590572446314 0 -0.02695918533384567 0.0016992063014681317 0 -0.027025841304829469 0.0018019153368278649 0 -0.026985625818969995 0.0016267633613749064 0 -0.027059621115999712 0.0016873590572446314 0 -0.02695918533384567 0.0016992063014681317 0 -0.026985625818969995 0.0016267633613749064 0 -0.026900714956874787 0.0016486226762561741 0 -0.02695918533384567 0.0016992063014681317 0 -0.026985625818969995 0.0016267633613749064 0 -0.027109353924700843 0.0016215640731106987 0 -0.027059621115999712 0.0016873590572446314 0 -0.02695918533384567 0.0016992063014681317 0 -0.027025841304829469 0.0018019153368278649 0 -0.02691315961455024 0.0017583396831376229 0 -0.028705546080540878 0.0010920369697257793 0 -0.029339071163862515 0.0012192781269159492 0 -0.027025841304829469 0.0018019153368278649 0 -0.02691315961455024 0.0017583396831376229 0 -0.026901473727855046 0.0019122125236417863 0 -0.026804728050012674 0.0017216986518373079 0 -0.02691315961455024 0.0017583396831376229 0 -0.026901473727855046 0.0019122125236417863 0 -0.029339071163862515 0.0012192781269159492 0 -0.029877197950986634 0.0011762043004083281 0 -0.028014071721653877 0.0010793436123369756 0 -0.027484200921451343 0.0010739913195348093 0 -0.027811343704396731 0.00068063203561611273 0 -0.028085036274158783 0.0017939384556503446 0 -0.029339071163862515 0.0012192781269159492 0 -0.027568719666929392 0.0014547218707817334 0 -0.028014071721653877 0.0010793436123369756 0 -0.027484200921451343 0.0010739913195348093 0 -0.034295702226753794 0.000915019309431296 0 -0.034291809424504709 0.00088114572269333503 0 -0.03429860125518238 0.00088703215776222641 0 -0.030642842044873417 0.0010817028304366079 0 -0.030811512074495683 0.00082711771015621025 0 -0.034291809424504709 0.00088114572269333503 0 -0.03429860125518238 0.00088703215776222641 0 -0.034292920855749191 0.00086936786847182897 0 -0.030410642306633547 0.00092899298075766184 0 -0.03028875564906517 0.00069254915933954274 0 -0.030620070243378185 0.00073481029133092067 0 -0.03028875564906517 0.00069254915933954274 0 -0.030445536969013531 0.00050026351153922496 0 -0.030620070243378185 0.00073481029133092067 0 -0.030811512074495683 0.00082711771015621025 0 -0.031600770118209776 0.00053862867025738213 0 -0.029339071163862515 0.0012192781269159492 0 -0.030811512074495683 0.00082711771015621025 0 -0.034276891869874961 0.00090370251856668193 0 -0.034270166726301378 0.00094453162756295492 0 -0.034276233159098272 0.00094206247664116265 0 -0.034276891869874961 0.00090370251856668193 0 -0.034276233159098272 0.00094206247664116265 0 -0.034285067295287568 0.00091103401289602867 0 -0.030208527685620792 0.0015890170788340377 0 -0.030642842044873417 0.0010817028304366079 0 -0.034279868286787633 0.00096844145039912002 0 -0.034295702226753794 0.000915019309431296 0 -0.034285067295287568 0.00091103401289602867 0 -0.034279868286787633 0.00096844145039912002 0 -0.034276233159098272 0.00094206247664116265 0 -0.034285067295287568 0.00091103401289602867 0 -0.034295702226753794 0.000915019309431296 0 -0.034285067295287568 0.00091103401289602867 0 -0.034286438224375639 0.00088587653624058575 0 -0.034295702226753794 0.000915019309431296 0 -0.034291809424504709 0.00088114572269333503 0 -0.034286438224375639 0.00088587653624058575 0 -0.034291809424504709 0.00088114572269333503 0 -0.034286438224375639 0.00088587653624058575 0 -0.034287372232371584 0.00087523873936082438 0 -0.034286438224375639 0.00088587653624058575 0 -0.034279104167243502 0.00087688520966018059 0 -0.0342831271668642 0.00087089967779857861 0 -0.034285067295287568 0.00091103401289602867 0 -0.034286438224375639 0.00088587653624058575 0 -0.034279104167243502 0.00087688520966018059 0 -0.034273168288779562 0.00086259553833105027 0 -0.034279104167243502 0.00087688520966018059 0 -0.034278070537445145 0.00086831772006788961 0 -0.034276891869874961 0.00090370251856668193 0 -0.034285067295287568 0.00091103401289602867 0 -0.034279104167243502 0.00087688520966018059 0 -0.034273168288779562 0.00086259553833105027 0 -0.034276891869874961 0.00090370251856668193 0 -0.034279104167243502 0.00087688520966018059 0 -0.034278070537445145 0.00086831772006788961 0 -0.0342831271668642 0.00087089967779857861 0 -0.034286576152915256 0.0008624246760310549 0 -0.034279104167243502 0.00087688520966018059 0 -0.034278070537445145 0.00086831772006788961 0 -0.0342831271668642 0.00087089967779857861 0 -0.0342831271668642 0.00087089967779857861 0 -0.034286354681457069 0.00086883481564252398 0 -0.034286576152915256 0.0008624246760310549 0 -0.034286438224375639 0.00088587653624058575 0 -0.0342831271668642 0.00087089967779857861 0 -0.034287372232371584 0.00087523873936082438 0 -0.034291809424504709 0.00088114572269333503 0 -0.034287372232371584 0.00087523873936082438 0 -0.034288362523037824 0.00086830681492146809 0 -0.0342831271668642 0.00087089967779857861 0 -0.034287372232371584 0.00087523873936082438 0 -0.034286354681457069 0.00086883481564252398 0 -0.034287372232371584 0.00087523873936082438 0 -0.034286354681457069 0.00086883481564252398 0 -0.034288362523037824 0.00086830681492146809 0 -0.034286354681457069 0.00086883481564252398 0 -0.034286576152915256 0.0008624246760310549 0 -0.034288362523037824 0.00086830681492146809 0 -0.034286576152915256 0.0008624246760310549 0 -0.034288362523037824 0.00086830681492146809 0 -0.034289905995660341 0.00086823440382573724 0 -0.034278070537445145 0.00086831772006788961 0 -0.034286576152915256 0.0008624246760310549 0 -0.034287005574342395 0.00085448936195541361 0 -0.034286576152915256 0.0008624246760310549 0 -0.034289061036641699 0.00085450389781605777 0 -0.034289905995660341 0.00086823440382573724 0 -0.034286576152915256 0.0008624246760310549 0 -0.034289061036641699 0.00085450389781605777 0 -0.034287005574342395 0.00085448936195541361 0 -0.034999960599877949 -7.3091537726365115e-08 0 -0.035024413152369614 4.554141510605509e-05 0 -0.034903296206593874 7.2693922381596797e-08 0 -0.03479159728088739 9.3929038672783645e-05 0 -0.034707249733060018 0.00012598285767609189 0 -0.034994437633457373 2.7388269678407933e-06 0 -0.03479159728088739 9.3929038672783645e-05 0 -0.034999720234986507 -1.6250977987740237e-07 0 -0.035005914184694065 8.144838807190989e-05 0 -0.034903531826223723 1.1755033874643754e-07 0 -0.034520639917498812 0.00044879079131009939 0 -0.034707249733060018 0.00012598285767609189 0 -0.033064759403247594 0.00012510078208507203 0 -0.033403763042065798 0.00016343950369626913 0 -0.033201681330211535 0.00030261852621996213 0 -0.031600770118209776 0.00053862867025738213 0 -0.032601788617286936 0.00074715422381524659 0 -0.032996002181170977 0.00020979217659198185 0 -0.033201681330211535 0.00030261852621996213 0 -0.032988093284615008 0.00035817705121361641 0 -0.032996002181170977 0.00020979217659198185 0 -0.033064759403247594 0.00012510078208507203 0 -0.033201681330211535 0.00030261852621996213 0 -0.031653222929702067 0.00049442975899441756 0 -0.031600770118209776 0.00053862867025738213 0 -0.030811512074495683 0.00082711771015621025 0 -0.032601788617286936 0.00074715422381524659 0 -0.031402552357957157 0.00047180556366384845 0 -0.031456189142752791 0.0004052900744023938 0 -0.03136658541862699 0.000396903703911233 0 -0.034291809424504709 0.00088114572269333503 0 -0.034288362523037824 0.00086830681492146809 0 -0.034292920855749191 0.00086936786847182897 0 -0.032698052852974162 0.00075705070906641788 0 -0.032601788617286936 0.00074715422381524659 0 -0.033618893985975708 0.00054768001275369365 0 -0.033201128905491623 0.00052450329813413777 0 -0.033201681330211535 0.00030261852621996213 0 -0.034999998706003455 1.0004582260999218e-09 0 -0.034999882050023697 1.7888621162585454e-07 0 -0.034999997606166268 1.5574943907625099e-09 0 -0.03479159728088739 9.3929038672783645e-05 0 -0.034343230031424379 4.497455548940482e-05 0 -0.034999882050023697 1.7888621162585454e-07 0 -0.034999997606166268 1.5574943907625099e-09 0 -0.034999689979738277 1.3431439478773171e-07 0 -0.033618893985975708 0.00054768001275369365 0 -0.033403763042065798 0.00016343950369626913 0 -0.033201681330211535 0.00030261852621996213 0 -0.03479159728088739 9.3929038672783645e-05 0 -0.032601788617286936 0.00074715422381524659 0 -0.034999997606166268 1.5574943907625099e-09 0 -0.034999689979738277 1.3431439478773171e-07 0 -0.034999997473736298 -3.9353974757235521e-09 0 -0.034343230031424379 4.497455548940482e-05 0 -0.034437233767592557 -7.769857925365493e-05 0 -0.033201128905491623 0.00052450329813413777 0 -0.032988093284615008 0.00035817705121361641 0 -0.032786942805840512 0.00049940674821143235 0 -0.033201128905491623 0.00052450329813413777 0 -0.033201681330211535 0.00030261852621996213 0 -0.032988093284615008 0.00035817705121361641 0 -0.034999689979738277 1.3431439478773171e-07 0 -0.034999997473736298 -3.9353974757235521e-09 0 -0.034999465050472377 -6.2141977042461817e-07 0 -0.032786942805840512 0.00049940674821143235 0 -0.032483374450206465 0.00016488809065991837 0 -0.032755105261967954 0.00025386728346118981 0 -0.034996305269914998 7.3255619382386945e-07 0 -0.034437233767592557 -7.769857925365493e-05 0 -0.035000239575812025 3.6994727381044995e-08 0 -0.034999741470386113 -3.6654722392607034e-08 0 -0.034971062131474197 -0.00013997879304856515 0 -0.032988093284615008 0.00035817705121361641 0 -0.032786942805840512 0.00049940674821143235 0 -0.032755105261967954 0.00025386728346118981 0 -0.034999741470386113 -3.6654722392607034e-08 0 -0.034971062131474197 -0.00013997879304856515 0 -0.034022761950223468 -0.00049152043735971871 0 -0.034971062131474197 -0.00013997879304856515 0 -0.034356636119057468 -0.00080401247265619489 0 -0.034022761950223468 -0.00049152043735971871 0 -0.034999053204784837 1.2584880216373438e-07 0 -0.033720545696969098 -0.00025755949146886331 0 -0.034999996857616816 5.0966008932505191e-09 0 -0.034997084736907783 -1.1220633511943146e-06 0 -0.034999995139628086 -4.7080642098024456e-09 0 -0.034437233767592557 -7.769857925365493e-05 0 -0.032680130713650987 2.5736364786753151e-05 0 -0.032680130713650987 2.5736364786753151e-05 0 -0.033720545696969098 -0.00025755949146886331 0 -0.032483374450206465 0.00016488809065991837 0 -0.0325908121431756 6.5294195411931471e-05 0 -0.032755105261967954 0.00025386728346118981 0 -0.032680130713650987 2.5736364786753151e-05 0 -0.031509220061556244 0.00043694308572891699 0 -0.032596191534908926 0.00058281199882622369 0 -0.033091979662952881 0.00012272187627420148 0 -0.032080449878882977 4.2887358261165944e-06 0 -0.026823627230110017 0.0016578959062500543 0 -0.026878080690755805 0.001727431281559754 0 -0.027064313415985704 0.0015953735913562376 0 -0.031509220061556244 0.00043694308572891699 0 -0.032142430844197524 4.673827329193355e-05 0 -0.032680130713650987 2.5736364786753151e-05 0 -0.032142430844197524 4.673827329193355e-05 0 -0.033219208508994978 -0.0002117122839965176 0 -0.033315743252171751 -0.00010416651725478058 0 -0.033341207231468654 -0.00021253279353462053 0 -0.032996002181170977 0.00020979217659198185 0 -0.033063650756382519 0.00012474030654452669 0 -0.0325908121431756 6.5294195411931471e-05 0 -0.032996002181170977 0.00020979217659198185 0 -0.0325908121431756 6.5294195411931471e-05 0 -0.032755105261967954 0.00025386728346118981 0 -0.031600770118209776 0.00053862867025738213 0 -0.031509220061556244 0.00043694308572891699 0 -0.032996002181170977 0.00020979217659198185 0 -0.032988093284615008 0.00035817705121361641 0 -0.032755105261967954 0.00025386728346118981 0 -0.030445536969013531 0.00050026351153922496 0 -0.030829385603760244 0.00053991693125138079 0 -0.030620070243378185 0.00073481029133092067 0 -0.026805642348099814 0.0017154391958452159 0 -0.026813694653353943 0.0017192116601380842 0 -0.026803881172851606 0.0017143118423612687 0 -0.026823627230110017 0.0016578959062500543 0 -0.026805642348099814 0.0017154391958452159 0 -0.026813694653353943 0.0017192116601380842 0 -0.031509220061556244 0.00043694308572891699 0 -0.029877197950986634 0.0011762043004083281 0 -0.027935859444580956 0.0011130664726934512 0 -0.028069499425668908 0.00098877725328975412 0 -0.026878080690755805 0.001727431281559754 0 -0.026776554252489985 0.0016986095038504494 0 -0.026616431220848287 0.0016586567667019579 0 -0.026878080690755805 0.001727431281559754 0 -0.027140482998128879 0.0022159961306161264 0 -0.027104358951201356 0.0018275572077143948 0 -0.026823627230110017 0.0016578959062500543 0 -0.026878080690755805 0.001727431281559754 0 -0.026813694653353943 0.0017192116601380842 0 -0.026878080690755805 0.001727431281559754 0 -0.027104358951201356 0.0018275572077143948 0 -0.027064313415985704 0.0015953735913562376 0 -0.026878080690755805 0.001727431281559754 0 -0.026813694653353943 0.0017192116601380842 0 -0.026776554252489985 0.0016986095038504494 0 -0.026029260956729736 0.0014918905380302972 0 -0.026195977299133807 0.0016424845031982552 0 -0.026813694653353943 0.0017192116601380842 0 -0.026776554252489985 0.0016986095038504494 0 -0.026784094339406494 0.0017062152687654165 0 -0.026748799730499376 0.0017002497380073035 0 -0.026776554252489985 0.0016986095038504494 0 -0.026784094339406494 0.0017062152687654165 0 -0.026813694653353943 0.0017192116601380842 0 -0.026784094339406494 0.0017062152687654165 0 -0.026803881172851606 0.0017143118423612687 0 -0.026804728050012674 0.0017216986518373079 0 -0.02681330670368675 0.0017136645001159631 0 -0.026803881172851606 0.0017143118423612687 0 -0.02681330670368675 0.0017136645001159631 0 -0.026805642348099814 0.0017154391958452159 0 -0.026803881172851606 0.0017143118423612687 0 -0.0340778023650588 -1.7886652039130298e-05 0 -0.034242203550394326 -0.00020168997108026203 0 -0.03436524762183768 -7.1928811570259922e-05 0 -0.0340778023650588 -1.7886652039130298e-05 0 -0.033913544465224002 -0.00021823586445211937 0 -0.034074318064241264 -0.00021009857811767421 0 -0.0340778023650588 -1.7886652039130298e-05 0 -0.034074318064241264 -0.00021009857811767421 0 -0.034242203550394326 -0.00020168997108026203 0 -0.027691025838884609 0.0025591631287145279 0 -0.027780181002902228 0.0023460295260088588 0 -0.027140482998128879 0.0022159961306161264 0 -0.026538389316538426 0.0012907090304941067 0 -0.026776554252489985 0.0016986095038504494 0 -0.026455166100201901 0.0014759632067091297 0 -0.027780181002902228 0.0023460295260088588 0 -0.027140482998128879 0.0022159961306161264 0 -0.02732097454759945 0.0017998460886149369 0 -0.028884610435555878 0.00098072793652830849 0 -0.028069499425668908 0.00098877725328975412 0 -0.028747361963924762 0.00059568512744059246 0 -0.028824765625984537 0.00061069908926707434 0 -0.028851940224752372 0.00068002054857341308 0 -0.027855502491799487 0.00091869062835963885 0 -0.028069499425668908 0.00098877725328975412 0 -0.026776554252489985 0.0016986095038504494 0 -0.026455166100201901 0.0014759632067091297 0 -0.026616431220848287 0.0016586567667019579 0 -0.031044814960199875 0.00082107009249528045 0 -0.031801193215782793 0.00026429899300617544 0 -0.033816970847197148 -0.00031328295536120834 0 -0.034062220106595736 -0.00041327176827919606 0 -0.033680230395052836 -0.00045858469627994104 0 -0.0340778023650588 -1.7886652039130298e-05 0 -0.033913544465224002 -0.00021823586445211937 0 -0.033814744451382051 -0.00030371212635636036 0 -0.031889991455126498 0.00030043145582962452 0 -0.031801193215782793 0.00026429899300617544 0 -0.027140482998128879 0.0022159961306161264 0 -0.027104358951201356 0.0018275572077143948 0 -0.02732097454759945 0.0017998460886149369 0 -0.031801193215782793 0.00026429899300617544 0 -0.032142430844197524 4.673827329193355e-05 0 -0.027104358951201356 0.0018275572077143948 0 -0.02732097454759945 0.0017998460886149369 0 -0.027064313415985704 0.0015953735913562376 0 -0.033913544465224002 -0.00021823586445211937 0 -0.033816970847197148 -0.00031328295536120834 0 -0.034062220106595736 -0.00041327176827919606 0 -0.033913544465224002 -0.00021823586445211937 0 -0.034062220106595736 -0.00041327176827919606 0 -0.034074318064241264 -0.00021009857811767421 0 -0.034062220106595736 -0.00041327176827919606 0 -0.034074318064241264 -0.00021009857811767421 0 -0.034242203550394326 -0.00020168997108026203 0 -0.033641317429200242 -6.8671112477346373e-05 0 -0.033665349279284232 -0.00019235266007252641 0 -0.033974245684514293 -3.374606137217416e-05 0 -0.033641317429200242 -6.8671112477346373e-05 0 -0.033665349279284232 -0.00019235266007252641 0 -0.033465856125362271 -0.00018756697957576955 0 -0.034997542927586882 -8.6171964373904872e-06 0 -0.034998361044848873 -2.5718040115495913e-06 0 -0.034993180269727323 -6.0973769387389306e-06 0 -0.033665349279284232 -0.00019235266007252641 0 -0.033465856125362271 -0.00018756697957576955 0 -0.033364857044422581 -0.00034658162709023461 0 -0.034119577929969967 -7.4283415051743131e-05 0 -0.033720545696969098 -0.00025755949146886331 0 -0.033641317429200242 -6.8671112477346373e-05 0 -0.033315743252171751 -0.00010416651725478058 0 -0.033465856125362271 -0.00018756697957576955 0 -0.034997542927586882 -8.6171964373904872e-06 0 -0.034997382195986144 -2.5894741474554071e-06 0 -0.034997978846827656 -1.5597862216992962e-06 0 -0.033470861487112757 4.0692301016440743e-06 0 -0.032142430844197524 4.673827329193355e-05 0 -0.033315743252171751 -0.00010416651725478058 0 -0.033465856125362271 -0.00018756697957576955 0 -0.033341207231468654 -0.00021253279353462053 0 -0.033465856125362271 -0.00018756697957576955 0 -0.033341207231468654 -0.00021253279353462053 0 -0.033364857044422581 -0.00034658162709023461 0 -0.033219208508994978 -0.0002117122839965176 0 -0.033341207231468654 -0.00021253279353462053 0 -0.033364857044422581 -0.00034658162709023461 0 -0.034997084736907783 -1.1220633511943146e-06 0 -0.034997978846827656 -1.5597862216992962e-06 0 -0.034999995139628086 -4.7080642098024456e-09 0 -0.033720545696969098 -0.00025755949146886331 0 -0.03374873245065 -0.00026974102302249026 0 -0.034997978846827656 -1.5597862216992962e-06 0 -0.034999995139628086 -4.7080642098024456e-09 0 -0.034998361044848873 -2.5718040115495913e-06 0 -0.034998361044848873 -2.5718040115495913e-06 0 -0.034999993217581564 -7.89455526557633e-10 0 -0.034993180269727323 -6.0973769387389306e-06 0 -0.034999995139628086 -4.7080642098024456e-09 0 -0.034998361044848873 -2.5718040115495913e-06 0 -0.034999993217581564 -7.89455526557633e-10 0 -0.034997542927586882 -8.6171964373904872e-06 0 -0.034997978846827656 -1.5597862216992962e-06 0 -0.034998361044848873 -2.5718040115495913e-06 0 -0.034999993217581564 -7.89455526557633e-10 0 -0.03498717666253881 -2.4275164416953838e-06 0 -0.034993180269727323 -6.0973769387389306e-06 0 -0.03498717666253881 -2.4275164416953838e-06 0 -0.034962307694525324 -8.5874737683390631e-06 0 -0.034999945054143569 5.871501361353553e-09 0 -0.034999993217581564 -7.89455526557633e-10 0 -0.03498717666253881 -2.4275164416953838e-06 0 -0.034999945054143569 5.871501361353553e-09 0 -0.03498717666253881 -2.4275164416953838e-06 0 -0.034962307694525324 -8.5874737683390631e-06 0 -0.034980902816987104 -1.2630269668500257e-05 0 -0.034962307694525324 -8.5874737683390631e-06 0 -0.034970778309049544 -1.8262728876223617e-05 0 -0.034980902816987104 -1.2630269668500257e-05 0 -0.034997542927586882 -8.6171964373904872e-06 0 -0.034993180269727323 -6.0973769387389306e-06 0 -0.034984713387398572 -2.3555941538140487e-05 0 -0.034980902816987104 -1.2630269668500257e-05 0 -0.034993180269727323 -6.0973769387389306e-06 0 -0.034984713387398572 -2.3555941538140487e-05 0 -0.034970778309049544 -1.8262728876223617e-05 0 -0.034980902816987104 -1.2630269668500257e-05 0 -0.034984713387398572 -2.3555941538140487e-05 0 -0.034119577929969967 -7.4283415051743131e-05 0 -0.034203915261546189 -5.2450014061517324e-06 0 -0.03498717666253881 -2.4275164416953838e-06 0 -0.034980902816987104 -1.2630269668500257e-05 0 -0.034993180269727323 -6.0973769387389306e-06 0 -0.034999953403732444 -1.9662078959801361e-08 0 -0.034951653640909096 -1.2112845615027143e-05 0 -0.034975213361978563 -1.2608279583535981e-05 0 -0.034962307694525324 -8.5874737683390631e-06 0 -0.034999945054143569 5.871501361353553e-09 0 -0.034951653640909096 -1.2112845615027143e-05 0 -0.034999953403732444 -1.9662078959801361e-08 0 -0.034999945054143569 5.871501361353553e-09 0 -0.034951653640909096 -1.2112845615027143e-05 0 -0.034962307694525324 -8.5874737683390631e-06 0 -0.034951653640909096 -1.2112845615027143e-05 0 -0.034912791078313646 -2.1500838815297262e-05 0 -0.034951653640909096 -1.2112845615027143e-05 0 -0.034906828390581637 -2.3885721710658845e-05 0 -0.034975213361978563 -1.2608279583535981e-05 0 -0.034906828390581637 -2.3885721710658845e-05 0 -0.034960502771930912 -1.0399167376504368e-05 0 -0.034975213361978563 -1.2608279583535981e-05 0 -0.034906828390581637 -2.3885721710658845e-05 0 -0.03483131740424323 2.5827590751983107e-05 0 -0.034960502771930912 -1.0399167376504368e-05 0 -0.034951653640909096 -1.2112845615027143e-05 0 -0.034906828390581637 -2.3885721710658845e-05 0 -0.034912791078313646 -2.1500838815297262e-05 0 -0.034906828390581637 -2.3885721710658845e-05 0 -0.034912791078313646 -2.1500838815297262e-05 0 -0.034837617630681786 -4.1868173528443459e-05 0 -0.034912791078313646 -2.1500838815297262e-05 0 -0.034837617630681786 -4.1868173528443459e-05 0 -0.034947620653331485 -3.8998511200279517e-05 0 -0.034557256274630327 5.5845468475283209e-05 0 -0.03447379883917754 3.9932176365956171e-05 0 -0.034906828390581637 -2.3885721710658845e-05 0 -0.034837617630681786 -4.1868173528443459e-05 0 -0.03483131740424323 2.5827590751983107e-05 0 -0.034837617630681786 -4.1868173528443459e-05 0 -0.034754483211919485 3.9138746324734371e-05 0 -0.034603342678864446 -3.4717661565973803e-05 0 -0.034837617630681786 -4.1868173528443459e-05 0 -0.034754483211919485 3.9138746324734371e-05 0 -0.03483131740424323 2.5827590751983107e-05 0 -0.034754483211919485 3.9138746324734371e-05 0 -0.03483131740424323 2.5827590751983107e-05 0 -0.034787364772999069 8.8917162562156637e-05 0 -0.03483131740424323 2.5827590751983107e-05 0 -0.034846828104511875 5.0327231990554521e-05 0 -0.034857003958840851 2.3474780429253729e-05 0 -0.03483131740424323 2.5827590751983107e-05 0 -0.034846828104511875 5.0327231990554521e-05 0 -0.034823949119605346 8.6387632030012282e-05 0 -0.034891327106757263 1.9075890513000138e-05 0 -0.034913593652714923 7.6229839279146096e-06 0 -0.034062220106595736 -0.00041327176827919606 0 -0.034242203550394326 -0.00020168997108026203 0 -0.034401069962637934 -0.0003597069664426039 0 -0.033470861487112757 4.0692301016440743e-06 0 -0.034203915261546189 -5.2450014061517324e-06 0 -0.034461240167721598 -0.00019757397153046121 0 -0.034242203550394326 -0.00020168997108026203 0 -0.034401069962637934 -0.0003597069664426039 0 -0.034970778309049544 -1.8262728876223617e-05 0 -0.034984713387398572 -2.3555941538140487e-05 0 -0.034947620653331485 -3.8998511200279517e-05 0 -0.034203915261546189 -5.2450014061517324e-06 0 -0.03447379883917754 3.9932176365956171e-05 0 -0.034962307694525324 -8.5874737683390631e-06 0 -0.034970778309049544 -1.8262728876223617e-05 0 -0.034947620653331485 -3.8998511200279517e-05 0 -0.034962307694525324 -8.5874737683390631e-06 0 -0.034912791078313646 -2.1500838815297262e-05 0 -0.034947620653331485 -3.8998511200279517e-05 0 -0.034461240167721598 -0.00019757397153046121 0 -0.034401069962637934 -0.0003597069664426039 0 -0.034619704375187625 -0.00022142802671153746 0 -0.034461240167721598 -0.00019757397153046121 0 -0.034619704375187625 -0.00022142802671153746 0 -0.034603342678864446 -3.4717661565973803e-05 0 -0.034837617630681786 -4.1868173528443459e-05 0 -0.034619704375187625 -0.00022142802671153746 0 -0.034603342678864446 -3.4717661565973803e-05 0 -0.034754483211919485 3.9138746324734371e-05 0 -0.034603342678864446 -3.4717661565973803e-05 0 -0.034631098816210418 7.9197089969794114e-05 0 -0.034603342678864446 -3.4717661565973803e-05 0 -0.034409857682537799 8.0414972643638908e-05 0 -0.034631098816210418 7.9197089969794114e-05 0 -0.0340778023650588 -1.7886652039130298e-05 0 -0.03436524762183768 -7.1928811570259922e-05 0 -0.034409857682537799 8.0414972643638908e-05 0 -0.034603342678864446 -3.4717661565973803e-05 0 -0.03436524762183768 -7.1928811570259922e-05 0 -0.034409857682537799 8.0414972643638908e-05 0 -0.034461240167721598 -0.00019757397153046121 0 -0.034603342678864446 -3.4717661565973803e-05 0 -0.03436524762183768 -7.1928811570259922e-05 0 -0.034461240167721598 -0.00019757397153046121 0 -0.034242203550394326 -0.00020168997108026203 0 -0.03436524762183768 -7.1928811570259922e-05 0 -0.0340778023650588 -1.7886652039130298e-05 0 -0.034409857682537799 8.0414972643638908e-05 0 -0.03430319686505743 0.00021971715260201444 0 -0.03430319686505743 0.00021971715260201444 0 -0.034493398368545355 0.00032126858765590141 0 -0.034546843749020409 0.0001592688425522863 0 -0.034409857682537799 8.0414972643638908e-05 0 -0.03430319686505743 0.00021971715260201444 0 -0.034546843749020409 0.0001592688425522863 0 -0.028692116352649982 0.00044961142438041692 0 -0.028642627802010271 0.00051296924486065741 0 -0.028640469337530797 0.00039753757117134156 0 -0.029112686134569122 0.0010147512904719693 0 -0.028772474564876031 0.00056298581191225163 0 -0.028755879056135022 0.00076080123762186291 0 -0.028642627802010271 0.00051296924486065741 0 -0.028540940029416536 0.00037253472358148444 0 -0.028640469337530797 0.00039753757117134156 0 -0.030119348994525931 0.00091921581087698483 0 -0.029345315720000296 0.00039992243969532034 0 -0.030119348994525931 0.00091921581087698483 0 -0.031179968315248982 0.00074041107042145703 0 -0.028540940029416536 0.00037253472358148444 0 -0.028640469337530797 0.00039753757117134156 0 -0.028596745166685714 0.0003275684433570429 0 -0.028694159739018163 0.0003742296945999861 0 -0.028640469337530797 0.00039753757117134156 0 -0.028660912463687026 0.00033071225816659968 0 -0.034630630543959463 0.000437501717450521 0 -0.034493398368545355 0.00032126858765590141 0 -0.034546843749020409 0.0001592688425522863 0 -0.031989793557195764 0.00049450263466947959 0 -0.032651290930392811 0.00071002760804171118 0 -0.034680403238346744 0.00021374520017538909 0 -0.034668674074411418 0.00017123586775186746 0 -0.034546843749020409 0.0001592688425522863 0 -0.028772474564876031 0.00056298581191225163 0 -0.028452227396890718 0.00051453587018443925 0 -0.028755879056135022 0.00076080123762186291 0 -0.031989793557195764 0.00049450263466947959 0 -0.031179968315248982 0.00074041107042145703 0 -0.034668674074411418 0.00017123586775186746 0 -0.034661997755953043 0.00013173546709409166 0 -0.034546843749020409 0.0001592688425522863 0 -0.034409857682537799 8.0414972643638908e-05 0 -0.034546843749020409 0.0001592688425522863 0 -0.034631098816210418 7.9197089969794114e-05 0 -0.034661997755953043 0.00013173546709409166 0 -0.034546843749020409 0.0001592688425522863 0 -0.034631098816210418 7.9197089969794114e-05 0 -0.034661997755953043 0.00013173546709409166 0 -0.034631098816210418 7.9197089969794114e-05 0 -0.034714496363697535 9.6406335247003266e-05 0 -0.034754483211919485 3.9138746324734371e-05 0 -0.034714496363697535 9.6406335247003266e-05 0 -0.034787364772999069 8.8917162562156637e-05 0 -0.034714496363697535 9.6406335247003266e-05 0 -0.034787364772999069 8.8917162562156637e-05 0 -0.034723793493041964 0.00013585329135166744 0 -0.034754483211919485 3.9138746324734371e-05 0 -0.034631098816210418 7.9197089969794114e-05 0 -0.034714496363697535 9.6406335247003266e-05 0 -0.034787364772999069 8.8917162562156637e-05 0 -0.034723793493041964 0.00013585329135166744 0 -0.03476287897263107 0.00014539613593297977 0 -0.034661997755953043 0.00013173546709409166 0 -0.034714496363697535 9.6406335247003266e-05 0 -0.034723793493041964 0.00013585329135166744 0 -0.034668674074411418 0.00017123586775186746 0 -0.034661997755953043 0.00013173546709409166 0 -0.034723793493041964 0.00013585329135166744 0 -0.034787364772999069 8.8917162562156637e-05 0 -0.034823949119605346 8.6387632030012282e-05 0 -0.034795429973742679 0.00011449204535896753 0 -0.03483131740424323 2.5827590751983107e-05 0 -0.034787364772999069 8.8917162562156637e-05 0 -0.034823949119605346 8.6387632030012282e-05 0 -0.034787364772999069 8.8917162562156637e-05 0 -0.034795429973742679 0.00011449204535896753 0 -0.03476287897263107 0.00014539613593297977 0 -0.034823949119605346 8.6387632030012282e-05 0 -0.034806374912824331 0.00013875736363928989 0 -0.034856376851764556 9.0045631917457024e-05 0 -0.034823949119605346 8.6387632030012282e-05 0 -0.034795429973742679 0.00011449204535896753 0 -0.034806374912824331 0.00013875736363928989 0 -0.034806374912824331 0.00013875736363928989 0 -0.034751986492034814 0.00018502066518479815 0 -0.034786420585563187 0.00020179638384978978 0 -0.034795429973742679 0.00011449204535896753 0 -0.034806374912824331 0.00013875736363928989 0 -0.03476287897263107 0.00014539613593297977 0 -0.034806374912824331 0.00013875736363928989 0 -0.034751986492034814 0.00018502066518479815 0 -0.03476287897263107 0.00014539613593297977 0 -0.034668674074411418 0.00017123586775186746 0 -0.034723793493041964 0.00013585329135166744 0 -0.034710845776934653 0.00018825279349438324 0 -0.034723793493041964 0.00013585329135166744 0 -0.03476287897263107 0.00014539613593297977 0 -0.034710845776934653 0.00018825279349438324 0 -0.034751986492034814 0.00018502066518479815 0 -0.034710845776934653 0.00018825279349438324 0 -0.034720783829106247 0.00019842539907244679 0 -0.034751986492034814 0.00018502066518479815 0 -0.03476287897263107 0.00014539613593297977 0 -0.034710845776934653 0.00018825279349438324 0 -0.034710845776934653 0.00018825279349438324 0 -0.03469376889435466 0.00020936026854729417 0 -0.034720783829106247 0.00019842539907244679 0 -0.034680403238346744 0.00021374520017538909 0 -0.034710845776934653 0.00018825279349438324 0 -0.03469376889435466 0.00020936026854729417 0 -0.034680403238346744 0.00021374520017538909 0 -0.034668674074411418 0.00017123586775186746 0 -0.034710845776934653 0.00018825279349438324 0 -0.031989793557195764 0.00049450263466947959 0 -0.032117637064517965 0.00054814990354943422 0 -0.031989793557195764 0.00049450263466947959 0 -0.031107880847342957 0.00020277670595486851 0 -0.028452227396890718 0.00051453587018443925 0 -0.02834300804162727 0.0001787330361168983 0 -0.028466756379680779 0.00021615976977156192 0 -0.034675990979868704 0.00020107487009561264 0 -0.03469376889435466 0.00020936026854729417 0 -0.034699109722907871 0.00024083876406318048 0 -0.03469376889435466 0.00020936026854729417 0 -0.034720783829106247 0.00019842539907244679 0 -0.034727794069688921 0.00021702062561649289 0 -0.034751986492034814 0.00018502066518479815 0 -0.034720783829106247 0.00019842539907244679 0 -0.034727794069688921 0.00021702062561649289 0 -0.03469376889435466 0.00020936026854729417 0 -0.034727794069688921 0.00021702062561649289 0 -0.034699109722907871 0.00024083876406318048 0 -0.034751986492034814 0.00018502066518479815 0 -0.034727794069688921 0.00021702062561649289 0 -0.034786420585563187 0.00020179638384978978 0 -0.034727794069688921 0.00021702062561649289 0 -0.034786420585563187 0.00020179638384978978 0 -0.034742490597110307 0.00024833146206150626 0 -0.034786420585563187 0.00020179638384978978 0 -0.034742490597110307 0.00024833146206150626 0 -0.034788518082126525 0.00024332822727942132 0 -0.034742490597110307 0.00024833146206150626 0 -0.034709193494088103 0.00028761009847630973 0 -0.034746945389054748 0.00028972765821847927 0 -0.034742490597110307 0.00024833146206150626 0 -0.034788518082126525 0.00024332822727942132 0 -0.034746945389054748 0.00028972765821847927 0 -0.02834300804162727 0.0001787330361168983 0 -0.028369277119813987 9.3585852031894331e-05 0 -0.028306704060683013 2.247500678372495e-05 0 -0.031107880847342957 0.00020277670595486851 0 -0.029964197949021706 -0.00034976944856773942 0 -0.034742490597110307 0.00024833146206150626 0 -0.034699109722907871 0.00024083876406318048 0 -0.034709193494088103 0.00028761009847630973 0 -0.02834300804162727 0.0001787330361168983 0 -0.028394953997186678 0.00012928978598678693 0 -0.028466756379680779 0.00021615976977156192 0 -0.02834300804162727 0.0001787330361168983 0 -0.028394953997186678 0.00012928978598678693 0 -0.028369277119813987 9.3585852031894331e-05 0 -0.034727794069688921 0.00021702062561649289 0 -0.034742490597110307 0.00024833146206150626 0 -0.034699109722907871 0.00024083876406318048 0 -0.028369277119813987 9.3585852031894331e-05 0 -0.028418553651958695 7.7922230239469529e-05 0 -0.028306704060683013 2.247500678372495e-05 0 -0.028394953997186678 0.00012928978598678693 0 -0.028418553651958695 7.7922230239469529e-05 0 -0.028444429515552566 0.00011585846601431428 0 -0.028394953997186678 0.00012928978598678693 0 -0.028369277119813987 9.3585852031894331e-05 0 -0.028418553651958695 7.7922230239469529e-05 0 -0.028418553651958695 7.7922230239469529e-05 0 -0.028444429515552566 0.00011585846601431428 0 -0.028484433940315183 9.5463339529724191e-05 0 -0.028484433940315183 9.5463339529724191e-05 0 -0.028554307219991037 5.3593275430091759e-05 0 -0.028462623860949839 4.3427598856042842e-05 0 -0.028418553651958695 7.7922230239469529e-05 0 -0.028484433940315183 9.5463339529724191e-05 0 -0.028462623860949839 4.3427598856042842e-05 0 -0.028444429515552566 0.00011585846601431428 0 -0.028485473675581033 0.00015235897292049377 0 -0.028484433940315183 9.5463339529724191e-05 0 -0.028444429515552566 0.00011585846601431428 0 -0.028485473675581033 0.00015235897292049377 0 -0.028466756379680779 0.00021615976977156192 0 -0.028394953997186678 0.00012928978598678693 0 -0.028444429515552566 0.00011585846601431428 0 -0.028466756379680779 0.00021615976977156192 0 -0.0285162705876627 0.00020632960737636789 0 -0.028485473675581033 0.00015235897292049377 0 -0.028466756379680779 0.00021615976977156192 0 -0.028485473675581033 0.00015235897292049377 0 -0.028512452351257971 0.00012792236051216752 0 -0.028484433940315183 9.5463339529724191e-05 0 -0.0285162705876627 0.00020632960737636789 0 -0.028485473675581033 0.00015235897292049377 0 -0.028512452351257971 0.00012792236051216752 0 -0.028512452351257971 0.00012792236051216752 0 -0.028484433940315183 9.5463339529724191e-05 0 -0.028554307219991037 5.3593275430091759e-05 0 -0.028554307219991037 5.3593275430091759e-05 0 -0.028702192168571516 0.0002155100969765674 0 -0.028334515556440048 -0.0004481275956062646 0 -0.028554307219991037 5.3593275430091759e-05 0 -0.028702192168571516 0.0002155100969765674 0 -0.028608437766558505 0.00021085038905102621 0 -0.028702192168571516 0.0002155100969765674 0 -0.028608437766558505 0.00021085038905102621 0 -0.028626233454605715 0.00026978042251937318 0 -0.028554307219991037 5.3593275430091759e-05 0 -0.028608437766558505 0.00021085038905102621 0 -0.028548614199510654 0.00017371387773539769 0 -0.028512452351257971 0.00012792236051216752 0 -0.028554307219991037 5.3593275430091759e-05 0 -0.028548614199510654 0.00017371387773539769 0 -0.028608437766558505 0.00021085038905102621 0 -0.028548614199510654 0.00017371387773539769 0 -0.028570433207494143 0.00025176858801623735 0 -0.0285162705876627 0.00020632960737636789 0 -0.028512452351257971 0.00012792236051216752 0 -0.028548614199510654 0.00017371387773539769 0 -0.0285162705876627 0.00020632960737636789 0 -0.028570433207494143 0.00025176858801623735 0 -0.028534460837087165 0.00027499878048028846 0 -0.0285162705876627 0.00020632960737636789 0 -0.028548614199510654 0.00017371387773539769 0 -0.028570433207494143 0.00025176858801623735 0 -0.028570433207494143 0.00025176858801623735 0 -0.028626233454605715 0.00026978042251937318 0 -0.028596745166685714 0.0003275684433570429 0 -0.028570433207494143 0.00025176858801623735 0 -0.028596745166685714 0.0003275684433570429 0 -0.028534460837087165 0.00027499878048028846 0 -0.028702192168571516 0.0002155100969765674 0 -0.028626233454605715 0.00026978042251937318 0 -0.028660912463687026 0.00033071225816659968 0 -0.028608437766558505 0.00021085038905102621 0 -0.028570433207494143 0.00025176858801623735 0 -0.028626233454605715 0.00026978042251937318 0 -0.028640469337530797 0.00039753757117134156 0 -0.028660912463687026 0.00033071225816659968 0 -0.028596745166685714 0.0003275684433570429 0 -0.028626233454605715 0.00026978042251937318 0 -0.028660912463687026 0.00033071225816659968 0 -0.028596745166685714 0.0003275684433570429 0 -0.028540940029416536 0.00037253472358148444 0 -0.028596745166685714 0.0003275684433570429 0 -0.028534460837087165 0.00027499878048028846 0 -0.029345315720000296 0.00039992243969532034 0 -0.02911520664382377 0.00024559146675795794 0 -0.028772474564876031 0.00056298581191225163 0 -0.028452227396890718 0.00051453587018443925 0 -0.028466756379680779 0.00021615976977156192 0 -0.028540940029416536 0.00037253472358148444 0 -0.028466756379680779 0.00021615976977156192 0 -0.028534460837087165 0.00027499878048028846 0 -0.0285162705876627 0.00020632960737636789 0 -0.028466756379680779 0.00021615976977156192 0 -0.028534460837087165 0.00027499878048028846 0 -0.032907788954822006 -0.0022379200203240524 0 -0.032839319920626393 -0.0022446154069585755 0 -0.032906560615846299 -0.0022768504396175836 0 -0.032907788954822006 -0.0022379200203240524 0 -0.03285433812430405 -0.0021639496137568683 0 -0.032839319920626393 -0.0022446154069585755 0 -0.031052286823607736 -0.0024130038045172284 0 -0.032329086275104967 -0.0025950977977425684 0 -0.032717115462652886 -0.0025465540387537141 0 -0.03287755016621436 -0.002532810704342484 0 -0.032838394215511456 -0.0025088668155537073 0 -0.032969004990466802 -0.0024488623279217583 0 -0.033033627628602076 -0.0025599699638783951 0 -0.03287755016621436 -0.002532810704342484 0 -0.032056071262227349 -0.0026716616012497831 0 -0.031052286823607736 -0.0024130038045172284 0 -0.03285433812430405 -0.0021639496137568683 0 -0.032839319920626393 -0.0022446154069585755 0 -0.032774782728833628 -0.0021458697015988709 0 -0.034831056777745027 0.0002090255262244007 0 -0.034892039123582193 0.00018455274965101102 0 -0.034832395102293433 0.00027149322638385148 0 -0.031052286823607736 -0.0024130038045172284 0 -0.030464014325235229 -0.0017106850197186124 0 -0.032504173237105034 -0.001443361793737724 0 -0.030464014325235229 -0.0017106850197186124 0 -0.034788518082126525 0.00024332822727942132 0 -0.034746945389054748 0.00028972765821847927 0 -0.034832395102293433 0.00027149322638385148 0 -0.034788518082126525 0.00024332822727942132 0 -0.034831056777745027 0.0002090255262244007 0 -0.034832395102293433 0.00027149322638385148 0 -0.034786420585563187 0.00020179638384978978 0 -0.034831056777745027 0.0002090255262244007 0 -0.0348473398754423 0.00015032372491798898 0 -0.034786420585563187 0.00020179638384978978 0 -0.034788518082126525 0.00024332822727942132 0 -0.034831056777745027 0.0002090255262244007 0 -0.034831056777745027 0.0002090255262244007 0 -0.034892039123582193 0.00018455274965101102 0 -0.0348473398754423 0.00015032372491798898 0 -0.034892039123582193 0.00018455274965101102 0 -0.0348473398754423 0.00015032372491798898 0 -0.034893974674056902 9.5707525772058537e-05 0 -0.034806374912824331 0.00013875736363928989 0 -0.0348473398754423 0.00015032372491798898 0 -0.034856376851764556 9.0045631917457024e-05 0 -0.034806374912824331 0.00013875736363928989 0 -0.034786420585563187 0.00020179638384978978 0 -0.0348473398754423 0.00015032372491798898 0 -0.034856376851764556 9.0045631917457024e-05 0 -0.034893974674056902 9.5707525772058537e-05 0 -0.03487315236235345 4.899483906733313e-05 0 -0.0348473398754423 0.00015032372491798898 0 -0.034856376851764556 9.0045631917457024e-05 0 -0.034893974674056902 9.5707525772058537e-05 0 -0.034846828104511875 5.0327231990554521e-05 0 -0.034823949119605346 8.6387632030012282e-05 0 -0.034856376851764556 9.0045631917457024e-05 0 -0.034893974674056902 9.5707525772058537e-05 0 -0.034941461361803157 9.9219429691159254e-05 0 -0.034934297953812428 5.9310199799550466e-05 0 -0.032839319920626393 -0.0022446154069585755 0 -0.032906742611463882 -0.0022799212623886619 0 -0.032906560615846299 -0.0022768504396175836 0 -0.032504173237105034 -0.001443361793737724 0 -0.033473973409694983 -0.0011887721412636371 0 -0.034892039123582193 0.00018455274965101102 0 -0.034893974674056902 9.5707525772058537e-05 0 -0.034941461361803157 9.9219429691159254e-05 0 -0.032907788954822006 -0.0022379200203240524 0 -0.032906560615846299 -0.0022768504396175836 0 -0.032915495802008067 -0.0023082573371863003 0 -0.032056071262227349 -0.0026716616012497831 0 -0.032279361060897044 -0.0026603560119732991 0 -0.032906560615846299 -0.0022768504396175836 0 -0.032917079537222088 -0.0022785827614314508 0 -0.032915495802008067 -0.0023082573371863003 0 -0.032906742611463882 -0.0022799212623886619 0 -0.032906560615846299 -0.0022768504396175836 0 -0.032917079537222088 -0.0022785827614314508 0 -0.032906742611463882 -0.0022799212623886619 0 -0.032917079537222088 -0.0022785827614314508 0 -0.032918965554287846 -0.002260339780287108 0 -0.032917079537222088 -0.0022785827614314508 0 -0.032918965554287846 -0.002260339780287108 0 -0.032911089083737272 -0.0022583966069810507 0 -0.032918965554287846 -0.002260339780287108 0 -0.032930866738704545 -0.002240913972402862 0 -0.032917767406594967 -0.0022428857119224026 0 -0.032906742611463882 -0.0022799212623886619 0 -0.032918965554287846 -0.002260339780287108 0 -0.032930866738704545 -0.002240913972402862 0 -0.034073515548621189 -0.0008396736711861598 0 -0.034065223241604402 -0.0008409040141153782 0 -0.034941461361803157 9.9219429691159254e-05 0 -0.034967059194242402 3.5929439928132153e-05 0 -0.034934297953812428 5.9310199799550466e-05 0 -0.034941461361803157 9.9219429691159254e-05 0 -0.034967059194242402 3.5929439928132153e-05 0 -0.034974474600088241 3.2124720115816694e-05 0 -0.033473973409694983 -0.0011887721412636371 0 -0.034065223241604402 -0.0008409040141153782 0 -0.034934297953812428 5.9310199799550466e-05 0 -0.03493438501533086 4.2670263128698805e-05 0 -0.034951566212762727 3.6566218002075547e-05 0 -0.034934297953812428 5.9310199799550466e-05 0 -0.03493438501533086 4.2670263128698805e-05 0 -0.034912605787756755 5.0452510257942626e-05 0 -0.034967059194242402 3.5929439928132153e-05 0 -0.034934297953812428 5.9310199799550466e-05 0 -0.034951566212762727 3.6566218002075547e-05 0 -0.034967059194242402 3.5929439928132153e-05 0 -0.034951566212762727 3.6566218002075547e-05 0 -0.03496782924879676 2.7275694621550341e-05 0 -0.034951566212762727 3.6566218002075547e-05 0 -0.034960675383651788 2.2181707003882776e-05 0 -0.03496782924879676 2.7275694621550341e-05 0 -0.034951566212762727 3.6566218002075547e-05 0 -0.034960675383651788 2.2181707003882776e-05 0 -0.034946677578551133 2.8395531599750173e-05 0 -0.034960675383651788 2.2181707003882776e-05 0 -0.034975244134916782 1.6824412899794556e-05 0 -0.03496782924879676 2.7275694621550341e-05 0 -0.034946677578551133 2.8395531599750173e-05 0 -0.034951453701940478 1.3749322411030136e-05 0 -0.034927190555351803 3.3257039392596387e-05 0 -0.03493438501533086 4.2670263128698805e-05 0 -0.034946677578551133 2.8395531599750173e-05 0 -0.034927190555351803 3.3257039392596387e-05 0 -0.03493438501533086 4.2670263128698805e-05 0 -0.034951566212762727 3.6566218002075547e-05 0 -0.034946677578551133 2.8395531599750173e-05 0 -0.034960675383651788 2.2181707003882776e-05 0 -0.034946677578551133 2.8395531599750173e-05 0 -0.034951453701940478 1.3749322411030136e-05 0 -0.034960675383651788 2.2181707003882776e-05 0 -0.034951453701940478 1.3749322411030136e-05 0 -0.034968617277326537 1.3691916635474084e-05 0 -0.034960675383651788 2.2181707003882776e-05 0 -0.034968617277326537 1.3691916635474084e-05 0 -0.034975244134916782 1.6824412899794556e-05 0 -0.034065223241604402 -0.0008409040141153782 0 -0.034055172529147575 -0.00089842180078451297 0 -0.034975244134916782 1.6824412899794556e-05 0 -0.034975970627901212 2.446545646012859e-05 0 -0.034985449521807786 8.8969104041128091e-06 0 -0.034968617277326537 1.3691916635474084e-05 0 -0.034975244134916782 1.6824412899794556e-05 0 -0.034979452997141176 9.1542876872948078e-06 0 -0.034975244134916782 1.6824412899794556e-05 0 -0.034985449521807786 8.8969104041128091e-06 0 -0.034979452997141176 9.1542876872948078e-06 0 -0.034975970627901212 2.446545646012859e-05 0 -0.034974596169935333 2.7646108183723521e-05 0 -0.034994313893425104 8.7527304250600934e-06 0 -0.034975970627901212 2.446545646012859e-05 0 -0.034985449521807786 8.8969104041128091e-06 0 -0.034994313893425104 8.7527304250600934e-06 0 -0.034967059194242402 3.5929439928132153e-05 0 -0.03496782924879676 2.7275694621550341e-05 0 -0.034973340305545025 3.2196077072758523e-05 0 -0.034975970627901212 2.446545646012859e-05 0 -0.03496782924879676 2.7275694621550341e-05 0 -0.034973340305545025 3.2196077072758523e-05 0 -0.034066878387793958 -0.00083155945918827719 0 -0.034065223241604402 -0.0008409040141153782 0 -0.034975244134916782 1.6824412899794556e-05 0 -0.034975970627901212 2.446545646012859e-05 0 -0.03496782924879676 2.7275694621550341e-05 0 -0.034846828104511875 5.0327231990554521e-05 0 -0.03487315236235345 4.899483906733313e-05 0 -0.034857003958840851 2.3474780429253729e-05 0 -0.034846828104511875 5.0327231990554521e-05 0 -0.034856376851764556 9.0045631917457024e-05 0 -0.03487315236235345 4.899483906733313e-05 0 -0.034893974674056902 9.5707525772058537e-05 0 -0.034934297953812428 5.9310199799550466e-05 0 -0.034912605787756755 5.0452510257942626e-05 0 -0.034893974674056902 9.5707525772058537e-05 0 -0.03487315236235345 4.899483906733313e-05 0 -0.034912605787756755 5.0452510257942626e-05 0 -0.03487315236235345 4.899483906733313e-05 0 -0.034912605787756755 5.0452510257942626e-05 0 -0.034907123411188644 2.5060150686894285e-05 0 -0.03493438501533086 4.2670263128698805e-05 0 -0.034912605787756755 5.0452510257942626e-05 0 -0.034927190555351803 3.3257039392596387e-05 0 -0.034912605787756755 5.0452510257942626e-05 0 -0.034927190555351803 3.3257039392596387e-05 0 -0.034907123411188644 2.5060150686894285e-05 0 -0.034951453701940478 1.3749322411030136e-05 0 -0.034927190555351803 3.3257039392596387e-05 0 -0.034907123411188644 2.5060150686894285e-05 0 -0.034907123411188644 2.5060150686894285e-05 0 -0.034857003958840851 2.3474780429253729e-05 0 -0.034923191016104332 -9.7395299742164671e-06 0 -0.03487315236235345 4.899483906733313e-05 0 -0.034907123411188644 2.5060150686894285e-05 0 -0.034857003958840851 2.3474780429253729e-05 0 -0.034960502771930912 -1.0399167376504368e-05 0 -0.034975213361978563 -1.2608279583535981e-05 0 -0.034989019246289804 -6.3824682263828894e-06 0 -0.034913593652714923 7.6229839279146096e-06 0 -0.034941870338318894 -3.6593462430951768e-06 0 -0.034951453701940478 1.3749322411030136e-05 0 -0.034907123411188644 2.5060150686894285e-05 0 -0.034923191016104332 -9.7395299742164671e-06 0 -0.034975213361978563 -1.2608279583535981e-05 0 -0.034989019246289804 -6.3824682263828894e-06 0 -0.034999984885293441 -1.0946097077511676e-08 0 -0.034941870338318894 -3.6593462430951768e-06 0 -0.034955047543177735 -7.3804839675190506e-06 0 -0.034989019246289804 -6.3824682263828894e-06 0 -0.034999984885293441 -1.0946097077511676e-08 0 -0.034996268234593446 -3.1585236890126904e-06 0 -0.034999953403732444 -1.9662078959801361e-08 0 -0.034975213361978563 -1.2608279583535981e-05 0 -0.034999984885293441 -1.0946097077511676e-08 0 -0.034986189640752167 3.2175908848367808e-06 0 -0.034989774166622599 -1.8521276239095886e-06 0 -0.034995534940901268 6.633967044749196e-07 0 -0.034986189640752167 3.2175908848367808e-06 0 -0.03497509199546147 4.8273266507573468e-06 0 -0.034989774166622599 -1.8521276239095886e-06 0 -0.034986189640752167 3.2175908848367808e-06 0 -0.034985449521807786 8.8969104041128091e-06 0 -0.034995534940901268 6.633967044749196e-07 0 -0.034986189640752167 3.2175908848367808e-06 0 -0.034979452997141176 9.1542876872948078e-06 0 -0.03497509199546147 4.8273266507573468e-06 0 -0.034968617277326537 1.3691916635474084e-05 0 -0.034979452997141176 9.1542876872948078e-06 0 -0.03497509199546147 4.8273266507573468e-06 0 -0.034986189640752167 3.2175908848367808e-06 0 -0.034985449521807786 8.8969104041128091e-06 0 -0.034979452997141176 9.1542876872948078e-06 0 -0.034951453701940478 1.3749322411030136e-05 0 -0.03497509199546147 4.8273266507573468e-06 0 -0.034969526924927309 -1.7514289118074674e-06 0 -0.034951453701940478 1.3749322411030136e-05 0 -0.034923191016104332 -9.7395299742164671e-06 0 -0.034969526924927309 -1.7514289118074674e-06 0 -0.034951453701940478 1.3749322411030136e-05 0 -0.034968617277326537 1.3691916635474084e-05 0 -0.03497509199546147 4.8273266507573468e-06 0 -0.03497509199546147 4.8273266507573468e-06 0 -0.034969526924927309 -1.7514289118074674e-06 0 -0.034989774166622599 -1.8521276239095886e-06 0 -0.034969526924927309 -1.7514289118074674e-06 0 -0.034996268234593446 -3.1585236890126904e-06 0 -0.034989774166622599 -1.8521276239095886e-06 0 -0.034923191016104332 -9.7395299742164671e-06 0 -0.034969526924927309 -1.7514289118074674e-06 0 -0.034996268234593446 -3.1585236890126904e-06 0 -0.034999984885293441 -1.0946097077511676e-08 0 -0.034996268234593446 -3.1585236890126904e-06 0 -0.034999967339305924 -1.0049008533745259e-08 0 -0.034996268234593446 -3.1585236890126904e-06 0 -0.034999967339305924 -1.0049008533745259e-08 0 -0.034989774166622599 -1.8521276239095886e-06 0 -0.034999967339305924 -1.0049008533745259e-08 0 -0.034989774166622599 -1.8521276239095886e-06 0 -0.034995534940901268 6.633967044749196e-07 0 -0.034999967339305924 -1.0049008533745259e-08 0 -0.034995534940901268 6.633967044749196e-07 0 -0.035000001974228888 2.1098912657793346e-09 0 -0.034985449521807786 8.8969104041128091e-06 0 -0.034995534940901268 6.633967044749196e-07 0 -0.034994313893425104 8.7527304250600934e-06 0 -0.034995534940901268 6.633967044749196e-07 0 -0.034999020687527839 1.1696198237248402e-06 0 -0.034994313893425104 8.7527304250600934e-06 0 -0.034116120211084885 -0.00085104062609261499 0 -0.034055172529147575 -0.00089842180078451297 0 -0.034995534940901268 6.633967044749196e-07 0 -0.035000001974228888 2.1098912657793346e-09 0 -0.034999020687527839 1.1696198237248402e-06 0 -0.035000001974228888 2.1098912657793346e-09 0 -0.034999998845396035 -1.6954832107723098e-09 0 -0.034999020687527839 1.1696198237248402e-06 0 -0.034998549394736352 -1.0381573402575507e-06 0 -0.034116120211084885 -0.00085104062609261499 0 -0.034999988481516774 -8.9911216050182433e-09 0 -0.034996562764139524 -6.2883634556686536e-06 0 -0.034996711296092019 -2.3668009651169144e-05 0 -0.034036461794391251 -0.00065554404722740773 0 -0.034654203302559514 -0.00031358952792095464 0 -0.034998024319580386 -3.284824148915285e-06 0 -0.034999988481516774 -8.9911216050182433e-09 0 -0.03499999681290062 -2.8810657090569864e-09 0 -0.034998024319580386 -3.284824148915285e-06 0 -0.034995263610590313 -6.7630687681418313e-06 0 -0.034998774143664459 -1.8790187152672623e-06 0 -0.034998024319580386 -3.284824148915285e-06 0 -0.034999988481516774 -8.9911216050182433e-09 0 -0.034996562764139524 -6.2883634556686536e-06 0 -0.03408167093742806 -0.00056627164541796227 0 -0.034036461794391251 -0.00065554404722740773 0 -0.034998024319580386 -3.284824148915285e-06 0 -0.034996562764139524 -6.2883634556686536e-06 0 -0.034995263610590313 -6.7630687681418313e-06 0 -0.035167591111473766 -2.4939390925305844e-08 0 -0.035158082171201102 -0.00059635833318348282 0 -0.034851510850021146 -0.0001907544484484527 0 -0.034036461794391251 -0.00065554404722740773 0 -0.033736165090736771 -0.0013241492782331903 0 -0.034996562764139524 -6.2883634556686536e-06 0 -0.034991830148169707 -1.3934454908126619e-05 0 -0.034996711296092019 -2.3668009651169144e-05 0 -0.034036461794391251 -0.00065554404722740773 0 -0.034116120211084885 -0.00085104062609261499 0 -0.032738388282253783 -0.0019955698059648365 0 -0.03282211415746486 -0.0020414345518070193 0 -0.032788807897325634 -0.0021290749088126375 0 -0.032738388282253783 -0.0019955698059648365 0 -0.032788807897325634 -0.0021290749088126375 0 -0.032703508333569213 -0.002133183032861417 0 -0.032703508333569213 -0.002133183032861417 0 -0.032739975251800467 -0.0022104176853035232 0 -0.032676406979920601 -0.0022602916338049332 0 -0.033736165090736771 -0.0013241492782331903 0 -0.033355327040468674 -0.0017276322123988637 0 -0.032788807897325634 -0.0021290749088126375 0 -0.032703508333569213 -0.002133183032861417 0 -0.032739975251800467 -0.0022104176853035232 0 -0.032788807897325634 -0.0021290749088126375 0 -0.032739975251800467 -0.0022104176853035232 0 -0.032802901516880673 -0.0022185256993807298 0 -0.032802901516880673 -0.0022185256993807298 0 -0.032861063821891141 -0.0022270982156623455 0 -0.032872049304535189 -0.0021487218071747491 0 -0.032788807897325634 -0.0021290749088126375 0 -0.032802901516880673 -0.0022185256993807298 0 -0.032872049304535189 -0.0021487218071747491 0 -0.033687448274609247 -0.0015710072422578003 0 -0.033552789236351424 -0.0017573170305798266 0 -0.032918965554287846 -0.002260339780287108 0 -0.032917767406594967 -0.0022428857119224026 0 -0.032911089083737272 -0.0022583966069810507 0 -0.032861063821891141 -0.0022270982156623455 0 -0.032872049304535189 -0.0021487218071747491 0 -0.032911089083737272 -0.0022583966069810507 0 -0.032917767406594967 -0.0022428857119224026 0 -0.032912298553971535 -0.0022322873609749152 0 -0.032911089083737272 -0.0022583966069810507 0 -0.032930866738704545 -0.002240913972402862 0 -0.032917767406594967 -0.0022428857119224026 0 -0.03291966557505141 -0.0022240578307518234 0 -0.032917767406594967 -0.0022428857119224026 0 -0.03291966557505141 -0.0022240578307518234 0 -0.032912298553971535 -0.0022322873609749152 0 -0.03282211415746486 -0.0020414345518070193 0 -0.032788807897325634 -0.0021290749088126375 0 -0.032872049304535189 -0.0021487218071747491 0 -0.03291441991268073 -0.0022045523110998115 0 -0.03291966557505141 -0.0022240578307518234 0 -0.032912298553971535 -0.0022322873609749152 0 -0.034116120211084885 -0.00085104062609261499 0 -0.033687448274609247 -0.0015710072422578003 0 -0.034307858958871826 -0.00015316173491885878 0 -0.034073947580967642 -0.00020345984484734106 0 -0.033869481352231265 -5.1723515152808276e-05 0 -0.034165048070873262 -0.00026590351888663191 0 -0.034073947580967642 -0.00020345984484734106 0 -0.03399266064777319 -0.00027151027667280628 0 -0.034165048070873262 -0.00026590351888663191 0 -0.034307858958871826 -0.00015316173491885878 0 -0.034073947580967642 -0.00020345984484734106 0 -0.034622063013813167 -2.3161813737513398e-05 0 -0.034570259211864303 -4.0132004721929087e-05 0 -0.034999668976929063 -1.0578542424184651e-07 0 -0.034747326113782825 3.9387991566481403e-05 0 -0.035029939490720093 1.8120505025178407e-05 0 -0.034307858958871826 -0.00015316173491885878 0 -0.034747326113782825 3.9387991566481403e-05 0 -0.033869481352231265 -5.1723515152808276e-05 0 -0.034999668976929063 -1.0578542424184651e-07 0 -0.034747326113782825 3.9387991566481403e-05 0 -0.034998700222786991 1.7904852590800259e-07 0 -0.034747326113782825 3.9387991566481403e-05 0 -0.034454821220836034 -0.00013055487935196926 0 -0.034746427822751051 -1.3945367877336774e-05 0 -0.034307858958871826 -0.00015316173491885878 0 -0.034747326113782825 3.9387991566481403e-05 0 -0.034454821220836034 -0.00013055487935196926 0 -0.034165048070873262 -0.00026590351888663191 0 -0.034307858958871826 -0.00015316173491885878 0 -0.034454821220836034 -0.00013055487935196926 0 -0.034165048070873262 -0.00026590351888663191 0 -0.034454821220836034 -0.00013055487935196926 0 -0.034108866128966416 -0.0002988568117636163 0 -0.034454821220836034 -0.00013055487935196926 0 -0.03454910354142704 -0.00015100521398891359 0 -0.034108866128966416 -0.0002988568117636163 0 -0.03454910354142704 -0.00015100521398891359 0 -0.034746427822751051 -1.3945367877336774e-05 0 -0.034853281320333725 7.2719211490798811e-05 0 -0.034454821220836034 -0.00013055487935196926 0 -0.03454910354142704 -0.00015100521398891359 0 -0.034746427822751051 -1.3945367877336774e-05 0 -0.034747326113782825 3.9387991566481403e-05 0 -0.034998700222786991 1.7904852590800259e-07 0 -0.034746427822751051 -1.3945367877336774e-05 0 -0.034998700222786991 1.7904852590800259e-07 0 -0.034746427822751051 -1.3945367877336774e-05 0 -0.034853281320333725 7.2719211490798811e-05 0 -0.034999377726068578 -8.5408969509675213e-07 0 -0.034654203302559514 -0.00031358952792095464 0 -0.034999999095602648 3.5899369709794958e-10 0 -0.03499999681290062 -2.8810657090569864e-09 0 -0.034998774143664459 -1.8790187152672623e-06 0 -0.034998024319580386 -3.284824148915285e-06 0 -0.03499999681290062 -2.8810657090569864e-09 0 -0.034998774143664459 -1.8790187152672623e-06 0 -0.035167591111473766 -2.4939390925305844e-08 0 -0.034853281320333725 7.2719211490798811e-05 0 -0.034851510850021146 -0.0001907544484484527 0 -0.03454910354142704 -0.00015100521398891359 0 -0.034853281320333725 7.2719211490798811e-05 0 -0.034851510850021146 -0.0001907544484484527 0 -0.03454910354142704 -0.00015100521398891359 0 -0.034851510850021146 -0.0001907544484484527 0 -0.03451953200956754 -0.0004918549556200538 0 -0.035158082171201102 -0.00059635833318348282 0 -0.034851510850021146 -0.0001907544484484527 0 -0.03451953200956754 -0.0004918549556200538 0 -0.035158082171201102 -0.00059635833318348282 0 -0.034387448710724335 -0.0014174515239277132 0 -0.034975005282720927 -0.001637018528788453 0 -0.035158082171201102 -0.00059635833318348282 0 -0.03451953200956754 -0.0004918549556200538 0 -0.034387448710724335 -0.0014174515239277132 0 -0.033220323596597684 -0.0015171186412493113 0 -0.033337133159965657 -0.0016028843288403186 0 -0.033962841025991633 -0.00071775571117198354 0 -0.033175665785504023 -0.0011922529301703251 0 -0.034387448710724335 -0.0014174515239277132 0 -0.033962841025991633 -0.00071775571117198354 0 -0.03451953200956754 -0.0004918549556200538 0 -0.034387448710724335 -0.0014174515239277132 0 -0.033962841025991633 -0.00071775571117198354 0 -0.034153548790760643 -0.0003844337493449955 0 -0.03370256449124194 -0.00039864822213738697 0 -0.033962841025991633 -0.00071775571117198354 0 -0.03451953200956754 -0.0004918549556200538 0 -0.034153548790760643 -0.0003844337493449955 0 -0.03454910354142704 -0.00015100521398891359 0 -0.03451953200956754 -0.0004918549556200538 0 -0.034153548790760643 -0.0003844337493449955 0 -0.03454910354142704 -0.00015100521398891359 0 -0.034153548790760643 -0.0003844337493449955 0 -0.034108866128966416 -0.0002988568117636163 0 -0.034165048070873262 -0.00026590351888663191 0 -0.034108866128966416 -0.0002988568117636163 0 -0.033984494910940577 -0.00037314329026821744 0 -0.034108866128966416 -0.0002988568117636163 0 -0.03370256449124194 -0.00039864822213738697 0 -0.033984494910940577 -0.00037314329026821744 0 -0.034153548790760643 -0.0003844337493449955 0 -0.034108866128966416 -0.0002988568117636163 0 -0.03370256449124194 -0.00039864822213738697 0 -0.033962841025991633 -0.00071775571117198354 0 -0.03370256449124194 -0.00039864822213738697 0 -0.033175665785504023 -0.0011922529301703251 0 -0.033175665785504023 -0.0011922529301703251 0 -0.031957222064755111 -0.0011300750399902242 0 -0.03242813660834535 -0.0014962998165321025 0 -0.033137651431641102 -0.00076584008086066457 0 -0.032958323317422746 -0.00092401371845242082 0 -0.03370256449124194 -0.00039864822213738697 0 -0.033175665785504023 -0.0011922529301703251 0 -0.031957222064755111 -0.0011300750399902242 0 -0.03397556317169028 -0.00030214521363224419 0 -0.033975972800201912 -0.00033173175807345046 0 -0.033946475470680144 -0.00033911929278646692 0 -0.03397556317169028 -0.00030214521363224419 0 -0.033975972800201912 -0.00033173175807345046 0 -0.033984494910940577 -0.00037314329026821744 0 -0.03370256449124194 -0.00039864822213738697 0 -0.03397556317169028 -0.00030214521363224419 0 -0.033984494910940577 -0.00037314329026821744 0 -0.033975972800201912 -0.00033173175807345046 0 -0.033984494910940577 -0.00037314329026821744 0 -0.033966654598960901 -0.00031505632710288116 0 -0.033984494910940577 -0.00037314329026821744 0 -0.03399266064777319 -0.00027151027667280628 0 -0.033966654598960901 -0.00031505632710288116 0 -0.034165048070873262 -0.00026590351888663191 0 -0.033984494910940577 -0.00037314329026821744 0 -0.03399266064777319 -0.00027151027667280628 0 -0.031885536255448613 -0.0018269017205773789 0 -0.03158375387835264 -0.0022758867267176014 0 -0.031202178315755887 -0.00222960259957179 0 -0.031885536255448613 -0.0018269017205773789 0 -0.032075405178443789 -0.002111607927199929 0 -0.03158375387835264 -0.0022758867267176014 0 -0.031957222064755111 -0.0011300750399902242 0 -0.031885536255448613 -0.0018269017205773789 0 -0.03120818096626166 -0.0016612768902124206 0 -0.031957222064755111 -0.0011300750399902242 0 -0.031885536255448613 -0.0018269017205773789 0 -0.03242813660834535 -0.0014962998165321025 0 -0.031885536255448613 -0.0018269017205773789 0 -0.03242813660834535 -0.0014962998165321025 0 -0.032575387177715437 -0.0016480615221256194 0 -0.033175665785504023 -0.0011922529301703251 0 -0.03242813660834535 -0.0014962998165321025 0 -0.032575387177715437 -0.0016480615221256194 0 -0.031885536255448613 -0.0018269017205773789 0 -0.032575387177715437 -0.0016480615221256194 0 -0.032075405178443789 -0.002111607927199929 0 -0.032575387177715437 -0.0016480615221256194 0 -0.03250594570952791 -0.002017275259352675 0 -0.032075405178443789 -0.002111607927199929 0 -0.032575387177715437 -0.0016480615221256194 0 -0.03250594570952791 -0.002017275259352675 0 -0.032764544122197529 -0.00171130227884109 0 -0.033175665785504023 -0.0011922529301703251 0 -0.032575387177715437 -0.0016480615221256194 0 -0.032810732908672237 -0.0014693955960899221 0 -0.032575387177715437 -0.0016480615221256194 0 -0.032810732908672237 -0.0014693955960899221 0 -0.032764544122197529 -0.00171130227884109 0 -0.032810732908672237 -0.0014693955960899221 0 -0.03299290321525622 -0.0015899562491256127 0 -0.032764544122197529 -0.00171130227884109 0 -0.033337133159965657 -0.0016028843288403186 0 -0.033355327040468674 -0.0017276322123988637 0 -0.033355327040468674 -0.0017276322123988637 0 -0.033102919832192303 -0.0020716835194855648 0 -0.03299290321525622 -0.0015899562491256127 0 -0.032764544122197529 -0.00171130227884109 0 -0.03287429787036112 -0.001960324434983003 0 -0.03250594570952791 -0.002017275259352675 0 -0.032764544122197529 -0.00171130227884109 0 -0.03287429787036112 -0.001960324434983003 0 -0.03250594570952791 -0.002017275259352675 0 -0.03287429787036112 -0.001960324434983003 0 -0.032571541765126194 -0.0024569914477250688 0 -0.033102919832192303 -0.0020716835194855648 0 -0.033015080074253252 -0.0022033019219160174 0 -0.032613885402587764 -0.0023708475467189897 0 -0.032571541765126194 -0.0024569914477250688 0 -0.032696750688210943 -0.002446562385410194 0 -0.032209653406175792 -0.0023828375591487005 0 -0.031640210369265849 -0.0025440267771347173 0 -0.032280613619230021 -0.0029984512166290746 0 -0.032571541765126194 -0.0024569914477250688 0 -0.032209653406175792 -0.0023828375591487005 0 -0.032280613619230021 -0.0029984512166290746 0 -0.03250594570952791 -0.002017275259352675 0 -0.032209653406175792 -0.0023828375591487005 0 -0.032075405178443789 -0.002111607927199929 0 -0.03250594570952791 -0.002017275259352675 0 -0.032571541765126194 -0.0024569914477250688 0 -0.032209653406175792 -0.0023828375591487005 0 -0.032075405178443789 -0.002111607927199929 0 -0.031640210369265849 -0.0025440267771347173 0 -0.03158375387835264 -0.0022758867267176014 0 -0.032209653406175792 -0.0023828375591487005 0 -0.032075405178443789 -0.002111607927199929 0 -0.031640210369265849 -0.0025440267771347173 0 -0.031144520398244901 -0.0027692664418421053 0 -0.03116194898684891 -0.0025942434057060217 0 -0.030809401192118478 -0.0029020246875641051 0 -0.031640210369265849 -0.0025440267771347173 0 -0.031144520398244901 -0.0027692664418421053 0 -0.03116194898684891 -0.0025942434057060217 0 -0.031640210369265849 -0.0025440267771347173 0 -0.03116194898684891 -0.0025942434057060217 0 -0.03158375387835264 -0.0022758867267176014 0 -0.03116194898684891 -0.0025942434057060217 0 -0.03158375387835264 -0.0022758867267176014 0 -0.031202178315755887 -0.00222960259957179 0 -0.0328663702272863 -0.0023733004865191683 0 -0.032856783052917352 -0.0022794524687136438 0 -0.032775942919467976 -0.0023072062109083516 0 -0.032959104081687292 -0.0020519200696385476 0 -0.032992604896724925 -0.0019594511527033795 0 -0.0328663702272863 -0.0023733004865191683 0 -0.032762872369632497 -0.0023318386872848307 0 -0.032794984958677401 -0.0024335295503141725 0 -0.0328663702272863 -0.0023733004865191683 0 -0.032915495802008067 -0.0023082573371863003 0 -0.032892957419952892 -0.0024335306124836456 0 -0.0328663702272863 -0.0023733004865191683 0 -0.032915495802008067 -0.0023082573371863003 0 -0.032856783052917352 -0.0022794524687136438 0 -0.032915495802008067 -0.0023082573371863003 0 -0.032911089083737272 -0.0022583966069810507 0 -0.032856783052917352 -0.0022794524687136438 0 -0.032917079537222088 -0.0022785827614314508 0 -0.032915495802008067 -0.0023082573371863003 0 -0.032911089083737272 -0.0022583966069810507 0 -0.032861063821891141 -0.0022270982156623455 0 -0.032911089083737272 -0.0022583966069810507 0 -0.032856783052917352 -0.0022794524687136438 0 -0.032802901516880673 -0.0022185256993807298 0 -0.032861063821891141 -0.0022270982156623455 0 -0.032856783052917352 -0.0022794524687136438 0 -0.032802901516880673 -0.0022185256993807298 0 -0.032856783052917352 -0.0022794524687136438 0 -0.032775942919467976 -0.0023072062109083516 0 -0.032739975251800467 -0.0022104176853035232 0 -0.032802901516880673 -0.0022185256993807298 0 -0.032775942919467976 -0.0023072062109083516 0 -0.033355327040468674 -0.0017276322123988637 0 -0.032992604896724925 -0.0019594511527033795 0 -0.032739975251800467 -0.0022104176853035232 0 -0.032676406979920601 -0.0022602916338049332 0 -0.032775942919467976 -0.0023072062109083516 0 -0.032613885402587764 -0.0023708475467189897 0 -0.032762872369632497 -0.0023318386872848307 0 -0.032696750688210943 -0.002446562385410194 0 -0.03263994905056259 -0.0022739054379131928 0 -0.032613885402587764 -0.0023708475467189897 0 -0.032762872369632497 -0.0023318386872848307 0 -0.032794984958677401 -0.0024335295503141725 0 -0.032696750688210943 -0.002446562385410194 0 -0.032794607249928741 -0.0025355166833386563 0 -0.032762872369632497 -0.0023318386872848307 0 -0.032794984958677401 -0.0024335295503141725 0 -0.032696750688210943 -0.002446562385410194 0 -0.032696750688210943 -0.002446562385410194 0 -0.032794607249928741 -0.0025355166833386563 0 -0.032715540882388448 -0.0027500491514729688 0 -0.032571541765126194 -0.0024569914477250688 0 -0.032696750688210943 -0.002446562385410194 0 -0.032715540882388448 -0.0027500491514729688 0 -0.032846144632971697 -0.0024844376525203164 0 -0.03287755016621436 -0.002532810704342484 0 -0.032834400630877093 -0.0026079175841363959 0 -0.032794607249928741 -0.0025355166833386563 0 -0.032846144632971697 -0.0024844376525203164 0 -0.032834400630877093 -0.0026079175841363959 0 -0.032794984958677401 -0.0024335295503141725 0 -0.032794607249928741 -0.0025355166833386563 0 -0.032846144632971697 -0.0024844376525203164 0 -0.0328663702272863 -0.0023733004865191683 0 -0.032794984958677401 -0.0024335295503141725 0 -0.032846144632971697 -0.0024844376525203164 0 -0.032846144632971697 -0.0024844376525203164 0 -0.032892957419952892 -0.0024335306124836456 0 -0.03287755016621436 -0.002532810704342484 0 -0.032969004990466802 -0.0024488623279217583 0 -0.032915495802008067 -0.0023082573371863003 0 -0.032892957419952892 -0.0024335306124836456 0 -0.032969004990466802 -0.0024488623279217583 0 -0.032892957419952892 -0.0024335306124836456 0 -0.03287755016621436 -0.002532810704342484 0 -0.0328663702272863 -0.0023733004865191683 0 -0.032846144632971697 -0.0024844376525203164 0 -0.032892957419952892 -0.0024335306124836456 0 -0.03287755016621436 -0.002532810704342484 0 -0.032834400630877093 -0.0026079175841363959 0 -0.032838394215511456 -0.0025088668155537073 0 -0.029873160874810675 -0.0028917596154553662 0 -0.029343461382352696 -0.0025834640171760654 0 -0.025721310764632035 -0.0031192266389900242 0 -0.02696385097892123 -0.003657141825609543 0 -0.025577892752611034 -0.0035899759805184499 0 -0.026162726550750137 -0.0028615119289038538 0 -0.026502395706669742 -0.002563626417735609 0 -0.025721310764632035 -0.0031192266389900242 0 -0.026569855788550183 -0.0029364613328349224 0 -0.026672545604738106 -0.0021172806660805454 0 -0.025721310764632035 -0.0031192266389900242 0 -0.025866730885255221 -0.0027432792244594241 0 -0.0255860206034716 -0.0028455541529223407 0 -0.025721310764632035 -0.0031192266389900242 0 -0.026569855788550183 -0.0029364613328349224 0 -0.02696385097892123 -0.003657141825609543 0 -0.026569855788550183 -0.0029364613328349224 0 -0.02696385097892123 -0.003657141825609543 0 -0.027743569916301794 -0.0025280966391276432 0 -0.032794607249928741 -0.0025355166833386563 0 -0.032834400630877093 -0.0026079175841363959 0 -0.032715540882388448 -0.0027500491514729688 0 -0.029873160874810675 -0.0028917596154553662 0 -0.030415192683436652 -0.0030334048341252254 0 -0.028404614965483375 -0.0035695721535002113 0 -0.027743569916301794 -0.0025280966391276432 0 -0.029163562709227892 -0.0026930797826598316 0 -0.02696385097892123 -0.003657141825609543 0 -0.028404614965483375 -0.0035695721535002113 0 -0.027743569916301794 -0.0025280966391276432 0 -0.027743569916301794 -0.0025280966391276432 0 -0.027571289730809682 -0.0011667963247022216 0 -0.026672545604738106 -0.0021172806660805454 0 -0.027743569916301794 -0.0025280966391276432 0 -0.029163562709227892 -0.0026930797826598316 0 -0.028799666867675124 -0.0016475143326069662 0 -0.027148398117517604 -0.0021612067332828946 0 -0.028144314429174259 -0.002296216427219088 0 -0.027743569916301794 -0.0025280966391276432 0 -0.027571289730809682 -0.0011667963247022216 0 -0.028799666867675124 -0.0016475143326069662 0 -0.027199905881145878 -0.0022289142968122369 0 -0.026620038967803246 -0.002303010517482597 0 -0.027663687722449971 -0.0026915401373755173 0 -0.027199905881145878 -0.0022289142968122369 0 -0.027663687722449971 -0.0026915401373755173 0 -0.027422317436406836 -0.0021427304395767247 0 -0.027148398117517604 -0.0021612067332828946 0 -0.027125962060881085 -0.0021571431142975578 0 -0.025601639941514674 -0.0023536803675162144 0 -0.025866730885255221 -0.0027432792244594241 0 -0.025863010788712493 -0.002330246362462777 0 -0.026144949707834268 -0.002382831812450947 0 -0.025866730885255221 -0.0027432792244594241 0 -0.025863010788712493 -0.002330246362462777 0 -0.02621602318500536 -0.0024083903156989195 0 -0.026144949707834268 -0.002382831812450947 0 -0.025866730885255221 -0.0027432792244594241 0 -0.027148398117517604 -0.0021612067332828946 0 -0.026502395706669742 -0.002563626417735609 0 -0.025601639941514674 -0.0023536803675162144 0 -0.025545941275027066 -0.0026132677748468367 0 -0.025866730885255221 -0.0027432792244594241 0 -0.025601639941514674 -0.0023536803675162144 0 -0.025545941275027066 -0.0026132677748468367 0 -0.025357780941348312 -0.0024419116748460199 0 -0.025545941275027066 -0.0026132677748468367 0 -0.025866730885255221 -0.0027432792244594241 0 -0.0255860206034716 -0.0028455541529223407 0 -0.026569855788550183 -0.0029364613328349224 0 -0.027743569916301794 -0.0025280966391276432 0 -0.026672545604738106 -0.0021172806660805454 0 -0.030919397708313583 -0.0030520815266512945 0 -0.030383143285489966 -0.0027616964695820136 0 -0.030809401192118478 -0.0029020246875641051 0 -0.030383143285489966 -0.0027616964695820136 0 -0.030809401192118478 -0.0029020246875641051 0 -0.03052795573710004 -0.0026075688668347162 0 -0.031144520398244901 -0.0027692664418421053 0 -0.030919397708313583 -0.0030520815266512945 0 -0.030809401192118478 -0.0029020246875641051 0 -0.031640210369265849 -0.0025440267771347173 0 -0.031144520398244901 -0.0027692664418421053 0 -0.030919397708313583 -0.0030520815266512945 0 -0.031640210369265849 -0.0025440267771347173 0 -0.030919397708313583 -0.0030520815266512945 0 -0.032280613619230021 -0.0029984512166290746 0 -0.030838528647641517 -0.0030902245277006435 0 -0.030763736131545934 -0.0030876115888666552 0 -0.030919397708313583 -0.0030520815266512945 0 -0.030226406020428604 -0.0028019543097443497 0 -0.030383143285489966 -0.0027616964695820136 0 -0.030919397708313583 -0.0030520815266512945 0 -0.030226406020428604 -0.0028019543097443497 0 -0.029679095804315745 -0.0034039053706841839 0 -0.030226406020428604 -0.0028019543097443497 0 -0.029679095804315745 -0.0034039053706841839 0 -0.029163562709227892 -0.0026930797826598316 0 -0.030415192683436652 -0.0030334048341252254 0 -0.030763736131545934 -0.0030876115888666552 0 -0.032571541765126194 -0.0024569914477250688 0 -0.032715540882388448 -0.0027500491514729688 0 -0.032280613619230021 -0.0029984512166290746 0 -0.028404614965483375 -0.0035695721535002113 0 -0.029679095804315745 -0.0034039053706841839 0 -0.029163562709227892 -0.0026930797826598316 0 -0.028144314429174259 -0.002296216427219088 0 -0.02909824120676175 -0.002525380613845087 0 -0.029163562709227892 -0.0026930797826598316 0 -0.028799666867675124 -0.0016475143326069662 0 -0.029944793873175401 -0.002208728088885259 0 -0.027663687722449971 -0.0026915401373755173 0 -0.028975283717454999 -0.0028975037443762929 0 -0.028346543586904978 -0.0021107144855550927 0 -0.027663687722449971 -0.0026915401373755173 0 -0.028346543586904978 -0.0021107144855550927 0 -0.027422317436406836 -0.0021427304395767247 0 -0.028975283717454999 -0.0028975037443762929 0 -0.029574344985422586 -0.0022561740170325365 0 -0.028346543586904978 -0.0021107144855550927 0 -0.030226406020428604 -0.0028019543097443497 0 -0.029163562709227892 -0.0026930797826598316 0 -0.029944793873175401 -0.002208728088885259 0 -0.030226406020428604 -0.0028019543097443497 0 -0.029944793873175401 -0.002208728088885259 0 -0.030383143285489966 -0.0027616964695820136 0 -0.02909824120676175 -0.002525380613845087 0 -0.029568933735439083 -0.0026512732700458438 0 -0.028975283717454999 -0.0028975037443762929 0 -0.029574344985422586 -0.0022561740170325365 0 -0.030383143285489966 -0.0027616964695820136 0 -0.029574344985422586 -0.0022561740170325365 0 -0.030165220419721438 -0.0022477062532163519 0 -0.030383143285489966 -0.0027616964695820136 0 -0.029574344985422586 -0.0022561740170325365 0 -0.030165220419721438 -0.0022477062532163519 0 -0.029835621920528875 -0.0019018724582964526 0 -0.030165220419721438 -0.0022477062532163519 0 -0.030383143285489966 -0.0027616964695820136 0 -0.03052795573710004 -0.0026075688668347162 0 -0.029883852152059218 -0.0016279360739181944 0 -0.029835621920528875 -0.0019018724582964526 0 -0.030018321842218639 -0.0018497776131591349 0 -0.030165220419721438 -0.0022477062532163519 0 -0.029835621920528875 -0.0019018724582964526 0 -0.030018321842218639 -0.0018497776131591349 0 -0.029883852152059218 -0.0016279360739181944 0 -0.029835621920528875 -0.0019018724582964526 0 -0.028983503087109171 -0.0014327266565738364 0 -0.029574344985422586 -0.0022561740170325365 0 -0.029835621920528875 -0.0019018724582964526 0 -0.028983503087109171 -0.0014327266565738364 0 -0.028990974225994538 -0.0017019786245465204 0 -0.028408968049206458 -0.0017320401316495136 0 -0.028522229235012724 -0.0018791396924404155 0 -0.027790990109088566 -0.0019032373500426113 0 -0.028039616354613765 -0.001385743314899482 0 -0.027790990109088566 -0.0019032373500426113 0 -0.027492095049659545 -0.0017162335745639649 0 -0.027509989755072468 -0.0014145649029569806 0 -0.029574344985422586 -0.0022561740170325365 0 -0.028983503087109171 -0.0014327266565738364 0 -0.028346543586904978 -0.0021107144855550927 0 -0.028408968049206458 -0.0017320401316495136 0 -0.027997368016841419 -0.001765730122442247 0 -0.028983503087109171 -0.0014327266565738364 0 -0.028346543586904978 -0.0021107144855550927 0 -0.027381350259607074 -0.001757678860055955 0 -0.028346543586904978 -0.0021107144855550927 0 -0.027422317436406836 -0.0021427304395767247 0 -0.027381350259607074 -0.001757678860055955 0 -0.027492095049659545 -0.0017162335745639649 0 -0.027381350259607074 -0.001757678860055955 0 -0.027210614842695966 -0.0017074789137462121 0 -0.027790990109088566 -0.0019032373500426113 0 -0.027492095049659545 -0.0017162335745639649 0 -0.027381350259607074 -0.001757678860055955 0 -0.027492095049659545 -0.0017162335745639649 0 -0.027199384935676672 -0.0014972731543728671 0 -0.027210614842695966 -0.0017074789137462121 0 -0.027199384935676672 -0.0014972731543728671 0 -0.027509989755072468 -0.0014145649029569806 0 -0.026887846094451565 -0.0011087324067642589 0 -0.027492095049659545 -0.0017162335745639649 0 -0.027199384935676672 -0.0014972731543728671 0 -0.027509989755072468 -0.0014145649029569806 0 -0.027509989755072468 -0.0014145649029569806 0 -0.027602063726038222 -0.00083479931529713584 0 -0.026887846094451565 -0.0011087324067642589 0 -0.027602063726038222 -0.00083479931529713584 0 -0.026887846094451565 -0.0011087324067642589 0 -0.026804075275765088 -0.0001898285529393626 0 -0.027509989755072468 -0.0014145649029569806 0 -0.027602063726038222 -0.00083479931529713584 0 -0.028039616354613765 -0.001385743314899482 0 -0.027790990109088566 -0.0019032373500426113 0 -0.027509989755072468 -0.0014145649029569806 0 -0.028039616354613765 -0.001385743314899482 0 -0.028522229235012724 -0.0018791396924404155 0 -0.028039616354613765 -0.001385743314899482 0 -0.028470823892446092 -0.0013099139434526806 0 -0.028039616354613765 -0.001385743314899482 0 -0.028296548502819492 -0.00095298535134946314 0 -0.028470823892446092 -0.0013099139434526806 0 -0.027602063726038222 -0.00083479931529713584 0 -0.028039616354613765 -0.001385743314899482 0 -0.028296548502819492 -0.00095298535134946314 0 -0.028296548502819492 -0.00095298535134946314 0 -0.028628218001360263 -0.0010852932818454597 0 -0.028470823892446092 -0.0013099139434526806 0 -0.028628218001360263 -0.0010852932818454597 0 -0.028470823892446092 -0.0013099139434526806 0 -0.028863854243408295 -0.001332382605374893 0 -0.028522229235012724 -0.0018791396924404155 0 -0.028470823892446092 -0.0013099139434526806 0 -0.028863854243408295 -0.001332382605374893 0 -0.026120305692664724 -0.0018841256770892867 0 -0.026330220932085261 -0.0016149002261802822 0 -0.025730330971248813 -0.0015112259446907249 0 -0.025864163299435791 -0.0020787506583842224 0 -0.026120305692664724 -0.0018841256770892867 0 -0.025730330971248813 -0.0015112259446907249 0 -0.025424398420844919 -0.0019200261082065559 0 -0.025864163299435791 -0.0020787506583842224 0 -0.025730330971248813 -0.0015112259446907249 0 -0.025424398420844919 -0.0019200261082065559 0 -0.025730330971248813 -0.0015112259446907249 0 -0.025055741351224538 -0.0015479631618247728 0 -0.025601639941514674 -0.0023536803675162144 0 -0.025424398420844919 -0.0019200261082065559 0 -0.025864163299435791 -0.0020787506583842224 0 -0.025601639941514674 -0.0023536803675162144 0 -0.025863010788712493 -0.002330246362462777 0 -0.025864163299435791 -0.0020787506583842224 0 -0.026144949707834268 -0.002382831812450947 0 -0.025863010788712493 -0.002330246362462777 0 -0.025864163299435791 -0.0020787506583842224 0 -0.026248832091165741 -0.0024332661761587169 0 -0.026144949707834268 -0.002382831812450947 0 -0.026306443224762971 -0.002195582670048323 0 -0.025864163299435791 -0.0020787506583842224 0 -0.026306443224762971 -0.002195582670048323 0 -0.026120305692664724 -0.0018841256770892867 0 -0.026144949707834268 -0.002382831812450947 0 -0.025864163299435791 -0.0020787506583842224 0 -0.026306443224762971 -0.002195582670048323 0 -0.027148398117517604 -0.0021612067332828946 0 -0.027100831359734696 -0.0020962986015603071 0 -0.027199905881145878 -0.0022289142968122369 0 -0.026620038967803246 -0.002303010517482597 0 -0.027106664879376907 -0.0018317867447343677 0 -0.026248832091165741 -0.0024332661761587169 0 -0.026306443224762971 -0.002195582670048323 0 -0.026627148237721832 -0.0021753521527206727 0 -0.026306443224762971 -0.002195582670048323 0 -0.026627148237721832 -0.0021753521527206727 0 -0.026405146320815927 -0.0019578689821464343 0 -0.026306443224762971 -0.002195582670048323 0 -0.026120305692664724 -0.0018841256770892867 0 -0.026405146320815927 -0.0019578689821464343 0 -0.027199905881145878 -0.0022289142968122369 0 -0.027422317436406836 -0.0021427304395767247 0 -0.027106664879376907 -0.0018317867447343677 0 -0.027106664879376907 -0.0018317867447343677 0 -0.027381350259607074 -0.001757678860055955 0 -0.027210614842695966 -0.0017074789137462121 0 -0.027422317436406836 -0.0021427304395767247 0 -0.027106664879376907 -0.0018317867447343677 0 -0.027381350259607074 -0.001757678860055955 0 -0.027100831359734696 -0.0020962986015603071 0 -0.027146474550853363 -0.0020132008720215333 0 -0.026627148237721832 -0.0021753521527206727 0 -0.027210614842695966 -0.0017074789137462121 0 -0.026667579863386592 -0.0017714570162420812 0 -0.027210614842695966 -0.0017074789137462121 0 -0.026667579863386592 -0.0017714570162420812 0 -0.026790188188055626 -0.0014654888173313077 0 -0.026667579863386592 -0.0017714570162420812 0 -0.026330220932085261 -0.0016149002261802822 0 -0.026790188188055626 -0.0014654888173313077 0 -0.027199384935676672 -0.0014972731543728671 0 -0.027210614842695966 -0.0017074789137462121 0 -0.026790188188055626 -0.0014654888173313077 0 -0.026120305692664724 -0.0018841256770892867 0 -0.026405146320815927 -0.0019578689821464343 0 -0.026330220932085261 -0.0016149002261802822 0 -0.026627148237721832 -0.0021753521527206727 0 -0.026667579863386592 -0.0017714570162420812 0 -0.026405146320815927 -0.0019578689821464343 0 -0.026667579863386592 -0.0017714570162420812 0 -0.026405146320815927 -0.0019578689821464343 0 -0.026330220932085261 -0.0016149002261802822 0 -0.026330220932085261 -0.0016149002261802822 0 -0.026167418703301554 -0.0011937828694408032 0 -0.026790188188055626 -0.0014654888173313077 0 -0.026330220932085261 -0.0016149002261802822 0 -0.026167418703301554 -0.0011937828694408032 0 -0.025730330971248813 -0.0015112259446907249 0 -0.026167418703301554 -0.0011937828694408032 0 -0.026790188188055626 -0.0014654888173313077 0 -0.026887846094451565 -0.0011087324067642589 0 -0.027199384935676672 -0.0014972731543728671 0 -0.026790188188055626 -0.0014654888173313077 0 -0.026887846094451565 -0.0011087324067642589 0 -0.026167418703301554 -0.0011937828694408032 0 -0.026887846094451565 -0.0011087324067642589 0 -0.02585124468984178 -0.00056913423078992222 0 -0.026167418703301554 -0.0011937828694408032 0 -0.025639715781092604 -0.00092135940842423319 0 -0.02585124468984178 -0.00056913423078992222 0 -0.026167418703301554 -0.0011937828694408032 0 -0.025639715781092604 -0.00092135940842423319 0 -0.025730330971248813 -0.0015112259446907249 0 -0.025639715781092604 -0.00092135940842423319 0 -0.025730330971248813 -0.0015112259446907249 0 -0.025174294749261167 -0.00097827437237564367 0 -0.025730330971248813 -0.0015112259446907249 0 -0.025174294749261167 -0.00097827437237564367 0 -0.025055741351224538 -0.0015479631618247728 0 -0.025639715781092604 -0.00092135940842423319 0 -0.025174294749261167 -0.00097827437237564367 0 -0.02539238978449275 -0.00051743734321841282 0 -0.025174294749261167 -0.00097827437237564367 0 -0.024824218284972797 -0.000852783470017654 0 -0.024635573709799439 -0.0011678260846361135 0 -0.024824218284972797 -0.000852783470017654 0 -0.024635573709799439 -0.0011678260846361135 0 -0.02453677160649495 -0.00071972009114978843 0 -0.024635573709799439 -0.0011678260846361135 0 -0.024583033828260738 -0.0016535124010661655 0 -0.024163648422634718 -0.0013495155444792663 0 -0.024635573709799439 -0.0011678260846361135 0 -0.025055741351224538 -0.0015479631618247728 0 -0.024583033828260738 -0.0016535124010661655 0 -0.025174294749261167 -0.00097827437237564367 0 -0.024635573709799439 -0.0011678260846361135 0 -0.025055741351224538 -0.0015479631618247728 0 -0.025424398420844919 -0.0019200261082065559 0 -0.025055741351224538 -0.0015479631618247728 0 -0.024803030016352669 -0.0021274065255896331 0 -0.025055741351224538 -0.0015479631618247728 0 -0.024583033828260738 -0.0016535124010661655 0 -0.024803030016352669 -0.0021274065255896331 0 -0.024583033828260738 -0.0016535124010661655 0 -0.024803030016352669 -0.0021274065255896331 0 -0.024155009431345579 -0.0018911427597142713 0 -0.024920383028143981 -0.0020551529159000569 0 -0.024346641876236773 -0.0018413266593905449 0 -0.025601639941514674 -0.0023536803675162144 0 -0.025424398420844919 -0.0019200261082065559 0 -0.024803030016352669 -0.0021274065255896331 0 -0.025230421730076762 -0.002168062098956443 0 -0.024920383028143981 -0.0020551529159000569 0 -0.024184010906615337 -0.0018158036587697147 0 -0.02438116862824152 -0.0020996320324253416 0 -0.024065033143088846 -0.0022873163261501266 0 -0.024184010906615337 -0.0018158036587697147 0 -0.02438116862824152 -0.0020996320324253416 0 -0.024607299970093019 -0.0018034714128885125 0 -0.025213579212732196 -0.0021026511755579198 0 -0.024607299970093019 -0.0018034714128885125 0 -0.024653956418123336 -0.0022137194070825134 0 -0.02438116862824152 -0.0020996320324253416 0 -0.024607299970093019 -0.0018034714128885125 0 -0.024653956418123336 -0.0022137194070825134 0 -0.024583033828260738 -0.0016535124010661655 0 -0.024155009431345579 -0.0018911427597142713 0 -0.024163648422634718 -0.0013495155444792663 0 -0.024155009431345579 -0.0018911427597142713 0 -0.023586339615558623 -0.0015728499388271511 0 -0.023448537555732594 -0.0016075709680768648 0 -0.024346641876236773 -0.0018413266593905449 0 -0.023747523934282956 -0.0016225891566795437 0 -0.024184010906615337 -0.0018158036587697147 0 -0.024607299970093019 -0.0018034714128885125 0 -0.023844594634618802 -0.0014892578885126158 0 -0.024155009431345579 -0.0018911427597142713 0 -0.024163648422634718 -0.0013495155444792663 0 -0.023586339615558623 -0.0015728499388271511 0 -0.024163648422634718 -0.0013495155444792663 0 -0.023841096699177895 -0.0010655718303596556 0 -0.023586339615558623 -0.0015728499388271511 0 -0.021433527432134235 -0.00063387975145243636 0 -0.021880599312953972 -0.00096639388090623388 0 -0.024635573709799439 -0.0011678260846361135 0 -0.024191843979911077 -0.00088091714249311892 0 -0.02453677160649495 -0.00071972009114978843 0 -0.024635573709799439 -0.0011678260846361135 0 -0.024163648422634718 -0.0013495155444792663 0 -0.024191843979911077 -0.00088091714249311892 0 -0.021433527432134235 -0.00063387975145243636 0 -0.0197536679074614 0.00012672426521470939 0 -0.024191843979911077 -0.00088091714249311892 0 -0.023841096699177895 -0.0010655718303596556 0 -0.024048679907526266 -0.00061775437324821834 0 -0.024163648422634718 -0.0013495155444792663 0 -0.024191843979911077 -0.00088091714249311892 0 -0.023841096699177895 -0.0010655718303596556 0 -0.023096044802918839 -0.00094167046325303405 0 -0.023345779963844241 -0.0012548866620725845 0 -0.023374632567921046 -0.00090224618195456621 0 -0.02351697584875204 -0.0010834631315570446 0 -0.023345779963844241 -0.0012548866620725845 0 -0.023374632567921046 -0.00090224618195456621 0 -0.023096044802918839 -0.00094167046325303405 0 -0.02309671620949328 -0.0011748017654349069 0 -0.023345779963844241 -0.0012548866620725845 0 -0.02309671620949328 -0.0011748017654349069 0 -0.023345779963844241 -0.0012548866620725845 0 -0.023010131076885983 -0.0013415979972660776 0 -0.023345779963844241 -0.0012548866620725845 0 -0.023010131076885983 -0.0013415979972660776 0 -0.023448537555732594 -0.0016075709680768648 0 -0.02351697584875204 -0.0010834631315570446 0 -0.023345779963844241 -0.0012548866620725845 0 -0.023586339615558623 -0.0015728499388271511 0 -0.0089658378257980627 0.0038190635701583491 0 -0.0089772191399907272 0.004112199128249238 0 -0.0087181036139365974 0.0037970709719068467 0 -0.0089772191399907272 0.004112199128249238 0 -0.0087181036139365974 0.0037970709719068467 0 -0.0086426950898614852 0.0041696994960386206 0 -0.0082322460620610164 0.0038314542739881692 0 -0.0087181036139365974 0.0037970709719068467 0 -0.0086426950898614852 0.0041696994960386206 0 -0.023096044802918839 -0.00094167046325303405 0 -0.02309671620949328 -0.0011748017654349069 0 -0.022823558803748867 -0.001208945216339739 0 -0.015686280777766105 0.0013903859273547527 0 -0.015770100230068185 0.0014313013607948209 0 -0.022823558803748867 -0.001208945216339739 0 -0.022823720358101908 -0.0014647549786706915 0 -0.023010131076885983 -0.0013415979972660776 0 -0.02309671620949328 -0.0011748017654349069 0 -0.022823558803748867 -0.001208945216339739 0 -0.023010131076885983 -0.0013415979972660776 0 -0.0089772191399907272 0.004112199128249238 0 -0.0090120005463025059 0.0045115950231517559 0 -0.0086426950898614852 0.0041696994960386206 0 -0.02252074868129577 -0.0015153573789985786 0 -0.022823558803748867 -0.001208945216339739 0 -0.022823720358101908 -0.0014647549786706915 0 -0.02252074868129577 -0.0015153573789985786 0 -0.022823720358101908 -0.0014647549786706915 0 -0.022785403008606427 -0.0016583012459987826 0 -0.015903977209381623 0.0014614018125652659 0 -0.015770100230068185 0.0014313013607948209 0 -0.022823720358101908 -0.0014647549786706915 0 -0.02299925799730004 -0.001621134511116106 0 -0.022785403008606427 -0.0016583012459987826 0 -0.022823720358101908 -0.0014647549786706915 0 -0.023010131076885983 -0.0013415979972660776 0 -0.02299925799730004 -0.001621134511116106 0 -0.023010131076885983 -0.0013415979972660776 0 -0.02299925799730004 -0.001621134511116106 0 -0.023201772512976514 -0.0015831625006827159 0 -0.02299925799730004 -0.001621134511116106 0 -0.022918734230123885 -0.0018405852795118226 0 -0.023266317522892713 -0.0018027184882244412 0 -0.022918734230123885 -0.0018405852795118226 0 -0.023266317522892713 -0.0018027184882244412 0 -0.023119176644036968 -0.0020622085829801054 0 -0.02299925799730004 -0.001621134511116106 0 -0.022918734230123885 -0.0018405852795118226 0 -0.022785403008606427 -0.0016583012459987826 0 -0.022918734230123885 -0.0018405852795118226 0 -0.022645399117546223 -0.0018153333698169968 0 -0.022785403008606427 -0.0016583012459987826 0 -0.02252074868129577 -0.0015153573789985786 0 -0.022645399117546223 -0.0018153333698169968 0 -0.022785403008606427 -0.0016583012459987826 0 -0.023345779963844241 -0.0012548866620725845 0 -0.023586339615558623 -0.0015728499388271511 0 -0.023448537555732594 -0.0016075709680768648 0 -0.023844594634618802 -0.0014892578885126158 0 -0.023536670955276392 -0.0015358122178088973 0 -0.023710848524711871 -0.0017436487962646224 0 -0.023844594634618802 -0.0014892578885126158 0 -0.023710848524711871 -0.0017436487962646224 0 -0.023891880464236254 -0.0017568307845248164 0 -0.024184010906615337 -0.0018158036587697147 0 -0.023844594634618802 -0.0014892578885126158 0 -0.023891880464236254 -0.0017568307845248164 0 -0.023010131076885983 -0.0013415979972660776 0 -0.023844594634618802 -0.0014892578885126158 0 -0.023536670955276392 -0.0015358122178088973 0 -0.023424302431871331 -0.0015105795322253781 0 -0.023747523934282956 -0.0016225891566795437 0 -0.023010131076885983 -0.0013415979972660776 0 -0.023201772512976514 -0.0015831625006827159 0 -0.023536670955276392 -0.0015358122178088973 0 -0.023201772512976514 -0.0015831625006827159 0 -0.023536670955276392 -0.0015358122178088973 0 -0.023266317522892713 -0.0018027184882244412 0 -0.023536670955276392 -0.0015358122178088973 0 -0.023424078551769041 -0.0019683449827332532 0 -0.023710848524711871 -0.0017436487962646224 0 -0.024549322317153923 -0.0019004836643245211 0 -0.024694731405585132 -0.0018805659837131639 0 -0.02299925799730004 -0.001621134511116106 0 -0.023201772512976514 -0.0015831625006827159 0 -0.023266317522892713 -0.0018027184882244412 0 -0.023424078551769041 -0.0019683449827332532 0 -0.02382645493665277 -0.0019651566623169543 0 -0.023630212430233923 -0.0022978962719020107 0 -0.024184010906615337 -0.0018158036587697147 0 -0.02382645493665277 -0.0019651566623169543 0 -0.024065033143088846 -0.0022873163261501266 0 -0.023424078551769041 -0.0019683449827332532 0 -0.02382645493665277 -0.0019651566623169543 0 -0.023710848524711871 -0.0017436487962646224 0 -0.02382645493665277 -0.0019651566623169543 0 -0.023710848524711871 -0.0017436487962646224 0 -0.023891880464236254 -0.0017568307845248164 0 -0.024184010906615337 -0.0018158036587697147 0 -0.02382645493665277 -0.0019651566623169543 0 -0.023891880464236254 -0.0017568307845248164 0 -0.023833431825664289 -0.0025018297895921531 0 -0.023630212430233923 -0.0022978962719020107 0 -0.023626868767868823 -0.0027288610802448663 0 -0.024065033143088846 -0.0022873163261501266 0 -0.023833431825664289 -0.0025018297895921531 0 -0.023630212430233923 -0.0022978962719020107 0 -0.02382645493665277 -0.0019651566623169543 0 -0.024065033143088846 -0.0022873163261501266 0 -0.023630212430233923 -0.0022978962719020107 0 -0.024065033143088846 -0.0022873163261501266 0 -0.024044432920054436 -0.0025685953072646134 0 -0.023833431825664289 -0.0025018297895921531 0 -0.023630212430233923 -0.0022978962719020107 0 -0.023265168581759321 -0.0023633176488643435 0 -0.023626868767868823 -0.0027288610802448663 0 -0.023424078551769041 -0.0019683449827332532 0 -0.023630212430233923 -0.0022978962719020107 0 -0.023265168581759321 -0.0023633176488643435 0 -0.024694731405585132 -0.0018805659837131639 0 -0.025321816103039973 -0.0014893734224957092 0 -0.025321816103039973 -0.0014893734224957092 0 -0.026262205276872393 -0.0015189426002437153 0 -0.027314328891216343 -0.001332893488807373 0 -0.028029984519606973 -0.0011307399294058602 0 -0.027556623446943693 -0.0008522598983585842 0 -0.027714951143766181 -0.0017725855102878898 0 -0.027314328891216343 -0.001332893488807373 0 -0.028029984519606973 -0.0011307399294058602 0 -0.027314328891216343 -0.001332893488807373 0 -0.027247182377759208 -0.00092067010183389478 0 -0.027556623446943693 -0.0008522598983585842 0 -0.027314328891216343 -0.001332893488807373 0 -0.02690798846731126 -0.00089315833271754385 0 -0.027247182377759208 -0.00092067010183389478 0 -0.026262205276872393 -0.0015189426002437153 0 -0.027569737985678095 -0.0015345633082512213 0 -0.023626868767868823 -0.0027288610802448663 0 -0.023921755340292197 -0.0027414594685560558 0 -0.024001071327563569 -0.0030911899352515076 0 -0.024091683507930468 -0.0028926125773940338 0 -0.023921755340292197 -0.0027414594685560558 0 -0.024141766118140912 -0.0027284793266881473 0 -0.024091683507930468 -0.0028926125773940338 0 -0.023921755340292197 -0.0027414594685560558 0 -0.024001071327563569 -0.0030911899352515076 0 -0.024044432920054436 -0.0025685953072646134 0 -0.023921755340292197 -0.0027414594685560558 0 -0.024141766118140912 -0.0027284793266881473 0 -0.024044432920054436 -0.0025685953072646134 0 -0.023833431825664289 -0.0025018297895921531 0 -0.023921755340292197 -0.0027414594685560558 0 -0.023833431825664289 -0.0025018297895921531 0 -0.023626868767868823 -0.0027288610802448663 0 -0.023921755340292197 -0.0027414594685560558 0 -0.022918734230123885 -0.0018405852795118226 0 -0.022645399117546223 -0.0018153333698169968 0 -0.022786882123232526 -0.002010735119435835 0 -0.022505044693725718 -0.0020214302428602643 0 -0.022645399117546223 -0.0018153333698169968 0 -0.022786882123232526 -0.002010735119435835 0 -0.022918734230123885 -0.0018405852795118226 0 -0.023023448777479014 -0.0019455535925099107 0 -0.022786882123232526 -0.002010735119435835 0 -0.0249977922967843 -0.0013492281661621117 0 -0.025321816103039973 -0.0014893734224957092 0 -0.025321816103039973 -0.0014893734224957092 0 -0.02531637087116885 -0.0012848857880781578 0 -0.023023448777479014 -0.0019455535925099107 0 -0.022786882123232526 -0.002010735119435835 0 -0.022899029638020187 -0.0021914974340134837 0 -0.022786882123232526 -0.002010735119435835 0 -0.022899029638020187 -0.0021914974340134837 0 -0.022672253762756073 -0.0021920012224296878 0 -0.022505044693725718 -0.0020214302428602643 0 -0.022786882123232526 -0.002010735119435835 0 -0.022672253762756073 -0.0021920012224296878 0 -0.022899029638020187 -0.0021914974340134837 0 -0.022672253762756073 -0.0021920012224296878 0 -0.02277717050881109 -0.0024636668647286856 0 -0.022380281801930222 -0.0022782799724410125 0 -0.022672253762756073 -0.0021920012224296878 0 -0.02277717050881109 -0.0024636668647286856 0 -0.02531637087116885 -0.0012848857880781578 0 -0.025452630868037472 -0.00048778721821815009 0 -0.028029984519606973 -0.0011307399294058602 0 -0.027880228399612059 -0.00060037431613232462 0 -0.027556623446943693 -0.0008522598983585842 0 -0.028029984519606973 -0.0011307399294058602 0 -0.027880228399612059 -0.00060037431613232462 0 -0.028341525917662896 -0.00048193623241171935 0 -0.027880228399612059 -0.00060037431613232462 0 -0.027800489653462202 -0.00045120774882502864 0 -0.027619782977925372 -0.00052422370780475078 0 -0.028554307219991037 5.3593275430091759e-05 0 -0.028455313290517092 3.3037188769904353e-05 0 -0.028462623860949839 4.3427598856042842e-05 0 -0.028554307219991037 5.3593275430091759e-05 0 -0.027800380819885787 -0.00026544407997529455 0 -0.028105306044939091 -0.000355859480017053 0 -0.028466708296345657 -0.00038248823405646524 0 -0.028314933551393178 -0.00059629230886348633 0 -0.027901438083459577 -0.00041512701184017055 0 -0.027800380819885787 -0.00026544407997529455 0 -0.028105306044939091 -0.000355859480017053 0 -0.027880228399612059 -0.00060037431613232462 0 -0.027800489653462202 -0.00045120774882502864 0 -0.027901438083459577 -0.00041512701184017055 0 -0.027880228399612059 -0.00060037431613232462 0 -0.027901438083459577 -0.00041512701184017055 0 -0.028105306044939091 -0.000355859480017053 0 -0.027800489653462202 -0.00045120774882502864 0 -0.027901438083459577 -0.00041512701184017055 0 -0.027800380819885787 -0.00026544407997529455 0 -0.027880228399612059 -0.00060037431613232462 0 -0.028105306044939091 -0.000355859480017053 0 -0.028341525917662896 -0.00048193623241171935 0 -0.025700237020271539 -0.00057120651124581217 0 -0.025452630868037472 -0.00048778721821815009 0 -0.028554307219991037 5.3593275430091759e-05 0 -0.028105306044939091 -0.000355859480017053 0 -0.028334515556440048 -0.0004481275956062646 0 -0.026810390445723177 0.00051305768001613458 0 -0.025452630868037472 -0.00048778721821815009 0 -0.026027119924306993 0.00084281693546102063 0 -0.026021817182166916 0.00075921168965113511 0 -0.0262177318536519 0.00096464721941970702 0 -0.026027119924306993 0.00084281693546102063 0 -0.026028594952397434 0.00095419079603402824 0 -0.0262177318536519 0.00096464721941970702 0 -0.02700875597535931 -0.00067625753491246891 0 -0.027247182377759208 -0.00092067010183389478 0 -0.027378230057205025 -0.00063758662688599991 0 -0.028608116468989149 -0.00098850035287411536 0 -0.028733047080689404 -0.00092374210729189539 0 -0.028727281284391379 -0.0011355738847419659 0 -0.028137649639195617 -0.0011977521840369283 0 -0.027790649778759075 -0.0014702225372262999 0 -0.027394098530023447 -0.0017086243109508607 0 -0.027593197291717299 -0.0012864868658444271 0 -0.027793388790169297 -0.0015014584878347882 0 -0.028137649639195617 -0.0011977521840369283 0 -0.027569737985678095 -0.0015345633082512213 0 -0.024021495472122928 -0.0030691941149359791 0 -0.024099017824494647 -0.003153225470258484 0 -0.024178534962925997 -0.0029886646042913585 0 -0.027569737985678095 -0.0015345633082512213 0 -0.027790649778759075 -0.0014702225372262999 0 -0.027393242216239313 -0.0017527854791881856 0 -0.027569737985678095 -0.0015345633082512213 0 -0.024091683507930468 -0.0028926125773940338 0 -0.024021495472122928 -0.0030691941149359791 0 -0.024178534962925997 -0.0029886646042913585 0 -0.02700875597535931 -0.00067625753491246891 0 -0.02690798846731126 -0.00089315833271754385 0 -0.027247182377759208 -0.00092067010183389478 0 -0.027247182377759208 -0.00092067010183389478 0 -0.027556623446943693 -0.0008522598983585842 0 -0.027378230057205025 -0.00063758662688599991 0 -0.027800380819885787 -0.00026544407997529455 0 -0.02700875597535931 -0.00067625753491246891 0 -0.027378230057205025 -0.00063758662688599991 0 -0.027880228399612059 -0.00060037431613232462 0 -0.027556623446943693 -0.0008522598983585842 0 -0.027619782977925372 -0.00052422370780475078 0 -0.027556623446943693 -0.0008522598983585842 0 -0.027378230057205025 -0.00063758662688599991 0 -0.027619782977925372 -0.00052422370780475078 0 -0.028455313290517092 3.3037188769904353e-05 0 -0.028476355112274962 1.537272402604492e-05 0 -0.028465406570194998 2.3382057148116816e-05 0 -0.029305101089407253 -0.0003135594113236656 0 -0.029964197949021706 -0.00034976944856773942 0 -0.028314933551393178 -0.00059629230886348633 0 -0.028137649639195617 -0.0011977521840369283 0 -0.028462623860949839 4.3427598856042842e-05 0 -0.028465406570194998 2.3382057148116816e-05 0 -0.028469183441473447 1.8277711369852288e-05 0 -0.028418553651958695 7.7922230239469529e-05 0 -0.028462623860949839 4.3427598856042842e-05 0 -0.028306704060683013 2.247500678372495e-05 0 -0.027800489653462202 -0.00045120774882502864 0 -0.027800380819885787 -0.00026544407997529455 0 -0.027619782977925372 -0.00052422370780475078 0 -0.027800380819885787 -0.00026544407997529455 0 -0.027378230057205025 -0.00063758662688599991 0 -0.027619782977925372 -0.00052422370780475078 0 -0.028455313290517092 3.3037188769904353e-05 0 -0.028462623860949839 4.3427598856042842e-05 0 -0.028465406570194998 2.3382057148116816e-05 0 -0.028465406570194998 2.3382057148116816e-05 0 -0.028469183441473447 1.8277711369852288e-05 0 -0.028471498189010951 2.0341081050081767e-05 0 -0.029606145212318517 -0.00050826182857063981 0 -0.02969187359214406 -0.00053019030371045885 0 -0.029964197949021706 -0.00034976944856773942 0 -0.030194264633593808 -0.0008135556037285578 0 -0.02969187359214406 -0.00053019030371045885 0 -0.030194264633593808 -0.0008135556037285578 0 -0.029459263298591484 -0.00082313640217821068 0 -0.029531610753967555 -0.00067090025521709875 0 -0.030184486857931708 -0.00079801459283949765 0 -0.029964197949021706 -0.00034976944856773942 0 -0.02969187359214406 -0.00053019030371045885 0 -0.028137649639195617 -0.0011977521840369283 0 -0.02969187359214406 -0.00053019030371045885 0 -0.028608116468989149 -0.00098850035287411536 0 -0.028488971518298174 -0.0012459644124542678 0 -0.028727281284391379 -0.0011355738847419659 0 -0.028476355112274962 1.537272402604492e-05 0 -0.028465406570194998 2.3382057148116816e-05 0 -0.028471279921861731 1.8656340812852771e-05 0 -0.028488971518298174 -0.0012459644124542678 0 -0.028727281284391379 -0.0011355738847419659 0 -0.028693588030368665 -0.0012881751040277284 0 -0.027790649778759075 -0.0014702225372262999 0 -0.029266398241140856 -0.0013987052436608715 0 -0.028727281284391379 -0.0011355738847419659 0 -0.028693588030368665 -0.0012881751040277284 0 -0.029062616764427108 -0.0012786245680617946 0 -0.030212256941668229 -0.00097553424885278605 0 -0.029742501786309643 -0.0010048613833657934 0 -0.029707082090897976 -0.00096785160593018519 0 -0.028656729822395914 -0.0015011885233657131 0 -0.028609286477017732 -0.0013093864186700579 0 -0.028687990075226759 -0.0015000236832048834 0 -0.030212256941668229 -0.00097553424885278605 0 -0.029707082090897976 -0.00096785160593018519 0 -0.029595730121853472 -0.00087302616362988834 0 -0.028733047080689404 -0.00092374210729189539 0 -0.028727281284391379 -0.0011355738847419659 0 -0.029062616764427108 -0.0012786245680617946 0 -0.030194264633593808 -0.0008135556037285578 0 -0.030464014325235229 -0.0017106850197186124 0 -0.030194264633593808 -0.0008135556037285578 0 -0.029266398241140856 -0.0013987052436608715 0 -0.029266398241140856 -0.0013987052436608715 0 -0.029267172186528963 -0.0013979675277246177 0 -0.024388978776026162 -0.0029659897187273897 0 -0.024590725521021168 -0.003023059125262061 0 -0.02468925806515045 -0.0036469976164145422 0 -0.027847149911511663 -0.00198501611195362 0 -0.029466058762243844 -0.001467909583229758 0 -0.028515921133226537 -0.0013570778085818052 0 -0.028656729822395914 -0.0015011885233657131 0 -0.028609286477017732 -0.0013093864186700579 0 -0.024464526056975189 -0.0029393182734058212 0 -0.024590725521021168 -0.003023059125262061 0 -0.02460002039272122 -0.0028906283474821148 0 -0.024464526056975189 -0.0029393182734058212 0 -0.024388978776026162 -0.0029659897187273897 0 -0.024590725521021168 -0.003023059125262061 0 -0.027798610591160507 -0.0020071799257705674 0 -0.027847149911511663 -0.00198501611195362 0 -0.024099017824494647 -0.003153225470258484 0 -0.02438729481043889 -0.0030084945477340942 0 -0.024178534962925997 -0.0029886646042913585 0 -0.027790649778759075 -0.0014702225372262999 0 -0.027847149911511663 -0.00198501611195362 0 -0.02781418066610097 -0.0017015691662123551 0 -0.029225027222583574 -0.0019259975192980072 0 -0.024590725521021168 -0.003023059125262061 0 -0.024905915408495124 -0.0034849879394389977 0 -0.02490178831497309 -0.0031174713350919474 0 -0.02474252150400812 -0.0029529680029277165 0 -0.024590725521021168 -0.003023059125262061 0 -0.02490178831497309 -0.0031174713350919474 0 -0.02474252150400812 -0.0029529680029277165 0 -0.02490178831497309 -0.0031174713350919474 0 -0.024896849711391687 -0.0029423574186736639 0 -0.02474252150400812 -0.0029529680029277165 0 -0.024590725521021168 -0.003023059125262061 0 -0.02460002039272122 -0.0028906283474821148 0 -0.029750991692236085 -0.0017644906914814204 0 -0.030223361920913964 -0.001848099583015747 0 -0.029929517430939252 -0.0020064831620343151 0 -0.024590725521021168 -0.003023059125262061 0 -0.02468925806515045 -0.0036469976164145422 0 -0.025115896590630429 -0.0036284293261139278 0 -0.029743116318151061 -0.0010074557248651815 0 -0.029707082090897976 -0.00096785160593018519 0 -0.029647138892878348 -0.0010109357924712851 0 -0.029266398241140856 -0.0013987052436608715 0 -0.029466058762243844 -0.001467909583229758 0 -0.029466058762243844 -0.001467909583229758 0 -0.030464014325235229 -0.0017106850197186124 0 -0.029707082090897976 -0.00096785160593018519 0 -0.029647138892878348 -0.0010109357924712851 0 -0.029595730121853472 -0.00087302616362988834 0 -0.030276094358157188 -0.0019890877611417469 0 -0.030223361920913964 -0.001848099583015747 0 -0.029929517430939252 -0.0020064831620343151 0 -0.029466058762243844 -0.001467909583229758 0 -0.029225027222583574 -0.0019259975192980072 0 -0.029225027222583574 -0.0019259975192980072 0 -0.029343461382352696 -0.0025834640171760654 0 -0.031052286823607736 -0.0024130038045172284 0 -0.029225027222583574 -0.0019259975192980072 0 -0.024905915408495124 -0.0034849879394389977 0 -0.025221551016544871 -0.0033133662253124261 0 -0.02490178831497309 -0.0031174713350919474 0 -0.024905915408495124 -0.0034849879394389977 0 -0.025221551016544871 -0.0033133662253124261 0 -0.025577892752611034 -0.0035899759805184499 0 -0.032717115462652886 -0.0025465540387537141 0 -0.032664776595053915 -0.002485067030487678 0 -0.032838394215511456 -0.0025088668155537073 0 -0.025221551016544871 -0.0033133662253124261 0 -0.025577892752611034 -0.0035899759805184499 0 -0.025468313625942353 -0.0032646453501921895 0 -0.025721310764632035 -0.0031192266389900242 0 -0.025577892752611034 -0.0035899759805184499 0 -0.025468313625942353 -0.0032646453501921895 0 -0.025721310764632035 -0.0031192266389900242 0 -0.025468313625942353 -0.0032646453501921895 0 -0.025391412137471588 -0.0030561352181509016 0 -0.025221551016544871 -0.0033133662253124261 0 -0.025468313625942353 -0.0032646453501921895 0 -0.025391412137471588 -0.0030561352181509016 0 -0.025391412137471588 -0.0030561352181509016 0 -0.025122795377615765 -0.0029579286700910155 0 -0.02529772586212909 -0.0027369772300265527 0 -0.025721310764632035 -0.0031192266389900242 0 -0.025391412137471588 -0.0030561352181509016 0 -0.0255860206034716 -0.0028455541529223407 0 -0.025221551016544871 -0.0033133662253124261 0 -0.02490178831497309 -0.0031174713350919474 0 -0.025122795377615765 -0.0029579286700910155 0 -0.025221551016544871 -0.0033133662253124261 0 -0.025391412137471588 -0.0030561352181509016 0 -0.025122795377615765 -0.0029579286700910155 0 -0.02490178831497309 -0.0031174713350919474 0 -0.025122795377615765 -0.0029579286700910155 0 -0.024896849711391687 -0.0029423574186736639 0 -0.025122795377615765 -0.0029579286700910155 0 -0.024896849711391687 -0.0029423574186736639 0 -0.024975101056347385 -0.0027395433219286947 0 -0.025122795377615765 -0.0029579286700910155 0 -0.024975101056347385 -0.0027395433219286947 0 -0.02529772586212909 -0.0027369772300265527 0 -0.024975101056347385 -0.0027395433219286947 0 -0.02529772586212909 -0.0027369772300265527 0 -0.025135439732780686 -0.0025011002489427844 0 -0.025391412137471588 -0.0030561352181509016 0 -0.0255860206034716 -0.0028455541529223407 0 -0.02529772586212909 -0.0027369772300265527 0 -0.025545941275027066 -0.0026132677748468367 0 -0.02529772586212909 -0.0027369772300265527 0 -0.025357780941348312 -0.0024419116748460199 0 -0.025545941275027066 -0.0026132677748468367 0 -0.0255860206034716 -0.0028455541529223407 0 -0.02529772586212909 -0.0027369772300265527 0 -0.025601639941514674 -0.0023536803675162144 0 -0.025213579212732196 -0.0021026511755579198 0 -0.025357780941348312 -0.0024419116748460199 0 -0.025213579212732196 -0.0021026511755579198 0 -0.025357780941348312 -0.0024419116748460199 0 -0.025135439732780686 -0.0025011002489427844 0 -0.02529772586212909 -0.0027369772300265527 0 -0.025357780941348312 -0.0024419116748460199 0 -0.025135439732780686 -0.0025011002489427844 0 -0.025213579212732196 -0.0021026511755579198 0 -0.025135439732780686 -0.0025011002489427844 0 -0.024816240050777132 -0.0024900081637559959 0 -0.025213579212732196 -0.0021026511755579198 0 -0.024816240050777132 -0.0024900081637559959 0 -0.024653956418123336 -0.0022137194070825134 0 -0.024975101056347385 -0.0027395433219286947 0 -0.025135439732780686 -0.0025011002489427844 0 -0.024816240050777132 -0.0024900081637559959 0 -0.024816240050777132 -0.0024900081637559959 0 -0.024575477373731679 -0.0025604690728040784 0 -0.024653956418123336 -0.0022137194070825134 0 -0.024575477373731679 -0.0025604690728040784 0 -0.024653956418123336 -0.0022137194070825134 0 -0.024387080849312209 -0.0023664560887723205 0 -0.02438116862824152 -0.0020996320324253416 0 -0.024653956418123336 -0.0022137194070825134 0 -0.024387080849312209 -0.0023664560887723205 0 -0.02438116862824152 -0.0020996320324253416 0 -0.024065033143088846 -0.0022873163261501266 0 -0.024387080849312209 -0.0023664560887723205 0 -0.024065033143088846 -0.0022873163261501266 0 -0.024387080849312209 -0.0023664560887723205 0 -0.024295501001385333 -0.0025905816291955297 0 -0.024065033143088846 -0.0022873163261501266 0 -0.024044432920054436 -0.0025685953072646134 0 -0.024295501001385333 -0.0025905816291955297 0 -0.024575477373731679 -0.0025604690728040784 0 -0.024387080849312209 -0.0023664560887723205 0 -0.024295501001385333 -0.0025905816291955297 0 -0.024295501001385333 -0.0025905816291955297 0 -0.024308112216902721 -0.0028067341364878718 0 -0.024499702867527579 -0.0027692735543925575 0 -0.024575477373731679 -0.0025604690728040784 0 -0.024295501001385333 -0.0025905816291955297 0 -0.024499702867527579 -0.0027692735543925575 0 -0.024141766118140912 -0.0027284793266881473 0 -0.024295501001385333 -0.0025905816291955297 0 -0.024308112216902721 -0.0028067341364878718 0 -0.024044432920054436 -0.0025685953072646134 0 -0.024141766118140912 -0.0027284793266881473 0 -0.024295501001385333 -0.0025905816291955297 0 -0.024091683507930468 -0.0028926125773940338 0 -0.024141766118140912 -0.0027284793266881473 0 -0.024308112216902721 -0.0028067341364878718 0 -0.024091683507930468 -0.0028926125773940338 0 -0.024178534962925997 -0.0029886646042913585 0 -0.024308112216902721 -0.0028067341364878718 0 -0.02438729481043889 -0.0030084945477340942 0 -0.024178534962925997 -0.0029886646042913585 0 -0.024308112216902721 -0.0028067341364878718 0 -0.024464526056975189 -0.0029393182734058212 0 -0.024308112216902721 -0.0028067341364878718 0 -0.024499702867527579 -0.0027692735543925575 0 -0.024464526056975189 -0.0029393182734058212 0 -0.024400232583199257 -0.0029735549455064615 0 -0.024308112216902721 -0.0028067341364878718 0 -0.027847149911511663 -0.00198501611195362 0 -0.027739519839054243 -0.0019781542801520099 0 -0.024464526056975189 -0.0029393182734058212 0 -0.024499702867527579 -0.0027692735543925575 0 -0.02460002039272122 -0.0028906283474821148 0 -0.024499702867527579 -0.0027692735543925575 0 -0.02460002039272122 -0.0028906283474821148 0 -0.024720681770992476 -0.0027830190563203627 0 -0.02474252150400812 -0.0029529680029277165 0 -0.02460002039272122 -0.0028906283474821148 0 -0.024720681770992476 -0.0027830190563203627 0 -0.02474252150400812 -0.0029529680029277165 0 -0.024896849711391687 -0.0029423574186736639 0 -0.024720681770992476 -0.0027830190563203627 0 -0.024896849711391687 -0.0029423574186736639 0 -0.024975101056347385 -0.0027395433219286947 0 -0.024720681770992476 -0.0027830190563203627 0 -0.024975101056347385 -0.0027395433219286947 0 -0.024816240050777132 -0.0024900081637559959 0 -0.024720681770992476 -0.0027830190563203627 0 -0.024816240050777132 -0.0024900081637559959 0 -0.024575477373731679 -0.0025604690728040784 0 -0.024720681770992476 -0.0027830190563203627 0 -0.024575477373731679 -0.0025604690728040784 0 -0.024499702867527579 -0.0027692735543925575 0 -0.024720681770992476 -0.0027830190563203627 0 -0.027655275473113531 9.1728636346508785e-05 0 -0.029522178679447193 -2.2063053351361212e-07 0 -0.025482161273947767 1.4932770582855841e-06 0 -0.027655275473113531 9.1728636346508785e-05 0 -0.026720187180829004 0.00012725273493780607 0 -0.026523120656619648 9.9085562751294109e-05 0 -0.028751075683084947 0.000425538160419222 0 -0.028356129241354156 0.00042770454729346212 0 -0.027655275473113531 9.1728636346508785e-05 0 -0.028451096146123397 0.0001013514329939127 0 -0.026720187180829004 0.00012725273493780607 0 -0.026732417780701553 0.00016224774709662737 0 -0.026689325557843698 0.00025181056585257312 0 -0.026720187180829004 0.00012725273493780607 0 -0.026732417780701553 0.00016224774709662737 0 -0.026689325557843698 0.00025181056585257312 0 -0.026866760470960992 0.00032616415109518778 0 -0.027655275473113531 9.1728636346508785e-05 0 -0.028451096146123397 0.0001013514329939127 0 -0.029477654956557391 9.2882985219691063e-05 0 -0.028451096146123397 0.0001013514329939127 0 -0.030011823424855276 0.00017535436911655122 0 -0.029477654956557391 9.2882985219691063e-05 0 -0.02672931272694196 0.00049505987147874036 0 -0.026898245109319249 0.00052040683212988621 0 -0.026866760470960992 0.00032616415109518778 0 -0.028751075683084947 0.000425538160419222 0 -0.029824109102103591 0.00027793785720485063 0 -0.026689325557843698 0.00025181056585257312 0 -0.02672931272694196 0.00049505987147874036 0 -0.026866760470960992 0.00032616415109518778 0 -0.030011823424855276 0.00017535436911655122 0 -0.030734165134825617 4.558673596995278e-05 0 -0.030754349639065957 -0.00026338530539110535 0 -0.029824109102103591 0.00027793785720485063 0 -0.031751216945818672 -0.00035677486761910928 0 -0.02672931272694196 0.00049505987147874036 0 -0.026841193067667111 0.00065386175097114079 0 -0.026763632563475977 0.00081739407783248757 0 -0.02672931272694196 0.00049505987147874036 0 -0.026841193067667111 0.00065386175097114079 0 -0.026898245109319249 0.00052040683212988621 0 -0.030011823424855276 0.00017535436911655122 0 -0.030734165134825617 4.558673596995278e-05 0 -0.029477654956557391 9.2882985219691063e-05 0 -0.029477654956557391 9.2882985219691063e-05 0 -0.029522178679447193 -2.2063053351361212e-07 0 -0.031007622588332659 -5.9827277638691376e-05 0 -0.030734165134825617 4.558673596995278e-05 0 -0.029477654956557391 9.2882985219691063e-05 0 -0.031007622588332659 -5.9827277638691376e-05 0 -0.027655275473113531 9.1728636346508785e-05 0 -0.029477654956557391 9.2882985219691063e-05 0 -0.029522178679447193 -2.2063053351361212e-07 0 -0.029522178679447193 -2.2063053351361212e-07 0 -0.031007622588332659 -5.9827277638691376e-05 0 -0.033599623258884666 3.7152295394777188e-05 0 -0.029522178679447193 -2.2063053351361212e-07 0 -0.034997766439899554 1.2783804709078252e-07 0 -0.033599623258884666 3.7152295394777188e-05 0 -0.031007622588332659 -5.9827277638691376e-05 0 -0.033599623258884666 3.7152295394777188e-05 0 -0.031736428310158361 -0.00024988003004930545 0 -0.034997766439899554 1.2783804709078252e-07 0 -0.033599623258884666 3.7152295394777188e-05 0 -0.034996511055122012 2.8832641957073924e-07 0 -0.033599623258884666 3.7152295394777188e-05 0 -0.033749939304430425 9.5806283540219038e-05 0 -0.033004047380222994 -1.9165025416790644e-05 0 -0.033599623258884666 3.7152295394777188e-05 0 -0.034996511055122012 2.8832641957073924e-07 0 -0.033749939304430425 9.5806283540219038e-05 0 -0.034999950425160305 5.8807949161072594e-09 0 -0.034960010278832547 -1.3460010169166929e-05 0 -0.034985828723906258 -6.6307703642190416e-06 0 -0.034997535386504769 5.6539136536798683e-07 0 -0.033637779800254487 0.00011233498969743566 0 -0.033749939304430425 9.5806283540219038e-05 0 -0.033004047380222994 -1.9165025416790644e-05 0 -0.033007987755850343 -0.00044017312382324162 0 -0.033637779800254487 0.00011233498969743566 0 -0.031751216945818672 -0.00035677486761910928 0 -0.034960010278832547 -1.3460010169166929e-05 0 -0.034927978427615282 -5.2724624231386361e-05 0 -0.034961578015235237 -2.9413455171023405e-05 0 -0.034927978427615282 -5.2724624231386361e-05 0 -0.034951765799711085 -5.2876111160328907e-05 0 -0.034961578015235237 -2.9413455171023405e-05 0 -0.033599623258884666 3.7152295394777188e-05 0 -0.033004047380222994 -1.9165025416790644e-05 0 -0.031736428310158361 -0.00024988003004930545 0 -0.033004047380222994 -1.9165025416790644e-05 0 -0.031736428310158361 -0.00024988003004930545 0 -0.033007987755850343 -0.00044017312382324162 0 -0.031781947289755447 -0.00035082799634059803 0 -0.031751216945818672 -0.00035677486761910928 0 -0.030734165134825617 4.558673596995278e-05 0 -0.031736428310158361 -0.00024988003004930545 0 -0.030754349639065957 -0.00026338530539110535 0 -0.030734165134825617 4.558673596995278e-05 0 -0.031007622588332659 -5.9827277638691376e-05 0 -0.031736428310158361 -0.00024988003004930545 0 -0.026763632563475977 0.00081739407783248757 0 -0.026859816304239201 0.00078289458914716564 0 -0.026899320819323454 0.00082421949814665116 0 -0.031751216945818672 -0.00035677486761910928 0 -0.032154685178625762 -0.00015313270200425198 0 -0.026841193067667111 0.00065386175097114079 0 -0.026763632563475977 0.00081739407783248757 0 -0.026859816304239201 0.00078289458914716564 0 -0.027139656153397949 0.00078621262373496916 0 -0.02687080780083646 0.00085458064809522513 0 -0.027507920821667826 0.00092079405426256499 0 -0.032154685178625762 -0.00015313270200425198 0 -0.031567598666865149 7.7656323506591581e-05 0 -0.026972888234018659 0.0006695893821884165 0 -0.027139656153397949 0.00078621262373496916 0 -0.02687080780083646 0.00085458064809522513 0 -0.026841193067667111 0.00065386175097114079 0 -0.026859816304239201 0.00078289458914716564 0 -0.026972888234018659 0.0006695893821884165 0 -0.026859816304239201 0.00078289458914716564 0 -0.026972888234018659 0.0006695893821884165 0 -0.02687080780083646 0.00085458064809522513 0 -0.032068596686291674 -0.00019455864986919419 0 -0.032154685178625762 -0.00015313270200425198 0 -0.027139656153397949 0.00078621262373496916 0 -0.027507920821667826 0.00092079405426256499 0 -0.027417744878789601 -1.6518375171899288e-05 0 -0.034848255493789136 -0.00011435130876683937 0 -0.034822973785295731 -4.3673722538889668e-05 0 -0.034912010235992379 -4.9338301927171179e-05 0 -0.032154685178625762 -0.00015313270200425198 0 -0.033799340500157878 0.00023704847671515282 0 -0.034734713630288787 -0.00012571931483329853 0 -0.034848255493789136 -0.00011435130876683937 0 -0.034822973785295731 -4.3673722538889668e-05 0 -0.034951765799711085 -5.2876111160328907e-05 0 -0.034983719818985508 -2.3755092588075965e-05 0 -0.034961578015235237 -2.9413455171023405e-05 0 -0.034960010278832547 -1.3460010169166929e-05 0 -0.034961578015235237 -2.9413455171023405e-05 0 -0.034985828723906258 -6.6307703642190416e-06 0 -0.034983719818985508 -2.3755092588075965e-05 0 -0.034961578015235237 -2.9413455171023405e-05 0 -0.034985828723906258 -6.6307703642190416e-06 0 -0.034822973785295731 -4.3673722538889668e-05 0 -0.034911304644608274 -4.6321187682994073e-07 0 -0.034912010235992379 -4.9338301927171179e-05 0 -0.033799340500157878 0.00023704847671515282 0 -0.034538203953102246 0.00015546740632756541 0 -0.034983719818985508 -2.3755092588075965e-05 0 -0.034985828723906258 -6.6307703642190416e-06 0 -0.034998963852398347 -5.0753951929875499e-06 0 -0.034998963852398347 -5.0753951929875499e-06 0 -0.034999998168577164 -2.1743593217035596e-09 0 -0.035000002770100958 -5.8569250170572691e-10 0 -0.034985828723906258 -6.6307703642190416e-06 0 -0.034998963852398347 -5.0753951929875499e-06 0 -0.034999998168577164 -2.1743593217035596e-09 0 -0.034999950425160305 5.8807949161072594e-09 0 -0.034985828723906258 -6.6307703642190416e-06 0 -0.034999998168577164 -2.1743593217035596e-09 0 -0.034985221938433571 1.1177509747722026e-06 0 -0.034999806563439803 8.0420152955158632e-08 0 -0.034966373183355576 -1.0133289197322703e-05 0 -0.034985221938433571 1.1177509747722026e-06 0 -0.034999806563439803 8.0420152955158632e-08 0 -0.035000099160488157 -5.5894078110298555e-08 0 -0.034911304644608274 -4.6321187682994073e-07 0 -0.034999806563439803 8.0420152955158632e-08 0 -0.034966373183355576 -1.0133289197322703e-05 0 -0.034538203953102246 0.00015546740632756541 0 -0.034999119062367384 4.8230887312159806e-07 0 -0.034911304644608274 -4.6321187682994073e-07 0 -0.034966373183355576 -1.0133289197322703e-05 0 -0.034912010235992379 -4.9338301927171179e-05 0 -0.034985221938433571 1.1177509747722026e-06 0 -0.034966373183355576 -1.0133289197322703e-05 0 -0.034979305026908519 1.170701250876172e-05 0 -0.034966373183355576 -1.0133289197322703e-05 0 -0.034953727096750244 -5.1565694985010681e-05 0 -0.034912010235992379 -4.9338301927171179e-05 0 -0.034966373183355576 -1.0133289197322703e-05 0 -0.034953727096750244 -5.1565694985010681e-05 0 -0.034979049163857259 -3.260112346301927e-05 0 -0.034848255493789136 -0.00011435130876683937 0 -0.034912010235992379 -4.9338301927171179e-05 0 -0.034923757125899152 -8.9772513684424052e-05 0 -0.034953727096750244 -5.1565694985010681e-05 0 -0.034912010235992379 -4.9338301927171179e-05 0 -0.034923757125899152 -8.9772513684424052e-05 0 -0.027507920821667826 0.00092079405426256499 0 -0.028382681185955896 0.00094340720100554094 0 -0.027960469755433096 0.00047244870154413207 0 -0.031567598666865149 7.7656323506591581e-05 0 -0.031686206742364116 0.00018336016619153697 0 -0.028382681185955896 0.00094340720100554094 0 -0.028432917821930602 0.00058564694106726046 0 -0.027960469755433096 0.00047244870154413207 0 -0.028382681185955896 0.00094340720100554094 0 -0.028432917821930602 0.00058564694106726046 0 -0.029031306775208512 0.00090371375156273154 0 -0.031686206742364116 0.00018336016619153697 0 -0.031885561549910103 0.00019574846388597012 0 -0.028382681185955896 0.00094340720100554094 0 -0.029031306775208512 0.00090371375156273154 0 -0.029231830649002043 0.00093334181901560292 0 -0.028432917821930602 0.00058564694106726046 0 -0.029031306775208512 0.00090371375156273154 0 -0.028354123150016102 2.4352080337770216e-05 0 -0.034953727096750244 -5.1565694985010681e-05 0 -0.034923757125899152 -8.9772513684424052e-05 0 -0.034967752370603088 -7.461188661750044e-05 0 -0.029031306775208512 0.00090371375156273154 0 -0.029042319859531113 0.0001128274899616784 0 -0.028502736578857657 0.00011966644292361996 0 -0.028200395082826298 0.00079410348573278537 0 -0.027718442298819191 0.00048846238293133437 0 -0.029042319859531113 0.0001128274899616784 0 -0.028736653270778279 -0.00025962117030290592 0 -0.028871601855180916 -0.00065539496259013142 0 -0.030629352872690058 -0.000179730279531345 0 -0.03023358713035278 -0.00045249957732160006 0 -0.029042319859531113 0.0001128274899616784 0 -0.028736653270778279 -0.00025962117030290592 0 -0.028502736578857657 0.00011966644292361996 0 -0.029070031546702711 3.9714868178884316e-06 0 -0.028871601855180916 -0.00065539496259013142 0 -0.029077377328388117 -0.00066871160789569721 0 -0.028736653270778279 -0.00025962117030290592 0 -0.028485712496886341 -0.00043424958235948019 0 -0.028666265401444027 -0.0005124603438360915 0 -0.028736653270778279 -0.00025962117030290592 0 -0.028871601855180916 -0.00065539496259013142 0 -0.028666265401444027 -0.0005124603438360915 0 -0.028485712496886341 -0.00043424958235948019 0 -0.028502736578857657 0.00011966644292361996 0 -0.028000246748680957 -0.00060664325431198523 0 -0.027718442298819191 0.00048846238293133437 0 -0.026529450476671972 0.00018261425636003834 0 -0.028736653270778279 -0.00025962117030290592 0 -0.028485712496886341 -0.00043424958235948019 0 -0.028502736578857657 0.00011966644292361996 0 -0.028354123150016102 2.4352080337770216e-05 0 -0.027960469755433096 0.00047244870154413207 0 -0.027417744878789601 -1.6518375171899288e-05 0 -0.028432917821930602 0.00058564694106726046 0 -0.028354123150016102 2.4352080337770216e-05 0 -0.027960469755433096 0.00047244870154413207 0 -0.027507920821667826 0.00092079405426256499 0 -0.027960469755433096 0.00047244870154413207 0 -0.027417744878789601 -1.6518375171899288e-05 0 -0.026842286077049374 0.00038506276522955928 0 -0.026813212108629272 0.00021464822098784164 0 -0.026972888234018659 0.0006695893821884165 0 -0.027139656153397949 0.00078621262373496916 0 -0.027068506426409063 0.00050047600396500912 0 -0.026972888234018659 0.0006695893821884165 0 -0.027068506426409063 0.00050047600396500912 0 -0.026898245109319249 0.00052040683212988621 0 -0.026841193067667111 0.00065386175097114079 0 -0.026972888234018659 0.0006695893821884165 0 -0.026898245109319249 0.00052040683212988621 0 -0.027068506426409063 0.00050047600396500912 0 -0.026898245109319249 0.00052040683212988621 0 -0.026866760470960992 0.00032616415109518778 0 -0.028354123150016102 2.4352080337770216e-05 0 -0.027417744878789601 -1.6518375171899288e-05 0 -0.02771886259735324 -0.00082777005928031517 0 -0.027068506426409063 0.00050047600396500912 0 -0.027080823755604704 0.00031125661632852748 0 -0.026866760470960992 0.00032616415109518778 0 -0.026813212108629272 0.00021464822098784164 0 -0.026529450476671972 0.00018261425636003834 0 -0.026529450476671972 0.00018261425636003834 0 -0.025740457502425609 0.00042369032080289017 0 -0.027080823755604704 0.00031125661632852748 0 -0.026866760470960992 0.00032616415109518778 0 -0.026862455165568577 0.0001344076280411449 0 -0.026732417780701553 0.00016224774709662737 0 -0.026866760470960992 0.00032616415109518778 0 -0.026862455165568577 0.0001344076280411449 0 -0.024228778375044439 0.0013855614613647164 0 -0.024002434879337751 0.0011124058604156204 0 -0.024332462912062175 0.001090918204955302 0 -0.02829961585022327 -0.0013609038602813942 0 -0.028509717494100004 -0.0010032938786412016 0 -0.02881328191414809 -0.0013880094515106437 0 -0.028000246748680957 -0.00060664325431198523 0 -0.02829961585022327 -0.0013609038602813942 0 -0.028509717494100004 -0.0010032938786412016 0 -0.026529450476671972 0.00018261425636003834 0 -0.026548818900258203 -0.00022296085595270332 0 -0.02881328191414809 -0.0013880094515106437 0 -0.028770687710237164 -0.0008839902529786843 0 -0.029077377328388117 -0.00066871160789569721 0 -0.028509717494100004 -0.0010032938786412016 0 -0.02881328191414809 -0.0013880094515106437 0 -0.028770687710237164 -0.0008839902529786843 0 -0.028296463097625079 -0.0022274007860120901 0 -0.029456259534581045 -0.0019429376044887269 0 -0.029630962440337725 -0.0048122189283350261 0 -0.030260185840564342 -0.003542482921415287 0 -0.030345978187311919 -0.0041505574657643525 0 -0.028770687710237164 -0.0008839902529786843 0 -0.028871601855180916 -0.00065539496259013142 0 -0.0285733381868487 -0.000699123857020401 0 -0.028509717494100004 -0.0010032938786412016 0 -0.028770687710237164 -0.0008839902529786843 0 -0.0285733381868487 -0.000699123857020401 0 -0.028770687710237164 -0.0008839902529786843 0 -0.028871601855180916 -0.00065539496259013142 0 -0.029077377328388117 -0.00066871160789569721 0 -0.028871601855180916 -0.00065539496259013142 0 -0.028666265401444027 -0.0005124603438360915 0 -0.0285733381868487 -0.000699123857020401 0 -0.028485712496886341 -0.00043424958235948019 0 -0.028666265401444027 -0.0005124603438360915 0 -0.0285733381868487 -0.000699123857020401 0 -0.028000246748680957 -0.00060664325431198523 0 -0.028509717494100004 -0.0010032938786412016 0 -0.0285733381868487 -0.000699123857020401 0 -0.028485712496886341 -0.00043424958235948019 0 -0.028000246748680957 -0.00060664325431198523 0 -0.0285733381868487 -0.000699123857020401 0 -0.031672214461218873 -0.004109727758280079 0 -0.032361751018867714 -0.0034908519044169286 0 -0.032932441329371454 -0.0031359699044451669 0 -0.029731976435733994 -0.0047617224385475155 0 -0.029698924718613677 -0.0047347271305504899 0 -0.029693677792241333 -0.0047625546428302469 0 -0.030997418967440547 -0.0036539288920934697 0 -0.032081685914118377 -0.0025347953221243969 0 -0.031672214461218873 -0.004109727758280079 0 -0.031549479113583696 -0.0035917614510293629 0 -0.030906754614615558 -0.0039929354800461378 0 -0.031672214461218873 -0.004109727758280079 0 -0.032361751018867714 -0.0034908519044169286 0 -0.031549479113583696 -0.0035917614510293629 0 -0.029731976435733994 -0.0047617224385475155 0 -0.029698924718613677 -0.0047347271305504899 0 -0.029702271514267648 -0.0047084139952189496 0 -0.032361751018867714 -0.0034908519044169286 0 -0.031842305336168761 -0.0032262857674490207 0 -0.0321989333341215 -0.0029935964563114889 0 -0.032361751018867714 -0.0034908519044169286 0 -0.032544790359177761 -0.0030387706146887115 0 -0.0321989333341215 -0.0029935964563114889 0 -0.032361751018867714 -0.0034908519044169286 0 -0.031842305336168761 -0.0032262857674490207 0 -0.031549479113583696 -0.0035917614510293629 0 -0.031842305336168761 -0.0032262857674490207 0 -0.031549479113583696 -0.0035917614510293629 0 -0.031417673005579891 -0.0032176537133948974 0 -0.031417673005579891 -0.0032176537133948974 0 -0.030990450651799291 -0.0032405472257145836 0 -0.031025680008662414 -0.0035581875420476667 0 -0.030990450651799291 -0.0032405472257145836 0 -0.031025680008662414 -0.0035581875420476667 0 -0.030664191273382317 -0.003718731694087945 0 -0.031549479113583696 -0.0035917614510293629 0 -0.031417673005579891 -0.0032176537133948974 0 -0.031025680008662414 -0.0035581875420476667 0 -0.030990450651799291 -0.0032405472257145836 0 -0.030260185840564342 -0.003542482921415287 0 -0.030664191273382317 -0.003718731694087945 0 -0.030260185840564342 -0.003542482921415287 0 -0.030664191273382317 -0.003718731694087945 0 -0.030345978187311919 -0.0041505574657643525 0 -0.030664191273382317 -0.003718731694087945 0 -0.030906754614615558 -0.0039929354800461378 0 -0.030345978187311919 -0.0041505574657643525 0 -0.031549479113583696 -0.0035917614510293629 0 -0.031025680008662414 -0.0035581875420476667 0 -0.030906754614615558 -0.0039929354800461378 0 -0.031025680008662414 -0.0035581875420476667 0 -0.030664191273382317 -0.003718731694087945 0 -0.030906754614615558 -0.0039929354800461378 0 -0.031672214461218873 -0.004109727758280079 0 -0.030906754614615558 -0.0039929354800461378 0 -0.029982545102941616 -0.0047110075257178795 0 -0.029982545102941616 -0.0047110075257178795 0 -0.029711613789128351 -0.0046756077767666606 0 -0.029700261095606854 -0.0046621287698297362 0 -0.029731976435733994 -0.0047617224385475155 0 -0.029982545102941616 -0.0047110075257178795 0 -0.029711613789128351 -0.0046756077767666606 0 -0.030997418967440547 -0.0036539288920934697 0 -0.030657832223753383 -0.0039832786727188561 0 -0.030906754614615558 -0.0039929354800461378 0 -0.030345978187311919 -0.0041505574657643525 0 -0.029982545102941616 -0.0047110075257178795 0 -0.029630962440337725 -0.0048122189283350261 0 -0.030345978187311919 -0.0041505574657643525 0 -0.029982545102941616 -0.0047110075257178795 0 -0.029711613789128351 -0.0046756077767666606 0 -0.029702271514267648 -0.0047084139952189496 0 -0.029683340649866882 -0.0046766178395890911 0 -0.029731976435733994 -0.0047617224385475155 0 -0.029711613789128351 -0.0046756077767666606 0 -0.029702271514267648 -0.0047084139952189496 0 -0.031484371500152417 -0.0025178162101160422 0 -0.031610263146159244 -0.0025057294397508095 0 -0.031654113389534035 -0.0023027089219233555 0 -0.029698924718613677 -0.0047347271305504899 0 -0.029702271514267648 -0.0047084139952189496 0 -0.029683340649866882 -0.0046766178395890911 0 -0.032275420499062638 -0.0020391370182682145 0 -0.032229850727509085 -0.0021403503359259573 0 -0.031610263146159244 -0.0025057294397508095 0 -0.031654113389534035 -0.0023027089219233555 0 -0.031803383802650444 -0.0025660905022540479 0 -0.031951778424802124 -0.0022377317453421376 0 -0.031627839953207226 -0.002073325794810104 0 -0.031803383802650444 -0.0025660905022540479 0 -0.031951778424802124 -0.0022377317453421376 0 -0.031803383802650444 -0.0025660905022540479 0 -0.031983749002456985 -0.0026058545979864346 0 -0.031627839953207226 -0.002073325794810104 0 -0.031865664127580864 -0.0016606425599508803 0 -0.031380849757744744 -0.00148050121454919 0 -0.031951778424802124 -0.0022377317453421376 0 -0.032129758571604036 -0.0018491345550449526 0 -0.031627839953207226 -0.002073325794810104 0 -0.032129758571604036 -0.0018491345550449526 0 -0.031627839953207226 -0.002073325794810104 0 -0.031865664127580864 -0.0016606425599508803 0 -0.032129758571604036 -0.0018491345550449526 0 -0.031865664127580864 -0.0016606425599508803 0 -0.03215099275299238 -0.0015112546772911614 0 -0.031052754163774364 -0.0033953841322515283 0 -0.03233299441922291 -0.0022499440028175117 0 -0.032275420499062638 -0.0020391370182682145 0 -0.032564983360097215 -0.0020056603862392761 0 -0.031654113389534035 -0.0023027089219233555 0 -0.031515972251440698 -0.0020508951362174358 0 -0.031544671620387731 -0.0020278841127858043 0 -0.031484371500152417 -0.0025178162101160422 0 -0.031654113389534035 -0.0023027089219233555 0 -0.031515972251440698 -0.0020508951362174358 0 -0.029698924718613677 -0.0047347271305504899 0 -0.029683340649866882 -0.0046766178395890911 0 -0.029688981842894924 -0.0047681886444528804 0 -0.029698924718613677 -0.0047347271305504899 0 -0.029693677792241333 -0.0047625546428302469 0 -0.029688981842894924 -0.0047681886444528804 0 -0.032085741330670443 -0.0025663850623668253 0 -0.032081685914118377 -0.0025347953221243969 0 -0.032361751018867714 -0.0034908519044169286 0 -0.032801431668464269 -0.0031641821858139408 0 -0.032544790359177761 -0.0030387706146887115 0 -0.032544790359177761 -0.0030387706146887115 0 -0.032681039040094256 -0.0028467039668710632 0 -0.032778967207048398 -0.0029769488204040863 0 -0.032801431668464269 -0.0031641821858139408 0 -0.032544790359177761 -0.0030387706146887115 0 -0.032778967207048398 -0.0029769488204040863 0 -0.032544790359177761 -0.0030387706146887115 0 -0.032681039040094256 -0.0028467039668710632 0 -0.032442657334723769 -0.0027158203561855718 0 -0.032681039040094256 -0.0028467039668710632 0 -0.032918322878841291 -0.0027464081019792294 0 -0.032673449380535222 -0.0026792440618700606 0 -0.032681039040094256 -0.0028467039668710632 0 -0.032673449380535222 -0.0026792440618700606 0 -0.032442657334723769 -0.0027158203561855718 0 -0.032681039040094256 -0.0028467039668710632 0 -0.032918322878841291 -0.0027464081019792294 0 -0.032778967207048398 -0.0029769488204040863 0 -0.032622847863372703 -0.0019988682771899823 0 -0.03233299441922291 -0.0022499440028175117 0 -0.032918322878841291 -0.0027464081019792294 0 -0.032778967207048398 -0.0029769488204040863 0 -0.03292713474891671 -0.0030452474023463204 0 -0.032662781167404994 -0.0025001994013091693 0 -0.032759731285406005 -0.0011043832094390904 0 -0.032248588369804626 -0.0015226723683842208 0 -0.03233299441922291 -0.0022499440028175117 0 -0.032564983360097215 -0.0020056603862392761 0 -0.032801431668464269 -0.0031641821858139408 0 -0.032778967207048398 -0.0029769488204040863 0 -0.03292713474891671 -0.0030452474023463204 0 -0.032081685914118377 -0.0025347953221243969 0 -0.03233299441922291 -0.0022499440028175117 0 -0.032622847863372703 -0.0019988682771899823 0 -0.032564983360097215 -0.0020056603862392761 0 -0.032564983360097215 -0.0020056603862392761 0 -0.033421616613565665 -0.0010092152823827857 0 -0.034895540872520961 0.00053811059045272335 0 -0.03488771632435405 0.00049109546173608815 0 -0.034838781546712855 0.00049984528498728134 0 -0.034902345430961282 0.00052499841326230203 0 -0.034895540872520961 0.00053811059045272335 0 -0.03488771632435405 0.00049109546173608815 0 -0.032918322878841291 -0.0027464081019792294 0 -0.032606108584600162 -0.0024041635360780825 0 -0.032673449380535222 -0.0026792440618700606 0 -0.032606108584600162 -0.0024041635360780825 0 -0.032673449380535222 -0.0026792440618700606 0 -0.032442657334723769 -0.0027158203561855718 0 -0.031380849757744744 -0.00148050121454919 0 -0.031987952635816004 -0.0011379630217787772 0 -0.032052626730861664 -0.0010509881011152725 0 -0.031380849757744744 -0.00148050121454919 0 -0.031915279571330051 -0.001407171605057067 0 -0.031987952635816004 -0.0011379630217787772 0 -0.032564983360097215 -0.0020056603862392761 0 -0.033109667194990124 -0.0011078810861431421 0 -0.03261589022056146 -0.0016665726758674909 0 -0.03311908367165322 -0.0012398034337299318 0 -0.033346727043581929 -0.0011919254174455392 0 -0.031915279571330051 -0.001407171605057067 0 -0.03215099275299238 -0.0015112546772911614 0 -0.032202584974226303 -0.0012259446275401668 0 -0.031865664127580864 -0.0016606425599508803 0 -0.031915279571330051 -0.001407171605057067 0 -0.03215099275299238 -0.0015112546772911614 0 -0.031865664127580864 -0.0016606425599508803 0 -0.031380849757744744 -0.00148050121454919 0 -0.031915279571330051 -0.001407171605057067 0 -0.031915279571330051 -0.001407171605057067 0 -0.031987952635816004 -0.0011379630217787772 0 -0.032202584974226303 -0.0012259446275401668 0 -0.033100916098843969 -0.0011138899408042336 0 -0.033109667194990124 -0.0011078810861431421 0 -0.031987952635816004 -0.0011379630217787772 0 -0.032055922123037088 -0.0010440706645765015 0 -0.032202584974226303 -0.0012259446275401668 0 -0.034838781546712855 0.00049984528498728134 0 -0.034834882312733052 0.00040896925864462364 0 -0.034746571019318509 0.00045552254515087559 0 -0.034838781546712855 0.00049984528498728134 0 -0.03487443035629955 0.00045144259151253305 0 -0.034834882312733052 0.00040896925864462364 0 -0.03311908367165322 -0.0012398034337299318 0 -0.033346727043581929 -0.0011919254174455392 0 -0.033621967079560278 -0.00081422787219391534 0 -0.033421616613565665 -0.0010092152823827857 0 -0.033562970912795129 -0.00064443443264178529 0 -0.03488771632435405 0.00049109546173608815 0 -0.034838781546712855 0.00049984528498728134 0 -0.03487443035629955 0.00045144259151253305 0 -0.03487443035629955 0.00045144259151253305 0 -0.034935546945965484 0.00040913935756033923 0 -0.034834882312733052 0.00040896925864462364 0 -0.034834882312733052 0.00040896925864462364 0 -0.034774541729776655 0.00039981634366366181 0 -0.034746571019318509 0.00045552254515087559 0 -0.032622847863372703 -0.0019988682771899823 0 -0.033662319483870128 -0.0010333950431361421 0 -0.03488771632435405 0.00049109546173608815 0 -0.03487443035629955 0.00045144259151253305 0 -0.034935546945965484 0.00040913935756033923 0 -0.032918322878841291 -0.0027464081019792294 0 -0.032606108584600162 -0.0024041635360780825 0 -0.032508648386322413 -0.0017712221356758564 0 -0.034902345430961282 0.00052499841326230203 0 -0.03488771632435405 0.00049109546173608815 0 -0.034935546945965484 0.00040913935756033923 0 -0.032622847863372703 -0.0019988682771899823 0 -0.03284588027629403 -0.0019795247006533568 0 -0.034342915759865547 -0.0037537121326746735 0 -0.034476897925823584 -0.0023052734655211373 0 -0.033818491613318909 -0.0025026020158266543 0 -0.032508648386322413 -0.0017712221356758564 0 -0.032245921817122852 -0.0019042088568160609 0 -0.032341261172790618 -0.0021111891975261919 0 -0.032508648386322413 -0.0017712221356758564 0 -0.032200777069679797 -0.0017304259685845863 0 -0.032369848811278891 -0.0015477173220985131 0 -0.032200777069679797 -0.0017304259685845863 0 -0.032245921817122852 -0.0019042088568160609 0 -0.031933684810195199 -0.0020071502239129031 0 -0.032508648386322413 -0.0017712221356758564 0 -0.032200777069679797 -0.0017304259685845863 0 -0.032245921817122852 -0.0019042088568160609 0 -0.032245921817122852 -0.0019042088568160609 0 -0.032064701348776529 -0.0021378969841419474 0 -0.032341261172790618 -0.0021111891975261919 0 -0.032245921817122852 -0.0019042088568160609 0 -0.031933684810195199 -0.0020071502239129031 0 -0.032064701348776529 -0.0021378969841419474 0 -0.031933684810195199 -0.0020071502239129031 0 -0.032064701348776529 -0.0021378969841419474 0 -0.031711437048732159 -0.0022626224062511592 0 -0.032606108584600162 -0.0024041635360780825 0 -0.032508648386322413 -0.0017712221356758564 0 -0.032341261172790618 -0.0021111891975261919 0 -0.032064701348776529 -0.0021378969841419474 0 -0.032341261172790618 -0.0021111891975261919 0 -0.032276839932869818 -0.0023944223856409751 0 -0.032606108584600162 -0.0024041635360780825 0 -0.032341261172790618 -0.0021111891975261919 0 -0.032276839932869818 -0.0023944223856409751 0 -0.032606108584600162 -0.0024041635360780825 0 -0.032276839932869818 -0.0023944223856409751 0 -0.032442657334723769 -0.0027158203561855718 0 -0.032276839932869818 -0.0023944223856409751 0 -0.032442657334723769 -0.0027158203561855718 0 -0.032158837324691665 -0.0026991379581888827 0 -0.032064701348776529 -0.0021378969841419474 0 -0.032276839932869818 -0.0023944223856409751 0 -0.031846599338608533 -0.0025051769598732026 0 -0.032064701348776529 -0.0021378969841419474 0 -0.031846599338608533 -0.0025051769598732026 0 -0.031711437048732159 -0.0022626224062511592 0 -0.032276839932869818 -0.0023944223856409751 0 -0.031846599338608533 -0.0025051769598732026 0 -0.032158837324691665 -0.0026991379581888827 0 -0.031846599338608533 -0.0025051769598732026 0 -0.031840558929468916 -0.0028627122510516776 0 -0.032158837324691665 -0.0026991379581888827 0 -0.031840558929468916 -0.0028627122510516776 0 -0.0321989333341215 -0.0029935964563114889 0 -0.032158837324691665 -0.0026991379581888827 0 -0.031846599338608533 -0.0025051769598732026 0 -0.031840558929468916 -0.0028627122510516776 0 -0.031423128602884612 -0.0028646785046319025 0 -0.031417673005579891 -0.0032176537133948974 0 -0.031840558929468916 -0.0028627122510516776 0 -0.031423128602884612 -0.0028646785046319025 0 -0.031842305336168761 -0.0032262857674490207 0 -0.031417673005579891 -0.0032176537133948974 0 -0.031840558929468916 -0.0028627122510516776 0 -0.031842305336168761 -0.0032262857674490207 0 -0.031840558929468916 -0.0028627122510516776 0 -0.0321989333341215 -0.0029935964563114889 0 -0.032544790359177761 -0.0030387706146887115 0 -0.0321989333341215 -0.0029935964563114889 0 -0.032442657334723769 -0.0027158203561855718 0 -0.0321989333341215 -0.0029935964563114889 0 -0.032442657334723769 -0.0027158203561855718 0 -0.032158837324691665 -0.0026991379581888827 0 -0.029070031546702711 3.9714868178884316e-06 0 -0.029077377328388117 -0.00066871160789569721 0 -0.029345134728957525 -2.5683451091781468e-06 0 -0.029456259534581045 -0.0019429376044887269 0 -0.030612483448179094 -0.0011545444093714751 0 -0.030260185840564342 -0.003542482921415287 0 -0.03128652442683709 -0.0027320363119545349 0 -0.031381937528359015 -0.0020700112435188514 0 -0.030990450651799291 -0.0032405472257145836 0 -0.030260185840564342 -0.003542482921415287 0 -0.03128652442683709 -0.0027320363119545349 0 -0.030990450651799291 -0.0032405472257145836 0 -0.031423128602884612 -0.0028646785046319025 0 -0.03128652442683709 -0.0027320363119545349 0 -0.031417673005579891 -0.0032176537133948974 0 -0.030990450651799291 -0.0032405472257145836 0 -0.031423128602884612 -0.0028646785046319025 0 -0.031846599338608533 -0.0025051769598732026 0 -0.03128652442683709 -0.0027320363119545349 0 -0.031711437048732159 -0.0022626224062511592 0 -0.03128652442683709 -0.0027320363119545349 0 -0.031381937528359015 -0.0020700112435188514 0 -0.031711437048732159 -0.0022626224062511592 0 -0.031846599338608533 -0.0025051769598732026 0 -0.031423128602884612 -0.0028646785046319025 0 -0.03128652442683709 -0.0027320363119545349 0 -0.030629352872690058 -0.000179730279531345 0 -0.031885561549910103 0.00019574846388597012 0 -0.029070031546702711 3.9714868178884316e-06 0 -0.029345134728957525 -2.5683451091781468e-06 0 -0.02923853151100635 0.00066908490108192784 0 -0.030612483448179094 -0.0011545444093714751 0 -0.032088921603252961 0.00015282949438496772 0 -0.032200777069679797 -0.0017304259685845863 0 -0.031381937528359015 -0.0020700112435188514 0 -0.032369848811278891 -0.0015477173220985131 0 -0.032200777069679797 -0.0017304259685845863 0 -0.031933684810195199 -0.0020071502239129031 0 -0.031381937528359015 -0.0020700112435188514 0 -0.031933684810195199 -0.0020071502239129031 0 -0.031381937528359015 -0.0020700112435188514 0 -0.031711437048732159 -0.0022626224062511592 0 -0.029345134728957525 -2.5683451091781468e-06 0 -0.02923853151100635 0.00066908490108192784 0 -0.02959090808148061 0.00066890554649901338 0 -0.029031306775208512 0.00090371375156273154 0 -0.029042319859531113 0.0001128274899616784 0 -0.029231830649002043 0.00093334181901560292 0 -0.031381937528359015 -0.0020700112435188514 0 -0.032369848811278891 -0.0015477173220985131 0 -0.032542289830742387 -0.0012863246564932252 0 -0.031885561549910103 0.00019574846388597012 0 -0.032088921603252961 0.00015282949438496772 0 -0.034925662186055841 1.3184678759705301e-05 0 -0.034939071940268178 1.3153771940162848e-05 0 -0.034939855205760539 1.8823036217193171e-05 0 -0.033818491613318909 -0.0025026020158266543 0 -0.03308290756374338 -0.0010909158814770364 0 -0.034019986673886719 -0.0015241212886336465 0 -0.03284588027629403 -0.0019795247006533568 0 -0.03278738884062711 -0.0016264112551975741 0 -0.032508648386322413 -0.0017712221356758564 0 -0.032690952607897179 -0.0013063387948472373 0 -0.03308290756374338 -0.0010909158814770364 0 -0.032508648386322413 -0.0017712221356758564 0 -0.032369848811278891 -0.0015477173220985131 0 -0.032690952607897179 -0.0013063387948472373 0 -0.032369848811278891 -0.0015477173220985131 0 -0.032690952607897179 -0.0013063387948472373 0 -0.032542289830742387 -0.0012863246564932252 0 -0.032091643190814999 0.00015031862646769598 0 -0.032088921603252961 0.00015282949438496772 0 -0.032690952607897179 -0.0013063387948472373 0 -0.032581212979612847 -0.0013396074727416317 0 -0.03308290756374338 -0.0010909158814770364 0 -0.032581212979612847 -0.0013396074727416317 0 -0.03308290756374338 -0.0010909158814770364 0 -0.033888309021575823 -0.00031676958923438205 0 -0.032088921603252961 0.00015282949438496772 0 -0.033076244796938603 -1.2355163463785987e-05 0 -0.034939071940268178 1.3153771940162848e-05 0 -0.034939855205760539 1.8823036217193171e-05 0 -0.034958699632291999 2.8405641594159721e-05 0 -0.033905015904098383 -0.00088674361693385551 0 -0.03308290756374338 -0.0010909158814770364 0 -0.033888309021575823 -0.00031676958923438205 0 -0.033905015904098383 -0.00088674361693385551 0 -0.03308290756374338 -0.0010909158814770364 0 -0.034019986673886719 -0.0015241212886336465 0 -0.034947821332554682 2.4676051582683355e-05 0 -0.034939855205760539 1.8823036217193171e-05 0 -0.034958699632291999 2.8405641594159721e-05 0 -0.034953727096750244 -5.1565694985010681e-05 0 -0.034967752370603088 -7.461188661750044e-05 0 -0.034979049163857259 -3.260112346301927e-05 0 -0.031885561549910103 0.00019574846388597012 0 -0.032728622153055435 0.00028489738800713667 0 -0.034925662186055841 1.3184678759705301e-05 0 -0.034947821332554682 2.4676051582683355e-05 0 -0.034939855205760539 1.8823036217193171e-05 0 -0.034966373183355576 -1.0133289197322703e-05 0 -0.034979049163857259 -3.260112346301927e-05 0 -0.034979305026908519 1.170701250876172e-05 0 -0.034947821332554682 2.4676051582683355e-05 0 -0.034979305026908519 1.170701250876172e-05 0 -0.034958699632291999 2.8405641594159721e-05 0 -0.032728622153055435 0.00028489738800713667 0 -0.032985672994863671 0.00029777561042178903 0 -0.033076244796938603 -1.2355163463785987e-05 0 -0.033432338159243208 3.683135392276934e-05 0 -0.034958699632291999 2.8405641594159721e-05 0 -0.034960971186805218 2.1931501923574877e-05 0 -0.034910700873725838 3.153328650242672e-05 0 -0.034979305026908519 1.170701250876172e-05 0 -0.034958699632291999 2.8405641594159721e-05 0 -0.034960971186805218 2.1931501923574877e-05 0 -0.034979305026908519 1.170701250876172e-05 0 -0.034975146143462761 8.7108475110743523e-06 0 -0.034960971186805218 2.1931501923574877e-05 0 -0.034975146143462761 8.7108475110743523e-06 0 -0.035000099160488157 -5.5894078110298555e-08 0 -0.034999540871724348 1.6476809161827881e-07 0 -0.034975146143462761 8.7108475110743523e-06 0 -0.034960971186805218 2.1931501923574877e-05 0 -0.034910700873725838 3.153328650242672e-05 0 -0.034975146143462761 8.7108475110743523e-06 0 -0.034910700873725838 3.153328650242672e-05 0 -0.034999540871724348 1.6476809161827881e-07 0 -0.034985221938433571 1.1177509747722026e-06 0 -0.034979305026908519 1.170701250876172e-05 0 -0.035000099160488157 -5.5894078110298555e-08 0 -0.034979305026908519 1.170701250876172e-05 0 -0.034975146143462761 8.7108475110743523e-06 0 -0.035000099160488157 -5.5894078110298555e-08 0 -0.034928052382683837 -1.2659979656438735e-05 0 -0.034999890232962905 -8.961531234808167e-08 0 -0.03491832583514351 -9.8445948972455186e-06 0 -0.034928052382683837 -1.2659979656438735e-05 0 -0.034999890232962905 -8.961531234808167e-08 0 -0.034898339389483828 -4.9600354241954109e-05 0 -0.034999890232962905 -8.961531234808167e-08 0 -0.034999540871724348 1.6476809161827881e-07 0 -0.03491832583514351 -9.8445948972455186e-06 0 -0.034910700873725838 3.153328650242672e-05 0 -0.034999540871724348 1.6476809161827881e-07 0 -0.03491832583514351 -9.8445948972455186e-06 0 -0.034312989988558737 -0.0001759516022071901 0 -0.034157023832659061 -0.00042391386541679453 0 -0.033888309021575823 -0.00031676958923438205 0 -0.034910700873725838 3.153328650242672e-05 0 -0.03491832583514351 -9.8445948972455186e-06 0 -0.033888309021575823 -0.00031676958923438205 0 -0.03491832583514351 -9.8445948972455186e-06 0 -0.034574583720939113 -0.00080049410764057149 0 -0.03491832583514351 -9.8445948972455186e-06 0 -0.034886051247876498 8.9190768073369681e-05 0 -0.034969880732038411 0.00020189405843626778 0 -0.034928052382683837 -1.2659979656438735e-05 0 -0.03491832583514351 -9.8445948972455186e-06 0 -0.034886051247876498 8.9190768073369681e-05 0 -0.034928052382683837 -1.2659979656438735e-05 0 -0.034886051247876498 8.9190768073369681e-05 0 -0.034898339389483828 -4.9600354241954109e-05 0 -0.034886051247876498 8.9190768073369681e-05 0 -0.034806552016329581 0.00020245249491297165 0 -0.034969880732038411 0.00020189405843626778 0 -0.034806552016329581 0.00020245249491297165 0 -0.034969880732038411 0.00020189405843626778 0 -0.034808408765311334 0.00030773172243385005 0 -0.033905015904098383 -0.00088674361693385551 0 -0.033888309021575823 -0.00031676958923438205 0 -0.034574583720939113 -0.00080049410764057149 0 -0.033905015904098383 -0.00088674361693385551 0 -0.034574583720939113 -0.00080049410764057149 0 -0.034019986673886719 -0.0015241212886336465 0 -0.033662319483870128 -0.0010333950431361421 0 -0.034157023832659061 -0.00042391386541679453 0 -0.034476897925823584 -0.0023052734655211373 0 -0.034574583720939113 -0.00080049410764057149 0 -0.034019986673886719 -0.0015241212886336465 0 -0.034935546945965484 0.00040913935756033923 0 -0.034969880732038411 0.00020189405843626778 0 -0.034834882312733052 0.00040896925864462364 0 -0.034476897925823584 -0.0023052734655211373 0 -0.033818491613318909 -0.0025026020158266543 0 -0.034019986673886719 -0.0015241212886336465 0 -0.034969880732038411 0.00020189405843626778 0 -0.034808408765311334 0.00030773172243385005 0 -0.034834882312733052 0.00040896925864462364 0 -0.034808408765311334 0.00030773172243385005 0 -0.034834882312733052 0.00040896925864462364 0 -0.034774541729776655 0.00039981634366366181 0 -0.033551369789804317 -0.00060351153632593141 0 -0.033562970912795129 -0.00064443443264178529 0 -0.03387240693395023 -0.00020549368413146204 0 -0.033562970912795129 -0.00064443443264178529 0 -0.03471770525983401 0.0003842697608447293 0 -0.034608214271585995 0.00037657264628004845 0 -0.034746571019318509 0.00045552254515087559 0 -0.034774541729776655 0.00039981634366366181 0 -0.03471770525983401 0.0003842697608447293 0 -0.034746571019318509 0.00045552254515087559 0 -0.033489844480580462 -0.00037848109375453502 0 -0.033443544953909429 -0.00033503371968277414 0 -0.033300256778759439 -0.00054451530148519399 0 -0.034808408765311334 0.00030773172243385005 0 -0.034774541729776655 0.00039981634366366181 0 -0.03471770525983401 0.0003842697608447293 0 -0.03471770525983401 0.0003842697608447293 0 -0.034666405006949223 0.00034627640459511285 0 -0.034706016227329606 0.00029333361960694876 0 -0.03471770525983401 0.0003842697608447293 0 -0.034666405006949223 0.00034627640459511285 0 -0.034608214271585995 0.00037657264628004845 0 -0.034637203423674115 0.00032538868433405814 0 -0.034666405006949223 0.00034627640459511285 0 -0.034608214271585995 0.00037657264628004845 0 -0.034637203423674115 0.00032538868433405814 0 -0.034666405006949223 0.00034627640459511285 0 -0.034706016227329606 0.00029333361960694876 0 -0.034808408765311334 0.00030773172243385005 0 -0.03471770525983401 0.0003842697608447293 0 -0.034706016227329606 0.00029333361960694876 0 -0.033371666740198584 -0.00068284202839630074 0 -0.033234056616870733 -0.00082261081298985413 0 -0.033489844480580462 -0.00037848109375453502 0 -0.033621206924903724 -0.00035226188007549727 0 -0.033453238398579895 -0.0004767479452770466 0 -0.033621206924903724 -0.00035226188007549727 0 -0.03325772918764925 -0.00068192043116470206 0 -0.03282641496856159 -0.00059777333997435413 0 -0.033443544953909429 -0.00033503371968277414 0 -0.033525042058134703 -0.00032400029695850413 0 -0.033572207967632203 -0.00026926148122797177 0 -0.033489844480580462 -0.00037848109375453502 0 -0.033443544953909429 -0.00033503371968277414 0 -0.033525042058134703 -0.00032400029695850413 0 -0.033489844480580462 -0.00037848109375453502 0 -0.033525042058134703 -0.00032400029695850413 0 -0.033621206924903724 -0.00035226188007549727 0 -0.033525042058134703 -0.00032400029695850413 0 -0.033572207967632203 -0.00026926148122797177 0 -0.033621206924903724 -0.00035226188007549727 0 -0.033443544953909429 -0.00033503371968277414 0 -0.033572207967632203 -0.00026926148122797177 0 -0.033652478016176372 -0.00014391284485159466 0 -0.034608214271585995 0.00037657264628004845 0 -0.034560118625289842 0.00026961579881670149 0 -0.034325605356560693 0.00023580825400269282 0 -0.03387240693395023 -0.00020549368413146204 0 -0.03393116078822702 -0.00010962909703810138 0 -0.034637203423674115 0.00032538868433405814 0 -0.034608214271585995 0.00037657264628004845 0 -0.034560118625289842 0.00026961579881670149 0 -0.034560118625289842 0.00026961579881670149 0 -0.03454062574532351 0.00016770762299040052 0 -0.034325605356560693 0.00023580825400269282 0 -0.034806552016329581 0.00020245249491297165 0 -0.034808408765311334 0.00030773172243385005 0 -0.034706016227329606 0.00029333361960694876 0 -0.034637203423674115 0.00032538868433405814 0 -0.034560118625289842 0.00026961579881670149 0 -0.034706016227329606 0.00029333361960694876 0 -0.034560118625289842 0.00026961579881670149 0 -0.034706016227329606 0.00029333361960694876 0 -0.034707745304957911 0.00017669381836535618 0 -0.034560118625289842 0.00026961579881670149 0 -0.03454062574532351 0.00016770762299040052 0 -0.034707745304957911 0.00017669381836535618 0 -0.034886051247876498 8.9190768073369681e-05 0 -0.034806552016329581 0.00020245249491297165 0 -0.034707745304957911 0.00017669381836535618 0 -0.034806552016329581 0.00020245249491297165 0 -0.034706016227329606 0.00029333361960694876 0 -0.034707745304957911 0.00017669381836535618 0 -0.034731895856104283 7.2851987030163776e-05 0 -0.034483640959884085 3.3234205808049348e-05 0 -0.034898339389483828 -4.9600354241954109e-05 0 -0.034886051247876498 8.9190768073369681e-05 0 -0.034707745304957911 0.00017669381836535618 0 -0.034731895856104283 7.2851987030163776e-05 0 -0.034886051247876498 8.9190768073369681e-05 0 -0.034731895856104283 7.2851987030163776e-05 0 -0.034898339389483828 -4.9600354241954109e-05 0 -0.03454062574532351 0.00016770762299040052 0 -0.034707745304957911 0.00017669381836535618 0 -0.034731895856104283 7.2851987030163776e-05 0 -0.03454062574532351 0.00016770762299040052 0 -0.034325605356560693 0.00023580825400269282 0 -0.034483640959884085 3.3234205808049348e-05 0 -0.034483640959884085 3.3234205808049348e-05 0 -0.0341800920703592 -0.00022539875151068186 0 -0.034898339389483828 -4.9600354241954109e-05 0 -0.03454062574532351 0.00016770762299040052 0 -0.034731895856104283 7.2851987030163776e-05 0 -0.034483640959884085 3.3234205808049348e-05 0 -0.034325605356560693 0.00023580825400269282 0 -0.034236641877398069 -8.8836839348480542e-06 0 -0.034483640959884085 3.3234205808049348e-05 0 -0.034236641877398069 -8.8836839348480542e-06 0 -0.034483640959884085 3.3234205808049348e-05 0 -0.0341800920703592 -0.00022539875151068186 0 -0.034999908759064002 7.7947339559103561e-09 0 -0.035006695111070837 -1.9535578766361637e-05 0 -0.034898339389483828 -4.9600354241954109e-05 0 -0.034627242423334578 -6.1784196407821922e-05 0 -0.03471480724343716 -6.1755487083137246e-05 0 -0.034999890232962905 -8.961531234808167e-08 0 -0.034999908759064002 7.7947339559103561e-09 0 -0.034898339389483828 -4.9600354241954109e-05 0 -0.034999668976929063 -1.0578542424184651e-07 0 -0.035000196851986159 4.5403995510970332e-08 0 -0.035029939490720093 1.8120505025178407e-05 0 -0.0341800920703592 -0.00022539875151068186 0 -0.033869481352231265 -5.1723515152808276e-05 0 -0.033963089639633723 -9.8959939542092902e-05 0 -0.035006695111070837 -1.9535578766361637e-05 0 -0.035000196851986159 4.5403995510970332e-08 0 -0.035029939490720093 1.8120505025178407e-05 0 -0.034627242423334578 -6.1784196407821922e-05 0 -0.034570259211864303 -4.0132004721929087e-05 0 -0.034999908759064002 7.7947339559103561e-09 0 -0.035006695111070837 -1.9535578766361637e-05 0 -0.035000196851986159 4.5403995510970332e-08 0 -0.03393116078822702 -0.00010962909703810138 0 -0.033926554663350081 -0.00011578303964685398 0 -0.034325605356560693 0.00023580825400269282 0 -0.034236641877398069 -8.8836839348480542e-06 0 -0.033970758549031997 -9.6228865469043465e-05 0 -0.033596259658223181 -0.00016576382271025016 0 -0.033494769919499207 -0.00028694281253434693 0 -0.0341800920703592 -0.00022539875151068186 0 -0.033963089639633723 -9.8959939542092902e-05 0 -0.033970758549031997 -9.6228865469043465e-05 0 -0.033963089639633723 -9.8959939542092902e-05 0 -0.033970758549031997 -9.6228865469043465e-05 0 -0.033851608114373641 -0.00012516613161416294 0 -0.033652478016176372 -0.00014391284485159466 0 -0.033970758549031997 -9.6228865469043465e-05 0 -0.033851608114373641 -0.00012516613161416294 0 -0.033963089639633723 -9.8959939542092902e-05 0 -0.033951903659426595 -0.00023167484438230734 0 -0.033893847152560955 -0.00030239663616477171 0 -0.033963089639633723 -9.8959939542092902e-05 0 -0.033851608114373641 -0.00012516613161416294 0 -0.033782565362117649 -0.00017598223176991141 0 -0.034236641877398069 -8.8836839348480542e-06 0 -0.0341800920703592 -0.00022539875151068186 0 -0.033970758549031997 -9.6228865469043465e-05 0 -0.033869481352231265 -5.1723515152808276e-05 0 -0.033963089639633723 -9.8959939542092902e-05 0 -0.033949356592033499 -0.00017225495202438556 0 -0.033963089639633723 -9.8959939542092902e-05 0 -0.033951903659426595 -0.00023167484438230734 0 -0.033949356592033499 -0.00017225495202438556 0 -0.034073947580967642 -0.00020345984484734106 0 -0.033869481352231265 -5.1723515152808276e-05 0 -0.033949356592033499 -0.00017225495202438556 0 -0.034073947580967642 -0.00020345984484734106 0 -0.033949356592033499 -0.00017225495202438556 0 -0.03399266064777319 -0.00027151027667280628 0 -0.033951903659426595 -0.00023167484438230734 0 -0.033949356592033499 -0.00017225495202438556 0 -0.03399266064777319 -0.00027151027667280628 0 -0.033951903659426595 -0.00023167484438230734 0 -0.03399266064777319 -0.00027151027667280628 0 -0.033966654598960901 -0.00031505632710288116 0 -0.033951903659426595 -0.00023167484438230734 0 -0.033966654598960901 -0.00031505632710288116 0 -0.033893847152560955 -0.00030239663616477171 0 -0.033966654598960901 -0.00031505632710288116 0 -0.033893847152560955 -0.00030239663616477171 0 -0.033946475470680144 -0.00033911929278646692 0 -0.033572207967632203 -0.00026926148122797177 0 -0.033652478016176372 -0.00014391284485159466 0 -0.033782565362117649 -0.00017598223176991141 0 -0.033572207967632203 -0.00026926148122797177 0 -0.033782565362117649 -0.00017598223176991141 0 -0.033621206924903724 -0.00035226188007549727 0 -0.033652478016176372 -0.00014391284485159466 0 -0.033851608114373641 -0.00012516613161416294 0 -0.033782565362117649 -0.00017598223176991141 0 -0.033494769919499207 -0.00028694281253434693 0 -0.033174592278630198 -0.00066448697950072157 0 -0.033893847152560955 -0.00030239663616477171 0 -0.033946475470680144 -0.00033911929278646692 0 -0.033882931016949558 -0.00037610108200620407 0 -0.033782565362117649 -0.00017598223176991141 0 -0.033621206924903724 -0.00035226188007549727 0 -0.033648195206008022 -0.00061968912599743165 0 -0.033621206924903724 -0.00035226188007549727 0 -0.033648195206008022 -0.00061968912599743165 0 -0.03325772918764925 -0.00068192043116470206 0 -0.033975972800201912 -0.00033173175807345046 0 -0.033966654598960901 -0.00031505632710288116 0 -0.033946475470680144 -0.00033911929278646692 0 -0.03397556317169028 -0.00030214521363224419 0 -0.033946475470680144 -0.00033911929278646692 0 -0.033938045635307286 -0.00041046812464886701 0 -0.032958323317422746 -0.00092401371845242082 0 -0.03270681626027086 -0.0012156306453906416 0 -0.033946475470680144 -0.00033911929278646692 0 -0.033938045635307286 -0.00041046812464886701 0 -0.033882931016949558 -0.00037610108200620407 0 -0.03120818096626166 -0.0016612768902124206 0 -0.030749638195768553 -0.0021751885115831862 0 -0.031202178315755887 -0.00222960259957179 0 -0.031885536255448613 -0.0018269017205773789 0 -0.03120818096626166 -0.0016612768902124206 0 -0.031202178315755887 -0.00222960259957179 0 -0.032476073198306366 -0.0016184548250193988 0 -0.033174592278630198 -0.00066448697950072157 0 -0.03270681626027086 -0.0012156306453906416 0 -0.032476073198306366 -0.0016184548250193988 0 -0.033938045635307286 -0.00041046812464886701 0 -0.033854245602043455 -0.00049618243928757535 0 -0.033882931016949558 -0.00037610108200620407 0 -0.03351803640394211 -0.0014763773549036944 0 -0.033648195206008022 -0.00061968912599743165 0 -0.033241261126356905 -0.0010035767836790511 0 -0.033648195206008022 -0.00061968912599743165 0 -0.03325772918764925 -0.00068192043116470206 0 -0.033241261126356905 -0.0010035767836790511 0 -0.03325772918764925 -0.00068192043116470206 0 -0.03282641496856159 -0.00059777333997435413 0 -0.032929469686483907 -0.00092498055533887856 0 -0.03325772918764925 -0.00068192043116470206 0 -0.032929469686483907 -0.00092498055533887856 0 -0.033241261126356905 -0.0010035767836790511 0 -0.033109667194990124 -0.0011078810861431421 0 -0.033234056616870733 -0.00082261081298985413 0 -0.032055922123037088 -0.0010440706645765015 0 -0.03282641496856159 -0.00059777333997435413 0 -0.03256605823340198 -0.0010190004562635412 0 -0.033489844480580462 -0.00037848109375453502 0 -0.033453238398579895 -0.0004767479452770466 0 -0.033338156008579908 -0.0005098891235301616 0 -0.033268384614275184 -0.0006105844991599644 0 -0.033453238398579895 -0.0004767479452770466 0 -0.033338156008579908 -0.0005098891235301616 0 -0.03282641496856159 -0.00059777333997435413 0 -0.032929469686483907 -0.00092498055533887856 0 -0.03256605823340198 -0.0010190004562635412 0 -0.033109667194990124 -0.0011078810861431421 0 -0.033562970912795129 -0.00064443443264178529 0 -0.03256605823340198 -0.0010190004562635412 0 -0.032202584974226303 -0.0012259446275401668 0 -0.032496911895897394 -0.0015173940090862606 0 -0.032055922123037088 -0.0010440706645765015 0 -0.03256605823340198 -0.0010190004562635412 0 -0.032202584974226303 -0.0012259446275401668 0 -0.03256605823340198 -0.0010190004562635412 0 -0.032496911895897394 -0.0015173940090862606 0 -0.03295302294345185 -0.001364896990090299 0 -0.03215099275299238 -0.0015112546772911614 0 -0.032202584974226303 -0.0012259446275401668 0 -0.032496911895897394 -0.0015173940090862606 0 -0.03351803640394211 -0.0014763773549036944 0 -0.033241261126356905 -0.0010035767836790511 0 -0.03295302294345185 -0.001364896990090299 0 -0.032929469686483907 -0.00092498055533887856 0 -0.033241261126356905 -0.0010035767836790511 0 -0.03295302294345185 -0.001364896990090299 0 -0.032929469686483907 -0.00092498055533887856 0 -0.03256605823340198 -0.0010190004562635412 0 -0.03295302294345185 -0.001364896990090299 0 -0.030792427991232253 -0.0026114348430368423 0 -0.030833473145754541 -0.0027023250136491567 0 -0.030789218075507965 -0.0026095894937601801 0 -0.032476073198306366 -0.0016184548250193988 0 -0.031917850319834719 -0.00221757365015336 0 -0.032496911895897394 -0.0015173940090862606 0 -0.03295302294345185 -0.001364896990090299 0 -0.032773425494977033 -0.0020882505774482744 0 -0.03351803640394211 -0.0014763773549036944 0 -0.03295302294345185 -0.001364896990090299 0 -0.032773425494977033 -0.0020882505774482744 0 -0.031951778424802124 -0.0022377317453421376 0 -0.032129758571604036 -0.0018491345550449526 0 -0.032773425494977033 -0.0020882505774482744 0 -0.032129758571604036 -0.0018491345550449526 0 -0.032496911895897394 -0.0015173940090862606 0 -0.032773425494977033 -0.0020882505774482744 0 -0.032129758571604036 -0.0018491345550449526 0 -0.03215099275299238 -0.0015112546772911614 0 -0.032496911895897394 -0.0015173940090862606 0 -0.030833473145754541 -0.0027023250136491567 0 -0.030903550317860361 -0.0027527707083053426 0 -0.03104339496386764 -0.0028185380698563241 0 -0.031951778424802124 -0.0022377317453421376 0 -0.032773425494977033 -0.0020882505774482744 0 -0.031983749002456985 -0.0026058545979864346 0 -0.031917850319834719 -0.00221757365015336 0 -0.031656666406742945 -0.0024968984729027838 0 -0.030833473145754541 -0.0027023250136491567 0 -0.030903550317860361 -0.0027527707083053426 0 -0.030814968787231622 -0.0027320230307845239 0 -0.030833473145754541 -0.0027023250136491567 0 -0.030814968787231622 -0.0027320230307845239 0 -0.030789218075507965 -0.0026095894937601801 0 -0.030814968787231622 -0.0027320230307845239 0 -0.030846945164832003 -0.0027579153023468586 0 -0.030789218075507965 -0.0026095894937601801 0 -0.030846945164832003 -0.0027579153023468586 0 -0.030984972278488222 -0.0025416540406112214 0 -0.030789218075507965 -0.0026095894937601801 0 -0.03116194898684891 -0.0025942434057060217 0 -0.030846945164832003 -0.0027579153023468586 0 -0.030984972278488222 -0.0025416540406112214 0 -0.03116194898684891 -0.0025942434057060217 0 -0.030846945164832003 -0.0027579153023468586 0 -0.030809401192118478 -0.0029020246875641051 0 -0.030749638195768553 -0.0021751885115831862 0 -0.031202178315755887 -0.00222960259957179 0 -0.030984972278488222 -0.0025416540406112214 0 -0.03116194898684891 -0.0025942434057060217 0 -0.031202178315755887 -0.00222960259957179 0 -0.030984972278488222 -0.0025416540406112214 0 -0.030749638195768553 -0.0021751885115831862 0 -0.030984972278488222 -0.0025416540406112214 0 -0.030789218075507965 -0.0026095894937601801 0 -0.032476073198306366 -0.0016184548250193988 0 -0.032284794216469098 -0.0019457193211242171 0 -0.030760451931656253 -0.0027438163047799388 0 -0.030809401192118478 -0.0029020246875641051 0 -0.03052795573710004 -0.0026075688668347162 0 -0.030846945164832003 -0.0027579153023468586 0 -0.030760451931656253 -0.0027438163047799388 0 -0.030809401192118478 -0.0029020246875641051 0 -0.030814968787231622 -0.0027320230307845239 0 -0.030846945164832003 -0.0027579153023468586 0 -0.030760451931656253 -0.0027438163047799388 0 -0.030903550317860361 -0.0027527707083053426 0 -0.030814968787231622 -0.0027320230307845239 0 -0.030873827855069664 -0.0027356085747533721 0 -0.030814968787231622 -0.0027320230307845239 0 -0.030760451931656253 -0.0027438163047799388 0 -0.030873827855069664 -0.0027356085747533721 0 -0.030903550317860361 -0.0027527707083053426 0 -0.030968293549511507 -0.0027525635918748204 0 -0.03104339496386764 -0.0028185380698563241 0 -0.030968293549511507 -0.0027525635918748204 0 -0.031100925865872764 -0.0027202041203513972 0 -0.03104339496386764 -0.0028185380698563241 0 -0.030903550317860361 -0.0027527707083053426 0 -0.030873827855069664 -0.0027356085747533721 0 -0.030968293549511507 -0.0027525635918748204 0 -0.030873827855069664 -0.0027356085747533721 0 -0.030968293549511507 -0.0027525635918748204 0 -0.030993941450399957 -0.0026920990480772166 0 -0.030873827855069664 -0.0027356085747533721 0 -0.030993941450399957 -0.0026920990480772166 0 -0.030899638514430103 -0.0026541858886614143 0 -0.030968293549511507 -0.0027525635918748204 0 -0.030993941450399957 -0.0026920990480772166 0 -0.031100925865872764 -0.0027202041203513972 0 -0.030993941450399957 -0.0026920990480772166 0 -0.030899638514430103 -0.0026541858886614143 0 -0.031059803686489997 -0.0025466207688137621 0 -0.030993941450399957 -0.0026920990480772166 0 -0.031059803686489997 -0.0025466207688137621 0 -0.031160824517222296 -0.0026477286113683316 0 -0.030993941450399957 -0.0026920990480772166 0 -0.031160824517222296 -0.0026477286113683316 0 -0.031100925865872764 -0.0027202041203513972 0 -0.030760451931656253 -0.0027438163047799388 0 -0.030873827855069664 -0.0027356085747533721 0 -0.030899638514430103 -0.0026541858886614143 0 -0.030760451931656253 -0.0027438163047799388 0 -0.030899638514430103 -0.0026541858886614143 0 -0.030845894997680146 -0.0024801291328280101 0 -0.030899638514430103 -0.0026541858886614143 0 -0.030845894997680146 -0.0024801291328280101 0 -0.031059803686489997 -0.0025466207688137621 0 -0.030845894997680146 -0.0024801291328280101 0 -0.03073646156556813 -0.0022089781573558388 0 -0.030633057511963845 -0.0024667120247484561 0 -0.030681710514056274 -0.002306664533591038 0 -0.030564141514152359 -0.002125456214174491 0 -0.031059803686489997 -0.0025466207688137621 0 -0.031037625547652367 -0.0022414236586681163 0 -0.031221603014943484 -0.0024538474541571861 0 -0.030845894997680146 -0.0024801291328280101 0 -0.031059803686489997 -0.0025466207688137621 0 -0.031120392703117984 -0.0021516618171229878 0 -0.030845894997680146 -0.0024801291328280101 0 -0.031120392703117984 -0.0021516618171229878 0 -0.03073646156556813 -0.0022089781573558388 0 -0.031120392703117984 -0.0021516618171229878 0 -0.03073646156556813 -0.0022089781573558388 0 -0.03080476867352238 -0.0019352819230771339 0 -0.03073646156556813 -0.0022089781573558388 0 -0.030338826908304348 -0.0021230558789135617 0 -0.030633057511963845 -0.0024667120247484561 0 -0.03073646156556813 -0.0022089781573558388 0 -0.030338826908304348 -0.0021230558789135617 0 -0.03080476867352238 -0.0019352819230771339 0 -0.030760451931656253 -0.0027438163047799388 0 -0.030845894997680146 -0.0024801291328280101 0 -0.030633057511963845 -0.0024667120247484561 0 -0.030760451931656253 -0.0027438163047799388 0 -0.030633057511963845 -0.0024667120247484561 0 -0.03052795573710004 -0.0026075688668347162 0 -0.030338826908304348 -0.0021230558789135617 0 -0.030633057511963845 -0.0024667120247484561 0 -0.03052795573710004 -0.0026075688668347162 0 -0.030165220419721438 -0.0022477062532163519 0 -0.030338826908304348 -0.0021230558789135617 0 -0.03052795573710004 -0.0026075688668347162 0 -0.030165220419721438 -0.0022477062532163519 0 -0.030338826908304348 -0.0021230558789135617 0 -0.030018321842218639 -0.0018497776131591349 0 -0.030338826908304348 -0.0021230558789135617 0 -0.030018321842218639 -0.0018497776131591349 0 -0.030063605082888332 -0.0017714116011301603 0 -0.030338826908304348 -0.0021230558789135617 0 -0.030063605082888332 -0.0017714116011301603 0 -0.030014191236033418 -0.0017154562402986726 0 -0.030182805567803811 -0.0019287089320355198 0 -0.030233641199140775 -0.0018322899023992471 0 -0.030063605082888332 -0.0017714116011301603 0 -0.029977996896377181 -0.0016841385972926118 0 -0.030014191236033418 -0.0017154562402986726 0 -0.030063605082888332 -0.0017714116011301603 0 -0.029977996896377181 -0.0016841385972926118 0 -0.029903741723408261 -0.001604544786269247 0 -0.030018321842218639 -0.0018497776131591349 0 -0.030063605082888332 -0.0017714116011301603 0 -0.029903741723408261 -0.001604544786269247 0 -0.030018321842218639 -0.0018497776131591349 0 -0.029298145724917939 -0.0016626793574735929 0 -0.029476493365858135 -0.001720295569993752 0 -0.029298145724917939 -0.0016626793574735929 0 -0.029476493365858135 -0.001720295569993752 0 -0.029129802478186501 -0.0015509963915406972 0 -0.029977996896377181 -0.0016841385972926118 0 -0.029903741723408261 -0.001604544786269247 0 -0.029905677841482597 -0.001606576540602165 0 -0.029627982405709626 -0.001716092963304989 0 -0.029590781824626988 -0.0015969885787862274 0 -0.029883852152059218 -0.0016279360739181944 0 -0.030018321842218639 -0.0018497776131591349 0 -0.029476493365858135 -0.001720295569993752 0 -0.028522229235012724 -0.0018791396924404155 0 -0.029476493365858135 -0.001720295569993752 0 -0.029129802478186501 -0.0015509963915406972 0 -0.028990974225994538 -0.0017019786245465204 0 -0.029241165641491446 -0.0016872465681904436 0 -0.028522229235012724 -0.0018791396924404155 0 -0.028863854243408295 -0.001332382605374893 0 -0.029129802478186501 -0.0015509963915406972 0 -0.028863854243408295 -0.001332382605374893 0 -0.029129802478186501 -0.0015509963915406972 0 -0.029105380453430311 -0.001328055179116442 0 -0.029590781824626988 -0.0015969885787862274 0 -0.029595542732409053 -0.0013195042167952521 0 -0.029298145724917939 -0.0016626793574735929 0 -0.029105380453430311 -0.001328055179116442 0 -0.02925568134830835 -0.0012183027594241905 0 -0.029298145724917939 -0.0016626793574735929 0 -0.029129802478186501 -0.0015509963915406972 0 -0.029105380453430311 -0.001328055179116442 0 -0.029903741723408261 -0.001604544786269247 0 -0.029829281118500202 -0.0015228822796106202 0 -0.029905677841482597 -0.001606576540602165 0 -0.029105380453430311 -0.001328055179116442 0 -0.028887880591762782 -0.0010941489317684262 0 -0.02925568134830835 -0.0012183027594241905 0 -0.028863854243408295 -0.001332382605374893 0 -0.029105380453430311 -0.001328055179116442 0 -0.028887880591762782 -0.0010941489317684262 0 -0.028628218001360263 -0.0010852932818454597 0 -0.028863854243408295 -0.001332382605374893 0 -0.028887880591762782 -0.0010941489317684262 0 -0.029706104232886794 -0.0013154248026362911 0 -0.029773211238031814 -0.0014315442486123435 0 -0.02979842535809506 -0.0013856319881358624 0 -0.029706104232886794 -0.0013154248026362911 0 -0.02979842535809506 -0.0013856319881358624 0 -0.029759646402506171 -0.0013201768352949844 0 -0.02979842535809506 -0.0013856319881358624 0 -0.029759646402506171 -0.0013201768352949844 0 -0.02977525405644511 -0.001344868953138985 0 -0.029706104232886794 -0.0013154248026362911 0 -0.029759646402506171 -0.0013201768352949844 0 -0.029737522622877512 -0.0012513674760962412 0 -0.029706104232886794 -0.0013154248026362911 0 -0.029677078500097084 -0.0013732119696030348 0 -0.029773211238031814 -0.0014315442486123435 0 -0.029773211238031814 -0.0014315442486123435 0 -0.02983839068114974 -0.0015173722835115529 0 -0.029828392638186794 -0.0014837339132592359 0 -0.029903741723408261 -0.001604544786269247 0 -0.029677078500097084 -0.0013732119696030348 0 -0.029829281118500202 -0.0015228822796106202 0 -0.029773211238031814 -0.0014315442486123435 0 -0.029829281118500202 -0.0015228822796106202 0 -0.02983839068114974 -0.0015173722835115529 0 -0.029677078500097084 -0.0013732119696030348 0 -0.029773211238031814 -0.0014315442486123435 0 -0.029829281118500202 -0.0015228822796106202 0 -0.029829281118500202 -0.0015228822796106202 0 -0.029905677841482597 -0.001606576540602165 0 -0.029889525758586628 -0.0015860273381981553 0 -0.029829281118500202 -0.0015228822796106202 0 -0.02983839068114974 -0.0015173722835115529 0 -0.029889525758586628 -0.0015860273381981553 0 -0.02983839068114974 -0.0015173722835115529 0 -0.029876134722868323 -0.0015579821679985466 0 -0.029889525758586628 -0.0015860273381981553 0 -0.029876134722868323 -0.0015579821679985466 0 -0.02987011089385282 -0.0015252721673872215 0 -0.029893018493221499 -0.0015659585429275002 0 -0.02987011089385282 -0.0015252721673872215 0 -0.029890197281596385 -0.0015083856997757043 0 -0.029893018493221499 -0.0015659585429275002 0 -0.02987011089385282 -0.0015252721673872215 0 -0.029828392638186794 -0.0014837339132592359 0 -0.029860510806341299 -0.0014788663211667682 0 -0.029876134722868323 -0.0015579821679985466 0 -0.02987011089385282 -0.0015252721673872215 0 -0.029828392638186794 -0.0014837339132592359 0 -0.02983839068114974 -0.0015173722835115529 0 -0.029876134722868323 -0.0015579821679985466 0 -0.029828392638186794 -0.0014837339132592359 0 -0.029773211238031814 -0.0014315442486123435 0 -0.029828392638186794 -0.0014837339132592359 0 -0.02979842535809506 -0.0013856319881358624 0 -0.02979842535809506 -0.0013856319881358624 0 -0.029783909536080601 -0.0013575345696784048 0 -0.029774931053347369 -0.0013503962350376595 0 -0.02979842535809506 -0.0013856319881358624 0 -0.029860510806341299 -0.0014788663211667682 0 -0.029892793407585577 -0.0015028996476000886 0 -0.029930499145657017 -0.001693910697048498 0 -0.02993341547497547 -0.0017154068244394345 0 -0.029828392638186794 -0.0014837339132592359 0 -0.02979842535809506 -0.0013856319881358624 0 -0.029860510806341299 -0.0014788663211667682 0 -0.02993341547497547 -0.0017154068244394345 0 -0.029767915281936234 -0.0017744159120466646 0 -0.02987011089385282 -0.0015252721673872215 0 -0.029860510806341299 -0.0014788663211667682 0 -0.029890197281596385 -0.0015083856997757043 0 -0.029932542424036757 -0.0017140063472732949 0 -0.02993341547497547 -0.0017154068244394345 0 -0.02993341547497547 -0.0017154068244394345 0 -0.030132575667140043 -0.0017617051142512581 0 -0.030032478705400351 -0.001647023121991944 0 -0.030030695424778302 -0.0019853130440235026 0 -0.030200522969290079 -0.0018675242031167439 0 -0.029925623468772568 -0.001619676760692972 0 -0.029920254910292127 -0.0016039269557462492 0 -0.030014191236033418 -0.0017154562402986726 0 -0.029890197281596385 -0.0015083856997757043 0 -0.029893018493221499 -0.0015659585429275002 0 -0.029920254910292127 -0.0016039269557462492 0 -0.030132575667140043 -0.0017617051142512581 0 -0.029767915281936234 -0.0017744159120466646 0 -0.029893018493221499 -0.0015659585429275002 0 -0.029925623468772568 -0.001619676760692972 0 -0.029920254910292127 -0.0016039269557462492 0 -0.029876134722868323 -0.0015579821679985466 0 -0.029893018493221499 -0.0015659585429275002 0 -0.029925623468772568 -0.001619676760692972 0 -0.029905677841482597 -0.001606576540602165 0 -0.029889525758586628 -0.0015860273381981553 0 -0.029943898417694431 -0.0016489792278737189 0 -0.029876134722868323 -0.0015579821679985466 0 -0.029925623468772568 -0.001619676760692972 0 -0.029889525758586628 -0.0015860273381981553 0 -0.029925623468772568 -0.001619676760692972 0 -0.029889525758586628 -0.0015860273381981553 0 -0.029943898417694431 -0.0016489792278737189 0 -0.029925623468772568 -0.001619676760692972 0 -0.029943898417694431 -0.0016489792278737189 0 -0.030014191236033418 -0.0017154562402986726 0 -0.029977996896377181 -0.0016841385972926118 0 -0.029943898417694431 -0.0016489792278737189 0 -0.030014191236033418 -0.0017154562402986726 0 -0.029977996896377181 -0.0016841385972926118 0 -0.029905677841482597 -0.001606576540602165 0 -0.029943898417694431 -0.0016489792278737189 0 -0.031037625547652367 -0.0022414236586681163 0 -0.031023476088622586 -0.0019081429588530133 0 -0.031156914668802459 -0.0020984629307845446 0 -0.030564141514152359 -0.002125456214174491 0 -0.030132575667140043 -0.0017617051142512581 0 -0.030132575667140043 -0.0017617051142512581 0 -0.030233641199140775 -0.0018322899023992471 0 -0.031120392703117984 -0.0021516618171229878 0 -0.031122409264523559 -0.0017203600791437037 0 -0.03080476867352238 -0.0019352819230771339 0 -0.029292584023641582 -0.0019864988034954951 0 -0.029589017803447529 -0.0017177196554519303 0 -0.031156914668802459 -0.0020984629307845446 0 -0.031318160378101825 -0.00209542311870046 0 -0.03124895765347312 -0.0022539353411453709 0 -0.031156914668802459 -0.0020984629307845446 0 -0.031318160378101825 -0.00209542311870046 0 -0.031133558551705864 -0.0019487515239884814 0 -0.027615400728121731 -0.00091598151353821831 0 -0.027333896352657452 -0.00098744476875922823 0 -0.027379073282085525 -0.00061955566852173584 0 -0.027615400728121731 -0.00091598151353821831 0 -0.027488678386566177 -0.0012188853284908836 0 -0.027333896352657452 -0.00098744476875922823 0 -0.027615400728121731 -0.00091598151353821831 0 -0.027488678386566177 -0.0012188853284908836 0 -0.027681934788890132 -0.0012771436891798615 0 -0.027488678386566177 -0.0012188853284908836 0 -0.027225815763247899 -0.0014115863025693141 0 -0.027333896352657452 -0.00098744476875922823 0 -0.027681934788890132 -0.0012771436891798615 0 -0.02754435814032721 -0.0014405463392710188 0 -0.027774080783628637 -0.0014928344722835835 0 -0.027488678386566177 -0.0012188853284908836 0 -0.027681934788890132 -0.0012771436891798615 0 -0.02754435814032721 -0.0014405463392710188 0 -0.027488678386566177 -0.0012188853284908836 0 -0.02754435814032721 -0.0014405463392710188 0 -0.027225815763247899 -0.0014115863025693141 0 -0.027615400728121731 -0.00091598151353821831 0 -0.027681934788890132 -0.0012771436891798615 0 -0.027897825912340739 -0.0012592363785400994 0 -0.031318160378101825 -0.00209542311870046 0 -0.031161653285037807 -0.0018935144614110212 0 -0.031133558551705864 -0.0019487515239884814 0 -0.031161531533498908 -0.0018930849626019265 0 -0.031133558551705864 -0.0019487515239884814 0 -0.031119885413317831 -0.0018391272608130091 0 -0.031023476088622586 -0.0019081429588530133 0 -0.031156914668802459 -0.0020984629307845446 0 -0.031133558551705864 -0.0019487515239884814 0 -0.031023476088622586 -0.0019081429588530133 0 -0.031133558551705864 -0.0019487515239884814 0 -0.031119885413317831 -0.0018391272608130091 0 -0.029589017803447529 -0.0017177196554519303 0 -0.029611737756212727 -0.0017058858151499617 0 -0.027681934788890132 -0.0012771436891798615 0 -0.027897825912340739 -0.0012592363785400994 0 -0.027774080783628637 -0.0014928344722835835 0 -0.029589017803447529 -0.0017177196554519303 0 -0.029228429051212517 -0.0018217880392589407 0 -0.029767915281936234 -0.0017744159120466646 0 -0.029228429051212517 -0.0018217880392589407 0 -0.029317586716524784 -0.0018780427540015109 0 -0.029201129964768948 -0.0017254079128798175 0 -0.029519343163098628 -0.0015048253614876562 0 -0.029589017803447529 -0.0017177196554519303 0 -0.029767915281936234 -0.0017744159120466646 0 -0.029783909536080601 -0.0013575345696784048 0 -0.029776686858455373 -0.0013754566952425371 0 -0.029777965775034054 -0.0013626427223505202 0 -0.029776686858455373 -0.0013754566952425371 0 -0.029777965775034054 -0.0013626427223505202 0 -0.029799780720769845 -0.0013763327814315864 0 -0.029783909536080601 -0.0013575345696784048 0 -0.029777965775034054 -0.0013626427223505202 0 -0.029774931053347369 -0.0013503962350376595 0 -0.029786483032703676 -0.0013308716931197746 0 -0.029799780720769845 -0.0013763327814315864 0 -0.029811404032827764 -0.0012313063588359934 0 -0.02979842535809506 -0.0013856319881358624 0 -0.029774931053347369 -0.0013503962350376595 0 -0.02977525405644511 -0.001344868953138985 0 -0.029777965775034054 -0.0013626427223505202 0 -0.029774931053347369 -0.0013503962350376595 0 -0.029786483032703676 -0.0013308716931197746 0 -0.029774931053347369 -0.0013503962350376595 0 -0.02977525405644511 -0.001344868953138985 0 -0.029782370024150573 -0.0013129130381404586 0 -0.029774931053347369 -0.0013503962350376595 0 -0.029786483032703676 -0.0013308716931197746 0 -0.029782370024150573 -0.0013129130381404586 0 -0.029777965775034054 -0.0013626427223505202 0 -0.029786483032703676 -0.0013308716931197746 0 -0.029799780720769845 -0.0013763327814315864 0 -0.029228429051212517 -0.0018217880392589407 0 -0.028465437816799961 -0.0020166039422486251 0 -0.029228429051212517 -0.0018217880392589407 0 -0.028745464098221752 -0.0019861667367787814 0 -0.02754435814032721 -0.0014405463392710188 0 -0.027774080783628637 -0.0014928344722835835 0 -0.027464468870504355 -0.0017605754492467096 0 -0.028391228025384348 -0.0011264391925067448 0 -0.027464468870504355 -0.0017605754492467096 0 -0.027795243640781439 -0.0022771410215475432 0 -0.02754435814032721 -0.0014405463392710188 0 -0.027464468870504355 -0.0017605754492467096 0 -0.027225815763247899 -0.0014115863025693141 0 -0.027795243640781439 -0.0022771410215475432 0 -0.026916799519567589 -0.0026106801556499918 0 -0.027158853233075299 -0.0036789947775553804 0 -0.027795243640781439 -0.0022771410215475432 0 -0.026916799519567589 -0.0026106801556499918 0 -0.027190468627558636 -0.0020110212223760139 0 -0.027464468870504355 -0.0017605754492467096 0 -0.027795243640781439 -0.0022771410215475432 0 -0.027190468627558636 -0.0020110212223760139 0 -0.029811404032827764 -0.0012313063588359934 0 -0.029789966406474553 -0.0012675171192915514 0 -0.029748710830044212 -0.0013316721992728208 0 -0.029789966406474553 -0.0012675171192915514 0 -0.029759646402506171 -0.0013201768352949844 0 -0.029737522622877512 -0.0012513674760962412 0 -0.029789966406474553 -0.0012675171192915514 0 -0.029759646402506171 -0.0013201768352949844 0 -0.029782370024150573 -0.0013129130381404586 0 -0.029759646402506171 -0.0013201768352949844 0 -0.02977525405644511 -0.001344868953138985 0 -0.029782370024150573 -0.0013129130381404586 0 -0.029786483032703676 -0.0013308716931197746 0 -0.029811404032827764 -0.0012313063588359934 0 -0.029782370024150573 -0.0013129130381404586 0 -0.029811404032827764 -0.0012313063588359934 0 -0.029789966406474553 -0.0012675171192915514 0 -0.029782370024150573 -0.0013129130381404586 0 -0.025312367654915818 -0.0018787426774753194 0 -0.026055735623803537 -0.0025372751026137906 0 -0.026560712401736564 -0.0017096502973584589 0 -0.025312367654915818 -0.0018787426774753194 0 -0.025071106406426111 -0.0027905113429031766 0 -0.026055735623803537 -0.0025372751026137906 0 -0.025071106406426111 -0.0027905113429031766 0 -0.026055735623803537 -0.0025372751026137906 0 -0.025971883164988569 -0.0034093712099136295 0 -0.026055735623803537 -0.0025372751026137906 0 -0.026916799519567589 -0.0026106801556499918 0 -0.025971883164988569 -0.0034093712099136295 0 -0.026916799519567589 -0.0026106801556499918 0 -0.027190468627558636 -0.0020110212223760139 0 -0.026560712401736564 -0.0017096502973584589 0 -0.026055735623803537 -0.0025372751026137906 0 -0.026916799519567589 -0.0026106801556499918 0 -0.026560712401736564 -0.0017096502973584589 0 -0.026560712401736564 -0.0017096502973584589 0 -0.027060215135717453 -0.0014842531097998509 0 -0.027659138765790767 -0.0014315435686596809 0 -0.027190468627558636 -0.0020110212223760139 0 -0.026560712401736564 -0.0017096502973584589 0 -0.027060215135717453 -0.0014842531097998509 0 -0.027464468870504355 -0.0017605754492467096 0 -0.027190468627558636 -0.0020110212223760139 0 -0.027060215135717453 -0.0014842531097998509 0 -0.027464468870504355 -0.0017605754492467096 0 -0.027060215135717453 -0.0014842531097998509 0 -0.027225815763247899 -0.0014115863025693141 0 -0.02686975708640706 -0.0015120297751411501 0 -0.02683689170415756 -0.0012740288348524697 0 -0.026560712401736564 -0.0017096502973584589 0 -0.025570882516340352 -0.00012583644059748216 0 -0.024977285218593416 -0.00091743042155652548 0 -0.025312367654915818 -0.0018787426774753194 0 -0.026560712401736564 -0.0017096502973584589 0 -0.024977285218593416 -0.00091743042155652548 0 -0.025570882516340352 -0.00012583644059748216 0 -0.024975771603460865 -0.00028589563109990545 0 -0.024977285218593416 -0.00091743042155652548 0 -0.027659138765790767 -0.0014315435686596809 0 -0.027353722755360667 -0.0015272251333189205 0 -0.02776681694153724 -0.0019372075550961069 0 -0.025570882516340352 -0.00012583644059748216 0 -0.025051837891416091 0.00029297148454886571 0 -0.024975771603460865 -0.00028589563109990545 0 -0.028389346766457473 -0.0017556806659413189 0 -0.028567486397606215 -0.001939824228470033 0 -0.027225815763247899 -0.0014115863025693141 0 -0.027353722755360667 -0.0015272251333189205 0 -0.027162037961402086 -0.0018698414751085076 0 -0.027060215135717453 -0.0014842531097998509 0 -0.027225815763247899 -0.0014115863025693141 0 -0.027353722755360667 -0.0015272251333189205 0 -0.027060215135717453 -0.0014842531097998509 0 -0.027659138765790767 -0.0014315435686596809 0 -0.027353722755360667 -0.0015272251333189205 0 -0.027162037961402086 -0.0018698414751085076 0 -0.027595569605097198 -0.0023347382975603208 0 -0.02776681694153724 -0.0019372075550961069 0 -0.027353722755360667 -0.0015272251333189205 0 -0.027162037961402086 -0.0018698414751085076 0 -0.02776681694153724 -0.0019372075550961069 0 -0.028567486397606215 -0.001939824228470033 0 -0.029145654917261912 -0.0026931694273079655 0 -0.027162037961402086 -0.0018698414751085076 0 -0.027595569605097198 -0.0023347382975603208 0 -0.027084035852627766 -0.0028176412277827649 0 -0.027595569605097198 -0.0023347382975603208 0 -0.02776681694153724 -0.0019372075550961069 0 -0.028121902616387352 -0.0024177420330017047 0 -0.027659138765790767 -0.0014315435686596809 0 -0.02776681694153724 -0.0019372075550961069 0 -0.028660697306968221 -0.0022126648931407242 0 -0.02683689170415756 -0.0012740288348524697 0 -0.026876108568408528 -0.0011484749513447712 0 -0.025570882516340352 -0.00012583644059748216 0 -0.025032995525100288 0.00061533294495854372 0 -0.025051837891416091 0.00029297148454886571 0 -0.02776681694153724 -0.0019372075550961069 0 -0.028660697306968221 -0.0022126648931407242 0 -0.028121902616387352 -0.0024177420330017047 0 -0.028660697306968221 -0.0022126648931407242 0 -0.028121902616387352 -0.0024177420330017047 0 -0.028579946200748406 -0.0028619692326547538 0 -0.028121902616387352 -0.0024177420330017047 0 -0.028014271167495008 -0.0028873162947288863 0 -0.028579946200748406 -0.0028619692326547538 0 -0.028014271167495008 -0.0028873162947288863 0 -0.028579946200748406 -0.0028619692326547538 0 -0.028661670910711805 -0.0033847975927912598 0 -0.028579946200748406 -0.0028619692326547538 0 -0.028661670910711805 -0.0033847975927912598 0 -0.02946816162644067 -0.0034190413626779721 0 -0.028014271167495008 -0.0028873162947288863 0 -0.028661670910711805 -0.0033847975927912598 0 -0.028042342895219733 -0.0038803022844781975 0 -0.028661670910711805 -0.0033847975927912598 0 -0.029086751260446689 -0.0040187633324904534 0 -0.02946816162644067 -0.0034190413626779721 0 -0.028661670910711805 -0.0033847975927912598 0 -0.029086751260446689 -0.0040187633324904534 0 -0.028042342895219733 -0.0038803022844781975 0 -0.029256585134784678 -0.0036041457432604861 0 -0.029145654917261912 -0.0026931694273079655 0 -0.029620088332815736 -0.0047832540378808857 0 -0.029682989210983893 -0.0048477845771989787 0 -0.029699432835292649 -0.0047093914086182307 0 -0.028014271167495008 -0.0028873162947288863 0 -0.028042342895219733 -0.0038803022844781975 0 -0.027084035852627766 -0.0028176412277827649 0 -0.027595569605097198 -0.0023347382975603208 0 -0.028014271167495008 -0.0028873162947288863 0 -0.027084035852627766 -0.0028176412277827649 0 -0.027595569605097198 -0.0023347382975603208 0 -0.028121902616387352 -0.0024177420330017047 0 -0.028014271167495008 -0.0028873162947288863 0 -0.029292584023641582 -0.0019864988034954951 0 -0.029145654917261912 -0.0026931694273079655 0 -0.031318160378101825 -0.00209542311870046 0 -0.031470942452157563 -0.0022955291833337455 0 -0.03124895765347312 -0.0022539353411453709 0 -0.031470942452157563 -0.0022955291833337455 0 -0.03124895765347312 -0.0022539353411453709 0 -0.031221603014943484 -0.0024538474541571861 0 -0.031037625547652367 -0.0022414236586681163 0 -0.031156914668802459 -0.0020984629307845446 0 -0.03124895765347312 -0.0022539353411453709 0 -0.031037625547652367 -0.0022414236586681163 0 -0.03124895765347312 -0.0022539353411453709 0 -0.031221603014943484 -0.0024538474541571861 0 -0.031470942452157563 -0.0022955291833337455 0 -0.031344189386624324 -0.0025673784114192159 0 -0.031434681183186965 -0.0026767890968352405 0 -0.031470942452157563 -0.0022955291833337455 0 -0.031221603014943484 -0.0024538474541571861 0 -0.031344189386624324 -0.0025673784114192159 0 -0.029145654917261912 -0.0026931694273079655 0 -0.030209388024451875 -0.0034623095453727806 0 -0.031434681183186965 -0.0026767890968352405 0 -0.031432126631674939 -0.0026852443114675083 0 -0.031522771612535715 -0.0026065852816722366 0 -0.031344189386624324 -0.0025673784114192159 0 -0.031434681183186965 -0.0026767890968352405 0 -0.031432126631674939 -0.0026852443114675083 0 -0.031221603014943484 -0.0024538474541571861 0 -0.031344189386624324 -0.0025673784114192159 0 -0.031160824517222296 -0.0026477286113683316 0 -0.031059803686489997 -0.0025466207688137621 0 -0.031221603014943484 -0.0024538474541571861 0 -0.031160824517222296 -0.0026477286113683316 0 -0.031432126631674939 -0.0026852443114675083 0 -0.031160824517222296 -0.0026477286113683316 0 -0.031100925865872764 -0.0027202041203513972 0 -0.031344189386624324 -0.0025673784114192159 0 -0.031432126631674939 -0.0026852443114675083 0 -0.031160824517222296 -0.0026477286113683316 0 -0.031432126631674939 -0.0026852443114675083 0 -0.031100925865872764 -0.0027202041203513972 0 -0.03104339496386764 -0.0028185380698563241 0 -0.031583253075815568 -0.0025681909637084968 0 -0.031656666406742945 -0.0024968984729027838 0 -0.031432126631674939 -0.0026852443114675083 0 -0.031803383802650444 -0.0025660905022540479 0 -0.031983749002456985 -0.0026058545979864346 0 -0.031610263146159244 -0.0025057294397508095 0 -0.031803383802650444 -0.0025660905022540479 0 -0.031522771612535715 -0.0026065852816722366 0 -0.031484371500152417 -0.0025178162101160422 0 -0.031434681183186965 -0.0026767890968352405 0 -0.031522771612535715 -0.0026065852816722366 0 -0.031432126631674939 -0.0026852443114675083 0 -0.031803383802650444 -0.0025660905022540479 0 -0.031522771612535715 -0.0026065852816722366 0 -0.031052754163774364 -0.0033953841322515283 0 -0.030209388024451875 -0.0034623095453727806 0 -0.031484371500152417 -0.0025178162101160422 0 -0.031610263146159244 -0.0025057294397508095 0 -0.031522771612535715 -0.0026065852816722366 0 -0.029683340649866882 -0.0046766178395890911 0 -0.029699432835292649 -0.0047093914086182307 0 -0.029683141250733194 -0.0046589236169751903 0 -0.029711613789128351 -0.0046756077767666606 0 -0.029683340649866882 -0.0046766178395890911 0 -0.029683141250733194 -0.0046589236169751903 0 -0.029711613789128351 -0.0046756077767666606 0 -0.029683141250733194 -0.0046589236169751903 0 -0.029700261095606854 -0.0046621287698297362 0 -0.029683141250733194 -0.0046589236169751903 0 -0.029700261095606854 -0.0046621287698297362 0 -0.029416705973227198 -0.0046635187375026936 0 -0.029982545102941616 -0.0047110075257178795 0 -0.029700261095606854 -0.0046621287698297362 0 -0.029621972511999242 -0.0047447850466594121 0 -0.029700261095606854 -0.0046621287698297362 0 -0.029416705973227198 -0.0046635187375026936 0 -0.029621972511999242 -0.0047447850466594121 0 -0.029683141250733194 -0.0046589236169751903 0 -0.029416705973227198 -0.0046635187375026936 0 -0.029627882555790973 -0.0047074470513311277 0 -0.029086751260446689 -0.0040187633324904534 0 -0.028042342895219733 -0.0038803022844781975 0 -0.029416705973227198 -0.0046635187375026936 0 -0.029620088332815736 -0.0047832540378808857 0 -0.029416705973227198 -0.0046635187375026936 0 -0.029627882555790973 -0.0047074470513311277 0 -0.029256585134784678 -0.0036041457432604861 0 -0.029347050895650713 -0.0039119345937649319 0 -0.029620088332815736 -0.0047832540378808857 0 -0.029699432835292649 -0.0047093914086182307 0 -0.029627882555790973 -0.0047074470513311277 0 -0.029699432835292649 -0.0047093914086182307 0 -0.029683141250733194 -0.0046589236169751903 0 -0.029627882555790973 -0.0047074470513311277 0 -0.024452458453519815 0.00077850046624226182 0 -0.024210956314663804 0.00087957815386110842 0 -0.024223735176672635 0.00065385848061040803 0 -0.029086751260446689 -0.0040187633324904534 0 -0.029416705973227198 -0.0046635187375026936 0 -0.029875840927350149 -0.0044732872587245507 0 -0.028296463097625079 -0.0022274007860120901 0 -0.026889589988773135 -0.0011538051243030806 0 -0.029630962440337725 -0.0048122189283350261 0 -0.029875840927350149 -0.0044732872587245507 0 -0.029621972511999242 -0.0047447850466594121 0 -0.029416705973227198 -0.0046635187375026936 0 -0.029875840927350149 -0.0044732872587245507 0 -0.029621972511999242 -0.0047447850466594121 0 -0.029630962440337725 -0.0048122189283350261 0 -0.029982545102941616 -0.0047110075257178795 0 -0.029621972511999242 -0.0047447850466594121 0 -0.026548818900258203 -0.00022296085595270332 0 -0.026889589988773135 -0.0011538051243030806 0 -0.02829961585022327 -0.0013609038602813942 0 -0.02881328191414809 -0.0013880094515106437 0 -0.028570180613932687 -0.0020828616755127608 0 -0.024332462912062175 0.001090918204955302 0 -0.024452458453519815 0.00077850046624226182 0 -0.024210956314663804 0.00087957815386110842 0 -0.024002434879337751 0.0011124058604156204 0 -0.024332462912062175 0.001090918204955302 0 -0.024210956314663804 0.00087957815386110842 0 -0.024002434879337751 0.0011124058604156204 0 -0.024210956314663804 0.00087957815386110842 0 -0.023994987999011584 0.00088977756637419008 0 -0.024002434879337751 0.0011124058604156204 0 -0.023994987999011584 0.00088977756637419008 0 -0.023743673361073962 0.00083494698401501545 0 -0.025740457502425609 0.00042369032080289017 0 -0.025171335917295024 0.00046425693736747555 0 -0.024040983123949856 0.00071300989737429956 0 -0.02382316611480547 0.00051501369737130245 0 -0.023743673361073962 0.00083494698401501545 0 -0.023994987999011584 0.00088977756637419008 0 -0.024040983123949856 0.00071300989737429956 0 -0.023743673361073962 0.00083494698401501545 0 -0.024210956314663804 0.00087957815386110842 0 -0.024040983123949856 0.00071300989737429956 0 -0.024223735176672635 0.00065385848061040803 0 -0.024210956314663804 0.00087957815386110842 0 -0.023994987999011584 0.00088977756637419008 0 -0.024040983123949856 0.00071300989737429956 0 -0.024223735176672635 0.00065385848061040803 0 -0.024087403838244717 0.00047189803462566811 0 -0.024325238795331865 0.00042542127563937856 0 -0.024040983123949856 0.00071300989737429956 0 -0.024223735176672635 0.00065385848061040803 0 -0.024087403838244717 0.00047189803462566811 0 -0.024040983123949856 0.00071300989737429956 0 -0.024087403838244717 0.00047189803462566811 0 -0.02382316611480547 0.00051501369737130245 0 -0.024087403838244717 0.00047189803462566811 0 -0.02382316611480547 0.00051501369737130245 0 -0.023869024892003401 0.00024378338177133914 0 -0.024087403838244717 0.00047189803462566811 0 -0.024139883370121011 0.00029598978489925863 0 -0.024325238795331865 0.00042542127563937856 0 -0.024087403838244717 0.00047189803462566811 0 -0.024139883370121011 0.00029598978489925863 0 -0.023869024892003401 0.00024378338177133914 0 -0.024496371069845195 0.00086692768675588748 0 -0.024653077401211917 0.00056359158220252025 0 -0.024517097277299383 0.0003871888455871571 0 -0.024496371069845195 0.00086692768675588748 0 -0.024799757689415572 0.00071690279113718522 0 -0.024653077401211917 0.00056359158220252025 0 -0.024704970878929141 0.0013227860736365294 0 -0.024496371069845195 0.00086692768675588748 0 -0.024838667881470523 0.00096030056884048912 0 -0.024452458453519815 0.00077850046624226182 0 -0.024223735176672635 0.00065385848061040803 0 -0.024325238795331865 0.00042542127563937856 0 -0.026889589988773135 -0.0011538051243030806 0 -0.025699198932862537 8.7388250518850745e-06 0 -0.026889589988773135 -0.0011538051243030806 0 -0.026956102494490916 -0.0012389162216275859 0 -0.029086751260446689 -0.0040187633324904534 0 -0.029875840927350149 -0.0044732872587245507 0 -0.02946816162644067 -0.0034190413626779721 0 -0.028660697306968221 -0.0022126648931407242 0 -0.028579946200748406 -0.0028619692326547538 0 -0.02946816162644067 -0.0034190413626779721 0 -0.026876108568408528 -0.0011484749513447712 0 -0.026956102494490916 -0.0012389162216275859 0 -0.024496371069845195 0.00086692768675588748 0 -0.024838667881470523 0.00096030056884048912 0 -0.024799757689415572 0.00071690279113718522 0 -0.025032995525100288 0.00061533294495854372 0 -0.024838667881470523 0.00096030056884048912 0 -0.024799757689415572 0.00071690279113718522 0 -0.025032995525100288 0.00061533294495854372 0 -0.024799757689415572 0.00071690279113718522 0 -0.024769933333860853 0.00043519606480576432 0 -0.025032995525100288 0.00061533294495854372 0 -0.024769933333860853 0.00043519606480576432 0 -0.025051837891416091 0.00029297148454886571 0 -0.024769933333860853 0.00043519606480576432 0 -0.025051837891416091 0.00029297148454886571 0 -0.024355055610804609 -1.3528463059506068e-05 0 -0.024799757689415572 0.00071690279113718522 0 -0.024769933333860853 0.00043519606480576432 0 -0.024653077401211917 0.00056359158220252025 0 -0.024496371069845195 0.00086692768675588748 0 -0.024517097277299383 0.0003871888455871571 0 -0.024228054146968377 9.7321885590301692e-05 0 -0.025699198932862537 8.7388250518850745e-06 0 -0.025279748717115601 4.997401234922644e-06 0 -0.024769933333860853 0.00043519606480576432 0 -0.024517097277299383 0.0003871888455871571 0 -0.024355055610804609 -1.3528463059506068e-05 0 -0.024769933333860853 0.00043519606480576432 0 -0.024653077401211917 0.00056359158220252025 0 -0.024517097277299383 0.0003871888455871571 0 -0.024517097277299383 0.0003871888455871571 0 -0.024355055610804609 -1.3528463059506068e-05 0 -0.024228054146968377 9.7321885590301692e-05 0 -0.022972901233633089 8.0195228058975635e-05 0 -0.023921620648228024 -0.00021919214922921731 0 -0.02332028618233609 -0.00085577881234797921 0 -0.024303178260584514 -0.00049089614457202221 0 -0.023921620648228024 -0.00021919214922921731 0 -0.02332028618233609 -0.00085577881234797921 0 -0.022972901233633089 8.0195228058975635e-05 0 -0.02332028618233609 -0.00085577881234797921 0 -0.022252778024416144 -0.00080358400460128819 0 -0.024158855205575959 0.00022669031826734722 0 -0.02344603121838235 8.7669503516112177e-05 0 -0.025051837891416091 0.00029297148454886571 0 -0.022972901233633089 8.0195228058975635e-05 0 -0.023921620648228024 -0.00021919214922921731 0 -0.025051837891416091 0.00029297148454886571 0 -0.024303178260584514 -0.00049089614457202221 0 -0.024975771603460865 -0.00028589563109990545 0 -0.025051837891416091 0.00029297148454886571 0 -0.024303178260584514 -0.00049089614457202221 0 -0.023921620648228024 -0.00021919214922921731 0 -0.024303178260584514 -0.00049089614457202221 0 -0.024975771603460865 -0.00028589563109990545 0 -0.024977285218593416 -0.00091743042155652548 0 -0.024303178260584514 -0.00049089614457202221 0 -0.024977285218593416 -0.00091743042155652548 0 -0.024272189315932793 -0.001640276905466547 0 -0.024303178260584514 -0.00049089614457202221 0 -0.024272189315932793 -0.001640276905466547 0 -0.02332028618233609 -0.00085577881234797921 0 -0.025312367654915818 -0.0018787426774753194 0 -0.024977285218593416 -0.00091743042155652548 0 -0.024272189315932793 -0.001640276905466547 0 -0.02332028618233609 -0.00085577881234797921 0 -0.023303340799690819 -0.001988375254933495 0 -0.022462242523544607 -0.0016437339912760065 0 -0.024272189315932793 -0.001640276905466547 0 -0.02332028618233609 -0.00085577881234797921 0 -0.023303340799690819 -0.001988375254933495 0 -0.023303340799690819 -0.001988375254933495 0 -0.02388675066004144 -0.0028219189209640564 0 -0.022593440258250729 -0.0029741307610887716 0 -0.023303340799690819 -0.001988375254933495 0 -0.022462242523544607 -0.0016437339912760065 0 -0.022593440258250729 -0.0029741307610887716 0 -0.025071106406426111 -0.0027905113429031766 0 -0.024272189315932793 -0.001640276905466547 0 -0.02388675066004144 -0.0028219189209640564 0 -0.024272189315932793 -0.001640276905466547 0 -0.023303340799690819 -0.001988375254933495 0 -0.02388675066004144 -0.0028219189209640564 0 -0.025312367654915818 -0.0018787426774753194 0 -0.025071106406426111 -0.0027905113429031766 0 -0.024272189315932793 -0.001640276905466547 0 -0.021527641650386418 -0.0023804439067225784 0 -0.020233990500213506 -0.00194320178862602 0 -0.020696600618909912 -0.0035025702659298623 0 -0.021527641650386418 -0.0023804439067225784 0 -0.021510711707173214 -0.0013602567847593018 0 -0.020233990500213506 -0.00194320178862602 0 -0.021527641650386418 -0.0023804439067225784 0 -0.022462242523544607 -0.0016437339912760065 0 -0.022593440258250729 -0.0029741307610887716 0 -0.021527641650386418 -0.0023804439067225784 0 -0.022462242523544607 -0.0016437339912760065 0 -0.021510711707173214 -0.0013602567847593018 0 -0.022252778024416144 -0.00080358400460128819 0 -0.021510711707173214 -0.0013602567847593018 0 -0.02089811794245558 -0.00045503907022420098 0 -0.022462242523544607 -0.0016437339912760065 0 -0.022252778024416144 -0.00080358400460128819 0 -0.021510711707173214 -0.0013602567847593018 0 -0.02332028618233609 -0.00085577881234797921 0 -0.022462242523544607 -0.0016437339912760065 0 -0.022252778024416144 -0.00080358400460128819 0 -0.021510711707173214 -0.0013602567847593018 0 -0.02089811794245558 -0.00045503907022420098 0 -0.020233990500213506 -0.00194320178862602 0 -0.023839433918581242 -0.00025964824921463359 0 -0.023945223989868349 6.2030228042294589e-05 0 -0.0235275986315618 -0.0001556596057909181 0 -0.02344603121838235 8.7669503516112177e-05 0 -0.022061800709054804 -0.00012760936967964043 0 -0.022972901233633089 8.0195228058975635e-05 0 -0.022252778024416144 -0.00080358400460128819 0 -0.02089811794245558 -0.00045503907022420098 0 -0.023839433918581242 -0.00025964824921463359 0 -0.024228054146968377 9.7321885590301692e-05 0 -0.023945223989868349 6.2030228042294589e-05 0 -0.024355055610804609 -1.3528463059506068e-05 0 -0.023839433918581242 -0.00025964824921463359 0 -0.024228054146968377 9.7321885590301692e-05 0 -0.024139883370121011 0.00029598978489925863 0 -0.024325238795331865 0.00042542127563937856 0 -0.024228054146968377 9.7321885590301692e-05 0 -0.024139883370121011 0.00029598978489925863 0 -0.024228054146968377 9.7321885590301692e-05 0 -0.023945223989868349 6.2030228042294589e-05 0 -0.024139883370121011 0.00029598978489925863 0 -0.023945223989868349 6.2030228042294589e-05 0 -0.023869024892003401 0.00024378338177133914 0 -0.023945223989868349 6.2030228042294589e-05 0 -0.023869024892003401 0.00024378338177133914 0 -0.0235275986315618 -0.0001556596057909181 0 -0.023869024892003401 0.00024378338177133914 0 -0.023581505754359848 -0.00011243530312163634 0 -0.023601961136948207 0.00025605813951278211 0 -0.023230658228361362 0.00036425699803515721 0 -0.022907830921507454 0.00030528762058724469 0 -0.023869024892003401 0.00024378338177133914 0 -0.023315742961310289 0.00012252255968871312 0 -0.0235275986315618 -0.0001556596057909181 0 -0.023581505754359848 -0.00011243530312163634 0 -0.023016977909014424 -0.0005773719394622913 0 -0.022985010202675443 5.1064332562030883e-06 0 -0.023581505754359848 -0.00011243530312163634 0 -0.022985010202675443 5.1064332562030883e-06 0 -0.023601961136948207 0.00025605813951278211 0 -0.023155427299147182 -0.00030235308982204926 0 -0.022870291387333447 -0.00042756478622770931 0 -0.022634493795844045 -0.00012414597835080926 0 -0.022907830921507454 0.00030528762058724469 0 -0.021989689627353641 0.00021009088793908615 0 -0.023315742961310289 0.00012252255968871312 0 -0.023155427299147182 -0.00030235308982204926 0 -0.022634493795844045 -0.00012414597835080926 0 -0.023155427299147182 -0.00030235308982204926 0 -0.022870291387333447 -0.00042756478622770931 0 -0.023129393826575036 -0.00059908976453362415 0 -0.023839433918581242 -0.00025964824921463359 0 -0.0235275986315618 -0.0001556596057909181 0 -0.023138214852786047 -0.0005202983100360399 0 -0.023315742961310289 0.00012252255968871312 0 -0.023155427299147182 -0.00030235308982204926 0 -0.0235275986315618 -0.0001556596057909181 0 -0.023155427299147182 -0.00030235308982204926 0 -0.0235275986315618 -0.0001556596057909181 0 -0.023138214852786047 -0.0005202983100360399 0 -0.022061800709054804 -0.00012760936967964043 0 -0.019668282300255403 -0.00038226406620209903 0 -0.02089811794245558 -0.00045503907022420098 0 -0.018947497179330801 -0.00098220064925657138 0 -0.020233990500213506 -0.00194320178862602 0 -0.019767860195728276 -0.00035695576277540642 0 -0.019668282300255403 -0.00038226406620209903 0 -0.022870291387333447 -0.00042756478622770931 0 -0.023129393826575036 -0.00059908976453362415 0 -0.022590719335358798 -0.00055490192950502656 0 -0.019668282300255403 -0.00038226406620209903 0 -0.018140375483255092 -0.0012707498558868734 0 -0.016160518070728314 -0.00061780079859784969 0 -0.016199537352420291 -3.2345811591345408e-05 0 -0.01647164655249396 -0.00033838055737912012 0 -0.016199537352420291 -3.2345811591345408e-05 0 -0.01657324269944185 2.029200572991784e-06 0 -0.01647164655249396 -0.00033838055737912012 0 -0.018790873988184961 -0.0026232069626786784 0 -0.020233990500213506 -0.00194320178862602 0 -0.019542897495834582 -0.0034648973502003676 0 -0.018947497179330801 -0.00098220064925657138 0 -0.018790873988184961 -0.0026232069626786784 0 -0.020233990500213506 -0.00194320178862602 0 -0.017768447068129151 -3.6019606178172635e-05 0 -0.017778135436084388 6.8205703518525828e-07 0 -0.018375789065001345 -6.5890340675331594e-05 0 -0.017768447068129151 -3.6019606178172635e-05 0 -0.017242577459279575 1.5764871929350759e-05 0 -0.017556044270070091 -0.00015221567193517222 0 -0.017768447068129151 -3.6019606178172635e-05 0 -0.017778135436084388 6.8205703518525828e-07 0 -0.017242577459279575 1.5764871929350759e-05 0 -0.019037247976188183 0.00028459299424484001 0 -0.019586019033586238 -0.00010594428456414814 0 -0.01657324269944185 2.029200572991784e-06 0 -0.016834646114370279 -0.00036512250985809011 0 -0.01647164655249396 -0.00033838055737912012 0 -0.017242577459279575 1.5764871929350759e-05 0 -0.01657324269944185 2.029200572991784e-06 0 -0.017556044270070091 -0.00015221567193517222 0 -0.016160518070728314 -0.00061780079859784969 0 -0.01647164655249396 -0.00033838055737912012 0 -0.016880196174285329 -0.00043253480211841822 0 -0.019668282300255403 -0.00038226406620209903 0 -0.019811895868805211 -0.00027023719175996158 0 -0.023129393826575036 -0.00059908976453362415 0 -0.022590719335358798 -0.00055490192950502656 0 -0.022152931292663231 -0.00087103417821343882 0 -0.016834646114370279 -0.00036512250985809011 0 -0.01647164655249396 -0.00033838055737912012 0 -0.016880196174285329 -0.00043253480211841822 0 -0.022870291387333447 -0.00042756478622770931 0 -0.022590719335358798 -0.00055490192950502656 0 -0.022572220570542954 -0.00039519088940942763 0 -0.022590719335358798 -0.00055490192950502656 0 -0.022268304837011713 -0.00050320158997791504 0 -0.022572220570542954 -0.00039519088940942763 0 -0.022590719335358798 -0.00055490192950502656 0 -0.022268304837011713 -0.00050320158997791504 0 -0.022152931292663231 -0.00087103417821343882 0 -0.019811895868805211 -0.00027023719175996158 0 -0.020057688578885215 3.0420160968225592e-05 0 -0.017779645164275038 -0.00015323603003954895 0 -0.018375789065001345 -6.5890340675331594e-05 0 -0.018640136068023238 -0.00052380973497319979 0 -0.022268304837011713 -0.00050320158997791504 0 -0.022152931292663231 -0.00087103417821343882 0 -0.021879980781576741 -0.00047305277056698604 0 -0.017778135436084388 6.8205703518525828e-07 0 -0.018375789065001345 -6.5890340675331594e-05 0 -0.019417519147985913 -1.7675987515701746e-06 0 -0.017556044270070091 -0.00015221567193517222 0 -0.017779645164275038 -0.00015323603003954895 0 -0.018375789065001345 -6.5890340675331594e-05 0 -0.017768447068129151 -3.6019606178172635e-05 0 -0.017556044270070091 -0.00015221567193517222 0 -0.018375789065001345 -6.5890340675331594e-05 0 -0.019586019033586238 -0.00010594428456414814 0 -0.019811895868805211 -0.00027023719175996158 0 -0.018375789065001345 -6.5890340675331594e-05 0 -0.018640136068023238 -0.00052380973497319979 0 -0.019417519147985913 -1.7675987515701746e-06 0 -0.020057688578885215 3.0420160968225592e-05 0 -0.019422230288106704 -7.2493157086583739e-07 0 -0.019645829086664155 7.7093149238567675e-07 0 -0.019421058848555939 3.7177909392913551e-09 0 -0.020311734572191351 -6.6369974828520539e-10 0 -0.020959124483187212 -0.0010923726385972093 0 -0.020319441292974316 -2.9248267404700444e-06 0 -0.023016977909014424 -0.0005773719394622913 0 -0.020057688578885215 3.0420160968225592e-05 0 -0.020312156710114302 -1.527198552692095e-07 0 -0.020319441292974316 -2.9248267404700444e-06 0 -0.023016977909014424 -0.0005773719394622913 0 -0.022985010202675443 5.1064332562030883e-06 0 -0.020057688578885215 3.0420160968225592e-05 0 -0.021989689627353641 0.00021009088793908615 0 -0.022268304837011713 -0.00050320158997791504 0 -0.021879980781576741 -0.00047305277056698604 0 -0.022634493795844045 -0.00012414597835080926 0 -0.022870291387333447 -0.00042756478622770931 0 -0.022572220570542954 -0.00039519088940942763 0 -0.022634493795844045 -0.00012414597835080926 0 -0.022268304837011713 -0.00050320158997791504 0 -0.022572220570542954 -0.00039519088940942763 0 -0.022634493795844045 -0.00012414597835080926 0 -0.020319441292974316 -2.9248267404700444e-06 0 -0.022985010202675443 5.1064332562030883e-06 0 -0.025482161273947767 1.4932770582855841e-06 0 -0.022985010202675443 5.1064332562030883e-06 0 -0.025118363245448021 -3.5710636027412692e-05 0 -0.025482161273947767 1.4932770582855841e-06 0 -0.024178175253518508 0.00016511319480830126 0 -0.024576066921176355 0.00033966027643936693 0 -0.022985010202675443 5.1064332562030883e-06 0 -0.023601961136948207 0.00025605813951278211 0 -0.023425355114402323 0.00051855937884689291 0 -0.02382316611480547 0.00051501369737130245 0 -0.023869024892003401 0.00024378338177133914 0 -0.023601961136948207 0.00025605813951278211 0 -0.02382316611480547 0.00051501369737130245 0 -0.023601961136948207 0.00025605813951278211 0 -0.023425355114402323 0.00051855937884689291 0 -0.024576066921176355 0.00033966027643936693 0 -0.025171335917295024 0.00046425693736747555 0 -0.02382316611480547 0.00051501369737130245 0 -0.023425355114402323 0.00051855937884689291 0 -0.023743673361073962 0.00083494698401501545 0 -0.025118363245448021 -3.5710636027412692e-05 0 -0.025971740311437359 5.4412157117995819e-05 0 -0.026510052457810834 5.62809296219826e-05 0 -0.026732417780701553 0.00016224774709662737 0 -0.026510052457810834 5.62809296219826e-05 0 -0.026720187180829004 0.00012725273493780607 0 -0.026732417780701553 0.00016224774709662737 0 -0.026862455165568577 0.0001344076280411449 0 -0.026510052457810834 5.62809296219826e-05 0 -0.025971740311437359 5.4412157117995819e-05 0 -0.026510052457810834 5.62809296219826e-05 0 -0.026720187180829004 0.00012725273493780607 0 -0.025971740311437359 5.4412157117995819e-05 0 -0.026720187180829004 0.00012725273493780607 0 -0.026523120656619648 9.9085562751294109e-05 0 -0.025118363245448021 -3.5710636027412692e-05 0 -0.025971740311437359 5.4412157117995819e-05 0 -0.025482161273947767 1.4932770582855841e-06 0 -0.027655275473113531 9.1728636346508785e-05 0 -0.026523120656619648 9.9085562751294109e-05 0 -0.025482161273947767 1.4932770582855841e-06 0 -0.025971740311437359 5.4412157117995819e-05 0 -0.026523120656619648 9.9085562751294109e-05 0 -0.025482161273947767 1.4932770582855841e-06 0 -0.0079966488488792831 -0.00040430166036804934 0 -0.0082484780550326642 -0.00070742391525630986 0 -0.0079497766008500333 -0.0010819287709469088 0 -0.011130057331283465 -0.0016031985135667665 0 -0.011470390374041909 -0.0020034412560540936 0 -0.0083262433254795258 -0.000477726428525478 0 -0.0087850984427088417 -0.00050702795277746007 0 -0.0082938562749506652 -0.00039352121333515789 0 -0.0087850984427088417 -0.00050702795277746007 0 -0.0093298315752905724 -0.00022593154588326412 0 -0.0082938562749506652 -0.00039352121333515789 0 -0.0083262433254795258 -0.000477726428525478 0 -0.0079966488488792831 -0.00040430166036804934 0 -0.0082484780550326642 -0.00070742391525630986 0 -0.0083262433254795258 -0.000477726428525478 0 -0.0079966488488792831 -0.00040430166036804934 0 -0.0082938562749506652 -0.00039352121333515789 0 -0.0082484780550326642 -0.00070742391525630986 0 -0.0085449941937487551 -0.0010021550316088638 0 -0.0079497766008500333 -0.0010819287709469088 0 -0.0082484780550326642 -0.00070742391525630986 0 -0.0087850984427088417 -0.00050702795277746007 0 -0.0085449941937487551 -0.0010021550316088638 0 -0.0083262433254795258 -0.000477726428525478 0 -0.0082484780550326642 -0.00070742391525630986 0 -0.0087850984427088417 -0.00050702795277746007 0 -0.0087850984427088417 -0.00050702795277746007 0 -0.0091251388080844428 -0.00077503453600835041 0 -0.0085449941937487551 -0.0010021550316088638 0 -0.0087850984427088417 -0.00050702795277746007 0 -0.0091251388080844428 -0.00077503453600835041 0 -0.0094835360699372685 -0.00040195155823351595 0 -0.0091251388080844428 -0.00077503453600835041 0 -0.0094835360699372685 -0.00040195155823351595 0 -0.010532108302769473 -0.00030990708684629112 0 -0.0087850984427088417 -0.00050702795277746007 0 -0.0094835360699372685 -0.00040195155823351595 0 -0.0093298315752905724 -0.00022593154588326412 0 -0.0094835360699372685 -0.00040195155823351595 0 -0.010532108302769473 -0.00030990708684629112 0 -0.0093298315752905724 -0.00022593154588326412 0 -0.010817432886484974 -9.5289464272712628e-07 0 -0.0093298315752905724 -0.00022593154588326412 0 -0.0087793205112002368 -8.2668561079711079e-07 0 -0.010817432886484974 -9.5289464272712628e-07 0 -0.010532108302769473 -0.00030990708684629112 0 -0.0093298315752905724 -0.00022593154588326412 0 -0.0093298315752905724 -0.00022593154588326412 0 -0.0087793205112002368 -8.2668561079711079e-07 0 -0.0082645720455653011 -0.00034491078884272316 0 -0.0093298315752905724 -0.00022593154588326412 0 -0.0082645720455653011 -0.00034491078884272316 0 -0.0082938562749506652 -0.00039352121333515789 0 -0.0082645720455653011 -0.00034491078884272316 0 -0.0075838174534297665 -0.00067353997960849774 0 -0.0072389500178962531 -0.00054489655506240002 0 -0.0075838174534297665 -0.00067353997960849774 0 -0.0080088409787833041 -0.00041469667523261281 0 -0.0065534127742786011 -0.0013714263830997119 0 -0.0082645720455653011 -0.00034491078884272316 0 -0.0082938562749506652 -0.00039352121333515789 0 -0.0075838174534297665 -0.00067353997960849774 0 -0.0079966488488792831 -0.00040430166036804934 0 -0.0082938562749506652 -0.00039352121333515789 0 -0.0075838174534297665 -0.00067353997960849774 0 -0.0079966488488792831 -0.00040430166036804934 0 -0.0075838174534297665 -0.00067353997960849774 0 -0.0080088409787833041 -0.00041469667523261281 0 -0.0051389785641665362 -0.0026805436632065774 0 -0.0061579445025138086 -0.0050690087912838317 0 -0.0065534127742786011 -0.0013714263830997119 0 -0.0091185358494244324 -0.0030866283646746543 0 -0.0088221427701021937 -0.0024636664620009819 0 -0.0051389785641665362 -0.0026805436632065774 0 -0.0050718746889854898 -0.004335520412731041 0 -0.0043182189036081514 -0.0041811315827814041 0 -0.0050718746889854898 -0.004335520412731041 0 -0.0043182189036081514 -0.0041811315827814041 0 -0.004732105532768361 -0.0053306238041796452 0 -0.0050718746889854898 -0.004335520412731041 0 -0.0061579445025138086 -0.0050690087912838317 0 -0.004732105532768361 -0.0053306238041796452 0 -0.0051389785641665362 -0.0026805436632065774 0 -0.0050718746889854898 -0.004335520412731041 0 -0.0061579445025138086 -0.0050690087912838317 0 -0.0051389785641665362 -0.0026805436632065774 0 -0.0043182189036081514 -0.0041811315827814041 0 -0.0031589759868842597 -0.0031031941181566061 0 -0.0043182189036081514 -0.0041811315827814041 0 -0.0030043769426311524 -0.0050273643969431714 0 -0.0039411856234713109 -0.0051594243785237229 0 -0.0043182189036081514 -0.0041811315827814041 0 -0.0039411856234713109 -0.0051594243785237229 0 -0.004732105532768361 -0.0053306238041796452 0 -0.0030043769426311524 -0.0050273643969431714 0 -0.0018346774491718567 -0.0046299621652977083 0 -0.0031589759868842597 -0.0031031941181566061 0 -0.0043182189036081514 -0.0041811315827814041 0 -0.0030043769426311524 -0.0050273643969431714 0 -0.0031589759868842597 -0.0031031941181566061 0 -0.0030043769426311524 -0.0050273643969431714 0 -0.0037538403306385526 -0.0060679376691003331 0 -0.0027443140699770076 -0.0062534460770262952 0 -0.0037538403306385526 -0.0060679376691003331 0 -0.004732105532768361 -0.0053306238041796452 0 -0.0047250475230164839 -0.0065199905261668504 0 -0.0030043769426311524 -0.0050273643969431714 0 -0.0039411856234713109 -0.0051594243785237229 0 -0.0037538403306385526 -0.0060679376691003331 0 -0.0039411856234713109 -0.0051594243785237229 0 -0.0037538403306385526 -0.0060679376691003331 0 -0.004732105532768361 -0.0053306238041796452 0 -0.0037538403306385526 -0.0060679376691003331 0 -0.0047250475230164839 -0.0065199905261668504 0 -0.0036377966679782144 -0.0071846399561498351 0 -0.0027443140699770076 -0.0062534460770262952 0 -0.0036377966679782144 -0.0071846399561498351 0 -0.0022198358598900171 -0.007378539758144953 0 -0.0037538403306385526 -0.0060679376691003331 0 -0.0027443140699770076 -0.0062534460770262952 0 -0.0036377966679782144 -0.0071846399561498351 0 -0.0080088409787833041 -0.00041469667523261281 0 -0.0079467560575014681 -0.00080289275657130889 0 -0.0080987231545848297 -0.00072185150812199969 0 -0.0079966488488792831 -0.00040430166036804934 0 -0.0080088409787833041 -0.00041469667523261281 0 -0.0080987231545848297 -0.00072185150812199969 0 -0.0091185358494244324 -0.0030866283646746543 0 -0.010141031675760638 -0.0041760285308034819 0 -0.0061579445025138086 -0.0050690087912838317 0 -0.0047250475230164839 -0.0065199905261668504 0 -0.0055567908980463801 -0.0075914513844164318 0 -0.0061579445025138086 -0.0050690087912838317 0 -0.004732105532768361 -0.0053306238041796452 0 -0.0047250475230164839 -0.0065199905261668504 0 -0.0055567908980463801 -0.0075914513844164318 0 -0.0038451659419062724 -0.0085387094363780832 0 -0.0051531456490601871 -0.0099445268881124052 0 -0.010141031675760638 -0.0041760285308034819 0 -0.012468679641339481 -0.0046094552120235889 0 -0.0079467560575014681 -0.00080289275657130889 0 -0.0081124921796362909 -0.0011516422540625087 0 -0.0080987231545848297 -0.00072185150812199969 0 -0.0047250475230164839 -0.0065199905261668504 0 -0.0055567908980463801 -0.0075914513844164318 0 -0.0044397664400597581 -0.0074657325186343586 0 -0.0055567908980463801 -0.0075914513844164318 0 -0.0044397664400597581 -0.0074657325186343586 0 -0.0038451659419062724 -0.0085387094363780832 0 -0.0036377966679782144 -0.0071846399561498351 0 -0.0038451659419062724 -0.0085387094363780832 0 -0.0022198358598900171 -0.007378539758144953 0 -0.0047250475230164839 -0.0065199905261668504 0 -0.0044397664400597581 -0.0074657325186343586 0 -0.0036377966679782144 -0.0071846399561498351 0 -0.0044397664400597581 -0.0074657325186343586 0 -0.0036377966679782144 -0.0071846399561498351 0 -0.0038451659419062724 -0.0085387094363780832 0 -0.012729106758228741 -0.0047242026908129574 0 -0.011514627837847353 -0.0065304316446465433 0 -0.01846115450463846 -0.0076072114880907302 0 -0.01986413761584024 -0.0065764072289330169 0 -0.020568434895231906 -0.0076093642482815199 0 -0.0038451659419062724 -0.0085387094363780832 0 -0.0049186806648666972 -0.010121416142166622 0 -0.0018830074951223005 -0.0099881021048993796 0 -0.0079467560575014681 -0.00080289275657130889 0 -0.0081124921796362909 -0.0011516422540625087 0 -0.0078910169726966219 -0.0013402683619094509 0 -0.012573452470366019 -0.0031757096290552238 0 -0.012468679641339481 -0.0046094552120235889 0 -0.012573452470366019 -0.0031757096290552238 0 -0.013468584434581272 -0.0034089617028098163 0 -0.0038451659419062724 -0.0085387094363780832 0 -0.0051531456490601871 -0.0099445268881124052 0 -0.0049186806648666972 -0.010121416142166622 0 -0.012468679641339481 -0.0046094552120235889 0 -0.012729106758228741 -0.0047242026908129574 0 -0.012842204674698217 -0.0040721313932519741 0 -0.012767763628479714 -0.0045607928443448988 0 -0.012217131446556216 -0.0045519107521926694 0 -0.012468679641339481 -0.0046094552120235889 0 -0.012721880727373593 -0.0045737396598692142 0 -0.012721880727373593 -0.0045737396598692142 0 -0.012729106758228741 -0.0047242026908129574 0 -0.012775722171976735 -0.0041309761320535189 0 -0.013368847171650058 -0.00367580329923452 0 -0.012829758936565386 -0.0035633587886592082 0 -0.012721880727373593 -0.0045737396598692142 0 -0.013468584434581272 -0.0034089617028098163 0 -0.013368847171650058 -0.00367580329923452 0 -0.013384307544623801 -0.0035735431500464295 0 -0.012829758936565386 -0.0035633587886592082 0 -0.015596169617246483 -0.00069580714853806607 0 -0.014725329364534939 -0.00068360947244153192 0 -0.015244696342678336 -0.00018345776571884054 0 -0.013468584434581272 -0.0034089617028098163 0 -0.013191500217879733 -0.0015727723875660097 0 -0.011453647349176317 -0.00019977303190288348 0 -0.011634595415153092 -0.00020920368651360238 0 -0.011555547968673611 -0.00010216200555650156 0 -0.011469518403771226 -0.00010939469412345104 0 -0.011453647349176317 -0.00019977303190288348 0 -0.011555547968673611 -0.00010216200555650156 0 -0.012573452470366019 -0.0031757096290552238 0 -0.011470390374041909 -0.0020034412560540936 0 -0.012573452470366019 -0.0031757096290552238 0 -0.011957427362576196 -0.0026934522385607478 0 -0.0077926602325745315 -0.002594245522251252 0 -0.0088084764508921613 -0.0018233241630581278 0 -0.0079497766008500333 -0.0010819287709469088 0 -0.011469518403771226 -0.00010939469412345104 0 -0.011555547968673611 -0.00010216200555650156 0 -0.011561704544130543 -4.6634861385256168e-05 0 -0.011555547968673611 -0.00010216200555650156 0 -0.011561704544130543 -4.6634861385256168e-05 0 -0.011615073477592464 3.0796825023427635e-05 0 -0.0091251388080844428 -0.00077503453600835041 0 -0.0088084764508921613 -0.0018233241630581278 0 -0.0085449941937487551 -0.0010021550316088638 0 -0.0088084764508921613 -0.0018233241630581278 0 -0.0085449941937487551 -0.0010021550316088638 0 -0.0079497766008500333 -0.0010819287709469088 0 -0.010817432886484974 -9.5289464272712628e-07 0 -0.011615073477592464 3.0796825023427635e-05 0 -0.01285230304905987 -3.4215075028520017e-07 0 -0.010817432886484974 -9.5289464272712628e-07 0 -0.010532108302769473 -0.00030990708684629112 0 -0.011615073477592464 3.0796825023427635e-05 0 -0.010532108302769473 -0.00030990708684629112 0 -0.011561704544130543 -4.6634861385256168e-05 0 -0.011615073477592464 3.0796825023427635e-05 0 -0.01185953630164612 -0.0024591087400507284 0 -0.011957427362576196 -0.0026934522385607478 0 -0.0091251388080844428 -0.00077503453600835041 0 -0.010532108302769473 -0.00030990708684629112 0 -0.0088084764508921613 -0.0018233241630581278 0 -0.013191500217879733 -0.0015727723875660097 0 -0.012855324357158325 -4.6399072965559742e-06 0 -0.011634595415153092 -0.00020920368651360238 0 -0.011615073477592464 3.0796825023427635e-05 0 -0.01285230304905987 -3.4215075028520017e-07 0 -0.011634595415153092 -0.00020920368651360238 0 -0.011555547968673611 -0.00010216200555650156 0 -0.011615073477592464 3.0796825023427635e-05 0 -0.014725329364534939 -0.00068360947244153192 0 -0.012857488588670489 -2.1479652047102994e-06 0 -0.014691972601183868 3.5405645955561322e-05 0 -0.012857488588670489 -2.1479652047102994e-06 0 -0.014691972601183868 3.5405645955561322e-05 0 -0.014495969924321065 9.5130455950998596e-07 0 -0.015596169617246483 -0.00069580714853806607 0 -0.015244696342678336 -0.00018345776571884054 0 -0.015727450064010249 0.00017742624163131585 0 -0.014725329364534939 -0.00068360947244153192 0 -0.014691972601183868 3.5405645955561322e-05 0 -0.015244696342678336 -0.00018345776571884054 0 -0.014691972601183868 3.5405645955561322e-05 0 -0.015244696342678336 -0.00018345776571884054 0 -0.015385829825781183 0.00015625168646006665 0 -0.015244696342678336 -0.00018345776571884054 0 -0.015385829825781183 0.00015625168646006665 0 -0.015727450064010249 0.00017742624163131585 0 -0.014691972601183868 3.5405645955561322e-05 0 -0.015385829825781183 0.00015625168646006665 0 -0.015432760430529845 0.00019910719712474653 0 -0.015385829825781183 0.00015625168646006665 0 -0.015755051489842128 0.00028177575641953449 0 -0.015727450064010249 0.00017742624163131585 0 -0.015385829825781183 0.00015625168646006665 0 -0.015755051489842128 0.00028177575641953449 0 -0.015432760430529845 0.00019910719712474653 0 -0.014495969924321065 9.5130455950998596e-07 0 -0.015432760430529845 0.00019910719712474653 0 -0.016137336869978831 2.8714121494234186e-07 0 -0.014691972601183868 3.5405645955561322e-05 0 -0.014495969924321065 9.5130455950998596e-07 0 -0.015432760430529845 0.00019910719712474653 0 -0.015432760430529845 0.00019910719712474653 0 -0.016137336869978831 2.8714121494234186e-07 0 -0.016365366497937132 0.00022252637853729349 0 -0.015755051489842128 0.00028177575641953449 0 -0.016365366497937132 0.00022252637853729349 0 -0.015980071484161151 0.00031605982284311753 0 -0.015755051489842128 0.00028177575641953449 0 -0.015432760430529845 0.00019910719712474653 0 -0.016365366497937132 0.00022252637853729349 0 -0.017242577459279575 1.5764871929350759e-05 0 -0.01657324269944185 2.029200572991784e-06 0 -0.016365366497937132 0.00022252637853729349 0 -0.01657324269944185 2.029200572991784e-06 0 -0.016365366497937132 0.00022252637853729349 0 -0.015980071484161151 0.00031605982284311753 0 -0.017778135436084388 6.8205703518525828e-07 0 -0.016137336869978831 2.8714121494234186e-07 0 -0.016365366497937132 0.00022252637853729349 0 -0.017778135436084388 6.8205703518525828e-07 0 -0.017242577459279575 1.5764871929350759e-05 0 -0.016365366497937132 0.00022252637853729349 0 -0.020233990500213506 -0.00194320178862602 0 -0.019542897495834582 -0.0034648973502003676 0 -0.020696600618909912 -0.0035025702659298623 0 -0.019542897495834582 -0.0034648973502003676 0 -0.020010054258120406 -0.0046228506164716701 0 -0.020696600618909912 -0.0035025702659298623 0 -0.018140375483255092 -0.0012707498558868734 0 -0.016950352463496281 -0.0019338348103602604 0 -0.018790873988184961 -0.0026232069626786784 0 -0.019542897495834582 -0.0034648973502003676 0 -0.018633207998718759 -0.0042275285150812488 0 -0.016199537352420291 -3.2345811591345408e-05 0 -0.01657324269944185 2.029200572991784e-06 0 -0.015980071484161151 0.00031605982284311753 0 -0.019542897495834582 -0.0034648973502003676 0 -0.018633207998718759 -0.0042275285150812488 0 -0.020010054258120406 -0.0046228506164716701 0 -0.018633207998718759 -0.0042275285150812488 0 -0.020010054258120406 -0.0046228506164716701 0 -0.019211127772354387 -0.0052601655799085238 0 -0.020010054258120406 -0.0046228506164716701 0 -0.019912224303598677 -0.0056414485725872618 0 -0.019211127772354387 -0.0052601655799085238 0 -0.019912224303598677 -0.0056414485725872618 0 -0.019211127772354387 -0.0052601655799085238 0 -0.019065339510165064 -0.0059283212378511627 0 -0.018633207998718759 -0.0042275285150812488 0 -0.019211127772354387 -0.0052601655799085238 0 -0.018481836214988358 -0.0057724108419401204 0 -0.015755051489842128 0.00028177575641953449 0 -0.015980071484161151 0.00031605982284311753 0 -0.015727450064010249 0.00017742624163131585 0 -0.016950352463496281 -0.0019338348103602604 0 -0.015579689429974806 -0.002683085600949675 0 -0.019211127772354387 -0.0052601655799085238 0 -0.019065339510165064 -0.0059283212378511627 0 -0.018481836214988358 -0.0057724108419401204 0 -0.018798571935053028 -0.0073724081201999841 0 -0.018920202164618156 -0.0073750321405992737 0 -0.019065339510165064 -0.0059283212378511627 0 -0.012721880727373593 -0.0045737396598692142 0 -0.013703707836761688 -0.0051383844795518992 0 -0.018317177587484357 -0.0071552121133500752 0 -0.019065339510165064 -0.0059283212378511627 0 -0.018481836214988358 -0.0057724108419401204 0 -0.018815631077397411 -0.0071625514194950503 0 -0.018317177587484357 -0.0071552121133500752 0 -0.019065339510165064 -0.0059283212378511627 0 -0.013468584434581272 -0.0034089617028098163 0 -0.015579689429974806 -0.002683085600949675 0 -0.012729106758228741 -0.0047242026908129574 0 -0.016599199038937751 -0.0042859325472372227 0 -0.018920202164618156 -0.0073750321405992737 0 -0.019065339510165064 -0.0059283212378511627 0 -0.02008724555773353 -0.0065251368154105654 0 -0.019912224303598677 -0.0056414485725872618 0 -0.019065339510165064 -0.0059283212378511627 0 -0.02008724555773353 -0.0065251368154105654 0 -0.016599199038937751 -0.0042859325472372227 0 -0.017817173348545719 -0.004110765540325031 0 -0.01986413761584024 -0.0065764072289330169 0 -0.021364500595414997 -0.0067079433578049368 0 -0.020568434895231906 -0.0076093642482815199 0 -0.01986413761584024 -0.0065764072289330169 0 -0.021364500595414997 -0.0067079433578049368 0 -0.021229008783604182 -0.0057025708445815077 0 -0.021364500595414997 -0.0067079433578049368 0 -0.021229008783604182 -0.0057025708445815077 0 -0.022539468203813286 -0.0061377181079007876 0 -0.021364500595414997 -0.0067079433578049368 0 -0.022539468203813286 -0.0061377181079007876 0 -0.022462303226916999 -0.0075073393074636813 0 -0.021229008783604182 -0.0057025708445815077 0 -0.022534982558532295 -0.0046916550827471688 0 -0.022539468203813286 -0.0061377181079007876 0 -0.019912224303598677 -0.0056414485725872618 0 -0.02008724555773353 -0.0065251368154105654 0 -0.021229008783604182 -0.0057025708445815077 0 -0.020010054258120406 -0.0046228506164716701 0 -0.019912224303598677 -0.0056414485725872618 0 -0.021229008783604182 -0.0057025708445815077 0 -0.020010054258120406 -0.0046228506164716701 0 -0.021229008783604182 -0.0057025708445815077 0 -0.02120559679555185 -0.0045233223932057412 0 -0.020010054258120406 -0.0046228506164716701 0 -0.02120559679555185 -0.0045233223932057412 0 -0.020696600618909912 -0.0035025702659298623 0 -0.021229008783604182 -0.0057025708445815077 0 -0.02120559679555185 -0.0045233223932057412 0 -0.022534982558532295 -0.0046916550827471688 0 -0.02120559679555185 -0.0045233223932057412 0 -0.022534982558532295 -0.0046916550827471688 0 -0.021758906774024419 -0.0036986731499308416 0 -0.021527641650386418 -0.0023804439067225784 0 -0.021758906774024419 -0.0036986731499308416 0 -0.022593440258250729 -0.0029741307610887716 0 -0.022534982558532295 -0.0046916550827471688 0 -0.021758906774024419 -0.0036986731499308416 0 -0.022593440258250729 -0.0029741307610887716 0 -0.021527641650386418 -0.0023804439067225784 0 -0.021758906774024419 -0.0036986731499308416 0 -0.020696600618909912 -0.0035025702659298623 0 -0.02120559679555185 -0.0045233223932057412 0 -0.021758906774024419 -0.0036986731499308416 0 -0.020696600618909912 -0.0035025702659298623 0 -0.024617079957869725 -0.0036725454864409922 0 -0.023460079275551923 -0.0037697971174090435 0 -0.023979907036067422 -0.0046454322963144987 0 -0.02388675066004144 -0.0028219189209640564 0 -0.024617079957869725 -0.0036725454864409922 0 -0.023460079275551923 -0.0037697971174090435 0 -0.025071106406426111 -0.0027905113429031766 0 -0.02388675066004144 -0.0028219189209640564 0 -0.024617079957869725 -0.0036725454864409922 0 -0.02388675066004144 -0.0028219189209640564 0 -0.022593440258250729 -0.0029741307610887716 0 -0.023460079275551923 -0.0037697971174090435 0 -0.022534982558532295 -0.0046916550827471688 0 -0.022593440258250729 -0.0029741307610887716 0 -0.023460079275551923 -0.0037697971174090435 0 -0.022534982558532295 -0.0046916550827471688 0 -0.023979907036067422 -0.0046454322963144987 0 -0.023738003504311531 -0.0056536820605573137 0 -0.022534982558532295 -0.0046916550827471688 0 -0.023460079275551923 -0.0037697971174090435 0 -0.023979907036067422 -0.0046454322963144987 0 -0.023979907036067422 -0.0046454322963144987 0 -0.024559814174207793 -0.0052067237987558582 0 -0.025257171798210337 -0.004395324570137308 0 -0.024617079957869725 -0.0036725454864409922 0 -0.023979907036067422 -0.0046454322963144987 0 -0.025257171798210337 -0.004395324570137308 0 -0.023979907036067422 -0.0046454322963144987 0 -0.024559814174207793 -0.0052067237987558582 0 -0.023738003504311531 -0.0056536820605573137 0 -0.024559814174207793 -0.0052067237987558582 0 -0.023738003504311531 -0.0056536820605573137 0 -0.024857761377666227 -0.0057773334445195652 0 -0.023738003504311531 -0.0056536820605573137 0 -0.024613211537606903 -0.0064963226887915148 0 -0.024857761377666227 -0.0057773334445195652 0 -0.022534982558532295 -0.0046916550827471688 0 -0.023738003504311531 -0.0056536820605573137 0 -0.022539468203813286 -0.0061377181079007876 0 -0.022539468203813286 -0.0061377181079007876 0 -0.023524222699618031 -0.0066213767949300584 0 -0.022462303226916999 -0.0075073393074636813 0 -0.023738003504311531 -0.0056536820605573137 0 -0.022539468203813286 -0.0061377181079007876 0 -0.023524222699618031 -0.0066213767949300584 0 -0.023738003504311531 -0.0056536820605573137 0 -0.023524222699618031 -0.0066213767949300584 0 -0.024613211537606903 -0.0064963226887915148 0 -0.023524222699618031 -0.0066213767949300584 0 -0.024130045202334274 -0.0073299085558950214 0 -0.024613211537606903 -0.0064963226887915148 0 0.0029610016375204817 -0.0090607675249909266 0 0.0023039639010171056 -0.0079668076914108897 0 0.0036638527509954047 -0.0079311334195308909 0 0.0023039639010171056 -0.0079668076914108897 0 0.0034234656279906678 -0.0069893504197738694 0 0.0025045497682684545 -0.0068620141574763033 0 0.0023039639010171056 -0.0079668076914108897 0 0.0034234656279906678 -0.0069893504197738694 0 0.0036638527509954047 -0.0079311334195308909 0 0.0023039639010171056 -0.0079668076914108897 0 0.00066422005295405735 -0.0081466032981998681 0 0.0013736902106253959 -0.0071730864425165897 0 0.0023039639010171056 -0.0079668076914108897 0 0.00090758050881405801 -0.0095870553039170501 0 0.00066422005295405735 -0.0081466032981998681 0 0.0023039639010171056 -0.0079668076914108897 0 0.0025045497682684545 -0.0068620141574763033 0 0.0013736902106253959 -0.0071730864425165897 0 0.0029610016375204817 -0.0090607675249909266 0 0.0023039639010171056 -0.0079668076914108897 0 0.00090758050881405801 -0.0095870553039170501 0 -0.010735314068892105 -0.0068650659220348175 0 -0.010989658124985856 -0.0070964849192537921 0 -0.023524222699618031 -0.0066213767949300584 0 -0.024130045202334274 -0.0073299085558950214 0 -0.022462303226916999 -0.0075073393074636813 0 -0.010989658124985856 -0.0070964849192537921 0 -0.011514627837847353 -0.0065304316446465433 0 0.00090758050881405801 -0.0095870553039170501 0 -0.0010668906289869468 -0.0085196122082539828 0 0.00066422005295405735 -0.0081466032981998681 0 -0.021364500595414997 -0.0067079433578049368 0 -0.022462303226916999 -0.0075073393074636813 0 -0.020568434895231906 -0.0076093642482815199 0 0.00090758050881405801 -0.0095870553039170501 0 -0.0018830074951223005 -0.0099881021048993796 0 -0.0010668906289869468 -0.0085196122082539828 0 -0.0038451659419062724 -0.0085387094363780832 0 -0.0018830074951223005 -0.0099881021048993796 0 -0.0010668906289869468 -0.0085196122082539828 0 -0.0038451659419062724 -0.0085387094363780832 0 -0.0010668906289869468 -0.0085196122082539828 0 -0.0022198358598900171 -0.007378539758144953 0 -0.0010668906289869468 -0.0085196122082539828 0 -0.0022198358598900171 -0.007378539758144953 0 -0.00028608085771876317 -0.0071434842315220484 0 -0.0010668906289869468 -0.0085196122082539828 0 0.00066422005295405735 -0.0081466032981998681 0 -0.00028608085771876317 -0.0071434842315220484 0 0.00066422005295405735 -0.0081466032981998681 0 -0.00028608085771876317 -0.0071434842315220484 0 0.0013736902106253959 -0.0071730864425165897 0 -0.00028608085771876317 -0.0071434842315220484 0 0.00071213050253988032 -0.0064267471441432572 0 0.0013736902106253959 -0.0071730864425165897 0 -0.00028608085771876317 -0.0071434842315220484 0 -0.00022258845302529213 -0.0060996506001368524 0 -0.0015271564413920388 -0.0059400587281332453 0 -0.00028608085771876317 -0.0071434842315220484 0 -0.00022258845302529213 -0.0060996506001368524 0 0.00071213050253988032 -0.0064267471441432572 0 -0.00022258845302529213 -0.0060996506001368524 0 0.00071213050253988032 -0.0064267471441432572 0 0.00061061492565328123 -0.0055257936609991905 0 -0.0022198358598900171 -0.007378539758144953 0 -0.00028608085771876317 -0.0071434842315220484 0 -0.0015271564413920388 -0.0059400587281332453 0 -0.0027443140699770076 -0.0062534460770262952 0 -0.0022198358598900171 -0.007378539758144953 0 -0.0015271564413920388 -0.0059400587281332453 0 -0.00022258845302529213 -0.0060996506001368524 0 -0.0015271564413920388 -0.0059400587281332453 0 -0.00064281906469708145 -0.0049571829955811194 0 -0.0030043769426311524 -0.0050273643969431714 0 -0.0027443140699770076 -0.0062534460770262952 0 -0.0015271564413920388 -0.0059400587281332453 0 -0.0018346774491718567 -0.0046299621652977083 0 -0.0013126238230451541 -0.0034811986410471759 0 -0.0031589759868842597 -0.0031031941181566061 0 -0.0030043769426311524 -0.0050273643969431714 0 -0.0015271564413920388 -0.0059400587281332453 0 -0.0018346774491718567 -0.0046299621652977083 0 -0.0015271564413920388 -0.0059400587281332453 0 -0.0018346774491718567 -0.0046299621652977083 0 -0.00064281906469708145 -0.0049571829955811194 0 -0.0018346774491718567 -0.0046299621652977083 0 -0.00064281906469708145 -0.0049571829955811194 0 -0.0013126238230451541 -0.0034811986410471759 0 0.00061061492565328123 -0.0055257936609991905 0 -0.00064281906469708145 -0.0049571829955811194 0 0.00043569207737799995 -0.0041330396548461493 0 -0.00022258845302529213 -0.0060996506001368524 0 0.00061061492565328123 -0.0055257936609991905 0 -0.00064281906469708145 -0.0049571829955811194 0 -0.00064281906469708145 -0.0049571829955811194 0 0.00043569207737799995 -0.0041330396548461493 0 -0.0013126238230451541 -0.0034811986410471759 0 0.00061061492565328123 -0.0055257936609991905 0 0.00043569207737799995 -0.0041330396548461493 0 0.0015410927141312686 -0.0053470543317938376 0 0.0029127568518898615 -0.0054087100339376224 0 0.003155380557733328 -0.0061083435063357099 0 0.0020493892458118101 -0.0061692556599929277 0 0.00043569207737799995 -0.0041330396548461493 0 0.0015410927141312686 -0.0053470543317938376 0 0.0029127568518898615 -0.0054087100339376224 0 0.0015410927141312686 -0.0053470543317938376 0 0.0029127568518898615 -0.0054087100339376224 0 0.0020493892458118101 -0.0061692556599929277 0 0.00061061492565328123 -0.0055257936609991905 0 0.0015410927141312686 -0.0053470543317938376 0 0.0020493892458118101 -0.0061692556599929277 0 0.0029127568518898615 -0.0054087100339376224 0 0.003155380557733328 -0.0061083435063357099 0 0.0036071528476178498 -0.0054842310448303807 0 0.0029127568518898615 -0.0054087100339376224 0 0.0036071528476178498 -0.0054842310448303807 0 0.0031942050259361576 -0.0056188500458874413 0 0.003155380557733328 -0.0061083435063357099 0 0.0025045497682684545 -0.0068620141574763033 0 0.0020493892458118101 -0.0061692556599929277 0 0.003155380557733328 -0.0061083435063357099 0 0.0034234656279906678 -0.0069893504197738694 0 0.0025045497682684545 -0.0068620141574763033 0 0.0025045497682684545 -0.0068620141574763033 0 0.0013736902106253959 -0.0071730864425165897 0 0.0020493892458118101 -0.0061692556599929277 0 0.00071213050253988032 -0.0064267471441432572 0 0.0013736902106253959 -0.0071730864425165897 0 0.0020493892458118101 -0.0061692556599929277 0 0.00071213050253988032 -0.0064267471441432572 0 0.00061061492565328123 -0.0055257936609991905 0 0.0020493892458118101 -0.0061692556599929277 0 0.0051070630896282365 -0.006525217744670464 0 0.004540403090187866 -0.0071601846288149576 0 0.0040916285476275778 -0.0063171851509663604 0 0.0051070630896282365 -0.006525217744670464 0 0.004540403090187866 -0.0071601846288149576 0 0.0052938075326612226 -0.0071561808284082169 0 0.003155380557733328 -0.0061083435063357099 0 0.0034234656279906678 -0.0069893504197738694 0 0.0040916285476275778 -0.0063171851509663604 0 0.0034234656279906678 -0.0069893504197738694 0 0.004540403090187866 -0.0071601846288149576 0 0.0040916285476275778 -0.0063171851509663604 0 0.0040916285476275778 -0.0063171851509663604 0 0.0036071528476178498 -0.0054842310448303807 0 0.004865863562883755 -0.0056962473870261834 0 0.0049591471282262167 -0.005969689268813117 0 0.0055621607345279914 -0.0060025444381261884 0 0.003155380557733328 -0.0061083435063357099 0 0.0040916285476275778 -0.0063171851509663604 0 0.0036071528476178498 -0.0054842310448303807 0 0.0051070630896282365 -0.006525217744670464 0 0.0040916285476275778 -0.0063171851509663604 0 0.004865863562883755 -0.0056962473870261834 0 0.0055621607345279914 -0.0060025444381261884 0 0.0043670631007963721 -0.0056373818194363611 0 0.0051070630896282365 -0.006525217744670464 0 0.004865863562883755 -0.0056962473870261834 0 0.006116195509708767 -0.0059409614465278926 0 0.0081349246528783503 -0.0069308282865716076 0 0.0091367219796974399 -0.0067879951913501222 0 0.0086670135083876353 -0.0060490470296326896 0 0.0089643070784986428 -0.0060559982356038983 0 0.0091323717519898196 -0.0059058866871975427 0 0.0087157031914190629 -0.0059163358921714947 0 0.0089643070784986428 -0.0060559982356038983 0 0.0087157031914190629 -0.0059163358921714947 0 0.009010334271039408 -0.0060259301892429222 0 0.0089643070784986428 -0.0060559982356038983 0 0.0091323717519898196 -0.0059058866871975427 0 0.0091225290690153515 -0.00621351398344939 0 0.0043670631007963721 -0.0056373818194363611 0 0.004639647459711683 -0.0057031044360925367 0 0.0083768670487427664 -0.0060106319382296986 0 0.0087157031914190629 -0.0059163358921714947 0 0.0083538686801364372 -0.0059564706239016441 0 0.0043670631007963721 -0.0056373818194363611 0 0.0053827384144669319 -0.0057935838999176262 0 0.0083538686801364372 -0.0059564706239016441 0 0.0081504365922334503 -0.0058740741097572744 0 0.0089616709747670029 -0.0061111375953574161 0 0.0083768670487427664 -0.0060106319382296986 0 0.0083538686801364372 -0.0059564706239016441 0 0.0084006992574926984 -0.0056627074844509762 0 0.0043670631007963721 -0.0056373818194363611 0 -0.0013244817984475184 -0.005148981887122879 0 0.0083538686801364372 -0.0059564706239016441 0 0.0081504365922334503 -0.0058740741097572744 0 0.0084006992574926984 -0.0056627074844509762 0 0.0081504365922334503 -0.0058740741097572744 0 0.0069562109325738202 -0.0050942058743505408 0 0.0059783396830392294 -0.0056270724286806894 0 0.0051070630896282365 -0.006525217744670464 0 0.006116195509708767 -0.0059409614465278926 0 0.0056219185617995783 -0.0067276190676406984 0 0.006116195509708767 -0.0059409614465278926 0 0.0056219185617995783 -0.0067276190676406984 0 0.0059670320874979314 -0.0072894386602154046 0 0.0056219185617995783 -0.0067276190676406984 0 0.0052938075326612226 -0.0071561808284082169 0 0.0059670320874979314 -0.0072894386602154046 0 0.0051070630896282365 -0.006525217744670464 0 0.0056219185617995783 -0.0067276190676406984 0 0.0052938075326612226 -0.0071561808284082169 0 -0.0013244817984475184 -0.005148981887122879 0 -0.011155864899399284 -0.0037637989241371675 0 0.0052938075326612226 -0.0071561808284082169 0 0.0059670320874979314 -0.0072894386602154046 0 0.005181663218350477 -0.0079018417425832897 0 0.0059670320874979314 -0.0072894386602154046 0 0.005181663218350477 -0.0079018417425832897 0 0.0057708613950872168 -0.0086125731273975423 0 0.0084006992574926984 -0.0056627074844509762 0 0.0076602657091642294 -0.0037516497490977228 0 0.0087942812719094612 -0.0022376202676200937 0 0.0069562109325738202 -0.0050942058743505408 0 0.0069787519176084216 -0.0044149700934630436 0 0.0060061527047373352 -0.0044978602132655114 0 0.0081504365922334503 -0.0058740741097572744 0 0.0069562109325738202 -0.0050942058743505408 0 0.0076581987678431846 -0.0050870148727336726 0 0.0069562109325738202 -0.0050942058743505408 0 0.0076581987678431846 -0.0050870148727336726 0 0.0069787519176084216 -0.0044149700934630436 0 0.0084006992574926984 -0.0056627074844509762 0 0.0076581987678431846 -0.0050870148727336726 0 0.0076602657091642294 -0.0037516497490977228 0 0.0081504365922334503 -0.0058740741097572744 0 0.0084006992574926984 -0.0056627074844509762 0 0.0076581987678431846 -0.0050870148727336726 0 0.0069787519176084216 -0.0044149700934630436 0 0.0060557388538372055 -0.0033379870096325588 0 0.0060061527047373352 -0.0044978602132655114 0 0.0076602657091642294 -0.0037516497490977228 0 0.0069787519176084216 -0.0044149700934630436 0 0.0060557388538372055 -0.0033379870096325588 0 0.0076581987678431846 -0.0050870148727336726 0 0.0076602657091642294 -0.0037516497490977228 0 0.0069787519176084216 -0.0044149700934630436 0 -0.011511119554759846 -0.0026832762354615501 0 -0.0095376358817423658 -0.0015782126076045837 0 0.0076602657091642294 -0.0037516497490977228 0 0.0071156827972595274 -0.002267532388484996 0 0.0060557388538372055 -0.0033379870096325588 0 0.0076602657091642294 -0.0037516497490977228 0 0.0071156827972595274 -0.002267532388484996 0 0.0087942812719094612 -0.0022376202676200937 0 -0.011511119554759846 -0.0026832762354615501 0 -0.018930008846290959 -0.0040764370477323706 0 -0.011511119554759846 -0.0026832762354615501 0 -0.011155864899399284 -0.0037637989241371675 0 -0.014680666346663733 -0.0012846448204188732 0 -0.015731358036508474 -0.0013073783437964356 0 -0.015840286476026148 -0.0024433131471319923 0 -0.011155864899399284 -0.0037637989241371675 0 -0.010693061478138045 -0.0058863861804741421 0 -0.026459207198433043 -0.0070077242159331029 0 -0.025461285180715696 -0.0071110541151139031 0 -0.026275755407732193 -0.0065441597469993555 0 0.005181663218350477 -0.0079018417425832897 0 0.0057708613950872168 -0.0086125731273975423 0 0.0044326785538769554 -0.0087284016281165503 0 -0.011155864899399284 -0.0037637989241371675 0 -0.018930008846290959 -0.0040764370477323706 0 0.004540403090187866 -0.0071601846288149576 0 0.005181663218350477 -0.0079018417425832897 0 0.0044326785538769554 -0.0087284016281165503 0 0.004540403090187866 -0.0071601846288149576 0 0.0052938075326612226 -0.0071561808284082169 0 0.005181663218350477 -0.0079018417425832897 0 0.0034234656279906678 -0.0069893504197738694 0 0.004540403090187866 -0.0071601846288149576 0 0.0036638527509954047 -0.0079311334195308909 0 0.004540403090187866 -0.0071601846288149576 0 0.0044326785538769554 -0.0087284016281165503 0 0.0036638527509954047 -0.0079311334195308909 0 -0.010735314068892105 -0.0068650659220348175 0 -0.010693061478138045 -0.0058863861804741421 0 -0.024130045202334274 -0.0073299085558950214 0 -0.025461285180715696 -0.0071110541151139031 0 -0.024613211537606903 -0.0064963226887915148 0 0.0029610016375204817 -0.0090607675249909266 0 0.0044326785538769554 -0.0087284016281165503 0 0.0036638527509954047 -0.0079311334195308909 0 -0.025461285180715696 -0.0071110541151139031 0 -0.024613211537606903 -0.0064963226887915148 0 -0.02539969526323663 -0.0062139534643437288 0 -0.024613211537606903 -0.0064963226887915148 0 -0.02539969526323663 -0.0062139534643437288 0 -0.024857761377666227 -0.0057773334445195652 0 -0.025461285180715696 -0.0071110541151139031 0 -0.025785911677790443 -0.0064413543090143547 0 -0.026275755407732193 -0.0065441597469993555 0 -0.025461285180715696 -0.0071110541151139031 0 -0.025785911677790443 -0.0064413543090143547 0 -0.02539969526323663 -0.0062139534643437288 0 -0.025785911677790443 -0.0064413543090143547 0 -0.02539969526323663 -0.0062139534643437288 0 -0.025997537409471406 -0.0059055547919792612 0 -0.025997537409471406 -0.0059055547919792612 0 -0.025378654098220984 -0.0055927591819078552 0 -0.025531893344479299 -0.005309244012075119 0 -0.02539969526323663 -0.0062139534643437288 0 -0.025997537409471406 -0.0059055547919792612 0 -0.025378654098220984 -0.0055927591819078552 0 -0.025251358234542609 -0.0044721440461548429 0 -0.025275229279311952 -0.0043910171518263654 0 -0.029434604056714525 -0.0021552418987098635 0 -0.029202897097343593 -0.0019110080144413991 0 -0.029456775377849163 -0.0018548296294225509 0 -0.023495253556012681 -0.0049161347839944526 0 -0.025275229279311952 -0.0043910171518263654 0 -0.02539969526323663 -0.0062139534643437288 0 -0.024857761377666227 -0.0057773334445195652 0 -0.025378654098220984 -0.0055927591819078552 0 -0.025378654098220984 -0.0055927591819078552 0 -0.025161616111302871 -0.0050723507855837237 0 -0.025681173900478957 -0.0051417910818862831 0 -0.024857761377666227 -0.0057773334445195652 0 -0.025378654098220984 -0.0055927591819078552 0 -0.025161616111302871 -0.0050723507855837237 0 -0.024559814174207793 -0.0052067237987558582 0 -0.024857761377666227 -0.0057773334445195652 0 -0.025161616111302871 -0.0050723507855837237 0 -0.024559814174207793 -0.0052067237987558582 0 -0.025257171798210337 -0.004395324570137308 0 -0.025161616111302871 -0.0050723507855837237 0 -0.025257171798210337 -0.004395324570137308 0 -0.02626975479454188 -0.0053747879161578386 0 -0.026170288323810419 -0.0041987084838163713 0 -0.025257171798210337 -0.004395324570137308 0 -0.025161616111302871 -0.0050723507855837237 0 -0.025681173900478957 -0.0051417910818862831 0 -0.025331493835658442 -0.0044542727040298834 0 -0.025275229279311952 -0.0043910171518263654 0 -0.029202897097343593 -0.0019110080144413991 0 -0.029456775377849163 -0.0018548296294225509 0 -0.029532572590802154 -0.0014807401990822246 0 -0.025275229279311952 -0.0043910171518263654 0 -0.02732310483154652 -0.002748635903580981 0 -0.02626975479454188 -0.0053747879161578386 0 -0.026170288323810419 -0.0041987084838163713 0 -0.027158853233075299 -0.0036789947775553804 0 -0.026170288323810419 -0.0041987084838163713 0 -0.027158853233075299 -0.0036789947775553804 0 -0.025971883164988569 -0.0034093712099136295 0 -0.026916799519567589 -0.0026106801556499918 0 -0.027158853233075299 -0.0036789947775553804 0 -0.025971883164988569 -0.0034093712099136295 0 -0.025071106406426111 -0.0027905113429031766 0 -0.024617079957869725 -0.0036725454864409922 0 -0.025971883164988569 -0.0034093712099136295 0 -0.024617079957869725 -0.0036725454864409922 0 -0.025257171798210337 -0.004395324570137308 0 -0.025971883164988569 -0.0034093712099136295 0 -0.025257171798210337 -0.004395324570137308 0 -0.026170288323810419 -0.0041987084838163713 0 -0.025971883164988569 -0.0034093712099136295 0 -0.029766208546651528 -0.0011126140721407262 0 -0.029737522622877512 -0.0012513674760962412 0 -0.02947215719585046 -0.00098973344429225296 0 -0.029766208546651528 -0.0011126140721407262 0 -0.029737522622877512 -0.0012513674760962412 0 -0.029768176889927205 -0.0012453833557282933 0 -0.029789966406474553 -0.0012675171192915514 0 -0.029737522622877512 -0.0012513674760962412 0 -0.029768176889927205 -0.0012453833557282933 0 -0.025468822496154227 -0.0018273060669730698 0 -0.024073808304827259 -0.0022097697880626107 0 -0.029789966406474553 -0.0012675171192915514 0 -0.029768176889927205 -0.0012453833557282933 0 -0.029748710830044212 -0.0013316721992728208 0 -0.028465437816799961 -0.0020166039422486251 0 -0.02732310483154652 -0.002748635903580981 0 -0.029766208546651528 -0.0011126140721407262 0 -0.029768176889927205 -0.0012453833557282933 0 -0.029748710830044212 -0.0013316721992728208 0 -0.029811404032827764 -0.0012313063588359934 0 -0.029532572590802154 -0.0014807401990822246 0 -0.029748710830044212 -0.0013316721992728208 0 -0.029766208546651528 -0.0011126140721407262 0 -0.029748710830044212 -0.0013316721992728208 0 -0.029890678053110346 -0.00087727296330322268 0 -0.029532572590802154 -0.0014807401990822246 0 -0.029748710830044212 -0.0013316721992728208 0 -0.029657894193250729 -0.0018600883516297177 0 -0.029456775377849163 -0.0018548296294225509 0 -0.029532572590802154 -0.0014807401990822246 0 -0.029657894193250729 -0.0018600883516297177 0 -0.029766208546651528 -0.0011126140721407262 0 -0.029654936752460594 -0.00082687985861930433 0 -0.02947215719585046 -0.00098973344429225296 0 -0.029766208546651528 -0.0011126140721407262 0 -0.029890678053110346 -0.00087727296330322268 0 -0.029654936752460594 -0.00082687985861930433 0 -0.029654936752460594 -0.00082687985861930433 0 -0.029697250556540579 -0.00059602222189846302 0 -0.029486064294099824 -0.00049497376474734575 0 -0.029890678053110346 -0.00087727296330322268 0 -0.029654936752460594 -0.00082687985861930433 0 -0.029697250556540579 -0.00059602222189846302 0 -0.029890678053110346 -0.00087727296330322268 0 -0.029697250556540579 -0.00059602222189846302 0 -0.02979980910737268 -0.00043957949713283994 0 -0.024073808304827259 -0.0022097697880626107 0 -0.018930008846290959 -0.0040764370477323706 0 -0.029434604056714525 -0.0021552418987098635 0 -0.029657894193250729 -0.0018600883516297177 0 -0.029604419436803888 -0.0024071243591165959 0 -0.029434604056714525 -0.0021552418987098635 0 -0.029456775377849163 -0.0018548296294225509 0 -0.029657894193250729 -0.0018600883516297177 0 -0.025997537409471406 -0.0059055547919792612 0 -0.026459001223023294 -0.0064887348997833333 0 -0.026275755407732193 -0.0065441597469993555 0 -0.023495253556012681 -0.0049161347839944526 0 -0.018930008846290959 -0.0040764370477323706 0 -0.025785911677790443 -0.0064413543090143547 0 -0.025997537409471406 -0.0059055547919792612 0 -0.026275755407732193 -0.0065441597469993555 0 -0.026459207198433043 -0.0070077242159331029 0 -0.026439267188594667 -0.0064946521766287447 0 -0.026275755407732193 -0.0065441597469993555 0 -0.018930008846290959 -0.0040764370477323706 0 -0.019160339366762862 -0.0040526506362387913 0 -0.022017817487071142 -0.0034483864917434093 0 -0.020578155697249099 -0.0020351391765918172 0 -0.023290155371340413 -0.0012927818622337124 0 -0.029697250556540579 -0.00059602222189846302 0 -0.02979980910737268 -0.00043957949713283994 0 -0.029486064294099824 -0.00049497376474734575 0 -0.018930008846290959 -0.0040764370477323706 0 -0.025065500155554428 -0.0018335714630544392 0 -0.029486064294099824 -0.00049497376474734575 0 -0.029101945066731569 -0.00048127462664112583 0 -0.02947215719585046 -0.00098973344429225296 0 -0.029654936752460594 -0.00082687985861930433 0 -0.029486064294099824 -0.00049497376474734575 0 -0.02947215719585046 -0.00098973344429225296 0 -0.023290155371340413 -0.0012927818622337124 0 -0.025915907886920823 -0.0006735708694739829 0 -0.024989553041200891 -0.00339054721758182 0 -0.025915907886920823 -0.0006735708694739829 0 -0.026915226656851882 -0.0019928247455601048 0 -0.024989553041200891 -0.00339054721758182 0 -0.025065500155554428 -0.0018335714630544392 0 -0.026983165820529061 -0.0010809169184035994 0 -0.029101945066731569 -0.00048127462664112583 0 -0.02947215719585046 -0.00098973344429225296 0 -0.028920749622908068 -0.00077989418041056729 0 -0.02947215719585046 -0.00098973344429225296 0 -0.029155084856691504 -0.00099446452471207676 0 -0.028920749622908068 -0.00077989418041056729 0 -0.02925568134830835 -0.0012183027594241905 0 -0.02947215719585046 -0.00098973344429225296 0 -0.029155084856691504 -0.00099446452471207676 0 -0.029595542732409053 -0.0013195042167952521 0 -0.029624494815019047 -0.0011491713757535147 0 -0.029706104232886794 -0.0013154248026362911 0 -0.029677078500097084 -0.0013732119696030348 0 -0.02947215719585046 -0.00098973344429225296 0 -0.029706104232886794 -0.0013154248026362911 0 -0.029737522622877512 -0.0012513674760962412 0 -0.02947215719585046 -0.00098973344429225296 0 -0.028887880591762782 -0.0010941489317684262 0 -0.028895356910758972 -0.00094782916014283494 0 -0.028594118717408828 -0.00082542967064282537 0 -0.028895356910758972 -0.00094782916014283494 0 -0.028616402764513389 -0.00074518746041939751 0 -0.028594118717408828 -0.00082542967064282537 0 -0.028628218001360263 -0.0010852932818454597 0 -0.028887880591762782 -0.0010941489317684262 0 -0.028594118717408828 -0.00082542967064282537 0 -0.02925568134830835 -0.0012183027594241905 0 -0.029155084856691504 -0.00099446452471207676 0 -0.028895356910758972 -0.00094782916014283494 0 -0.028887880591762782 -0.0010941489317684262 0 -0.02925568134830835 -0.0012183027594241905 0 -0.028895356910758972 -0.00094782916014283494 0 -0.028895356910758972 -0.00094782916014283494 0 -0.028920749622908068 -0.00077989418041056729 0 -0.028616402764513389 -0.00074518746041939751 0 -0.029155084856691504 -0.00099446452471207676 0 -0.028895356910758972 -0.00094782916014283494 0 -0.028920749622908068 -0.00077989418041056729 0 -0.028616402764513389 -0.00074518746041939751 0 -0.028579290043905893 -0.00066023441344920011 0 -0.028594118717408828 -0.00082542967064282537 0 -0.028920749622908068 -0.00077989418041056729 0 -0.028616402764513389 -0.00074518746041939751 0 -0.028370031527141747 -0.00057043803179603698 0 -0.028616402764513389 -0.00074518746041939751 0 -0.028370031527141747 -0.00057043803179603698 0 -0.028579290043905893 -0.00066023441344920011 0 -0.028370031527141747 -0.00057043803179603698 0 -0.028147412058373979 -0.0014933941433338239 0 -0.028800855737171439 -0.00082885098711586171 0 -0.028370031527141747 -0.00057043803179603698 0 -0.027602418195794089 -0.0013557242801299021 0 -0.028147412058373979 -0.0014933941433338239 0 -0.026983165820529061 -0.0010809169184035994 0 -0.027567627860641354 -0.0008744428920380758 0 -0.029101945066731569 -0.00048127462664112583 0 -0.028920749622908068 -0.00077989418041056729 0 -0.028370031527141747 -0.00057043803179603698 0 -0.025915907886920823 -0.0006735708694739829 0 -0.028370031527141747 -0.00057043803179603698 0 -0.027602418195794089 -0.0013557242801299021 0 -0.025915907886920823 -0.0006735708694739829 0 -0.027602418195794089 -0.0013557242801299021 0 -0.026915226656851882 -0.0019928247455601048 0 -0.027602418195794089 -0.0013557242801299021 0 -0.026915226656851882 -0.0019928247455601048 0 -0.027689914618683083 -0.0021257759377012659 0 -0.026915226656851882 -0.0019928247455601048 0 -0.027689914618683083 -0.0021257759377012659 0 -0.027648544338737778 -0.0031624804697553896 0 -0.028147412058373979 -0.0014933941433338239 0 -0.02804034433841987 -0.0028398424200153814 0 -0.028800855737171439 -0.00082885098711586171 0 -0.020409896288841333 -0.00094403608075868456 0 -0.023872802669937729 3.4085557490219404e-05 0 -0.028147412058373979 -0.0014933941433338239 0 -0.027689914618683083 -0.0021257759377012659 0 -0.02804034433841987 -0.0028398424200153814 0 -0.020409896288841333 -0.00094403608075868456 0 -0.025589540716553439 0.00030885264068239768 0 -0.027602418195794089 -0.0013557242801299021 0 -0.028147412058373979 -0.0014933941433338239 0 -0.027689914618683083 -0.0021257759377012659 0 -0.017082267185798285 -0.0019980078156962401 0 -0.014056009824158432 -0.0019061437702371478 0 0.00030358502425470489 -0.0027884987431967519 0 -3.8402448233506277e-05 -0.0037543870420098345 0 -0.0020833307685622039 -0.0030242397415854412 0 -0.023247524650313278 -0.00088540302874825247 0 -0.023073651222039256 -0.0010103626474727186 0 -0.024107166274611468 -0.00093529406456427009 0 -0.027689914618683083 -0.0021257759377012659 0 -0.02804034433841987 -0.0028398424200153814 0 -0.027648544338737778 -0.0031624804697553896 0 -0.020409896288841333 -0.00094403608075868456 0 -0.017082267185798285 -0.0019980078156962401 0 0.00030358502425470489 -0.0027884987431967519 0 -3.8402448233506277e-05 -0.0037543870420098345 0 0.0007311215975793218 -0.0029823785053966368 0 -3.8402448233506277e-05 -0.0037543870420098345 0 0.00088149281698316417 -0.0045398237220464731 0 -0.00066555581814475254 -0.0054218072067966413 0 -3.8402448233506277e-05 -0.0037543870420098345 0 -0.00066555581814475254 -0.0054218072067966413 0 -0.0020833307685622039 -0.0030242397415854412 0 0.00088149281698316417 -0.0045398237220464731 0 0.0023748377564148859 -0.0046485807225166596 0 0.0014223911911562177 -0.0056273065846302074 0 -3.8402448233506277e-05 -0.0037543870420098345 0 0.00088149281698316417 -0.0045398237220464731 0 0.00076585576624912813 -0.0037704973740565607 0 0.00088149281698316417 -0.0045398237220464731 0 0.00076585576624912813 -0.0037704973740565607 0 0.0015099787345552976 -0.0039029152589600585 0 0.00088149281698316417 -0.0045398237220464731 0 0.0015099787345552976 -0.0039029152589600585 0 0.0023748377564148859 -0.0046485807225166596 0 0.0015099787345552976 -0.0039029152589600585 0 0.0025770624509619347 -0.0036100013967127766 0 0.0023748377564148859 -0.0046485807225166596 0 -0.017082267185798285 -0.0019980078156962401 0 -0.011894693195970288 -0.0024517428710878826 0 0.00018633740727221627 -0.0026731558588196543 0 0.0007311215975793218 -0.0029823785053966368 0 0.0035126982294226318 -0.0023964975403486873 0 0.0015099787345552976 -0.0039029152589600585 0 0.0007311215975793218 -0.0029823785053966368 0 0.0025770624509619347 -0.0036100013967127766 0 -0.026915226656851882 -0.0019928247455601048 0 -0.027648544338737778 -0.0031624804697553896 0 -0.024989553041200891 -0.00339054721758182 0 -3.8402448233506277e-05 -0.0037543870420098345 0 0.00076585576624912813 -0.0037704973740565607 0 0.0007311215975793218 -0.0029823785053966368 0 0.00076585576624912813 -0.0037704973740565607 0 0.0015099787345552976 -0.0039029152589600585 0 0.0007311215975793218 -0.0029823785053966368 0 -0.017082267185798285 -0.0019980078156962401 0 -0.016505362794532477 -0.0022590711258922967 0 0.0007311215975793218 -0.0029823785053966368 0 0.0035126982294226318 -0.0023964975403486873 0 0.0025770624509619347 -0.0036100013967127766 0 0.0035126982294226318 -0.0023964975403486873 0 0.0043400424507304457 -0.0043009885253123704 0 0.0025770624509619347 -0.0036100013967127766 0 -0.011511119554759846 -0.0026832762354615501 0 -0.011894693195970288 -0.0024517428710878826 0 0.0070274929315934402 -0.0023167833881189851 0 0.0035126982294226318 -0.0023964975403486873 0 0.0060557388538372055 -0.0033379870096325588 0 0.0035126982294226318 -0.0023964975403486873 0 0.0060557388538372055 -0.0033379870096325588 0 0.0043400424507304457 -0.0043009885253123704 0 -0.022017817487071142 -0.0034483864917434093 0 -0.023290155371340413 -0.0012927818622337124 0 -0.024989553041200891 -0.00339054721758182 0 0.0043400424507304457 -0.0043009885253123704 0 0.0032079668405040375 -0.0057280423424821451 0 0.0059783396830392294 -0.0056270724286806894 0 0.0060557388538372055 -0.0033379870096325588 0 0.0043400424507304457 -0.0043009885253123704 0 0.0060061527047373352 -0.0044978602132655114 0 0.0043400424507304457 -0.0043009885253123704 0 0.0060061527047373352 -0.0044978602132655114 0 0.0059783396830392294 -0.0056270724286806894 0 0.0069562109325738202 -0.0050942058743505408 0 0.0060061527047373352 -0.0044978602132655114 0 0.0059783396830392294 -0.0056270724286806894 0 0.0043400424507304457 -0.0043009885253123704 0 0.0025770624509619347 -0.0036100013967127766 0 0.0023748377564148859 -0.0046485807225166596 0 0.0043400424507304457 -0.0043009885253123704 0 0.0023748377564148859 -0.0046485807225166596 0 0.0032079668405040375 -0.0057280423424821451 0 0.0065579194889092514 -0.0059292541346898792 0 0.0053185101107199491 -0.0059386867824845922 0 0.0023748377564148859 -0.0046485807225166596 0 0.0032079668405040375 -0.0057280423424821451 0 0.0014223911911562177 -0.0056273065846302074 0 0.0032079668405040375 -0.0057280423424821451 0 0.0043598212727739023 -0.0067034921500554309 0 0.0013520160918334433 -0.006978722735585665 0 0.0032079668405040375 -0.0057280423424821451 0 0.0043598212727739023 -0.0067034921500554309 0 0.0059783396830392294 -0.0056270724286806894 0 0.0072776792060397465 -0.0058212195993885925 0 0.0065579194889092514 -0.0059292541346898792 0 0.0087157031914190629 -0.0059163358921714947 0 0.0083538686801364372 -0.0059564706239016441 0 0.0089616709747670029 -0.0061111375953574161 0 0.0081504365922334503 -0.0058740741097572744 0 0.0043598212727739023 -0.0067034921500554309 0 0.0059783396830392294 -0.0056270724286806894 0 0.0087157031914190629 -0.0059163358921714947 0 0.0090733531893958247 -0.0059632590047551228 0 0.009010334271039408 -0.0060259301892429222 0 0.0087157031914190629 -0.0059163358921714947 0 0.0089616709747670029 -0.0061111375953574161 0 0.0090733531893958247 -0.0059632590047551228 0 0.0089616709747670029 -0.0061111375953574161 0 0.0090733531893958247 -0.0059632590047551228 0 0.0091894807970747863 -0.0060155300957561702 0 0.0090733531893958247 -0.0059632590047551228 0 0.0091894807970747863 -0.0060155300957561702 0 0.009201333133494239 -0.005938161368029847 0 0.0053185101107199491 -0.0059386867824845922 0 0.0041830003031024668 -0.0056087234744527491 0 0.0091894807970747863 -0.0060155300957561702 0 0.0092233325521634893 -0.0059211213014792232 0 0.0092089697046063273 -0.005941356087324148 0 0.0013520160918334433 -0.006978722735585665 0 -0.00066555581814475254 -0.0054218072067966413 0 -0.001053795151885387 -0.0072503072206908719 0 0.00088149281698316417 -0.0045398237220464731 0 -0.00066555581814475254 -0.0054218072067966413 0 0.0014223911911562177 -0.0056273065846302074 0 0.0013520160918334433 -0.006978722735585665 0 -0.00066555581814475254 -0.0054218072067966413 0 0.0014223911911562177 -0.0056273065846302074 0 0.0032079668405040375 -0.0057280423424821451 0 0.0013520160918334433 -0.006978722735585665 0 0.0014223911911562177 -0.0056273065846302074 0 0.0092372638072299174 -0.0059173116649966356 0 0.0092776372528100854 -0.0059251894857641676 0 0.009201333133494239 -0.005938161368029847 0 0.0092372638072299174 -0.0059173116649966356 0 0.0092776372528100854 -0.0059251894857641676 0 0.0092596394642525236 -0.0059243392343662857 0 0.0092372638072299174 -0.0059173116649966356 0 0.0092321461556078149 -0.0059122376224136257 0 0.0092233325521634893 -0.0059211213014792232 0 0.0092372638072299174 -0.0059173116649966356 0 0.0092321461556078149 -0.0059122376224136257 0 0.0092596394642525236 -0.0059243392343662857 0 0.0092321461556078149 -0.0059122376224136257 0 0.0092233325521634893 -0.0059211213014792232 0 0.0092193770167225842 -0.0059041380075779554 0 0.0091894807970747863 -0.0060155300957561702 0 0.0092233325521634893 -0.0059211213014792232 0 0.009201333133494239 -0.005938161368029847 0 0.0092372638072299174 -0.0059173116649966356 0 0.0092233325521634893 -0.0059211213014792232 0 0.009201333133494239 -0.005938161368029847 0 0.0090733531893958247 -0.0059632590047551228 0 0.0091517658915660008 -0.0059828201981342258 0 0.0092167521404532479 -0.0059510747549257588 0 0.0090733531893958247 -0.0059632590047551228 0 0.009201333133494239 -0.005938161368029847 0 0.0092167521404532479 -0.0059510747549257588 0 0.0090733531893958247 -0.0059632590047551228 0 0.009010334271039408 -0.0060259301892429222 0 0.0091517658915660008 -0.0059828201981342258 0 0.009010334271039408 -0.0060259301892429222 0 0.0091517658915660008 -0.0059828201981342258 0 0.0091879703442615118 -0.0060196363442597683 0 0.0091517658915660008 -0.0059828201981342258 0 0.0091879703442615118 -0.0060196363442597683 0 0.0092746969326320643 -0.0059799677345097309 0 0.0091517658915660008 -0.0059828201981342258 0 0.0092746969326320643 -0.0059799677345097309 0 0.0092167521404532479 -0.0059510747549257588 0 0.0092746969326320643 -0.0059799677345097309 0 0.0093446488254867836 -0.0059461884584520036 0 0.0094037641327605528 -0.0059695979332792595 0 0.0091879703442615118 -0.0060196363442597683 0 0.0092746969326320643 -0.0059799677345097309 0 0.0093120692010092345 -0.0059928697010176949 0 0.0092776372528100854 -0.0059251894857641676 0 0.009201333133494239 -0.005938161368029847 0 0.0092167521404532479 -0.0059510747549257588 0 0.0092746969326320643 -0.0059799677345097309 0 0.0092167521404532479 -0.0059510747549257588 0 0.0093446488254867836 -0.0059461884584520036 0 0.0092776372528100854 -0.0059251894857641676 0 0.0092167521404532479 -0.0059510747549257588 0 0.0093446488254867836 -0.0059461884584520036 0 0.0092776372528100854 -0.0059251894857641676 0 0.0093446488254867836 -0.0059461884584520036 0 0.0093577866955432548 -0.0059417147387769136 0 0.0093446488254867836 -0.0059461884584520036 0 0.0093577866955432548 -0.0059417147387769136 0 0.0095075268511550601 -0.0059573938406144496 0 0.0093446488254867836 -0.0059461884584520036 0 0.0095075268511550601 -0.0059573938406144496 0 0.0094037641327605528 -0.0059695979332792595 0 0.0093577866955432548 -0.0059417147387769136 0 0.0095075268511550601 -0.0059573938406144496 0 0.0095411945048900285 -0.0060417289006233924 0 0.0093120692010092345 -0.0059928697010176949 0 0.0095459894649034035 -0.0060087079545649708 0 0.0093131347959970589 -0.0060063427493600649 0 0.0093120692010092345 -0.0059928697010176949 0 0.0094037641327605528 -0.0059695979332792595 0 0.0095459894649034035 -0.0060087079545649708 0 0.0092746969326320643 -0.0059799677345097309 0 0.0093120692010092345 -0.0059928697010176949 0 0.0094037641327605528 -0.0059695979332792595 0 0.0095075268511550601 -0.0059573938406144496 0 0.0094037641327605528 -0.0059695979332792595 0 0.0095459894649034035 -0.0060087079545649708 0 0.010468001528312664 -0.0041428476352230051 0 0.010006681429368164 -0.0046841220436889229 0 0.0095459894649034035 -0.0060087079545649708 0 0.0099643791002330465 -0.0059679541588779266 0 0.0093131347959970589 -0.0060063427493600649 0 0.0099643791002330465 -0.0059679541588779266 0 0.009968496018272887 -0.0050861401218358152 0 0.0093131347959970589 -0.0060063427493600649 0 0.0095075268511550601 -0.0059573938406144496 0 0.0095459894649034035 -0.0060087079545649708 0 0.0099643791002330465 -0.0059679541588779266 0 0.01105148243649429 -0.0063613248240693568 0 0.013033298591340781 -0.006050502831629518 0 0.011876309755930492 -0.004856480048466498 0 0.0095075268511550601 -0.0059573938406144496 0 0.0099643791002330465 -0.0059679541588779266 0 0.0095411945048900285 -0.0060417289006233924 0 0.010956923163748468 -0.0044521509541788759 0 0.011035680409987649 -0.0044139206236767847 0 0.0099643791002330465 -0.0059679541588779266 0 0.01105148243649429 -0.0063613248240693568 0 0.010901541266238572 -0.0053921976090459721 0 0.0093577866955432548 -0.0059417147387769136 0 0.0095411945048900285 -0.0060417289006233924 0 0.0092564906048122186 -0.0059853937151204155 0 0.011035680409987649 -0.0044139206236767847 0 0.012101351341334089 -0.0042162272223952605 0 0.011035680409987649 -0.0044139206236767847 0 0.010682123638905442 -0.0042610334038461189 0 0.011186717861307623 -0.0036398410599960554 0 0.011553339591020503 -0.003567572513243075 0 0.011612041391984466 -0.0037284640346655859 0 0.0093577866955432548 -0.0059417147387769136 0 0.0092564906048122186 -0.0059853937151204155 0 0.0092596394642525236 -0.0059243392343662857 0 0.0092776372528100854 -0.0059251894857641676 0 0.0093577866955432548 -0.0059417147387769136 0 0.0092596394642525236 -0.0059243392343662857 0 0.0092564906048122186 -0.0059853937151204155 0 0.0092332154730042533 -0.0059313346391094918 0 0.0092113500133447906 -0.0059132734316366233 0 0.010682123638905442 -0.0042610334038461189 0 0.010665690158655481 -0.0038025796426351178 0 0.0092321461556078149 -0.0059122376224136257 0 0.0092332154730042533 -0.0059313346391094918 0 0.0092239538770985934 -0.0059093103976978218 0 0.0092321461556078149 -0.0059122376224136257 0 0.0092596394642525236 -0.0059243392343662857 0 0.0092332154730042533 -0.0059313346391094918 0 0.0092564906048122186 -0.0059853937151204155 0 0.0092596394642525236 -0.0059243392343662857 0 0.0092332154730042533 -0.0059313346391094918 0 0.011612041391984466 -0.0037284640346655859 0 0.011919808141199995 -0.0034983777320643943 0 0.012034471876339199 -0.0038190131547629629 0 0.011553339591020503 -0.003567572513243075 0 0.011612041391984466 -0.0037284640346655859 0 0.011919808141199995 -0.0034983777320643943 0 0.012101351341334089 -0.0042162272223952605 0 0.013007905538110509 -0.0037874518253260543 0 0.013033298591340781 -0.006050502831629518 0 0.013355501837832951 -0.0044976423097729456 0 0.014571314052196646 -0.0057631914490793726 0 0.013355501837832951 -0.0044976423097729456 0 0.014571314052196646 -0.0057631914490793726 0 0.014884562869424202 -0.0046249625946926422 0 0.013033298591340781 -0.006050502831629518 0 0.013355501837832951 -0.0044976423097729456 0 0.011876309755930492 -0.004856480048466498 0 0.013355501837832951 -0.0044976423097729456 0 0.011602851422736895 -0.0033929238369357377 0 0.011876309755930492 -0.004856480048466498 0 0.013355501837832951 -0.0044976423097729456 0 0.013093352420607489 -0.0030408661194427792 0 0.011602851422736895 -0.0033929238369357377 0 0.013355501837832951 -0.0044976423097729456 0 0.014273135184592653 -0.0036249369838409914 0 0.013093352420607489 -0.0030408661194427792 0 0.013355501837832951 -0.0044976423097729456 0 0.014273135184592653 -0.0036249369838409914 0 0.014884562869424202 -0.0046249625946926422 0 0.014273135184592653 -0.0036249369838409914 0 0.013093352420607489 -0.0030408661194427792 0 0.014186770572057621 -0.0024701170266143513 0 0.013093352420607489 -0.0030408661194427792 0 0.011971808320525643 -0.0026722012202703375 0 0.01330190120505787 -0.0020196372629485019 0 0.013093352420607489 -0.0030408661194427792 0 0.014186770572057621 -0.0024701170266143513 0 0.01330190120505787 -0.0020196372629485019 0 0.014186770572057621 -0.0024701170266143513 0 0.014238600729777709 -0.0016729577193345775 0 0.01330190120505787 -0.0020196372629485019 0 0.011268146229435705 -0.002416729895908232 0 0.011971808320525643 -0.0026722012202703375 0 0.012236461781575237 -0.0017065785086632437 0 0.011971808320525643 -0.0026722012202703375 0 0.012236461781575237 -0.0017065785086632437 0 0.01330190120505787 -0.0020196372629485019 0 0.013093352420607489 -0.0030408661194427792 0 0.011971808320525643 -0.0026722012202703375 0 0.011602851422736895 -0.0033929238369357377 0 0.011268146229435705 -0.002416729895908232 0 0.011971808320525643 -0.0026722012202703375 0 0.010978940838562211 -0.003183330856669084 0 0.011971808320525643 -0.0026722012202703375 0 0.011602851422736895 -0.0033929238369357377 0 0.010978940838562211 -0.003183330856669084 0 0.010772077701217717 -0.0037870805015872231 0 0.010468001528312664 -0.0041428476352230051 0 0.011602851422736895 -0.0033929238369357377 0 0.010948725678567158 -0.0033005290822525082 0 0.010978940838562211 -0.003183330856669084 0 0.011602851422736895 -0.0033929238369357377 0 0.011876309755930492 -0.004856480048466498 0 0.009968496018272887 -0.0050861401218358152 0 0.011876309755930492 -0.004856480048466498 0 0.010901541266238572 -0.0053921976090459721 0 0.009968496018272887 -0.0050861401218358152 0 0.01105148243649429 -0.0063613248240693568 0 0.011876309755930492 -0.004856480048466498 0 0.010901541266238572 -0.0053921976090459721 0 0.0099643791002330465 -0.0059679541588779266 0 0.010901541266238572 -0.0053921976090459721 0 0.009968496018272887 -0.0050861401218358152 0 0.010581658824249355 -0.0031824403065191837 0 0.01061548098003964 -0.0031941712567460237 0 0.009968067936267453 -0.0030809535880712735 0 0.010948725678567158 -0.0033005290822525082 0 0.010581658824249355 -0.0031824403065191837 0 0.010978940838562211 -0.003183330856669084 0 0.010008084569542773 -0.0007169731292747531 0 0.0085624323473839324 -0.0024205584966579255 0 0.009968067936267453 -0.0030809535880712735 0 0.010482477349130144 -0.0020398418843422055 0 0.010377239590607139 -0.0025830128366500049 0 0.010482477349130144 -0.0020398418843422055 0 0.010743234679675646 -0.0013347960023052767 0 0.01061548098003964 -0.0031941712567460237 0 0.010978940838562211 -0.003183330856669084 0 0.010582905277656185 -0.0027482337617641063 0 0.010581658824249355 -0.0031824403065191837 0 0.01061548098003964 -0.0031941712567460237 0 0.010978940838562211 -0.003183330856669084 0 0.011268146229435705 -0.002416729895908232 0 0.010978940838562211 -0.003183330856669084 0 0.010582905277656185 -0.0027482337617641063 0 0.01001033226866784 0.00047492945395872816 0 0.010025588824300906 0.00045667035419000735 0 0.009058044297527771 0.00032718990418976264 0 0.010008084569542773 -0.0007169731292747531 0 0.01001033226866784 0.00047492945395872816 0 0.009058044297527771 0.00032718990418976264 0 0.01001033226866784 0.00047492945395872816 0 0.010025588824300906 0.00045667035419000735 0 0.010348722912084739 2.4155774180727899e-05 0 0.010743234679675646 -0.0013347960023052767 0 0.011279004202226207 -0.0012092846264925815 0 0.01001033226866784 0.00047492945395872816 0 0.010348722912084739 2.4155774180727899e-05 0 0.010281894233198939 -1.8948248819841625e-05 0 0.010582905277656185 -0.0027482337617641063 0 0.010892410040242505 -0.0021812876768177894 0 0.010519435140667794 -0.0016987060726800802 0 0.011268146229435705 -0.002416729895908232 0 0.010582905277656185 -0.0027482337617641063 0 0.010892410040242505 -0.0021812876768177894 0 0.011268146229435705 -0.002416729895908232 0 0.010892410040242505 -0.0021812876768177894 0 0.011215817178983609 -0.0018123493666275512 0 0.0086740068957190265 0.00071329720657921532 0 0.0074857426616090307 0.00070236055819364253 0 0.0096324594128279466 0.00081356503572815289 0 0.0077560854821375862 0.00074346380348508303 0 0.0077124991937336431 0.0012924899237148943 0 0.0096324594128279466 0.00081356503572815289 0 0.011464811942310084 0.00056128992344983361 0 0.010873418694509401 -8.3753205623773999e-05 0 0.0096324594128279466 0.00081356503572815289 0 0.010025588824300906 0.00045667035419000735 0 0.010295571174714808 9.9802876541044478e-05 0 0.0096324594128279466 0.00081356503572815289 0 0.010025588824300906 0.00045667035419000735 0 0.009058044297527771 0.00032718990418976264 0 0.009058044297527771 0.00032718990418976264 0 0.0077560854821375862 0.00074346380348508303 0 0.0071816556862661302 -0.0004236284404761426 0 0.0096324594128279466 0.00081356503572815289 0 0.009058044297527771 0.00032718990418976264 0 0.0077560854821375862 0.00074346380348508303 0 0.009058044297527771 0.00032718990418976264 0 0.0071816556862661302 -0.0004236284404761426 0 0.0081055794168371637 -0.0011773350150776454 0 0.010008084569542773 -0.0007169731292747531 0 0.009058044297527771 0.00032718990418976264 0 0.0081055794168371637 -0.0011773350150776454 0 0.010008084569542773 -0.0007169731292747531 0 0.0081055794168371637 -0.0011773350150776454 0 0.0085624323473839324 -0.0024205584966579255 0 0.0071816556862661302 -0.0004236284404761426 0 0.0081055794168371637 -0.0011773350150776454 0 0.0062380376977506143 -0.0015315852344431234 0 0.0081055794168371637 -0.0011773350150776454 0 0.0070575147054508305 -0.0025075483937145437 0 0.0062380376977506143 -0.0015315852344431234 0 0.0070575147054508305 -0.0025075483937145437 0 0.0061648786158496477 -0.0036151356429969111 0 0.0055133079893204514 -0.0026225940793454705 0 0.0070575147054508305 -0.0025075483937145437 0 0.0055133079893204514 -0.0026225940793454705 0 0.0062380376977506143 -0.0015315852344431234 0 0.0070575147054508305 -0.0025075483937145437 0 0.0061648786158496477 -0.0036151356429969111 0 0.0077266324966618191 -0.0036153539440848845 0 0.0061648786158496477 -0.0036151356429969111 0 0.0077266324966618191 -0.0036153539440848845 0 0.007098587500358809 -0.0048052146129934446 0 0.0077266324966618191 -0.0036153539440848845 0 0.0085624323473839324 -0.0024205584966579255 0 0.0090025312879126514 -0.0038167241874083472 0 0.0077266324966618191 -0.0036153539440848845 0 0.0090025312879126514 -0.0038167241874083472 0 0.0083277209825230389 -0.004796445844683749 0 0.0070575147054508305 -0.0025075483937145437 0 0.0077266324966618191 -0.0036153539440848845 0 0.0085624323473839324 -0.0024205584966579255 0 0.0081055794168371637 -0.0011773350150776454 0 0.0070575147054508305 -0.0025075483937145437 0 0.0085624323473839324 -0.0024205584966579255 0 0.0085624323473839324 -0.0024205584966579255 0 0.009968067936267453 -0.0030809535880712735 0 0.0090025312879126514 -0.0038167241874083472 0 0.010581658824249355 -0.0031824403065191837 0 0.009968067936267453 -0.0030809535880712735 0 0.01060934283101478 -0.0032966155483549449 0 0.010948725678567158 -0.0033005290822525082 0 0.010581658824249355 -0.0031824403065191837 0 0.01060934283101478 -0.0032966155483549449 0 0.009968067936267453 -0.0030809535880712735 0 0.01060934283101478 -0.0032966155483549449 0 0.0099029516332032417 -0.0044398325726207515 0 0.0093120692010092345 -0.0059928697010176949 0 0.0093131347959970589 -0.0060063427493600649 0 0.0091232754253244928 -0.0059364342860775956 0 0.010006681429368164 -0.0046841220436889229 0 0.0095619719036970346 -0.0052371697867990416 0 0.009968067936267453 -0.0030809535880712735 0 0.0090025312879126514 -0.0038167241874083472 0 0.0099029516332032417 -0.0044398325726207515 0 0.0090025312879126514 -0.0038167241874083472 0 0.0099029516332032417 -0.0044398325726207515 0 0.0083277209825230389 -0.004796445844683749 0 0.0095619719036970346 -0.0052371697867990416 0 0.0092904038895307052 -0.0055925057940609431 0 0.0091232754253244928 -0.0059364342860775956 0 0.0090799597097072117 -0.0060365335270511859 0 0.0086670135083876353 -0.0060490470296326896 0 0.0099029516332032417 -0.0044398325726207515 0 0.0086670135083876353 -0.0060490470296326896 0 0.0083277209825230389 -0.004796445844683749 0 0.0091879703442615118 -0.0060196363442597683 0 0.0093120692010092345 -0.0059928697010176949 0 0.0091232754253244928 -0.0059364342860775956 0 0.0091879703442615118 -0.0060196363442597683 0 0.0091232754253244928 -0.0059364342860775956 0 0.0090799597097072117 -0.0060365335270511859 0 0.0091879703442615118 -0.0060196363442597683 0 0.0091006830985793635 -0.006088432125750623 0 0.0090799597097072117 -0.0060365335270511859 0 0.009010334271039408 -0.0060259301892429222 0 0.0091879703442615118 -0.0060196363442597683 0 0.0091006830985793635 -0.006088432125750623 0 0.0091006830985793635 -0.006088432125750623 0 0.0090799597097072117 -0.0060365335270511859 0 0.0091225290690153515 -0.00621351398344939 0 0.0089643070784986428 -0.0060559982356038983 0 0.0091006830985793635 -0.006088432125750623 0 0.0091225290690153515 -0.00621351398344939 0 0.0089643070784986428 -0.0060559982356038983 0 0.009010334271039408 -0.0060259301892429222 0 0.0091006830985793635 -0.006088432125750623 0 0.0090799597097072117 -0.0060365335270511859 0 0.0091225290690153515 -0.00621351398344939 0 0.0086670135083876353 -0.0060490470296326896 0 0.0091367219796974399 -0.0067879951913501222 0 0.0091225290690153515 -0.00621351398344939 0 0.0086670135083876353 -0.0060490470296326896 0 0.0060060628125340751 -0.0068435333604796181 0 0.0081349246528783503 -0.0069308282865716076 0 0.0075234750508099101 -0.0059584382388459881 0 0.0086670135083876353 -0.0060490470296326896 0 0.0075234750508099101 -0.0059584382388459881 0 0.0083277209825230389 -0.004796445844683749 0 0.0081349246528783503 -0.0069308282865716076 0 0.0086670135083876353 -0.0060490470296326896 0 0.0075234750508099101 -0.0059584382388459881 0 0.0060060628125340751 -0.0068435333604796181 0 0.0075234750508099101 -0.0059584382388459881 0 0.0062323780453848367 -0.0055207949304291182 0 0.0060060628125340751 -0.0068435333604796181 0 0.0062323780453848367 -0.0055207949304291182 0 0.0048107016449797256 -0.0054204196613353555 0 0.0062323780453848367 -0.0055207949304291182 0 0.007098587500358809 -0.0048052146129934446 0 0.0053816726459968885 -0.0046395351175952263 0 0.0075234750508099101 -0.0059584382388459881 0 0.0062323780453848367 -0.0055207949304291182 0 0.007098587500358809 -0.0048052146129934446 0 0.0061648786158496477 -0.0036151356429969111 0 0.007098587500358809 -0.0048052146129934446 0 0.0053816726459968885 -0.0046395351175952263 0 0.0077266324966618191 -0.0036153539440848845 0 0.007098587500358809 -0.0048052146129934446 0 0.0083277209825230389 -0.004796445844683749 0 0.0075234750508099101 -0.0059584382388459881 0 0.007098587500358809 -0.0048052146129934446 0 0.0083277209825230389 -0.004796445844683749 0 0.0036306929120640042 -0.0049474015758722159 0 0.002425003946479203 -0.0055469103492373625 0 0.0026133078059661814 -0.0041958628779174591 0 0.0036306929120640042 -0.0049474015758722159 0 0.0053816726459968885 -0.0046395351175952263 0 0.0048107016449797256 -0.0054204196613353555 0 0.0036306929120640042 -0.0049474015758722159 0 0.0053816726459968885 -0.0046395351175952263 0 0.0042463474952652907 -0.0035364660140429645 0 0.0062323780453848367 -0.0055207949304291182 0 0.0053816726459968885 -0.0046395351175952263 0 0.0048107016449797256 -0.0054204196613353555 0 0.0060060628125340751 -0.0068435333604796181 0 0.0048107016449797256 -0.0054204196613353555 0 0.0031942050259361576 -0.0056188500458874413 0 0.0036306929120640042 -0.0049474015758722159 0 0.0048107016449797256 -0.0054204196613353555 0 0.0031942050259361576 -0.0056188500458874413 0 0.0049591471282262167 -0.005969689268813117 0 0.0044348133817703429 -0.0058825481476001123 0 0.0036306929120640042 -0.0049474015758722159 0 0.0031942050259361576 -0.0056188500458874413 0 0.002425003946479203 -0.0055469103492373625 0 0.0016249129191015313 -0.004427299688116954 0 0.0007304475647888709 -0.0036333313706353879 0 0.0029127568518898615 -0.0054087100339376224 0 0.0031942050259361576 -0.0056188500458874413 0 0.002425003946479203 -0.0055469103492373625 0 0.00043569207737799995 -0.0041330396548461493 0 -7.2459172127245852e-05 -0.0017387223806174502 0 -0.0013126238230451541 -0.0034811986410471759 0 0.00043569207737799995 -0.0041330396548461493 0 0.0029127568518898615 -0.0054087100339376224 0 -7.2459172127245852e-05 -0.0017387223806174502 0 -7.2459172127245852e-05 -0.0017387223806174502 0 -0.0023692898977236811 -0.0017792699507716836 0 -0.0013126238230451541 -0.0034811986410471759 0 -0.0023692898977236811 -0.0017792699507716836 0 -0.0013126238230451541 -0.0034811986410471759 0 -0.0031589759868842597 -0.0031031941181566061 0 0.0007304475647888709 -0.0036333313706353879 0 -0.00084056757917679188 -0.0023262927185726595 0 -7.2459172127245852e-05 -0.0017387223806174502 0 -0.0023692898977236811 -0.0017792699507716836 0 -0.0027703629290803983 -0.00036973210982345968 0 0.002425003946479203 -0.0055469103492373625 0 0.0026133078059661814 -0.0041958628779174591 0 6.7804389209210884e-05 -0.00407407435149064 0 0.0026133078059661814 -0.0041958628779174591 0 6.7804389209210884e-05 -0.00407407435149064 0 0.0022330163231049694 -0.0025180126274200881 0 6.7804389209210884e-05 -0.00407407435149064 0 0.00027788298213373818 -0.0013801403813773635 0 0.0022330163231049694 -0.0025180126274200881 0 0.00027788298213373818 -0.0013801403813773635 0 0.0022330163231049694 -0.0025180126274200881 0 0.0022249671560568688 -0.00054113243608648761 0 0.0022330163231049694 -0.0025180126274200881 0 0.0041292026381275354 -0.0018712063991593178 0 0.0042463474952652907 -0.0035364660140429645 0 0.0026133078059661814 -0.0041958628779174591 0 0.0022330163231049694 -0.0025180126274200881 0 0.0042463474952652907 -0.0035364660140429645 0 0.0036306929120640042 -0.0049474015758722159 0 0.0026133078059661814 -0.0041958628779174591 0 0.0042463474952652907 -0.0035364660140429645 0 0.0061648786158496477 -0.0036151356429969111 0 0.0053816726459968885 -0.0046395351175952263 0 0.0042463474952652907 -0.0035364660140429645 0 0.0061648786158496477 -0.0036151356429969111 0 0.0042463474952652907 -0.0035364660140429645 0 0.0055133079893204514 -0.0026225940793454705 0 0.0041292026381275354 -0.0018712063991593178 0 0.0042463474952652907 -0.0035364660140429645 0 0.0055133079893204514 -0.0026225940793454705 0 0.0041292026381275354 -0.0018712063991593178 0 0.0055133079893204514 -0.0026225940793454705 0 0.0062380376977506143 -0.0015315852344431234 0 0.0071816556862661302 -0.0004236284404761426 0 0.0062380376977506143 -0.0015315852344431234 0 0.0051398875600233915 -0.00046364062553681552 0 0.0041292026381275354 -0.0018712063991593178 0 0.0062380376977506143 -0.0015315852344431234 0 0.0051398875600233915 -0.00046364062553681552 0 0.0041292026381275354 -0.0018712063991593178 0 0.0051398875600233915 -0.00046364062553681552 0 0.0022249671560568688 -0.00054113243608648761 0 0.0051398875600233915 -0.00046364062553681552 0 0.0037025384586715612 0.0012626950577822127 0 0.0022249671560568688 -0.00054113243608648761 0 0.0077560854821375862 0.00074346380348508303 0 0.0071816556862661302 -0.0004236284404761426 0 0.0051398875600233915 -0.00046364062553681552 0 0.0077560854821375862 0.00074346380348508303 0 0.0051398875600233915 -0.00046364062553681552 0 0.0037025384586715612 0.0012626950577822127 0 0.0077560854821375862 0.00074346380348508303 0 0.0037025384586715612 0.0012626950577822127 0 0.0054993648361056774 0.0036987395953554689 0 0.0037025384586715612 0.0012626950577822127 0 0.0054993648361056774 0.0036987395953554689 0 0.0022103922603599452 0.0034060210111877829 0 0.0074857426616090307 0.00070236055819364253 0 0.0045716764128078081 0.00094972841107794582 0 0.0073778195670219961 0.00094903319240370262 0 0.0074857426616090307 0.00070236055819364253 0 -0.00030106605985247102 0.002651455511020263 0 0.0022103922603599452 0.0034060210111877829 0 0.00042596704438019513 0.0012029354416596722 0 0.0024779096900970116 0.00088368929094627792 0 0.0045716764128078081 0.00094972841107794582 0 0.0037025384586715612 0.0012626950577822127 0 0.0022103922603599452 0.0034060210111877829 0 0.00042596704438019513 0.0012029354416596722 0 0.00042596704438019513 0.0012029354416596722 0 0.0022249671560568688 -0.00054113243608648761 0 -0.00030536381253091122 -0.00014082618459626279 0 0.0037025384586715612 0.0012626950577822127 0 0.00042596704438019513 0.0012029354416596722 0 0.0022249671560568688 -0.00054113243608648761 0 0.0022330163231049694 -0.0025180126274200881 0 0.0041292026381275354 -0.0018712063991593178 0 0.0022249671560568688 -0.00054113243608648761 0 0.00027788298213373818 -0.0013801403813773635 0 0.0022249671560568688 -0.00054113243608648761 0 -0.00030536381253091122 -0.00014082618459626279 0 0.00027788298213373818 -0.0013801403813773635 0 -0.00030536381253091122 -0.00014082618459626279 0 -0.0028613837324388855 -0.00078179157143317259 0 -0.001611106082208223 0.00047134126011137912 0 -0.0032083917906692945 0.00012733761000163099 0 -0.0028613837324388855 -0.00078179157143317259 0 -0.00030536381253091122 -0.00014082618459626279 0 -0.001611106082208223 0.00047134126011137912 0 -0.0028613837324388855 -0.00078179157143317259 0 -0.001611106082208223 0.00047134126011137912 0 -0.002087759879714126 0.00064448818824327538 0 -0.0032083917906692945 0.00012733761000163099 0 0.00042596704438019513 0.0012029354416596722 0 -0.00030536381253091122 -0.00014082618459626279 0 -0.001611106082208223 0.00047134126011137912 0 -0.00030106605985247102 0.002651455511020263 0 0.00042596704438019513 0.0012029354416596722 0 -0.0014681667943821756 0.0012189188820188733 0 0.00042596704438019513 0.0012029354416596722 0 -0.001611106082208223 0.00047134126011137912 0 -0.0014681667943821756 0.0012189188820188733 0 -0.001611106082208223 0.00047134126011137912 0 -0.0014681667943821756 0.0012189188820188733 0 -0.002087759879714126 0.00064448818824327538 0 -0.0014681667943821756 0.0012189188820188733 0 -0.0016062927609053006 0.00090703538094327491 0 -0.002087759879714126 0.00064448818824327538 0 -0.0014681667943821756 0.0012189188820188733 0 -0.0017329120613031365 0.0012569438556082261 0 -0.0016062927609053006 0.00090703538094327491 0 -0.00030106605985247102 0.002651455511020263 0 -0.0014681667943821756 0.0012189188820188733 0 -0.0017329120613031365 0.0012569438556082261 0 0.0024779096900970116 0.00088368929094627792 0 0.0010598670926807486 0.00068722983787033521 0 -0.00063242682907376554 3.5383527893575771e-07 0 -0.00029397601169225057 1.7015251007417883e-05 0 -0.0013860765695264214 0.00040441139301328807 0 -0.00029397601169225057 1.7015251007417883e-05 0 -0.0016062927609053006 0.00090703538094327491 0 -0.0013860765695264214 0.00040441139301328807 0 -0.0017329120613031365 0.0012569438556082261 0 -0.00029397601169225057 1.7015251007417883e-05 0 -0.0016062927609053006 0.00090703538094327491 0 0.0010598670926807486 0.00068722983787033521 0 0.00057440781345166354 0.00058081759646205311 0 0.0020799075694968206 -0.00036790193032917271 0 -0.00029397601169225057 1.7015251007417883e-05 0 0.0009251323741640737 0.0002201446673699466 0 -0.0016062927609053006 0.00090703538094327491 0 -0.002087759879714126 0.00064448818824327538 0 -0.0013860765695264214 0.00040441139301328807 0 -0.002087759879714126 0.00064448818824327538 0 -0.0013860765695264214 0.00040441139301328807 0 -0.0026697537649241375 9.1872238334039477e-07 0 -0.00063242682907376554 3.5383527893575771e-07 0 -0.0013860765695264214 0.00040441139301328807 0 -0.0026697537649241375 9.1872238334039477e-07 0 -0.002087759879714126 0.00064448818824327538 0 -0.0026697537649241375 9.1872238334039477e-07 0 -0.0032083917906692945 0.00012733761000163099 0 -0.0026697537649241375 9.1872238334039477e-07 0 -0.0032083917906692945 0.00012733761000163099 0 -0.0047060054796183104 -1.8342427498559041e-07 0 -0.0032083917906692945 0.00012733761000163099 0 -0.0047060054796183104 -1.8342427498559041e-07 0 -0.0043961634918733188 -0.00020373730436443164 0 -0.0047060054796183104 -1.8342427498559041e-07 0 -0.0043961634918733188 -0.00020373730436443164 0 -0.0067431286896525037 -4.4059086944407002e-07 0 -0.0043961634918733188 -0.00020373730436443164 0 -0.0067431286896525037 -4.4059086944407002e-07 0 -0.0051307724886428393 -0.0004270693418798683 0 -0.0032083917906692945 0.00012733761000163099 0 -0.0043961634918733188 -0.00020373730436443164 0 -0.0028613837324388855 -0.00078179157143317259 0 -0.0028613837324388855 -0.00078179157143317259 0 -0.0042537127827672197 -0.00083055774378223242 0 -0.0051307724886428393 -0.0004270693418798683 0 -0.0027703629290803983 -0.00036973210982345968 0 -0.0028613837324388855 -0.00078179157143317259 0 -0.0042537127827672197 -0.00083055774378223242 0 6.7804389209210884e-05 -0.00407407435149064 0 0.00027788298213373818 -0.0013801403813773635 0 -0.0028613837324388855 -0.00078179157143317259 0 -0.00084056757917679188 -0.0023262927185726595 0 -0.001703313536393937 -0.0015733929300066573 0 -0.0043961634918733188 -0.00020373730436443164 0 -0.0028613837324388855 -0.00078179157143317259 0 -0.0051307724886428393 -0.0004270693418798683 0 -0.0042537127827672197 -0.00083055774378223242 0 -0.0065534127742786011 -0.0013714263830997119 0 -0.0051307724886428393 -0.0004270693418798683 0 -0.0023692898977236811 -0.0017792699507716836 0 -0.0027703629290803983 -0.00036973210982345968 0 -0.0042537127827672197 -0.00083055774378223242 0 -0.0051389785641665362 -0.0026805436632065774 0 -0.0042537127827672197 -0.00083055774378223242 0 -0.0031589759868842597 -0.0031031941181566061 0 -0.0023692898977236811 -0.0017792699507716836 0 -0.0042537127827672197 -0.00083055774378223242 0 -0.0031589759868842597 -0.0031031941181566061 0 -0.0051389785641665362 -0.0026805436632065774 0 -0.0042537127827672197 -0.00083055774378223242 0 -0.0065534127742786011 -0.0013714263830997119 0 -0.0075838174534297665 -0.00067353997960849774 0 -0.0065534127742786011 -0.0013714263830997119 0 -0.0072389500178962531 -0.00054489655506240002 0 -0.0065534127742786011 -0.0013714263830997119 0 -0.0072389500178962531 -0.00054489655506240002 0 -0.0051307724886428393 -0.0004270693418798683 0 -0.0087793205112002368 -8.2668561079711079e-07 0 -0.0072389500178962531 -0.00054489655506240002 0 -0.0067431286896525037 -4.4059086944407002e-07 0 -0.0087793205112002368 -8.2668561079711079e-07 0 -0.0082645720455653011 -0.00034491078884272316 0 -0.0072389500178962531 -0.00054489655506240002 0 -0.0072389500178962531 -0.00054489655506240002 0 -0.0067431286896525037 -4.4059086944407002e-07 0 -0.0051307724886428393 -0.0004270693418798683 0 0.009259668318327639 0.0030876417661469275 0 0.0091051571625486386 0.003100349948071607 0 0.0092750640769626233 0.0031891626156462802 0 0.0091051571625486386 0.003100349948071607 0 0.0092750640769626233 0.0031891626156462802 0 0.0090336004190206785 0.0032086370256520259 0 0.0092750640769626233 0.0031891626156462802 0 0.0090336004190206785 0.0032086370256520259 0 0.0092197555753151129 0.0033756796461552503 0 0.0092750640769626233 0.0031891626156462802 0 0.0093994013864256466 0.0031204963362459828 0 0.0094833712307145872 0.003277079368387217 0 0.0093994013864256466 0.0031204963362459828 0 0.0094833712307145872 0.003277079368387217 0 0.0095571131320169277 0.0031425890511210183 0 0.0093994013864256466 0.0031204963362459828 0 0.009482253539959842 0.0030217242582383686 0 0.0095571131320169277 0.0031425890511210183 0 0.0093377143878943872 0.0030516732495590908 0 0.0093994013864256466 0.0031204963362459828 0 0.009482253539959842 0.0030217242582383686 0 0.009259668318327639 0.0030876417661469275 0 0.0093377143878943872 0.0030516732495590908 0 0.0093994013864256466 0.0031204963362459828 0 0.009259668318327639 0.0030876417661469275 0 0.0092750640769626233 0.0031891626156462802 0 0.0093994013864256466 0.0031204963362459828 0 0.009482253539959842 0.0030217242582383686 0 0.0092067262624100452 0.0029788905850354898 0 0.0096325393179578257 0.0029791160036279755 0 -0.0076225962512982996 0.0030327645985763672 0 -0.0076996821713928949 0.0030464642339862822 0 -0.0075374887577717058 0.0030679126743256091 0 -0.00057742552452035847 0.0021175132581184989 0 0.00060360936565599611 0.0031262871506483577 0 0.0093377143878943872 0.0030516732495590908 0 0.009482253539959842 0.0030217242582383686 0 0.0092067262624100452 0.0029788905850354898 0 -0.0076225962512982996 0.0030327645985763672 0 -0.0075905563144945086 0.0030322108829242173 0 -0.0076246499582662127 0.0030198230689144189 0 -0.0076225962512982996 0.0030327645985763672 0 -0.0076433132087155185 0.0030088416801052156 0 -0.0076246499582662127 0.0030198230689144189 0 -0.0076225962512982996 0.0030327645985763672 0 -0.0076625748342679899 0.0030252887825855568 0 -0.0076996821713928949 0.0030464642339862822 0 -0.0076225962512982996 0.0030327645985763672 0 -0.0076625748342679899 0.0030252887825855568 0 -0.0076433132087155185 0.0030088416801052156 0 -0.0076625748342679899 0.0030252887825855568 0 -0.0076702321323734038 0.0030033664896468508 0 -0.0076433132087155185 0.0030088416801052156 0 -0.0076625748342679899 0.0030252887825855568 0 -0.0076702321323734038 0.0030033664896468508 0 -0.0076868963627015436 0.0030098622357711798 0 -0.00771963306635554 0.0029850352421167299 0 -0.0076996821713928949 0.0030464642339862822 0 -0.0081044641176874817 0.0029977266241506696 0 -0.0076702321323734038 0.0030033664896468508 0 -0.00771963306635554 0.0029850352421167299 0 -0.0076868963627015436 0.0030098622357711798 0 -0.0076625748342679899 0.0030252887825855568 0 -0.0076868963627015436 0.0030098622357711798 0 -0.0076996821713928949 0.0030464642339862822 0 -0.00771963306635554 0.0029850352421167299 0 -0.0076868963627015436 0.0030098622357711798 0 -0.0076996821713928949 0.0030464642339862822 0 0.009259668318327639 0.0030876417661469275 0 0.0091051571625486386 0.003100349948071607 0 0.0092067262624100452 0.0029788905850354898 0 0.009259668318327639 0.0030876417661469275 0 0.0093377143878943872 0.0030516732495590908 0 0.0092067262624100452 0.0029788905850354898 0 -0.00057742552452035847 0.0021175132581184989 0 -0.0085302926312579366 0.00032056424578735289 0 0.0091051571625486386 0.003100349948071607 0 0.0092067262624100452 0.0029788905850354898 0 0.0087687639307078152 0.0030573633186580318 0 -0.0085302926312579366 0.00032056424578735289 0 -0.013884125592607132 0.001853011991290769 0 -0.00771963306635554 0.0029850352421167299 0 -0.0081044641176874817 0.0029977266241506696 0 -0.0078882415658004159 0.0028140437934795304 0 -0.024753415973116831 0.00010450726387874329 0 -0.024987599649601362 -9.4914788911526255e-05 0 -0.025129076135185308 -2.3192762382624097e-05 0 -0.0085302926312579366 0.00032056424578735289 0 -0.015506811801655591 -0.00082143053234507216 0 -0.0085302926312579366 0.00032056424578735289 0 -0.0031868243879029342 -0.0012377688695948479 0 0.0087687639307078152 0.0030573633186580318 0 0.0088309786174767396 0.003351345263847943 0 0.0087034396751121974 0.0033117966439398169 0 0.0087687639307078152 0.0030573633186580318 0 0.0090336004190206785 0.0032086370256520259 0 0.0088309786174767396 0.003351345263847943 0 0.0091051571625486386 0.003100349948071607 0 0.0087687639307078152 0.0030573633186580318 0 0.0090336004190206785 0.0032086370256520259 0 0.0090336004190206785 0.0032086370256520259 0 0.0088309786174767396 0.003351345263847943 0 0.0092197555753151129 0.0033756796461552503 0 0.0088309786174767396 0.003351345263847943 0 0.0090309753212552031 0.0035299507384107054 0 0.0092197555753151129 0.0033756796461552503 0 0.0088309786174767396 0.003351345263847943 0 0.0087305949370755885 0.0034890853802244434 0 0.008776386377069692 0.0034103912286589742 0 0.0088309786174767396 0.003351345263847943 0 0.0087034396751121974 0.0033117966439398169 0 0.008776386377069692 0.0034103912286589742 0 0.0087305949370755885 0.0034890853802244434 0 0.008776386377069692 0.0034103912286589742 0 0.0088771454653877903 0.0032926835227962961 0 0.0087305949370755885 0.0034890853802244434 0 0.0090309753212552031 0.0035299507384107054 0 0.0091034753897272346 0.003824892226575588 0 0.0088309786174767396 0.003351345263847943 0 0.0087305949370755885 0.0034890853802244434 0 0.0090309753212552031 0.0035299507384107054 0 0.0090309753212552031 0.0035299507384107054 0 0.0094194299334069247 0.0037366997814320822 0 0.0091034753897272346 0.003824892226575588 0 0.0090309753212552031 0.0035299507384107054 0 0.0094194299334069247 0.0037366997814320822 0 0.0092197555753151129 0.0033756796461552503 0 0.0092750640769626233 0.0031891626156462802 0 0.0092197555753151129 0.0033756796461552503 0 0.0094833712307145872 0.003277079368387217 0 0.0092197555753151129 0.0033756796461552503 0 0.0094833712307145872 0.003277079368387217 0 0.0096266318270419003 0.0035099772763704366 0 0.0094194299334069247 0.0037366997814320822 0 0.0092197555753151129 0.0033756796461552503 0 0.0096266318270419003 0.0035099772763704366 0 0.0094194299334069247 0.0037366997814320822 0 0.0096266318270419003 0.0035099772763704366 0 0.0097820644565687672 0.003764371748236333 0 0.0096266318270419003 0.0035099772763704366 0 0.0099857016002246578 0.0035749008481069074 0 0.0097820644565687672 0.003764371748236333 0 0.010426564087991662 0.0043067955504976886 0 0.010500352214466668 0.004307889761419016 0 0.010552814115057041 0.0044390123132399505 0 0.010426564087991662 0.0043067955504976886 0 0.010500352214466668 0.004307889761419016 0 0.010399898852487684 0.0042228885856181479 0 0.0099857016002246578 0.0035749008481069074 0 0.0097326419699721462 0.0033082247055490916 0 0.0099661434495587776 0.0032149206891505053 0 0.0072872228718882841 0.0037016441188969002 0 0.0044297315287060218 0.0040795593201023873 0 0.0096266318270419003 0.0035099772763704366 0 0.0099857016002246578 0.0035749008481069074 0 0.0097326419699721462 0.0033082247055490916 0 0.0094833712307145872 0.003277079368387217 0 0.0096266318270419003 0.0035099772763704366 0 0.0097326419699721462 0.0033082247055490916 0 0.001507048781903275 0.0031320484457447711 0 0.0011221703997407368 0.0034351819590973586 0 0.010769719728725084 0.0044093872371576684 0 0.010500352214466668 0.004307889761419016 0 0.010566738791125357 0.0038637133260381721 0 0.010769719728725084 0.0044093872371576684 0 0.010500352214466668 0.004307889761419016 0 0.010644715640773184 0.0044776343560957582 0 0.010500352214466668 0.004307889761419016 0 0.010566738791125357 0.0038637133260381721 0 0.0098848969414876767 0.0036190688164089478 0 0.0068473839443337625 0.0052816836286681606 0 0.0044297315287060218 0.0040795593201023873 0 -0.0066363553254624808 0.0014490975405397294 0 -0.0062053302577069827 0.002173772310329196 0 -0.0066679412020732168 0.0020656108173480107 0 -0.0062053302577069827 0.002173772310329196 0 -0.0066679412020732168 0.0020656108173480107 0 -0.0065524414571627946 0.002505630991799341 0 -0.0069115429533999932 0.002367297891278194 0 -0.0066679412020732168 0.0020656108173480107 0 -0.0065524414571627946 0.002505630991799341 0 -0.0062053302577069827 0.002173772310329196 0 -0.0065524414571627946 0.002505630991799341 0 -0.0062093057746242727 0.002712150020055188 0 -0.0069175862282117697 0.0026649825898415695 0 -0.0065524414571627946 0.002505630991799341 0 -0.0065273935084974102 0.0030008680462951477 0 -0.0065524414571627946 0.002505630991799341 0 -0.0062093057746242727 0.002712150020055188 0 -0.0065273935084974102 0.0030008680462951477 0 0.0011221703997407368 0.0034351819590973586 0 -0.00013399725324893057 0.0036938195322117414 0 0.010566738791125357 0.0038637133260381721 0 0.01011228246419058 0.0030773475583557833 0 0.0098848969414876767 0.0036190688164089478 0 -0.0062053302577069827 0.002173772310329196 0 -0.0062093057746242727 0.002712150020055188 0 -0.005703674165460579 0.0030138105760504339 0 -0.0062008248732474567 0.0027692846939936151 0 -0.0066930924384367768 0.0030736248915244195 0 -0.0069882251176256642 0.0027932911500538576 0 -0.00013399725324893057 0.0036938195322117414 0 -0.0049411778524677983 0.0033612077931855252 0 -0.0062093057746242727 0.002712150020055188 0 -0.005703674165460579 0.0030138105760504339 0 -0.0065273935084974102 0.0030008680462951477 0 -0.0062008248732474567 0.0027692846939936151 0 -0.0058641586902917157 0.0034183561021345604 0 -0.006385963972505247 0.0032395688861851504 0 -0.0062008248732474567 0.0027692846939936151 0 -0.0066930924384367768 0.0030736248915244195 0 -0.006385963972505247 0.0032395688861851504 0 -0.0066930924384367768 0.0030736248915244195 0 -0.0069866729527614446 0.0031238239549772422 0 -0.0069882251176256642 0.0027932911500538576 0 -0.0072357533259957332 0.0029430779057754175 0 -0.0069866729527614446 0.0031238239549772422 0 -0.0069882251176256642 0.0027932911500538576 0 0.0097326419699721462 0.0033082247055490916 0 0.0097507884422202307 0.0031161099953345402 0 0.0099661434495587776 0.0032149206891505053 0 0.0097507884422202307 0.0031161099953345402 0 0.0095571131320169277 0.0031425890511210183 0 0.0096865033116445998 0.0029390113952061465 0 0.009482253539959842 0.0030217242582383686 0 0.0095571131320169277 0.0031425890511210183 0 0.0096325393179578257 0.0029791160036279755 0 0.0019305678411001865 0.0022768449707178551 0 0.00060360936565599611 0.0031262871506483577 0 0.0097326419699721462 0.0033082247055490916 0 0.0097507884422202307 0.0031161099953345402 0 0.0095571131320169277 0.0031425890511210183 0 0.0094833712307145872 0.003277079368387217 0 0.0097326419699721462 0.0033082247055490916 0 0.0095571131320169277 0.0031425890511210183 0 0.0044297315287060218 0.0040795593201023873 0 0.0016872356768883922 0.0035020054356616173 0 0.0097507884422202307 0.0031161099953345402 0 0.0099661434495587776 0.0032149206891505053 0 0.00977265685618838 0.0029421807865090922 0 0.01011228246419058 0.0030773475583557833 0 0.0098848969414876767 0.0036190688164089478 0 0.0099605992401935375 0.0030750826123826661 0 0.0044297315287060218 0.0040795593201023873 0 0.001046606027273723 0.003435704760216617 0 0.0029895016637329777 0.003422637790963782 0 0.0029426613924755421 0.0035950903360663961 0 0.0030841808315222718 0.0035957324546671597 0 -0.00013399725324893057 0.0036938195322117414 0 -0.0026256920578905311 0.0032618727523465573 0 -0.00074553422928059316 0.0035579305060039245 0 -0.00083229378311673412 0.0035632887161557163 0 -0.00080771162887770124 0.0036016809080313935 0 -0.00062819831163492409 0.0036132523555643154 0 -0.00067475298564912572 0.0036110284507636066 0 -0.00073856511663658011 0.0034131794319952054 0 -0.00067475298564912572 0.0036110284507636066 0 -0.00074553422928059316 0.0035579305060039245 0 -0.00073856511663658011 0.0034131794319952054 0 -0.00067475298564912572 0.0036110284507636066 0 -0.00074553422928059316 0.0035579305060039245 0 -0.00080771162887770124 0.0036016809080313935 0 0.0016872356768883922 0.0035020054356616173 0 0.001046606027273723 0.003435704760216617 0 -0.00013399725324893057 0.0036938195322117414 0 0.0016872356768883922 0.0035020054356616173 0 -0.00074553422928059316 0.0035579305060039245 0 -0.00083229378311673412 0.0035632887161557163 0 -0.00073856511663658011 0.0034131794319952054 0 -0.0075270853797485488 0.0030451171132359935 0 -0.0075374887577717058 0.0030679126743256091 0 -0.0075905563144945086 0.0030322108829242173 0 -0.00016127923448598565 0.003100169246424101 0 0.001046606027273723 0.003435704760216617 0 0.001046606027273723 0.003435704760216617 0 0.00060360936565599611 0.0031262871506483577 0 0.0097507884422202307 0.0031161099953345402 0 0.00977265685618838 0.0029421807865090922 0 0.0096865033116445998 0.0029390113952061465 0 -0.00070963156919226381 0.0038356988017733749 0 -0.0014663399783035379 0.002557232554440811 0 0.00016821860148992474 0.0025814770547784348 0 -0.00016127923448598565 0.003100169246424101 0 0.00060360936565599611 0.0031262871506483577 0 -0.0076225962512982996 0.0030327645985763672 0 -0.0075374887577717058 0.0030679126743256091 0 -0.0075905563144945086 0.0030322108829242173 0 -0.0075905563144945086 0.0030322108829242173 0 -0.0076417588007005079 0.0030162168020065093 0 -0.0076246499582662127 0.0030198230689144189 0 -0.0076700708006755226 0.0030965891225925462 0 -0.0076765857752469678 0.0031441363820796371 0 -0.0077040197144833773 0.0031446812059910236 0 -0.0075270853797485488 0.0030451171132359935 0 -0.0075905563144945086 0.0030322108829242173 0 -0.0076417588007005079 0.0030162168020065093 0 -0.00016127923448598565 0.003100169246424101 0 -0.0033327381399682744 0.0019668963878036291 0 -0.0076765857752469678 0.0031441363820796371 0 -0.0077040197144833773 0.0031446812059910236 0 -0.0077055038046264365 0.0031709832882920929 0 -0.0076700708006755226 0.0030965891225925462 0 -0.0077040197144833773 0.0031446812059910236 0 -0.0077260335614387724 0.0031395865943022526 0 -0.00016127923448598565 0.003100169246424101 0 -0.0026256920578905311 0.0032618727523465573 0 -0.0026256920578905311 0.0032618727523465573 0 -0.005208267618116681 0.0037969138954576502 0 -0.0077040197144833773 0.0031446812059910236 0 -0.0077260335614387724 0.0031395865943022526 0 -0.0077466195617726195 0.0031836557721021167 0 -0.0026256920578905311 0.0032618727523465573 0 -0.0031427999806712382 0.0029005220354407515 0 -0.0077466195617726195 0.0031836557721021167 0 -0.0078023756104156437 0.0032425019378092969 0 -0.0078329721924559614 0.0032097131297217662 0 -0.0077613394947420415 0.003127982659917631 0 -0.0077466195617726195 0.0031836557721021167 0 -0.0078329721924559614 0.0032097131297217662 0 -0.0078023756104156437 0.0032425019378092969 0 -0.0078329721924559614 0.0032097131297217662 0 -0.0078224468549834506 0.0032880882945605571 0 -0.0077466195617726195 0.0031836557721021167 0 -0.0078023756104156437 0.0032425019378092969 0 -0.0077998366175675033 0.0032692157905902259 0 -0.0077466195617726195 0.0031836557721021167 0 -0.0077254746647495336 0.0032211338339127346 0 -0.0077998366175675033 0.0032692157905902259 0 -0.0077254746647495336 0.0032211338339127346 0 -0.0076870450036906641 0.0031743412888926422 0 -0.0077055038046264365 0.0031709832882920929 0 -0.0077254746647495336 0.0032211338339127346 0 -0.0076870450036906641 0.0031743412888926422 0 -0.007645746957523865 0.0031741452539830123 0 -0.0076765857752469678 0.0031441363820796371 0 -0.0076870450036906641 0.0031743412888926422 0 -0.0077055038046264365 0.0031709832882920929 0 -0.0077040197144833773 0.0031446812059910236 0 -0.0077466195617726195 0.0031836557721021167 0 -0.0077055038046264365 0.0031709832882920929 0 -0.0077466195617726195 0.0031836557721021167 0 -0.0077254746647495336 0.0032211338339127346 0 -0.0077055038046264365 0.0031709832882920929 0 -0.0075098917585985992 0.0034947637377475168 0 -0.0068712386429275619 0.0034313749682971756 0 -0.0072245307056519594 0.0037872717650748663 0 -0.0073257814276192906 0.0032338343744552091 0 -0.0069866729527614446 0.0031238239549772422 0 -0.0068712386429275619 0.0034313749682971756 0 -0.0066930924384367768 0.0030736248915244195 0 -0.0069866729527614446 0.0031238239549772422 0 -0.0068712386429275619 0.0034313749682971756 0 -0.0068712386429275619 0.0034313749682971756 0 -0.0064466437780598546 0.0035965473999399105 0 -0.0068217452259065415 0.0039229329808781709 0 -0.0058641586902917157 0.0034183561021345604 0 -0.0064466437780598546 0.0035965473999399105 0 -0.0062022532408297455 0.0038905533878859202 0 -0.0058641586902917157 0.0034183561021345604 0 -0.0064466437780598546 0.0035965473999399105 0 -0.006385963972505247 0.0032395688861851504 0 -0.0068712386429275619 0.0034313749682971756 0 -0.0064466437780598546 0.0035965473999399105 0 -0.006385963972505247 0.0032395688861851504 0 -0.0066930924384367768 0.0030736248915244195 0 -0.0068712386429275619 0.0034313749682971756 0 -0.006385963972505247 0.0032395688861851504 0 -0.0062022532408297455 0.0038905533878859202 0 -0.0068217452259065415 0.0039229329808781709 0 -0.0065384828554093674 0.0043782889740394517 0 -0.0064466437780598546 0.0035965473999399105 0 -0.0062022532408297455 0.0038905533878859202 0 -0.0068217452259065415 0.0039229329808781709 0 -0.005208267618116681 0.0037969138954576502 0 -0.0069260257208589374 0.0037929129565763384 0 -0.0073874375660954502 0.0041563924188526679 0 -0.0068217452259065415 0.0039229329808781709 0 -0.0072245307056519594 0.0037872717650748663 0 -0.0073874375660954502 0.0041563924188526679 0 -0.0068217452259065415 0.0039229329808781709 0 -0.0065384828554093674 0.0043782889740394517 0 -0.0068712386429275619 0.0034313749682971756 0 -0.0068217452259065415 0.0039229329808781709 0 -0.0072245307056519594 0.0037872717650748663 0 -0.008843487173878074 0.0034887020707084762 0 -0.0087670327065255526 0.0034545679536487333 0 -0.0087590399115063302 0.0035029904161583362 0 -0.0078023968912331069 0.003710311837407808 0 -0.0069260257208589374 0.0037929129565763384 0 -0.0088965609401597517 0.0035641747551923984 0 -0.008843487173878074 0.0034887020707084762 0 -0.0087670327065255526 0.0034545679536487333 0 -0.0085943174063942279 0.0032343737172209645 0 -0.0084724452294901338 0.0035868805514379723 0 -0.0087590399115063302 0.0035029904161583362 0 -0.0078329721924559614 0.0032097131297217662 0 -0.0078707683495303077 0.003270285957621486 0 -0.0078224468549834506 0.0032880882945605571 0 -0.0085943174063942279 0.0032343737172209645 0 -0.0084724452294901338 0.0035868805514379723 0 -0.0082460573689555304 0.0032970819650641999 0 -0.0069260257208589374 0.0037929129565763384 0 -0.0071115165648581143 0.0038725573533637189 0 -0.0069260257208589374 0.0037929129565763384 0 -0.0075321007157091516 0.0035766333256516281 0 -0.0082322460620610164 0.0038314542739881692 0 -0.0087181036139365974 0.0037970709719068467 0 -0.0084724452294901338 0.0035868805514379723 0 -0.0087181036139365974 0.0037970709719068467 0 -0.0084724452294901338 0.0035868805514379723 0 -0.0087590399115063302 0.0035029904161583362 0 -0.0089658378257980627 0.0038190635701583491 0 -0.0087181036139365974 0.0037970709719068467 0 -0.008875645463403024 0.003595091134625617 0 -0.0087181036139365974 0.0037970709719068467 0 -0.0087590399115063302 0.0035029904161583362 0 -0.008875645463403024 0.003595091134625617 0 -0.008843487173878074 0.0034887020707084762 0 -0.0087590399115063302 0.0035029904161583362 0 -0.008875645463403024 0.003595091134625617 0 -0.0077254746647495336 0.0032211338339127346 0 -0.0077173466622167258 0.0033507277396315769 0 -0.007645746957523865 0.0031741452539830123 0 -0.0078445893896626154 0.0033641937564270179 0 -0.0077753578262444011 0.0032940652519510677 0 -0.0077998366175675033 0.0032692157905902259 0 -0.0078445893896626154 0.0033641937564270179 0 -0.0077173466622167258 0.0033507277396315769 0 -0.0077753578262444011 0.0032940652519510677 0 -0.0077254746647495336 0.0032211338339127346 0 -0.0077173466622167258 0.0033507277396315769 0 -0.0077753578262444011 0.0032940652519510677 0 -0.0077254746647495336 0.0032211338339127346 0 -0.0077753578262444011 0.0032940652519510677 0 -0.0077998366175675033 0.0032692157905902259 0 -0.0078023756104156437 0.0032425019378092969 0 -0.0077998366175675033 0.0032692157905902259 0 -0.0078224468549834506 0.0032880882945605571 0 -0.0078445893896626154 0.0033641937564270179 0 -0.0077998366175675033 0.0032692157905902259 0 -0.0078224468549834506 0.0032880882945605571 0 -0.0076481048529507016 0.0035306363698134695 0 -0.0075321007157091516 0.0035766333256516281 0 -0.0082322460620610164 0.0038314542739881692 0 -0.0084724452294901338 0.0035868805514379723 0 -0.0082460573689555304 0.0032970819650641999 0 -0.0082322460620610164 0.0038314542739881692 0 -0.0078445893896626154 0.0033641937564270179 0 -0.0082460573689555304 0.0032970819650641999 0 -0.0082322460620610164 0.0038314542739881692 0 -0.0078445893896626154 0.0033641937564270179 0 -0.0077173466622167258 0.0033507277396315769 0 -0.015686280777766105 0.0013903859273547527 0 -0.015646559502459752 0.0013431009570455655 0 -0.023096044802918839 -0.00094167046325303405 0 -0.023324751532798588 -0.0007132836216734331 0 -0.023374632567921046 -0.00090224618195456621 0 -0.023324751532798588 -0.0007132836216734331 0 -0.023374632567921046 -0.00090224618195456621 0 -0.023456883952593016 -0.00076118189147834469 0 -0.02351697584875204 -0.0010834631315570446 0 -0.023374632567921046 -0.00090224618195456621 0 -0.023456883952593016 -0.00076118189147834469 0 -0.024191843979911077 -0.00088091714249311892 0 -0.024048679907526266 -0.00061775437324821834 0 -0.02433282614340088 -0.00052554588710838381 0 -0.024191843979911077 -0.00088091714249311892 0 -0.02433282614340088 -0.00052554588710838381 0 -0.02453677160649495 -0.00071972009114978843 0 -0.02433282614340088 -0.00052554588710838381 0 -0.024196538378244255 -0.00024221968852220673 0 -0.02457450126284922 -0.00037677305907049682 0 -0.02433282614340088 -0.00052554588710838381 0 -0.02457450126284922 -0.00037677305907049682 0 -0.02453677160649495 -0.00071972009114978843 0 -0.015646559502459752 0.0013431009570455655 0 -0.015834977782522821 0.0014603613371343208 0 -0.024048679907526266 -0.00061775437324821834 0 -0.02433282614340088 -0.00052554588710838381 0 -0.024196538378244255 -0.00024221968852220673 0 -0.023324751532798588 -0.0007132836216734331 0 -0.023456883952593016 -0.00076118189147834469 0 -0.023422957595583972 -0.00054615148134525395 0 -0.0077173466622167258 0.0033507277396315769 0 -0.0076135637786119486 0.003140492985293833 0 -0.007645746957523865 0.0031741452539830123 0 -0.0197536679074614 0.00012672426521470939 0 -0.015834977782522821 0.0014603613371343208 0 -0.0076765857752469678 0.0031441363820796371 0 -0.0076870450036906641 0.0031743412888926422 0 -0.007645746957523865 0.0031741452539830123 0 -0.0076417588007005079 0.0030162168020065093 0 -0.0076342562562890497 0.0030646313815698364 0 -0.007645746957523865 0.0031741452539830123 0 -0.0033327381399682744 0.0019668963878036291 0 -0.0041595442196554052 0.0018360590257020663 0 -0.015834977782522821 0.0014603613371343208 0 -0.013999183882362154 0.0017430799926439939 0 -0.0076342562562890497 0.0030646313815698364 0 -0.0076135637786119486 0.003140492985293833 0 -0.0076236447036763747 0.0030268961385269844 0 -0.0076342562562890497 0.0030646313815698364 0 -0.0076135637786119486 0.003140492985293833 0 -0.007645746957523865 0.0031741452539830123 0 -0.024196538378244255 -0.00024221968852220673 0 -0.024504924057302716 -4.5326605923105858e-05 0 -0.02457450126284922 -0.00037677305907049682 0 -0.015834977782522821 0.0014603613371343208 0 -0.013884125592607132 0.001853011991290769 0 -0.007771456662220024 0.0026589075228454686 0 -0.0077604288082845233 0.0027955061467127874 0 -0.0078882415658004159 0.0028140437934795304 0 -0.00771963306635554 0.0029850352421167299 0 -0.0077604288082845233 0.0027955061467127874 0 -0.0078882415658004159 0.0028140437934795304 0 -0.0076702321323734038 0.0030033664896468508 0 -0.00771963306635554 0.0029850352421167299 0 -0.0076236447036763747 0.0030268961385269844 0 -0.013429794655087302 0.0018510076500836586 0 -0.013999183882362154 0.0017430799926439939 0 -0.0076702321323734038 0.0030033664896468508 0 -0.0076236447036763747 0.0030268961385269844 0 -0.0076433132087155185 0.0030088416801052156 0 -0.0076417588007005079 0.0030162168020065093 0 -0.0076433132087155185 0.0030088416801052156 0 -0.0076246499582662127 0.0030198230689144189 0 -0.0076417588007005079 0.0030162168020065093 0 -0.0076342562562890497 0.0030646313815698364 0 -0.0076433132087155185 0.0030088416801052156 0 -0.0076342562562890497 0.0030646313815698364 0 -0.0076236447036763747 0.0030268961385269844 0 -0.0076433132087155185 0.0030088416801052156 0 -0.024753415973116831 0.00010450726387874329 0 -0.024987599649601362 -9.4914788911526255e-05 0 -0.024504924057302716 -4.5326605923105858e-05 0 -0.024987599649601362 -9.4914788911526255e-05 0 -0.024504924057302716 -4.5326605923105858e-05 0 -0.024929615669536984 -0.0002500480996817957 0 -0.024504924057302716 -4.5326605923105858e-05 0 -0.024929615669536984 -0.0002500480996817957 0 -0.02457450126284922 -0.00037677305907049682 0 -0.024929615669536984 -0.0002500480996817957 0 -0.024930725364795455 -0.00055463861001314241 0 -0.025151067087027083 -0.00039755896413283678 0 -0.024929615669536984 -0.0002500480996817957 0 -0.02457450126284922 -0.00037677305907049682 0 -0.024930725364795455 -0.00055463861001314241 0 -0.02457450126284922 -0.00037677305907049682 0 -0.02453677160649495 -0.00071972009114978843 0 -0.024930725364795455 -0.00055463861001314241 0 -0.024824218284972797 -0.000852783470017654 0 -0.02453677160649495 -0.00071972009114978843 0 -0.024930725364795455 -0.00055463861001314241 0 -0.025174294749261167 -0.00097827437237564367 0 -0.024824218284972797 -0.000852783470017654 0 -0.024930725364795455 -0.00055463861001314241 0 -0.025174294749261167 -0.00097827437237564367 0 -0.024930725364795455 -0.00055463861001314241 0 -0.02539238978449275 -0.00051743734321841282 0 -0.02539238978449275 -0.00051743734321841282 0 -0.025151067087027083 -0.00039755896413283678 0 -0.025319882041456854 -0.00029390183426080622 0 -0.024930725364795455 -0.00055463861001314241 0 -0.02539238978449275 -0.00051743734321841282 0 -0.025151067087027083 -0.00039755896413283678 0 -0.02539238978449275 -0.00051743734321841282 0 -0.025557851312716259 -0.00036772302919934919 0 -0.025319882041456854 -0.00029390183426080622 0 -0.02539238978449275 -0.00051743734321841282 0 -0.02585124468984178 -0.00056913423078992222 0 -0.025557851312716259 -0.00036772302919934919 0 -0.025639715781092604 -0.00092135940842423319 0 -0.02539238978449275 -0.00051743734321841282 0 -0.02585124468984178 -0.00056913423078992222 0 -0.025772176948933485 -0.00029497247687224591 0 -0.02587196360658409 -0.00015789846380568246 0 -0.02585124468984178 -0.00056913423078992222 0 -0.025460898911514512 -0.00026504310141979668 0 -0.025557851312716259 -0.00036772302919934919 0 -0.026887846094451565 -0.0011087324067642589 0 -0.02585124468984178 -0.00056913423078992222 0 -0.026804075275765088 -0.0001898285529393626 0 -0.025460898911514512 -0.00026504310141979668 0 -0.025420090479514181 -0.0003151515559290554 0 -0.025157990763195581 -0.0001688385290922078 0 -0.025460898911514512 -0.00026504310141979668 0 -0.025557851312716259 -0.00036772302919934919 0 -0.025420090479514181 -0.0003151515559290554 0 -0.025557851312716259 -0.00036772302919934919 0 -0.025420090479514181 -0.0003151515559290554 0 -0.025319882041456854 -0.00029390183426080622 0 -0.025420090479514181 -0.0003151515559290554 0 -0.025282952114878417 -0.00020919554425053396 0 -0.025328303517360384 -0.00027113243506442301 0 -0.024987599649601362 -9.4914788911526255e-05 0 -0.025282952114878417 -0.00020919554425053396 0 -0.025319882041456854 -0.00029390183426080622 0 -0.024929615669536984 -0.0002500480996817957 0 -0.025151067087027083 -0.00039755896413283678 0 -0.025319882041456854 -0.00029390183426080622 0 -0.024987599649601362 -9.4914788911526255e-05 0 -0.024929615669536984 -0.0002500480996817957 0 -0.025319882041456854 -0.00029390183426080622 0 -0.025420090479514181 -0.0003151515559290554 0 -0.025282952114878417 -0.00020919554425053396 0 -0.025319882041456854 -0.00029390183426080622 0 -0.028579290043905893 -0.00066023441344920011 0 -0.028285403495637317 -0.00060340846884733058 0 -0.028800855737171439 -0.00082885098711586171 0 -0.028579290043905893 -0.00066023441344920011 0 -0.028594118717408828 -0.00082542967064282537 0 -0.028285403495637317 -0.00060340846884733058 0 -0.028296548502819492 -0.00095298535134946314 0 -0.028628218001360263 -0.0010852932818454597 0 -0.028594118717408828 -0.00082542967064282537 0 -0.027602063726038222 -0.00083479931529713584 0 -0.028296548502819492 -0.00095298535134946314 0 -0.028285403495637317 -0.00060340846884733058 0 -0.028296548502819492 -0.00095298535134946314 0 -0.028594118717408828 -0.00082542967064282537 0 -0.028285403495637317 -0.00060340846884733058 0 -0.027602063726038222 -0.00083479931529713584 0 -0.026804075275765088 -0.0001898285529393626 0 -0.027429245925127403 3.3612304824115184e-05 0 -0.027602063726038222 -0.00083479931529713584 0 -0.027792286012463703 -0.00016796071530167318 0 -0.027429245925127403 3.3612304824115184e-05 0 -0.027792286012463703 -0.00016796071530167318 0 -0.027429245925127403 3.3612304824115184e-05 0 -0.027703065543962169 1.3081077728612376e-05 0 -0.027094473438036681 -0.0002819447374574708 0 -0.026932249104221657 1.4749319680929898e-05 0 -0.02587196360658409 -0.00015789846380568246 0 -0.025867777791388144 4.9925024367964847e-05 0 -0.025420090479514181 -0.0003151515559290554 0 -0.025157990763195581 -0.0001688385290922078 0 -0.025051750720029624 -0.00040052419876990714 0 -0.025420090479514181 -0.0003151515559290554 0 -0.025051750720029624 -0.00040052419876990714 0 -0.025236550174218414 -0.00051764369317356708 0 -0.025051750720029624 -0.00040052419876990714 0 -0.024669630655272425 -0.00019764073845441384 0 -0.024534423491232693 -0.00053884279455416084 0 -0.025051750720029624 -0.00040052419876990714 0 -0.024534423491232693 -0.00053884279455416084 0 -0.024830609941957463 -0.00075531421499447002 0 -0.025157990763195581 -0.0001688385290922078 0 -0.025051750720029624 -0.00040052419876990714 0 -0.024669630655272425 -0.00019764073845441384 0 -0.025867777791388144 4.9925024367964847e-05 0 -0.025414346660150335 0.00018253484005911703 0 -0.026932249104221657 1.4749319680929898e-05 0 -0.025589540716553439 0.00030885264068239768 0 -0.027792286012463703 -0.00016796071530167318 0 -0.027703065543962169 1.3081077728612376e-05 0 -0.027623418299721533 -6.1246490365884145e-06 0 -0.025414346660150335 0.00018253484005911703 0 -0.023872802669937729 3.4085557490219404e-05 0 -0.024669630655272425 -0.00019764073845441384 0 -0.024534423491232693 -0.00053884279455416084 0 -0.023957330385926345 -0.00045615393356152474 0 -0.024534423491232693 -0.00053884279455416084 0 -0.023957330385926345 -0.00045615393356152474 0 -0.024107166274611468 -0.00093529406456427009 0 -0.027703065543962169 1.3081077728612376e-05 0 -0.027568919673765124 -0.00016032657984455117 0 -0.027623418299721533 -6.1246490365884145e-06 0 -0.027247784042340791 -0.00029608721908186636 0 -0.027568919673765124 -0.00016032657984455117 0 -0.027623418299721533 -6.1246490365884145e-06 0 -0.028370031527141747 -0.00057043803179603698 0 -0.028579290043905893 -0.00066023441344920011 0 -0.028800855737171439 -0.00082885098711586171 0 -0.00066555581814475254 -0.0054218072067966413 0 -0.0020833307685622039 -0.0030242397415854412 0 -0.0028934067027404 -0.0055273575180932776 0 -0.023247524650313278 -0.00088540302874825247 0 -0.023957330385926345 -0.00045615393356152474 0 -0.024107166274611468 -0.00093529406456427009 0 -0.0020833307685622039 -0.0030242397415854412 0 -0.0039419932966805364 -0.0045944504094242574 0 -0.0041696871441909223 -0.0032066240052944319 0 -0.024534423491232693 -0.00053884279455416084 0 -0.024107166274611468 -0.00093529406456427009 0 -0.024830609941957463 -0.00075531421499447002 0 -0.014056009824158432 -0.0019061437702371478 0 -0.014536399835015375 -0.001825828625262374 0 -0.0020833307685622039 -0.0030242397415854412 0 -0.0039419932966805364 -0.0045944504094242574 0 -0.0028934067027404 -0.0055273575180932776 0 -0.0039419932966805364 -0.0045944504094242574 0 -0.0041696871441909223 -0.0032066240052944319 0 -0.0061364481015420179 -0.0033009573878545577 0 -0.025051750720029624 -0.00040052419876990714 0 -0.024830609941957463 -0.00075531421499447002 0 -0.025236550174218414 -0.00051764369317356708 0 -0.014536399835015375 -0.001825828625262374 0 -0.015500108086253076 -0.0016703432169796419 0 -0.0039419932966805364 -0.0045944504094242574 0 -0.0061364481015420179 -0.0033009573878545577 0 -0.0061518736390696856 -0.0049149060429644082 0 -0.004715515756482349 -0.0057085534606196491 0 -0.0061518736390696856 -0.0049149060429644082 0 -0.0064865799464435808 -0.0063640897901591116 0 -0.0039419932966805364 -0.0045944504094242574 0 -0.004715515756482349 -0.0057085534606196491 0 -0.0061518736390696856 -0.0049149060429644082 0 -0.0064865799464435808 -0.0063640897901591116 0 -0.0066504991136795387 -0.0074366497069443946 0 -0.0050557590489636603 -0.0079171358632802256 0 -0.004715515756482349 -0.0057085534606196491 0 -0.0064865799464435808 -0.0063640897901591116 0 -0.0050557590489636603 -0.0079171358632802256 0 -0.004715515756482349 -0.0057085534606196491 0 -0.0036602088785995909 -0.0068073470451067821 0 -0.0050557590489636603 -0.0079171358632802256 0 -0.0036602088785995909 -0.0068073470451067821 0 -0.0031434932570710075 -0.0075276025896102881 0 -0.0050557590489636603 -0.0079171358632802256 0 -0.0039419932966805364 -0.0045944504094242574 0 -0.004715515756482349 -0.0057085534606196491 0 -0.0028934067027404 -0.0055273575180932776 0 -0.004715515756482349 -0.0057085534606196491 0 -0.0028934067027404 -0.0055273575180932776 0 -0.0036602088785995909 -0.0068073470451067821 0 -0.0028934067027404 -0.0055273575180932776 0 -0.0036602088785995909 -0.0068073470451067821 0 -0.0029541550718983419 -0.0066147231337422459 0 -0.0028934067027404 -0.0055273575180932776 0 -0.0029541550718983419 -0.0066147231337422459 0 -0.0022366293104203005 -0.0066490636473458499 0 -0.0036602088785995909 -0.0068073470451067821 0 -0.0031434932570710075 -0.0075276025896102881 0 -0.0029541550718983419 -0.0066147231337422459 0 -0.0031434932570710075 -0.0075276025896102881 0 -0.0029541550718983419 -0.0066147231337422459 0 -0.0022366293104203005 -0.0066490636473458499 0 -0.0031434932570710075 -0.0075276025896102881 0 -0.0022366293104203005 -0.0066490636473458499 0 -0.001053795151885387 -0.0072503072206908719 0 0.0037237688287067045 -0.0045485349359181641 0 0.0041830003031024668 -0.0056087234744527491 0 -0.00066555581814475254 -0.0054218072067966413 0 -0.0028934067027404 -0.0055273575180932776 0 -0.0022366293104203005 -0.0066490636473458499 0 -0.00066555581814475254 -0.0054218072067966413 0 -0.0022366293104203005 -0.0066490636473458499 0 -0.001053795151885387 -0.0072503072206908719 0 -0.008993122030415716 -0.0044605599452364709 0 -0.01054740052057278 -0.0045756423172420161 0 -0.0093684342761049446 -0.0058353410411957785 0 -0.008993122030415716 -0.0044605599452364709 0 -0.01054740052057278 -0.0045756423172420161 0 -0.0098847564516414289 -0.0033604639454895588 0 -0.011694452051893458 -0.003346728154582783 0 -0.01054740052057278 -0.0045756423172420161 0 -0.0098847564516414289 -0.0033604639454895588 0 -0.024987599649601362 -9.4914788911526255e-05 0 -0.025282952114878417 -0.00020919554425053396 0 -0.025129076135185308 -2.3192762382624097e-05 0 -0.008993122030415716 -0.0044605599452364709 0 -0.0098847564516414289 -0.0033604639454895588 0 -0.0080353439681730959 -0.0033441245935684231 0 -0.015506811801655591 -0.00082143053234507216 0 -0.016179448262128207 -0.0013773508716147507 0 -0.025282952114878417 -0.00020919554425053396 0 -0.025129076135185308 -2.3192762382624097e-05 0 -0.025328303517360384 -0.00027113243506442301 0 -0.025420090479514181 -0.0003151515559290554 0 -0.025236550174218414 -0.00051764369317356708 0 -0.025328303517360384 -0.00027113243506442301 0 -0.015500108086253076 -0.0016703432169796419 0 -0.016179448262128207 -0.0013773508716147507 0 -0.0061364481015420179 -0.0033009573878545577 0 -0.0080353439681730959 -0.0033441245935684231 0 -0.0061518736390696856 -0.0049149060429644082 0 -0.0080353439681730959 -0.0033441245935684231 0 -0.0061518736390696856 -0.0049149060429644082 0 -0.0078058004699194071 -0.0052901857292712321 0 -0.008993122030415716 -0.0044605599452364709 0 -0.0080353439681730959 -0.0033441245935684231 0 -0.0078058004699194071 -0.0052901857292712321 0 -0.0061518736390696856 -0.0049149060429644082 0 -0.0078058004699194071 -0.0052901857292712321 0 -0.0064865799464435808 -0.0063640897901591116 0 -0.0064865799464435808 -0.0063640897901591116 0 -0.0081459009848998294 -0.0071100396658830287 0 -0.0066504991136795387 -0.0074366497069443946 0 -0.0078058004699194071 -0.0052901857292712321 0 -0.0064865799464435808 -0.0063640897901591116 0 -0.0081459009848998294 -0.0071100396658830287 0 0.0014822615997387271 -0.0011502605499726071 0 -0.00058953048132784152 -0.0013449148141733895 0 0.0092877369923951986 0.0031938506502446227 0 0.0089368028431497139 0.0034329894070588216 0 0.0091625493480924514 0.0031160086953742946 0 -0.008993122030415716 -0.0044605599452364709 0 -0.0078058004699194071 -0.0052901857292712321 0 -0.0093684342761049446 -0.0058353410411957785 0 -0.0078058004699194071 -0.0052901857292712321 0 -0.0081459009848998294 -0.0071100396658830287 0 -0.0093684342761049446 -0.0058353410411957785 0 0.0087034396751121974 0.0033117966439398169 0 0.0089368028431497139 0.0034329894070588216 0 0.008776386377069692 0.0034103912286589742 0 -0.0031868243879029342 -0.0012377688695948479 0 -0.00058953048132784152 -0.0013449148141733895 0 0.0089368028431497139 0.0034329894070588216 0 0.0088771454653877903 0.0032926835227962961 0 0.0091625493480924514 0.0031160086953742946 0 0.0089368028431497139 0.0034329894070588216 0 0.008776386377069692 0.0034103912286589742 0 0.0088771454653877903 0.0032926835227962961 0 0.0088771454653877903 0.0032926835227962961 0 0.0090140584742282922 0.0030133824291358547 0 0.0086357415653373088 0.0028636987938158399 0 0.0088771454653877903 0.0032926835227962961 0 0.0090140584742282922 0.0030133824291358547 0 0.0091625493480924514 0.0031160086953742946 0 0.0084775797314851648 0.0041717067741204924 0 0.0086048971209787186 0.0042782811554378667 0 0.0085299803714579611 0.0042685044705942582 0 0.0086357415653373088 0.0028636987938158399 0 0.0090988259732903854 0.0025184589159944148 0 0.0090035226115853881 0.0013682421934957797 0 0.0092712792076602227 0.0034564564719075192 0 0.010056694350616537 0.0030994960631932455 0 0.0090140584742282922 0.0030133824291358547 0 0.0086357415653373088 0.0028636987938158399 0 0.0090988259732903854 0.0025184589159944148 0 0.0090140584742282922 0.0030133824291358547 0 0.0090988259732903854 0.0025184589159944148 0 0.0093353142255010631 0.002925318937122382 0 0.010194786413641221 0.0021028842119122483 0 0.0094535365052649534 0.0021394989922255648 0 0.0093353142255010631 0.002925318937122382 0 0.0090988259732903854 0.0025184589159944148 0 0.0094535365052649534 0.0021394989922255648 0 0.0093353142255010631 0.002925318937122382 0 0.0092877369923951986 0.0031938506502446227 0 0.0091625493480924514 0.0031160086953742946 0 0.0092931258966399335 0.0029007265448078392 0 0.0093353142255010631 0.002925318937122382 0 0.0091625493480924514 0.0031160086953742946 0 0.0092931258966399335 0.0029007265448078392 0 0.0090140584742282922 0.0030133824291358547 0 0.0093353142255010631 0.002925318937122382 0 0.0091625493480924514 0.0031160086953742946 0 -0.0081459009848998294 -0.0071100396658830287 0 -0.0066504991136795387 -0.0074366497069443946 0 -0.0069023462283393702 -0.0083610544872469786 0 0.0040631492714502072 -0.00067794327959839237 0 0.006156628065013099 0.00015076893172053985 0 0.0014822615997387271 -0.0011502605499726071 0 0.0040631492714502072 -0.00067794327959839237 0 0.0092877369923951986 0.0031938506502446227 0 0.0094687528281435958 0.0029499176302797549 0 0.0092931258966399335 0.0029007265448078392 0 -0.0066504991136795387 -0.0074366497069443946 0 -0.0069023462283393702 -0.0083610544872469786 0 -0.0050557590489636603 -0.0079171358632802256 0 0.0091855879000589183 0.0028022822740533097 0 0.0092461411790199545 0.0028848803387851105 0 0.0090589465435827986 0.0028721081841288488 0 0.0095486522364032576 0.00040155944212769346 0 0.0092655925500002932 -0.0013695345526361748 0 0.0040631492714502072 -0.00067794327959839237 0 0.0092655925500002932 -0.0013695345526361748 0 0.011173650061719264 0.0026536735698893285 0 0.011959136752960651 0.0020166769612238243 0 0.012836583061540022 0.0021280912790207747 0 0.011173650061719264 0.0026536735698893285 0 0.011152898608319006 0.0017897318770373493 0 0.011959136752960651 0.0020166769612238243 0 0.010194786413641221 0.0021028842119122483 0 0.0093353142255010631 0.002925318937122382 0 0.011173650061719264 0.0026536735698893285 0 0.0093353142255010631 0.002925318937122382 0 0.0092931258966399335 0.0029007265448078392 0 0.0092461411790199545 0.0028848803387851105 0 0.0091855879000589183 0.0028022822740533097 0 0.0092931258966399335 0.0029007265448078392 0 0.0092461411790199545 0.0028848803387851105 0 0.0094116807345333668 0.00091870413159126621 0 0.0095486522364032576 0.00040155944212769346 0 0.010194786413641221 0.0021028842119122483 0 0.011173650061719264 0.0026536735698893285 0 0.011152898608319006 0.0017897318770373493 0 0.010194786413641221 0.0021028842119122483 0 0.011152898608319006 0.0017897318770373493 0 0.010527042068672724 0.0014508030742486414 0 0.011152898608319006 0.0017897318770373493 0 0.011044007303890248 0.0011050046208954379 0 0.010527042068672724 0.0014508030742486414 0 0.011152898608319006 0.0017897318770373493 0 0.011044007303890248 0.0011050046208954379 0 0.011837319595023476 0.0011961413998071411 0 0.011044007303890248 0.0011050046208954379 0 0.010527042068672724 0.0014508030742486414 0 0.010596559227499578 0.00074734237700939128 0 0.012290905645494366 0.0011779541840356142 0 0.013148352681683274 0.0019284826592079756 0 0.013064324079054815 0.00068076143766209948 0 0.011009602760186513 0.00024380706117999005 0 0.0092655925500002932 -0.0013695345526361748 0 0.011959136752960651 0.0020166769612238243 0 0.011837319595023476 0.0011961413998071411 0 0.012836583061540022 0.0021280912790207747 0 0.011152898608319006 0.0017897318770373493 0 0.011959136752960651 0.0020166769612238243 0 0.011837319595023476 0.0011961413998071411 0 0.012956676252301336 -0.0001025007934234256 0 0.011782774520608308 0.00034304013815638176 0 0.013791909843586888 0.00039841682303254811 0 0.012290905645494366 0.0011779541840356142 0 0.011782774520608308 0.00034304013815638176 0 0.013064324079054815 0.00068076143766209948 0 0.012659498769956453 -0.00099769596569087974 0 0.012845390333880746 -0.0012057423399102827 0 0.012956676252301336 -0.0001025007934234256 0 0.011782774520608308 0.00034304013815638176 0 0.011929741476598569 -0.00035848542988594408 0 0.010527042068672724 0.0014508030742486414 0 0.010596559227499578 0.00074734237700939128 0 0.009939207529984076 0.00073610139245958281 0 0.011044007303890248 0.0011050046208954379 0 0.010596559227499578 0.00074734237700939128 0 0.011027578945704454 0.00018538549213130984 0 0.012290905645494366 0.0011779541840356142 0 0.011782774520608308 0.00034304013815638176 0 0.011027578945704454 0.00018538549213130984 0 0.011044007303890248 0.0011050046208954379 0 0.011837319595023476 0.0011961413998071411 0 0.011027578945704454 0.00018538549213130984 0 0.011009602760186513 0.00024380706117999005 0 0.01113140164112509 0.00034873977856244139 0 0.011782774520608308 0.00034304013815638176 0 0.01114975383040759 -0.00034199905540722612 0 0.011929741476598569 -0.00035848542988594408 0 0.011782774520608308 0.00034304013815638176 0 0.011027578945704454 0.00018538549213130984 0 0.01114975383040759 -0.00034199905540722612 0 0.011027578945704454 0.00018538549213130984 0 0.010513261110034207 0.00014216411131400138 0 0.01114975383040759 -0.00034199905540722612 0 0.010596559227499578 0.00074734237700939128 0 0.011027578945704454 0.00018538549213130984 0 0.010513261110034207 0.00014216411131400138 0 0.010056694350616537 0.0030994960631932455 0 0.01187068646506073 0.0025689868592813649 0 0.010513261110034207 0.00014216411131400138 0 0.009939207529984076 0.00073610139245958281 0 0.0099017076083304807 -0.00071758911925675229 0 0.009939207529984076 0.00073610139245958281 0 0.0090035226115853881 0.0013682421934957797 0 0.0099017076083304807 -0.00071758911925675229 0 0.0086048971209787186 0.0042782811554378667 0 0.0086151870560566817 0.0041108909519075006 0 0.0087677061703066057 0.0040719224945876265 0 0.010596559227499578 0.00074734237700939128 0 0.010513261110034207 0.00014216411131400138 0 0.009939207529984076 0.00073610139245958281 0 0.0085657402474992161 0.0041983885047619622 0 0.0086048971209787186 0.0042782811554378667 0 0.0085342808696582187 0.0042464693225357274 0 0.0085657402474992161 0.0041983885047619622 0 0.0086048971209787186 0.0042782811554378667 0 0.0086151870560566817 0.0041108909519075006 0 0.0085657402474992161 0.0041983885047619622 0 0.0086151870560566817 0.0041108909519075006 0 0.0085136377690162111 0.0041491608428380674 0 0.0086048971209787186 0.0042782811554378667 0 0.0085342808696582187 0.0042464693225357274 0 0.0085299803714579611 0.0042685044705942582 0 0.0090988259732903854 0.0025184589159944148 0 0.0094535365052649534 0.0021394989922255648 0 0.0090035226115853881 0.0013682421934957797 0 0.0094535365052649534 0.0021394989922255648 0 0.0090035226115853881 0.0013682421934957797 0 0.0097559584057699007 0.0015380802158895758 0 0.010194786413641221 0.0021028842119122483 0 0.010527042068672724 0.0014508030742486414 0 0.0097559584057699007 0.0015380802158895758 0 0.010194786413641221 0.0021028842119122483 0 0.0094535365052649534 0.0021394989922255648 0 0.0097559584057699007 0.0015380802158895758 0 0.010527042068672724 0.0014508030742486414 0 0.009939207529984076 0.00073610139245958281 0 0.0097559584057699007 0.0015380802158895758 0 0.009939207529984076 0.00073610139245958281 0 0.0090035226115853881 0.0013682421934957797 0 0.0097559584057699007 0.0015380802158895758 0 0.0092193770167225842 -0.0059041380075779554 0 0.0092086752800684159 -0.005900305780976221 0 0.0092176789548919225 -0.0058894214988590363 0 0.0092321461556078149 -0.0059122376224136257 0 0.0092239538770985934 -0.0059093103976978218 0 0.0092193770167225842 -0.0059041380075779554 0 0.0092239538770985934 -0.0059093103976978218 0 0.0092193770167225842 -0.0059041380075779554 0 0.0092176789548919225 -0.0058894214988590363 0 0.0092233325521634893 -0.0059211213014792232 0 0.0092193770167225842 -0.0059041380075779554 0 0.0092086752800684159 -0.005900305780976221 0 0.0092233325521634893 -0.0059211213014792232 0 0.0092089697046063273 -0.005941356087324148 0 0.0092086752800684159 -0.005900305780976221 0 0.0091969556094592172 -0.0059100772557390728 0 0.0092089697046063273 -0.005941356087324148 0 0.0092086752800684159 -0.005900305780976221 0 0.0092086752800684159 -0.005900305780976221 0 0.0092109877904738152 -0.0058819489459473592 0 0.0092068193895182057 -0.0058566522122065444 0 0.0091969556094592172 -0.0059100772557390728 0 0.0092109877904738152 -0.0058819489459473592 0 0.009275122361193976 -0.0058640164257218264 0 0.0091969556094592172 -0.0059100772557390728 0 0.0092086752800684159 -0.005900305780976221 0 0.0092109877904738152 -0.0058819489459473592 0 0.0092086752800684159 -0.005900305780976221 0 0.0092068193895182057 -0.0058566522122065444 0 0.0092176789548919225 -0.0058894214988590363 0 0.0092068193895182057 -0.0058566522122065444 0 0.0092176789548919225 -0.0058894214988590363 0 0.0092032799643768683 -0.0058848380089290275 0 0.010454417116570594 -0.0043050284305797305 0 0.010857668421399971 -0.003349287763664261 0 0.0092722877006563998 -0.0057778995096752009 0 0.0094404020831480567 -0.0057018481672082358 0 0.0092291227117009596 -0.0056738564687134532 0 0.0092068193895182057 -0.0058566522122065444 0 0.0092722877006563998 -0.0057778995096752009 0 0.0092291227117009596 -0.0056738564687134532 0 0.0092722877006563998 -0.0057778995096752009 0 0.009275122361193976 -0.0058640164257218264 0 0.0094404020831480567 -0.0057018481672082358 0 0.0092068193895182057 -0.0058566522122065444 0 0.0092722877006563998 -0.0057778995096752009 0 0.009275122361193976 -0.0058640164257218264 0 0.0037237688287067045 -0.0045485349359181641 0 0.0013998463476359564 -0.0037352766606275436 0 0.0038262495196048647 -0.0036359850744507823 0 0.0048306895804508818 -0.0026601401284384388 0 0.0053713309655505402 -0.003163531381606007 0 0.0037237688287067045 -0.0045485349359181641 0 0.0064292119246360463 -0.0033245534195284151 0 0.0092109877904738152 -0.0058819489459473592 0 0.0092068193895182057 -0.0058566522122065444 0 0.009275122361193976 -0.0058640164257218264 0 0.0040631492714502072 -0.00067794327959839237 0 0.0013998463476359564 -0.0037352766606275436 0 0.0048306895804508818 -0.0026601401284384388 0 0.0053713309655505402 -0.003163531381606007 0 0.0057764701677815071 -0.0023978153974037577 0 0.0068912789050328974 -0.00270453605782208 0 0.0053713309655505402 -0.003163531381606007 0 0.0057764701677815071 -0.0023978153974037577 0 0.0064292119246360463 -0.0033245534195284151 0 0.0092655925500002932 -0.0013695345526361748 0 0.0048306895804508818 -0.0026601401284384388 0 0.0057764701677815071 -0.0023978153974037577 0 0.0058785202809621363 -0.001674630958807232 0 0.0068912789050328974 -0.00270453605782208 0 0.0057764701677815071 -0.0023978153974037577 0 0.0058785202809621363 -0.001674630958807232 0 0.0092655925500002932 -0.0013695345526361748 0 0.012213213424795756 -0.0021159422829513316 0 0.013148352681683274 0.0019284826592079756 0 0.013064324079054815 0.00068076143766209948 0 0.014149918805640899 0.00088961875417143332 0 0.010371829667870666 -0.0018030309907631882 0 0.011529901810653892 -0.0029672386130111593 0 0.011189809639491373 -0.0023230937092938698 0 0.012845390333880746 -0.0012057423399102827 0 0.012213213424795756 -0.0021159422829513316 0 0.013791909843586888 0.00039841682303254811 0 0.01376401854580018 -6.5317406889345281e-05 0 0.013802896387548129 5.79944792826146e-05 0 0.012956676252301336 -0.0001025007934234256 0 0.013791909843586888 0.00039841682303254811 0 0.014101728728319647 -5.6414457363702316e-05 0 0.013791909843586888 0.00039841682303254811 0 0.014101728728319647 -5.6414457363702316e-05 0 0.013802896387548129 5.79944792826146e-05 0 0.014101728728319647 -5.6414457363702316e-05 0 0.013802896387548129 5.79944792826146e-05 0 0.013450896146833549 0.00036996896275784613 0 0.013802896387548129 5.79944792826146e-05 0 0.013733865400196719 -6.4473493565162649e-05 0 0.013450896146833549 0.00036996896275784613 0 0.013140139525755675 -0.0025994587874219217 0 0.0133365855024316 -0.002798283040809711 0 0.013069506913408189 -0.002834704899898957 0 0.012392639067154725 -0.0022160586308660793 0 0.01474989401128776 -0.0017002393768492049 0 0.01376401854580018 -6.5317406889345281e-05 0 0.013802896387548129 5.79944792826146e-05 0 0.013733865400196719 -6.4473493565162649e-05 0 0.012525299464980467 -0.0036721242361943316 0 0.012513264207536351 -0.0037085026145785992 0 0.012283387635590897 -0.0034323254886121576 0 0.012392639067154725 -0.0022160586308660793 0 0.012115033175263329 -0.0023223133770236292 0 0.012605652902186116 -0.0016370868457170095 0 0.012960030343642943 -0.0019952870686330455 0 0.013108651648544431 -0.0015362113038337379 0 0.012213213424795756 -0.0021159422829513316 0 0.012115033175263329 -0.0023223133770236292 0 0.012213213424795756 -0.0021159422829513316 0 0.012392639067154725 -0.0022160586308660793 0 0.012115033175263329 -0.0023223133770236292 0 0.010857668421399971 -0.003349287763664261 0 0.011687809883149335 -0.0029359483021071803 0 0.011189809639491373 -0.0023230937092938698 0 0.011940745590830106 -0.0021497920352796409 0 0.010371829667870666 -0.0018030309907631882 0 0.011189809639491373 -0.0023230937092938698 0 0.011940745590830106 -0.0021497920352796409 0 0.0092655925500002932 -0.0013695345526361748 0 0.010857668421399971 -0.003349287763664261 0 0.011529901810653892 -0.0029672386130111593 0 0.011687809883149335 -0.0029359483021071803 0 0.011189809639491373 -0.0023230937092938698 0 0.012115033175263329 -0.0023223133770236292 0 0.010665690158655481 -0.0038025796426351178 0 0.010857668421399971 -0.003349287763664261 0 0.010665690158655481 -0.0038025796426351178 0 0.010903791523448374 -0.0034922391902131333 0 0.01092828923597192 -0.0034129085769044826 0 0.011093609691537555 -0.0034625582628957504 0 0.0092176789548919225 -0.0058894214988590363 0 0.0092032799643768683 -0.0058848380089290275 0 0.0092255860148400485 -0.0059118483374609298 0 0.012513264207536351 -0.0037085026145785992 0 0.012034471876339199 -0.0038190131547629629 0 0.012283387635590897 -0.0034323254886121576 0 0.012392639067154725 -0.0022160586308660793 0 0.013691032591548332 -0.0030294284238128028 0 0.011919808141199995 -0.0034983777320643943 0 0.012034471876339199 -0.0038190131547629629 0 0.012283387635590897 -0.0034323254886121576 0 0.010260409610674603 -0.0040089076372681288 0 0.010665690158655481 -0.0038025796426351178 0 0.0092239538770985934 -0.0059093103976978218 0 0.0092176789548919225 -0.0058894214988590363 0 0.0092255860148400485 -0.0059118483374609298 0 0.0092332154730042533 -0.0059313346391094918 0 0.0092239538770985934 -0.0059093103976978218 0 0.0092255860148400485 -0.0059118483374609298 0 0.014273135184592653 -0.0036249369838409914 0 0.015435415313143854 -0.003949477776415437 0 0.014884562869424202 -0.0046249625946926422 0 0.015435415313143854 -0.003949477776415437 0 0.014884562869424202 -0.0046249625946926422 0 0.015806508919691084 -0.004599129174621918 0 0.014571314052196646 -0.0057631914490793726 0 0.014884562869424202 -0.0046249625946926422 0 0.015645309236570079 -0.005200514207413953 0 0.014571314052196646 -0.0057631914490793726 0 0.015645309236570079 -0.005200514207413953 0 0.015950258768393163 -0.0055052496266425471 0 0.013007905538110509 -0.0037874518253260543 0 0.013691032591548332 -0.0030294284238128028 0 0.014884562869424202 -0.0046249625946926422 0 0.015645309236570079 -0.005200514207413953 0 0.015806508919691084 -0.004599129174621918 0 0.015645309236570079 -0.005200514207413953 0 0.016191781993959389 -0.0050329308137456686 0 0.015806508919691084 -0.004599129174621918 0 0.015645309236570079 -0.005200514207413953 0 0.0159307160250685 -0.0054525525585339884 0 0.016191781993959389 -0.0050329308137456686 0 0.013843450496465376 -0.0031870408744645415 0 0.013691032591548332 -0.0030294284238128028 0 0.016191781993959389 -0.0050329308137456686 0 0.015806508919691084 -0.004599129174621918 0 0.016462842663628626 -0.0046640373195199489 0 0.015806508919691084 -0.004599129174621918 0 0.016247084914231311 -0.0041083630631610808 0 0.016462842663628626 -0.0046640373195199489 0 0.015435415313143854 -0.003949477776415437 0 0.015806508919691084 -0.004599129174621918 0 0.016247084914231311 -0.0041083630631610808 0 0.015435415313143854 -0.003949477776415437 0 0.016247084914231311 -0.0041083630631610808 0 0.01638601396286286 -0.0035118192168083627 0 0.016247084914231311 -0.0041083630631610808 0 0.016462842663628626 -0.0046640373195199489 0 0.017483015470098579 -0.003883973213660775 0 0.016462842663628626 -0.0046640373195199489 0 0.017062939533745422 -0.0052242614458352724 0 0.017483015470098579 -0.003883973213660775 0 0.0159307160250685 -0.0054525525585339884 0 0.016191781993959389 -0.0050329308137456686 0 0.017062939533745422 -0.0052242614458352724 0 0.013691032591548332 -0.0030294284238128028 0 0.01474989401128776 -0.0017002393768492049 0 0.016191781993959389 -0.0050329308137456686 0 0.016462842663628626 -0.0046640373195199489 0 0.017062939533745422 -0.0052242614458352724 0 0.014101728728319647 -5.6414457363702316e-05 0 0.013450896146833549 0.00036996896275784613 0 0.014945285506325699 0.00116148894601176 0 0.019085134336069599 0.0016592288708912565 0 0.018764107700353742 0.0016236779617879058 0 0.018961863598542881 0.0011286648341771652 0 0.01474989401128776 -0.0017002393768492049 0 0.016296736211337867 -0.0007932907495326575 0 0.018764107700353742 0.0016236779617879058 0 0.018961863598542881 0.0011286648341771652 0 0.01865160717018104 0.0012939986333856365 0 0.01474989401128776 -0.0017002393768492049 0 0.016842635311317827 -0.0011607050609578984 0 0.016842635311317827 -0.0011607050609578984 0 0.017851679321464652 -0.00099179705812415934 0 0.018961863598542881 0.0011286648341771652 0 0.018971104015531842 0.00058953286908045889 0 0.018616370485318692 0.0010347126513237939 0 0.017483015470098579 -0.003883973213660775 0 0.017897129195946819 -0.0029166032809369658 0 0.017044146531421119 -0.003043072068928252 0 0.017897129195946819 -0.0029166032809369658 0 0.017044146531421119 -0.003043072068928252 0 0.017070750632841625 -0.002372265513766317 0 0.017044146531421119 -0.003043072068928252 0 0.01605080499493234 -0.0027280310248928102 0 0.017070750632841625 -0.002372265513766317 0 0.016247084914231311 -0.0041083630631610808 0 0.017483015470098579 -0.003883973213660775 0 0.01638601396286286 -0.0035118192168083627 0 0.017483015470098579 -0.003883973213660775 0 0.017044146531421119 -0.003043072068928252 0 0.01638601396286286 -0.0035118192168083627 0 0.015435415313143854 -0.003949477776415437 0 0.01638601396286286 -0.0035118192168083627 0 0.015095296627315508 -0.0030906199200616468 0 0.015982683051695271 -0.0029314711264645491 0 0.01564933047691008 -0.0023420106468697807 0 0.01638601396286286 -0.0035118192168083627 0 0.015095296627315508 -0.0030906199200616468 0 0.015328922489779084 -0.0019380001087730052 0 0.017044146531421119 -0.003043072068928252 0 0.01638601396286286 -0.0035118192168083627 0 0.01605080499493234 -0.0027280310248928102 0 0.014186770572057621 -0.0024701170266143513 0 0.015328922489779084 -0.0019380001087730052 0 0.014238600729777709 -0.0016729577193345775 0 0.014186770572057621 -0.0024701170266143513 0 0.015095296627315508 -0.0030906199200616468 0 0.015328922489779084 -0.0019380001087730052 0 0.014273135184592653 -0.0036249369838409914 0 0.015435415313143854 -0.003949477776415437 0 0.015095296627315508 -0.0030906199200616468 0 0.014273135184592653 -0.0036249369838409914 0 0.014186770572057621 -0.0024701170266143513 0 0.015095296627315508 -0.0030906199200616468 0 0.018091688026813373 0.0014796226630299659 0 0.018254109624769161 0.0013837864958638373 0 0.018039104379398048 0.0012876068584629795 0 0.018091688026813373 0.0014796226630299659 0 0.017798346625191929 0.0014034759093471448 0 0.018039104379398048 0.0012876068584629795 0 0.015435743541212207 0.0022759243115249555 0 0.016533671596164513 0.0017826011007840998 0 0.015227207125289513 0.0022023950469397839 0 0.015435743541212207 0.0022759243115249555 0 0.013495158059832211 0.0026013368061949629 0 0.013545738252546418 0.0026299546646619092 0 0.0135213318049681 0.0025972966139266359 0 0.013545738252546418 0.0026299546646619092 0 0.0135213318049681 0.0025972966139266359 0 0.013542697200231615 0.0025979113385751489 0 0.0135213318049681 0.0025972966139266359 0 0.013519860847878656 0.0025754915566576493 0 0.01349848852342236 0.0025866256770687704 0 0.013542697200231615 0.0025979113385751489 0 0.013519860847878656 0.0025754915566576493 0 0.013554789102187862 0.0025725839139074586 0 0.011551099937907275 0.0032268126081907772 0 0.011734172077655014 0.0037758566010519172 0 0.0135213318049681 0.0025972966139266359 0 0.013542697200231615 0.0025979113385751489 0 0.013519860847878656 0.0025754915566576493 0 0.013519860847878656 0.0025754915566576493 0 0.01349848852342236 0.0025866256770687704 0 0.013485681663204536 0.0025741836653726813 0 0.011551099937907275 0.0032268126081907772 0 0.01187068646506073 0.0025689868592813649 0 0.013495158059832211 0.0026013368061949629 0 0.0135213318049681 0.0025972966139266359 0 0.01349848852342236 0.0025866256770687704 0 0.013495158059832211 0.0026013368061949629 0 0.01349848852342236 0.0025866256770687704 0 0.013483084459023478 0.002578144047816791 0 0.01349848852342236 0.0025866256770687704 0 0.013483084459023478 0.002578144047816791 0 0.013485681663204536 0.0025741836653726813 0 0.011889523648348773 0.0025552047277415096 0 0.01187068646506073 0.0025689868592813649 0 0.0099017076083304807 -0.00071758911925675229 0 0.01114975383040759 -0.00034199905540722612 0 0.011633077676911442 -0.0012085792291850392 0 0.013483084459023478 0.002578144047816791 0 0.01348599428059102 0.0025691657917476384 0 0.013448211986114457 0.0025642623639361194 0 0.013495158059832211 0.0026013368061949629 0 0.013483084459023478 0.002578144047816791 0 0.013448211986114457 0.0025642623639361194 0 0.015227207125289513 0.0022023950469397839 0 0.014016021290057679 0.0019188586589710141 0 0.01187068646506073 0.0025689868592813649 0 0.014016021290057679 0.0019188586589710141 0 0.010513261110034207 0.00014216411131400138 0 0.0099017076083304807 -0.00071758911925675229 0 0.01114975383040759 -0.00034199905540722612 0 0.01114975383040759 -0.00034199905540722612 0 0.011633077676911442 -0.0012085792291850392 0 0.011929741476598569 -0.00035848542988594408 0 0.018419026890359718 0.0014688946365104183 0 0.018378482147198141 0.0014583573089067556 0 0.018254109624769161 0.0013837864958638373 0 0.018511749948200824 0.0014293715193843849 0 0.018419026890359718 0.0014688946365104183 0 0.018378482147198141 0.0014583573089067556 0 0.014049490186484799 0.001912725081366214 0 0.014016021290057679 0.0019188586589710141 0 0.018764107700353742 0.0016236779617879058 0 0.018158656913375735 0.0015220712909057982 0 0.018431048490942511 0.0014186757387877934 0 0.014101728728319647 -5.6414457363702316e-05 0 0.014945285506325699 0.00116148894601176 0 0.018158656913375735 0.0015220712909057982 0 0.014101728728319647 -5.6414457363702316e-05 0 0.018511749948200824 0.0014293715193843849 0 0.018158656913375735 0.0015220712909057982 0 0.012956676252301336 -0.0001025007934234256 0 0.014101728728319647 -5.6414457363702316e-05 0 0.011633077676911442 -0.0012085792291850392 0 0.014101728728319647 -5.6414457363702316e-05 0 0.018511749948200824 0.0014293715193843849 0 0.018916979336220965 0.0013221832914192613 0 0.016296736211337867 -0.0007932907495326575 0 0.016834002571170899 -0.00050233525775761605 0 0.014069348307830642 0.0014216389067420398 0 0.014016021290057679 0.0019188586589710141 0 0.012956676252301336 -0.0001025007934234256 0 0.011633077676911442 -0.0012085792291850392 0 0.011929741476598569 -0.00035848542988594408 0 0.018511749948200824 0.0014293715193843849 0 0.018378482147198141 0.0014583573089067556 0 0.018158656913375735 0.0015220712909057982 0 0.018378482147198141 0.0014583573089067556 0 0.018158656913375735 0.0015220712909057982 0 0.018431048490942511 0.0014186757387877934 0 0.018764107700353742 0.0016236779617879058 0 0.018431048490942511 0.0014186757387877934 0 0.01865160717018104 0.0012939986333856365 0 0.018961863598542881 0.0011286648341771652 0 0.01865160717018104 0.0012939986333856365 0 0.018616370485318692 0.0010347126513237939 0 0.018431048490942511 0.0014186757387877934 0 0.01865160717018104 0.0012939986333856365 0 0.018456325126733272 0.001324493390348405 0 0.018378482147198141 0.0014583573089067556 0 0.018431048490942511 0.0014186757387877934 0 0.018456325126733272 0.001324493390348405 0 0.018456325126733272 0.001324493390348405 0 0.018413359159004699 0.0012151199339993592 0 0.018616370485318692 0.0010347126513237939 0 0.01865160717018104 0.0012939986333856365 0 0.018456325126733272 0.001324493390348405 0 0.018616370485318692 0.0010347126513237939 0 0.018091688026813373 0.0014796226630299659 0 0.018419026890359718 0.0014688946365104183 0 0.018254109624769161 0.0013837864958638373 0 0.018254109624769161 0.0013837864958638373 0 0.018413359159004699 0.0012151199339993592 0 0.018320658878152301 0.0010824437480017688 0 0.018378482147198141 0.0014583573089067556 0 0.018456325126733272 0.001324493390348405 0 0.018254109624769161 0.0013837864958638373 0 0.018456325126733272 0.001324493390348405 0 0.018254109624769161 0.0013837864958638373 0 0.018413359159004699 0.0012151199339993592 0 0.018413359159004699 0.0012151199339993592 0 0.018320658878152301 0.0010824437480017688 0 0.018616370485318692 0.0010347126513237939 0 0.018320658878152301 0.0010824437480017688 0 0.018616370485318692 0.0010347126513237939 0 0.018481825024434365 0.00057948298528499409 0 0.018971104015531842 0.00058953286908045889 0 0.018616370485318692 0.0010347126513237939 0 0.018481825024434365 0.00057948298528499409 0 0.018481825024434365 0.00057948298528499409 0 0.017951497852707311 0.00074330242876683578 0 0.017791772503420171 5.3560052125476314e-05 0 0.018320658878152301 0.0010824437480017688 0 0.018481825024434365 0.00057948298528499409 0 0.017951497852707311 0.00074330242876683578 0 0.018254109624769161 0.0013837864958638373 0 0.018320658878152301 0.0010824437480017688 0 0.018039104379398048 0.0012876068584629795 0 0.018320658878152301 0.0010824437480017688 0 0.017951497852707311 0.00074330242876683578 0 0.018039104379398048 0.0012876068584629795 0 0.017208460403256812 0.0019919772968455545 0 0.017419737882979819 0.0010734861633251709 0 0.016836037469634933 0.0014391836851375269 0 0.017951497852707311 0.00074330242876683578 0 0.018039104379398048 0.0012876068584629795 0 0.017419737882979819 0.0010734861633251709 0 0.017208460403256812 0.0019919772968455545 0 0.018039104379398048 0.0012876068584629795 0 0.017419737882979819 0.0010734861633251709 0 0.01749160293553682 0.00057362351926349992 0 0.01672979302480268 0.00048446921403790606 0 0.017791772503420171 5.3560052125476314e-05 0 0.017951497852707311 0.00074330242876683578 0 0.01749160293553682 0.00057362351926349992 0 0.017791772503420171 5.3560052125476314e-05 0 0.017419737882979819 0.0010734861633251709 0 0.01749160293553682 0.00057362351926349992 0 0.01672979302480268 0.00048446921403790606 0 0.017951497852707311 0.00074330242876683578 0 0.017419737882979819 0.0010734861633251709 0 0.01749160293553682 0.00057362351926349992 0 0.018091308545921756 0.00091378093649425367 0 0.017468297750489928 0.00083176409765332653 0 0.017360612303146512 0.0011730760675628148 0 0.018091308545921756 0.00091378093649425367 0 0.017468297750489928 0.00083176409765332653 0 0.017791547335847691 0.00060305638242153425 0 0.018091308545921756 0.00091378093649425367 0 0.017360612303146512 0.0011730760675628148 0 0.017434896056303554 0.001598446895436925 0 0.015326674213378742 0.0021447332184172311 0 0.016264252226460281 0.001361857393622425 0 0.015360797736684577 0.0029992459141059921 0 0.017053018254593235 0.00089610555137314572 0 0.015685851604983352 0.0019319011984357238 0 0.01672979302480268 0.00048446921403790606 0 0.015009823665724117 0.0016327373129803161 0 0.015489088217173784 0.0015733901379595934 0 0.014802526808061848 0.0017210303054049482 0 0.015326674213378742 0.0021447332184172311 0 0.014699655834941372 0.0027498294603067533 0 0.014802526808061848 0.0017210303054049482 0 0.015326674213378742 0.0021447332184172311 0 0.015489088217173784 0.0015733901379595934 0 0.015685851604983352 0.0019319011984357238 0 0.015670554620492966 0.0019296258179041879 0 0.015326674213378742 0.0021447332184172311 0 0.015489088217173784 0.0015733901379595934 0 0.016264252226460281 0.001361857393622425 0 0.016836037469634933 0.0014391836851375269 0 0.016264252226460281 0.001361857393622425 0 0.016470625614734058 0.0018440251005203217 0 0.01672979302480268 0.00048446921403790606 0 0.015489088217173784 0.0015733901379595934 0 0.016264252226460281 0.001361857393622425 0 0.017419737882979819 0.0010734861633251709 0 0.01672979302480268 0.00048446921403790606 0 0.016836037469634933 0.0014391836851375269 0 0.01672979302480268 0.00048446921403790606 0 0.016836037469634933 0.0014391836851375269 0 0.016264252226460281 0.001361857393622425 0 0.016533701812655462 0.002459397358147819 0 0.014997560650229681 0.003168972420795251 0 0.015461327322399514 0.0023564698793098423 0 0.015905216118012832 0.0019608106757669362 0 0.016533701812655462 0.002459397358147819 0 0.016338928625726137 0.0013681930870518837 0 0.015905216118012832 0.0019608106757669362 0 0.015461327322399514 0.0023564698793098423 0 0.015242186621559642 0.0016519204366915526 0 0.015905216118012832 0.0019608106757669362 0 0.016533701812655462 0.002459397358147819 0 0.015461327322399514 0.0023564698793098423 0 0.017468297750489928 0.00083176409765332653 0 0.016694293829507774 0.0010794987821690252 0 0.017353852839964663 0.00030175877257079809 0 0.017468297750489928 0.00083176409765332653 0 0.017360612303146512 0.0011730760675628148 0 0.016694293829507774 0.0010794987821690252 0 0.017360612303146512 0.0011730760675628148 0 0.016694293829507774 0.0010794987821690252 0 0.017059641606630219 0.0014289440789176705 0 0.017434896056303554 0.001598446895436925 0 0.017059641606630219 0.0014289440789176705 0 0.016743778801358071 0.0017779651233687187 0 0.014395029566899574 0.0022967327276373472 0 0.013144191887571995 0.002612913303009533 0 0.013617345386244773 0.0030254506164521296 0 0.016694293829507774 0.0010794987821690252 0 0.017059641606630219 0.0014289440789176705 0 0.016743778801358071 0.0017779651233687187 0 0.015685851604983352 0.0019319011984357238 0 0.014986312309445743 0.0023767415839472199 0 0.017360612303146512 0.0011730760675628148 0 0.017434896056303554 0.001598446895436925 0 0.017059641606630219 0.0014289440789176705 0 0.015685851604983352 0.0019319011984357238 0 0.015225427755294129 0.0022796721525420527 0 0.016107908729430725 0.0016859377133061559 0 0.014254465896537501 0.0028827388125175716 0 0.016694293829507774 0.0010794987821690252 0 0.016743778801358071 0.0017779651233687187 0 0.016017937864846222 0.0019460989490613103 0 0.016533701812655462 0.002459397358147819 0 0.015069984346291306 0.0043425977970130789 0 0.014997560650229681 0.003168972420795251 0 0.014986312309445743 0.0023767415839472199 0 0.014254465896537501 0.0028827388125175716 0 0.013144191887571995 0.002612913303009533 0 0.012390526652977631 0.0032591179325861777 0 0.011866639209947754 0.0031524318811496383 0 0.012169096096061099 0.0037031041820512582 0 0.012390526652977631 0.0032591179325861777 0 0.012782398767633547 0.0032885263419752918 0 0.012169096096061099 0.0037031041820512582 0 0.012782398767633547 0.0032885263419752918 0 0.012591244427844477 0.0038265299646092895 0 0.012169096096061099 0.0037031041820512582 0 0.012390526652977631 0.0032591179325861777 0 0.011999050518728287 0.0035045635599414227 0 0.013144191887571995 0.002612913303009533 0 0.012390526652977631 0.0032591179325861777 0 0.012782398767633547 0.0032885263419752918 0 0.012782398767633547 0.0032885263419752918 0 0.012591244427844477 0.0038265299646092895 0 0.013099670791894493 0.0036157216880809682 0 0.012782398767633547 0.0032885263419752918 0 0.013099670791894493 0.0036157216880809682 0 0.013617345386244773 0.0030254506164521296 0 0.013099670791894493 0.0036157216880809682 0 0.013617345386244773 0.0030254506164521296 0 0.013598317707978818 0.0038482317114090681 0 0.013144191887571995 0.002612913303009533 0 0.012782398767633547 0.0032885263419752918 0 0.013617345386244773 0.0030254506164521296 0 0.014802526808061848 0.0017210303054049482 0 0.013617345386244773 0.0030254506164521296 0 0.014699655834941372 0.0027498294603067533 0 0.013617345386244773 0.0030254506164521296 0 0.014480940452819779 0.0035831309940485344 0 0.014699655834941372 0.0027498294603067533 0 0.013617345386244773 0.0030254506164521296 0 0.014480940452819779 0.0035831309940485344 0 0.013598317707978818 0.0038482317114090681 0 0.014480940452819779 0.0035831309940485344 0 0.013876535369264866 0.0046843540277870573 0 0.013598317707978818 0.0038482317114090681 0 0.013876535369264866 0.0046843540277870573 0 0.013598317707978818 0.0038482317114090681 0 0.013036183362795382 0.0042990194374722636 0 0.013099670791894493 0.0036157216880809682 0 0.013598317707978818 0.0038482317114090681 0 0.013036183362795382 0.0042990194374722636 0 0.013036183362795382 0.0042990194374722636 0 0.011926489030022226 0.0049867415228346916 0 0.012004686344925818 0.0045161535794884635 0 0.013876535369264866 0.0046843540277870573 0 0.013036183362795382 0.0042990194374722636 0 0.011926489030022226 0.0049867415228346916 0 0.012591244427844477 0.0038265299646092895 0 0.013099670791894493 0.0036157216880809682 0 0.013036183362795382 0.0042990194374722636 0 0.012591244427844477 0.0038265299646092895 0 0.013036183362795382 0.0042990194374722636 0 0.012492015007788281 0.0042048840993171169 0 0.013036183362795382 0.0042990194374722636 0 0.012492015007788281 0.0042048840993171169 0 0.012004686344925818 0.0045161535794884635 0 0.012492015007788281 0.0042048840993171169 0 0.012069262348745478 0.0041856569928794742 0 0.012004686344925818 0.0045161535794884635 0 0.012591244427844477 0.0038265299646092895 0 0.012492015007788281 0.0042048840993171169 0 0.012069262348745478 0.0041856569928794742 0 0.012169096096061099 0.0037031041820512582 0 0.012591244427844477 0.0038265299646092895 0 0.012069262348745478 0.0041856569928794742 0 0.014322898806403032 0.0025992541347685146 0 0.01393788942937433 0.003111362849142776 0 0.016264252226460281 0.001361857393622425 0 0.016540508539773867 0.0023414298409738903 0 0.016470625614734058 0.0018440251005203217 0 0.013545738252546418 0.0026299546646619092 0 0.013542697200231615 0.0025979113385751489 0 0.013571996659364894 0.0026174484734487018 0 0.015435743541212207 0.0022759243115249555 0 0.01393788942937433 0.003111362849142776 0 0.015435743541212207 0.0022759243115249555 0 0.015703419569174707 0.0023120783672742652 0 0.017054095388745884 0.0020614907510312246 0 0.016540508539773867 0.0023414298409738903 0 0.016470625614734058 0.0018440251005203217 0 0.017208460403256812 0.0019919772968455545 0 0.016836037469634933 0.0014391836851375269 0 0.016470625614734058 0.0018440251005203217 0 0.016264252226460281 0.001361857393622425 0 0.016562905729253664 0.0036034319397615653 0 0.015360797736684577 0.0029992459141059921 0 0.014480940452819779 0.0035831309940485344 0 0.016562905729253664 0.0036034319397615653 0 0.015360797736684577 0.0029992459141059921 0 0.014480940452819779 0.0035831309940485344 0 0.015360797736684577 0.0029992459141059921 0 0.014699655834941372 0.0027498294603067533 0 0.015326674213378742 0.0021447332184172311 0 0.015360797736684577 0.0029992459141059921 0 0.014699655834941372 0.0027498294603067533 0 0.014480940452819779 0.0035831309940485344 0 0.013876535369264866 0.0046843540277870573 0 0.016562905729253664 0.0036034319397615653 0 0.013228794486064396 0.0040467003920104669 0 0.01393788942937433 0.003111362849142776 0 0.012674849258344365 0.0046146073147884875 0 0.013334707485083952 0.0042773115817705144 0 0.013075478974031588 0.0045886997708516229 0 0.013075478974031588 0.0045886997708516229 0 0.012983925112005404 0.0047328063467906058 0 0.013420413370418435 0.0047816241964767471 0 0.012674849258344365 0.0046146073147884875 0 0.013075478974031588 0.0045886997708516229 0 0.012983925112005404 0.0047328063467906058 0 0.01393788942937433 0.003111362849142776 0 0.011734172077655014 0.0037758566010519172 0 0.013542697200231615 0.0025979113385751489 0 0.013571996659364894 0.0026174484734487018 0 0.013554789102187862 0.0025725839139074586 0 0.013334707485083952 0.0042773115817705144 0 0.013075478974031588 0.0045886997708516229 0 0.013420413370418435 0.0047816241964767471 0 0.0085657402474992161 0.0041983885047619622 0 0.0085136377690162111 0.0041491608428380674 0 0.0085342808696582187 0.0042464693225357274 0 0.0086390363044422953 0.0050782268719669803 0 0.0085636853134805364 0.0047124827636448579 0 0.0088972973344919951 0.0048436635308720024 0 0.011734172077655014 0.0037758566010519172 0 0.010954914534507964 0.0039723760922602911 0 0.010954914534507964 0.0039723760922602911 0 0.010708157448630152 0.0040009541074938187 0 0.0085636853134805364 0.0047124827636448579 0 0.0087572848671167956 0.0044157230291010851 0 0.0085299803714579611 0.0042685044705942582 0 0.0085636853134805364 0.0047124827636448579 0 0.0088040242419341556 0.0046338385874285072 0 0.0087572848671167956 0.0044157230291010851 0 0.0085636853134805364 0.0047124827636448579 0 0.0088040242419341556 0.0046338385874285072 0 0.0088972973344919951 0.0048436635308720024 0 0.0089898034908079544 0.0045627521506891684 0 0.0091467719368377512 0.0047104215355608069 0 0.0091977626595470992 0.0044718484240601703 0 0.0088040242419341556 0.0046338385874285072 0 0.0087572848671167956 0.0044157230291010851 0 0.0089898034908079544 0.0045627521506891684 0 0.0088040242419341556 0.0046338385874285072 0 0.0089898034908079544 0.0045627521506891684 0 0.0088972973344919951 0.0048436635308720024 0 0.0089898034908079544 0.0045627521506891684 0 0.0091467719368377512 0.0047104215355608069 0 0.0088972973344919951 0.0048436635308720024 0 0.011734172077655014 0.0037758566010519172 0 0.011070674521112923 0.0044721052373348589 0 0.0091467719368377512 0.0047104215355608069 0 0.0088972973344919951 0.0048436635308720024 0 0.0092053666913289676 0.004999118556502047 0 0.0086390363044422953 0.0050782268719669803 0 0.0088972973344919951 0.0048436635308720024 0 0.0092053666913289676 0.004999118556502047 0 0.012983925112005404 0.0047328063467906058 0 0.013420413370418435 0.0047816241964767471 0 0.012762023878281653 0.0049418039434517376 0 0.012674849258344365 0.0046146073147884875 0 0.012983925112005404 0.0047328063467906058 0 0.012762023878281653 0.0049418039434517376 0 0.011070674521112923 0.0044721052373348589 0 0.010992443257897019 0.0047281178449929276 0 0.012674849258344365 0.0046146073147884875 0 0.012762023878281653 0.0049418039434517376 0 0.01235580503556675 0.0049248209475675963 0 0.012762023878281653 0.0049418039434517376 0 0.01235580503556675 0.0049248209475675963 0 0.012046101542288778 0.0051533505761460546 0 0.012674849258344365 0.0046146073147884875 0 0.01235580503556675 0.0049248209475675963 0 0.011926489030022226 0.0049867415228346916 0 0.0092053666913289676 0.004999118556502047 0 0.0098675277521137906 0.0050141225015669219 0 0.0096446440107455164 0.0048187814695758004 0 0.013228794486064396 0.0040467003920104669 0 0.012625182469783938 0.0044630835536089613 0 0.01235580503556675 0.0049248209475675963 0 0.012046101542288778 0.0051533505761460546 0 0.011926489030022226 0.0049867415228346916 0 0.0097793558497510143 0.00457587814573819 0 0.0094251745499628961 0.0046577096180544387 0 0.0093549215342574304 0.0042017488050766008 0 0.0096446440107455164 0.0048187814695758004 0 0.0097793558497510143 0.00457587814573819 0 0.010060903751698444 0.0047847310925848222 0 0.0098675277521137906 0.0050141225015669219 0 0.0096446440107455164 0.0048187814695758004 0 0.010060903751698444 0.0047847310925848222 0 0.0096446440107455164 0.0048187814695758004 0 0.0097793558497510143 0.00457587814573819 0 0.0094251745499628961 0.0046577096180544387 0 0.0092053666913289676 0.004999118556502047 0 0.0096446440107455164 0.0048187814695758004 0 0.0094251745499628961 0.0046577096180544387 0 0.0091467719368377512 0.0047104215355608069 0 0.0092053666913289676 0.004999118556502047 0 0.0094251745499628961 0.0046577096180544387 0 0.0091467719368377512 0.0047104215355608069 0 0.0094251745499628961 0.0046577096180544387 0 0.0091977626595470992 0.0044718484240601703 0 0.0091977626595470992 0.0044718484240601703 0 0.0093549215342574304 0.0042017488050766008 0 0.00898040774951709 0.0041866635185311791 0 0.0094251745499628961 0.0046577096180544387 0 0.0091977626595470992 0.0044718484240601703 0 0.0093549215342574304 0.0042017488050766008 0 0.0093549215342574304 0.0042017488050766008 0 0.0091034753897272346 0.003824892226575588 0 0.00898040774951709 0.0041866635185311791 0 0.0097793558497510143 0.00457587814573819 0 0.0093549215342574304 0.0042017488050766008 0 0.0097673667962663406 0.0041070805263375429 0 0.0094194299334069247 0.0037366997814320822 0 0.0093549215342574304 0.0042017488050766008 0 0.0097673667962663406 0.0041070805263375429 0 0.0094194299334069247 0.0037366997814320822 0 0.0097673667962663406 0.0041070805263375429 0 0.0097820644565687672 0.003764371748236333 0 0.0094194299334069247 0.0037366997814320822 0 0.0093549215342574304 0.0042017488050766008 0 0.0091034753897272346 0.003824892226575588 0 0.0087305949370755885 0.0034890853802244434 0 0.0091034753897272346 0.003824892226575588 0 0.00898040774951709 0.0041866635185311791 0 0.0087305949370755885 0.0034890853802244434 0 0.0088771454653877903 0.0032926835227962961 0 0.0086357415653373088 0.0028636987938158399 0 0.0087305949370755885 0.0034890853802244434 0 0.0084775797314851648 0.0041717067741204924 0 0.0086834614199164765 0.004142234896758171 0 0.0087305949370755885 0.0034890853802244434 0 0.0086834614199164765 0.004142234896758171 0 0.00898040774951709 0.0041866635185311791 0 0.0090919172635676275 0.0035214192135924853 0 0.0092712792076602227 0.0034564564719075192 0 0.0084775797314851648 0.0041717067741204924 0 0.0086834614199164765 0.004142234896758171 0 0.0085299803714579611 0.0042685044705942582 0 0.0087572848671167956 0.0044157230291010851 0 0.0086834614199164765 0.004142234896758171 0 0.0085299803714579611 0.0042685044705942582 0 0.0087572848671167956 0.0044157230291010851 0 0.0086834614199164765 0.004142234896758171 0 0.00898040774951709 0.0041866635185311791 0 0.0087572848671167956 0.0044157230291010851 0 0.0089898034908079544 0.0045627521506891684 0 0.00898040774951709 0.0041866635185311791 0 0.0089898034908079544 0.0045627521506891684 0 0.0091977626595470992 0.0044718484240601703 0 0.00898040774951709 0.0041866635185311791 0 0.010702216295510339 0.0045895329656248729 0 0.010651594343689074 0.0045844845969101634 0 0.010805170443162643 0.0047240157777676357 0 0.010702216295510339 0.0045895329656248729 0 0.010805170443162643 0.0047240157777676357 0 0.010749257406054452 0.0046797884658005707 0 0.010702216295510339 0.0045895329656248729 0 0.010552814115057041 0.0044390123132399505 0 0.010651594343689074 0.0045844845969101634 0 0.010702216295510339 0.0045895329656248729 0 0.01072358589332268 0.004575179532290777 0 0.010749257406054452 0.0046797884658005707 0 0.010743036185583314 0.0046417991738544658 0 0.01072358589332268 0.004575179532290777 0 0.010749257406054452 0.0046797884658005707 0 0.010702216295510339 0.0045895329656248729 0 0.01072358589332268 0.004575179532290777 0 0.010644715640773184 0.0044776343560957582 0 0.010743036185583314 0.0046417991738544658 0 0.010769719728725084 0.0044093872371576684 0 0.01072358589332268 0.004575179532290777 0 0.010769719728725084 0.0044093872371576684 0 0.01072358589332268 0.004575179532290777 0 0.010644715640773184 0.0044776343560957582 0 0.010500352214466668 0.004307889761419016 0 0.010644715640773184 0.0044776343560957582 0 0.010552814115057041 0.0044390123132399505 0 0.010702216295510339 0.0045895329656248729 0 0.010644715640773184 0.0044776343560957582 0 0.010552814115057041 0.0044390123132399505 0 0.010552814115057041 0.0044390123132399505 0 0.010451961092526031 0.0044401103639249671 0 0.010651594343689074 0.0045844845969101634 0 0.0072872228718882841 0.0037016441188969002 0 0.0085093869984331581 0.0039740722129950031 0 0.010426564087991662 0.0043067955504976886 0 0.010552814115057041 0.0044390123132399505 0 0.010451961092526031 0.0044401103639249671 0 0.0099857016002246578 0.0035749008481069074 0 0.010097517942977913 0.0039955138600910019 0 0.0097820644565687672 0.003764371748236333 0 0.0097673667962663406 0.0041070805263375429 0 0.010097517942977913 0.0039955138600910019 0 0.0097820644565687672 0.003764371748236333 0 0.0085093869984331581 0.0039740722129950031 0 0.0088398416369096788 0.0041813461394965895 0 0.0097793558497510143 0.00457587814573819 0 0.0097673667962663406 0.0041070805263375429 0 0.010284511283963875 0.0046213570247768121 0 0.0097673667962663406 0.0041070805263375429 0 0.010097517942977913 0.0039955138600910019 0 0.010284511283963875 0.0046213570247768121 0 0.010451961092526031 0.0044401103639249671 0 0.010651594343689074 0.0045844845969101634 0 0.010284511283963875 0.0046213570247768121 0 0.010651594343689074 0.0045844845969101634 0 0.010854522895651931 0.0048898217239747282 0 0.010805170443162643 0.0047240157777676357 0 0.010651594343689074 0.0045844845969101634 0 0.010854522895651931 0.0048898217239747282 0 0.010284511283963875 0.0046213570247768121 0 0.010854522895651931 0.0048898217239747282 0 0.010284511283963875 0.0046213570247768121 0 0.010060903751698444 0.0047847310925848222 0 0.0098675277521137906 0.0050141225015669219 0 0.010854522895651931 0.0048898217239747282 0 0.010060903751698444 0.0047847310925848222 0 0.0097793558497510143 0.00457587814573819 0 0.010284511283963875 0.0046213570247768121 0 0.010060903751698444 0.0047847310925848222 0 0.012046101542288778 0.0051533505761460546 0 0.010854522895651931 0.0048898217239747282 0 0.011541942917535877 0.0048666405358667834 0 0.010992443257897019 0.0047281178449929276 0 0.01099406678571241 0.0047776611330539167 0 0.012046101542288778 0.0051533505761460546 0 0.011926489030022226 0.0049867415228346916 0 0.011541942917535877 0.0048666405358667834 0 0.011541942917535877 0.0048666405358667834 0 0.011647807935790899 0.0046826599425848891 0 0.011271197071123781 0.0046300665358331846 0 0.011926489030022226 0.0049867415228346916 0 0.011541942917535877 0.0048666405358667834 0 0.011647807935790899 0.0046826599425848891 0 0.011926489030022226 0.0049867415228346916 0 0.011647807935790899 0.0046826599425848891 0 0.012004686344925818 0.0045161535794884635 0 0.010854522895651931 0.0048898217239747282 0 0.011271197071123781 0.0046300665358331846 0 0.011020506495117413 0.0045511688947037672 0 0.010854522895651931 0.0048898217239747282 0 0.011020506495117413 0.0045511688947037672 0 0.010882736632919981 0.0046953729363972572 0 0.010854522895651931 0.0048898217239747282 0 0.011541942917535877 0.0048666405358667834 0 0.011271197071123781 0.0046300665358331846 0 0.011020506495117413 0.0045511688947037672 0 0.010882736632919981 0.0046953729363972572 0 0.01095120918276548 0.0045738915416959191 0 0.010882736632919981 0.0046953729363972572 0 0.010800615362629187 0.0046910143586348799 0 0.01095120918276548 0.0045738915416959191 0 0.010854522895651931 0.0048898217239747282 0 0.010882736632919981 0.0046953729363972572 0 0.010805170443162643 0.0047240157777676357 0 0.010882736632919981 0.0046953729363972572 0 0.010805170443162643 0.0047240157777676357 0 0.010800615362629187 0.0046910143586348799 0 0.010805170443162643 0.0047240157777676357 0 0.010749257406054452 0.0046797884658005707 0 0.010800615362629187 0.0046910143586348799 0 0.010749257406054452 0.0046797884658005707 0 0.010725668406632988 0.0046784674224306941 0 0.010800615362629187 0.0046910143586348799 0 0.010695887597129873 0.0046744189377560192 0 0.010749257406054452 0.0046797884658005707 0 0.010725668406632988 0.0046784674224306941 0 0.010725668406632988 0.0046784674224306941 0 0.010800615362629187 0.0046910143586348799 0 0.010744332247640735 0.0046375008210285396 0 0.010744332247640735 0.0046375008210285396 0 0.010810036859204316 0.0045428702786537581 0 0.01095120918276548 0.0045738915416959191 0 0.010800615362629187 0.0046910143586348799 0 0.010744332247640735 0.0046375008210285396 0 0.01095120918276548 0.0045738915416959191 0 0.010810036859204316 0.0045428702786537581 0 0.01095120918276548 0.0045738915416959191 0 0.011247273008540063 0.004391038149451792 0 0.010810036859204316 0.0045428702786537581 0 0.011247273008540063 0.004391038149451792 0 0.010790406364365804 0.0043191888614864688 0 0.011020506495117413 0.0045511688947037672 0 0.011247273008540063 0.004391038149451792 0 0.01120640024633607 0.0042870278428089794 0 0.011020506495117413 0.0045511688947037672 0 0.01095120918276548 0.0045738915416959191 0 0.011247273008540063 0.004391038149451792 0 0.012404748972492162 0.0036801502872522898 0 0.012909919683794957 0.0034817877449542945 0 0.011247273008540063 0.004391038149451792 0 0.013222956948835305 0.0045954365086994979 0 0.012412859500710687 0.0036752434464367525 0 0.011247273008540063 0.004391038149451792 0 0.01148431055206941 0.0036679257624169068 0 0.012412859500710687 0.0036752434464367525 0 0.011247273008540063 0.004391038149451792 0 0.010961872978299005 0.0038980424402442651 0 0.01148431055206941 0.0036679257624169068 0 0.010961872978299005 0.0038980424402442651 0 0.010677632283372165 0.0040229770527109923 0 0.010790406364365804 0.0043191888614864688 0 0.010584573689485883 0.0037147097018496774 0 0.010961872978299005 0.0038980424402442651 0 0.010677632283372165 0.0040229770527109923 0 0.011247273008540063 0.004391038149451792 0 0.010961872978299005 0.0038980424402442651 0 0.010790406364365804 0.0043191888614864688 0 0.012169096096061099 0.0037031041820512582 0 0.011776474780902027 0.0040209577711949763 0 0.012069262348745478 0.0041856569928794742 0 0.011776474780902027 0.0040209577711949763 0 0.012069262348745478 0.0041856569928794742 0 0.011550196537172647 0.0043484994556538502 0 0.011647807935790899 0.0046826599425848891 0 0.012004686344925818 0.0045161535794884635 0 0.011550196537172647 0.0043484994556538502 0 0.012069262348745478 0.0041856569928794742 0 0.012004686344925818 0.0045161535794884635 0 0.011550196537172647 0.0043484994556538502 0 0.011647807935790899 0.0046826599425848891 0 0.011271197071123781 0.0046300665358331846 0 0.011550196537172647 0.0043484994556538502 0 0.011776474780902027 0.0040209577711949763 0 0.011550196537172647 0.0043484994556538502 0 0.011518500246868211 0.0040180893726488344 0 0.011550196537172647 0.0043484994556538502 0 0.01120640024633607 0.0042870278428089794 0 0.011518500246868211 0.0040180893726488344 0 0.011271197071123781 0.0046300665358331846 0 0.011550196537172647 0.0043484994556538502 0 0.01120640024633607 0.0042870278428089794 0 0.011271197071123781 0.0046300665358331846 0 0.011020506495117413 0.0045511688947037672 0 0.01120640024633607 0.0042870278428089794 0 0.011247273008540063 0.004391038149451792 0 0.01120640024633607 0.0042870278428089794 0 0.011241110620844123 0.0039895040524893502 0 0.01120640024633607 0.0042870278428089794 0 0.011241110620844123 0.0039895040524893502 0 0.011518500246868211 0.0040180893726488344 0 0.012909919683794957 0.0034817877449542945 0 0.014254465896537501 0.0028827388125175716 0 0.011241110620844123 0.0039895040524893502 0 0.011694992167434807 0.003623102021828892 0 0.011796256649485489 0.0034151367207083823 0 0.011241110620844123 0.0039895040524893502 0 0.011518500246868211 0.0040180893726488344 0 0.011694992167434807 0.003623102021828892 0 0.013222956948835305 0.0045954365086994979 0 0.015069984346291306 0.0043425977970130789 0 0.01427751180727933 0.0038884017485795665 0 0.011518500246868211 0.0040180893726488344 0 0.011694992167434807 0.003623102021828892 0 0.011830493065938705 0.0037747059979691168 0 0.012390526652977631 0.0032591179325861777 0 0.011866639209947754 0.0031524318811496383 0 0.011999050518728287 0.0035045635599414227 0 0.01417669201956063 0.0029496724135266261 0 0.014254465896537501 0.0028827388125175716 0 0.011694992167434807 0.003623102021828892 0 0.011866639209947754 0.0031524318811496383 0 0.011999050518728287 0.0035045635599414227 0 0.012169096096061099 0.0037031041820512582 0 0.011999050518728287 0.0035045635599414227 0 0.011830493065938705 0.0037747059979691168 0 0.011694992167434807 0.003623102021828892 0 0.011999050518728287 0.0035045635599414227 0 0.011830493065938705 0.0037747059979691168 0 0.011776474780902027 0.0040209577711949763 0 0.011518500246868211 0.0040180893726488344 0 0.011830493065938705 0.0037747059979691168 0 0.012169096096061099 0.0037031041820512582 0 0.011776474780902027 0.0040209577711949763 0 0.011830493065938705 0.0037747059979691168 0 0.015069984346291306 0.0043425977970130789 0 0.014997560650229681 0.003168972420795251 0 0.01427751180727933 0.0038884017485795665 0 0.014997560650229681 0.003168972420795251 0 0.01427751180727933 0.0038884017485795665 0 0.013819210526598362 0.003441428819123142 0 0.014997560650229681 0.003168972420795251 0 0.013819210526598362 0.003441428819123142 0 0.014405908061327096 0.002587674775144154 0 0.013819210526598362 0.003441428819123142 0 0.013076117663159923 0.0027658236693148637 0 0.014405908061327096 0.002587674775144154 0 0.013222956948835305 0.0045954365086994979 0 0.01427751180727933 0.0038884017485795665 0 0.013819210526598362 0.003441428819123142 0 0.013222956948835305 0.0045954365086994979 0 0.013819210526598362 0.003441428819123142 0 0.012412859500710687 0.0036752434464367525 0 0.013819210526598362 0.003441428819123142 0 0.013076117663159923 0.0027658236693148637 0 0.012412859500710687 0.0036752434464367525 0 0.013076117663159923 0.0027658236693148637 0 0.014026413392764716 0.0018281968807246094 0 0.012535261087012936 0.0015051856004237463 0 0.013076117663159923 0.0027658236693148637 0 0.014026413392764716 0.0018281968807246094 0 0.014405908061327096 0.002587674775144154 0 0.014026413392764716 0.0018281968807246094 0 0.014405908061327096 0.002587674775144154 0 0.015242186621559642 0.0016519204366915526 0 0.014405908061327096 0.002587674775144154 0 0.015461327322399514 0.0023564698793098423 0 0.015242186621559642 0.0016519204366915526 0 0.014997560650229681 0.003168972420795251 0 0.014405908061327096 0.002587674775144154 0 0.015461327322399514 0.0023564698793098423 0 0.011141855013837475 0.0033057459169411434 0 0.010749581334641281 0.0032740798575404723 0 0.01124150654331532 0.0025304952089323716 0 0.011141855013837475 0.0033057459169411434 0 0.01174981249114612 0.0029441428819806268 0 0.01124150654331532 0.0025304952089323716 0 0.011141855013837475 0.0033057459169411434 0 0.010749581334641281 0.0032740798575404723 0 0.010845350503232532 0.0035489153002690016 0 0.010584573689485883 0.0037147097018496774 0 0.010749581334641281 0.0032740798575404723 0 0.010845350503232532 0.0035489153002690016 0 0.010584573689485883 0.0037147097018496774 0 0.010961872978299005 0.0038980424402442651 0 0.010845350503232532 0.0035489153002690016 0 0.010961872978299005 0.0038980424402442651 0 0.011141855013837475 0.0033057459169411434 0 0.010845350503232532 0.0035489153002690016 0 0.010961872978299005 0.0038980424402442651 0 0.011141855013837475 0.0033057459169411434 0 0.01148431055206941 0.0036679257624169068 0 0.01148431055206941 0.0036679257624169068 0 0.012412859500710687 0.0036752434464367525 0 0.01174981249114612 0.0029441428819806268 0 0.013076117663159923 0.0027658236693148637 0 0.012412859500710687 0.0036752434464367525 0 0.01174981249114612 0.0029441428819806268 0 0.011141855013837475 0.0033057459169411434 0 0.01148431055206941 0.0036679257624169068 0 0.01174981249114612 0.0029441428819806268 0 0.013117821474899089 0.0033411471385066112 0 0.013252111648966764 0.0035573176888609179 0 0.011153799934204213 0.0093396652042836339 0 0.011271623513161792 0.0080599114126624263 0 0.012783193829651082 0.008536035814559563 0 0.013076117663159923 0.0027658236693148637 0 0.01174981249114612 0.0029441428819806268 0 0.012535261087012936 0.0015051856004237463 0 0.011032626191192423 0.0048742335200438512 0 0.013252111648966764 0.0035573176888609179 0 0.01174981249114612 0.0029441428819806268 0 0.01124150654331532 0.0025304952089323716 0 0.012153791221117909 0.0020545010810246699 0 0.0096954412484242507 0.0091937093356390526 0 0.011153799934204213 0.0093396652042836339 0 0.0099772809577371706 0.0085050599283642107 0 0.0096954412484242507 0.0091937093356390526 0 0.0098469450281289984 0.0097174103753751937 0 0.011153799934204213 0.0093396652042836339 0 0.0090516506433411196 0.0057128321769466233 0 0.011032626191192423 0.0048742335200438512 0 0.0095758685065520065 0.010025403088458305 0 0.0098469450281289984 0.0097174103753751937 0 0.011153799934204213 0.0093396652042836339 0 0.011153799934204213 0.0093396652042836339 0 0.011271623513161792 0.0080599114126624263 0 0.0099772809577371706 0.0085050599283642107 0 0.010372251074983725 0.0030876857500640657 0 0.010749581334641281 0.0032740798575404723 0 0.01124150654331532 0.0025304952089323716 0 0.011271623513161792 0.0080599114126624263 0 0.0099772809577371706 0.0085050599283642107 0 0.0091046037303092481 0.0075990141340068805 0 0.011271623513161792 0.0080599114126624263 0 0.011474703030532206 0.0067455080406602138 0 0.0091046037303092481 0.0075990141340068805 0 0.012783193829651082 0.008536035814559563 0 0.01236956234984051 0.0071484020894289771 0 0.013739550165485672 0.0064948835187258963 0 0.011271623513161792 0.0080599114126624263 0 0.012783193829651082 0.008536035814559563 0 0.01236956234984051 0.0071484020894289771 0 0.011271623513161792 0.0080599114126624263 0 0.01236956234984051 0.0071484020894289771 0 0.011474703030532206 0.0067455080406602138 0 0.01236956234984051 0.0071484020894289771 0 0.012566280851766802 0.0059217338270350387 0 0.011474703030532206 0.0067455080406602138 0 0.01236956234984051 0.0071484020894289771 0 0.012566280851766802 0.0059217338270350387 0 0.013739550165485672 0.0064948835187258963 0 0.011474703030532206 0.0067455080406602138 0 0.010768386749009365 0.0053525611449626908 0 0.0091046037303092481 0.0075990141340068805 0 0.012566280851766802 0.0059217338270350387 0 0.011474703030532206 0.0067455080406602138 0 0.010768386749009365 0.0053525611449626908 0 0.015242186621559642 0.0016519204366915526 0 0.014821070980731134 0.00065784236117272536 0 0.016338928625726137 0.0013681930870518837 0 0.014026413392764716 0.0018281968807246094 0 0.015242186621559642 0.0016519204366915526 0 0.014821070980731134 0.00065784236117272536 0 0.016835572301911916 0.0011753451077002387 0 0.017244376143379567 0.00092765370166874282 0 0.017040793938888368 0.00079892272058693775 0 0.013252111648966764 0.0035573176888609179 0 0.014468751164405295 0.0032295097687723767 0 0.014026413392764716 0.0018281968807246094 0 0.012535261087012936 0.0015051856004237463 0 0.014821070980731134 0.00065784236117272536 0 0.013252111648966764 0.0035573176888609179 0 0.015601899534457928 0.001732113523133906 0 0.012566280851766802 0.0059217338270350387 0 0.013739550165485672 0.0064948835187258963 0 0.013310904733873625 0.0051461076795228291 0 0.017244376143379567 0.00092765370166874282 0 0.017040793938888368 0.00079892272058693775 0 0.01720307872102653 0.00083158528647097035 0 0.017040793938888368 0.00079892272058693775 0 0.01720307872102653 0.00083158528647097035 0 0.017080505241829479 0.00076276938678650251 0 0.01720307872102653 0.00083158528647097035 0 0.017328822579830389 0.00073164886511994617 0 0.017236499173590443 0.0007989324190710883 0 0.017244376143379567 0.00092765370166874282 0 0.01720307872102653 0.00083158528647097035 0 0.017236499173590443 0.0007989324190710883 0 0.017080505241829479 0.00076276938678650251 0 0.017070162011604769 0.00088178273837970418 0 0.016661586555406369 0.0011663492055915803 0 0.017080505241829479 0.00076276938678650251 0 0.017668768333065459 -4.6724980892761772e-05 0 0.017542383673464199 0.00044883742102420449 0 0.017328822579830389 0.00073164886511994617 0 0.017080505241829479 0.00076276938678650251 0 0.017542383673464199 0.00044883742102420449 0 0.01720307872102653 0.00083158528647097035 0 0.017328822579830389 0.00073164886511994617 0 0.017080505241829479 0.00076276938678650251 0 0.014468751164405295 0.0032295097687723767 0 0.015293548402697079 0.002546102393509692 0 0.017040793938888368 0.00079892272058693775 0 0.017080505241829479 0.00076276938678650251 0 0.017070162011604769 0.00088178273837970418 0 0.013739550165485672 0.0064948835187258963 0 0.014615536913860193 0.0045369029663989311 0 0.013310904733873625 0.0051461076795228291 0 0.014615536913860193 0.0045369029663989311 0 0.013310904733873625 0.0051461076795228291 0 0.013380406224092601 0.0042030504448096889 0 0.013380406224092601 0.0042030504448096889 0 0.013753663355179573 0.0031880775505885852 0 0.014139071579156283 0.0039310691708536937 0 0.013380406224092601 0.0042030504448096889 0 0.013753663355179573 0.0031880775505885852 0 0.012440444016570067 0.0033812939166067636 0 0.013753663355179573 0.0031880775505885852 0 0.014139071579156283 0.0039310691708536937 0 0.014565457706273779 0.003305697606251482 0 0.014615536913860193 0.0045369029663989311 0 0.014139071579156283 0.0039310691708536937 0 0.014565457706273779 0.003305697606251482 0 0.014615536913860193 0.0045369029663989311 0 0.013380406224092601 0.0042030504448096889 0 0.014139071579156283 0.0039310691708536937 0 0.017070162011604769 0.00088178273837970418 0 0.016680844199110308 0.0012288402851246525 0 0.016661586555406369 0.0011663492055915803 0 0.017243563923962285 0.00075607310480870621 0 0.017374557532179823 0.00059628588759731824 0 0.015293548402697079 0.002546102393509692 0 0.015811625662598753 0.0018787143018249013 0 0.014615536913860193 0.0045369029663989311 0 0.014565457706273779 0.003305697606251482 0 0.015466099643296845 0.0027709561470507364 0 0.010768386749009365 0.0053525611449626908 0 0.011096402039331607 0.0037004989282609178 0 0.0089909710970492111 0.0045158232063595427 0 0.010768386749009365 0.0053525611449626908 0 0.012223586139098965 0.0045938753070351966 0 0.011096402039331607 0.0037004989282609178 0 0.012566280851766802 0.0059217338270350387 0 0.010768386749009365 0.0053525611449626908 0 0.012223586139098965 0.0045938753070351966 0 0.012566280851766802 0.0059217338270350387 0 0.013310904733873625 0.0051461076795228291 0 0.012223586139098965 0.0045938753070351966 0 0.013310904733873625 0.0051461076795228291 0 0.013380406224092601 0.0042030504448096889 0 0.012223586139098965 0.0045938753070351966 0 0.012440444016570067 0.0033812939166067636 0 0.011096402039331607 0.0037004989282609178 0 0.011873732291757162 0.0021774299630571404 0 0.012223586139098965 0.0045938753070351966 0 0.012440444016570067 0.0033812939166067636 0 0.011096402039331607 0.0037004989282609178 0 0.013380406224092601 0.0042030504448096889 0 0.012223586139098965 0.0045938753070351966 0 0.012440444016570067 0.0033812939166067636 0 0.011096402039331607 0.0037004989282609178 0 0.011873732291757162 0.0021774299630571404 0 0.010126000066022472 0.0023544479247946597 0 0.010957148031016398 0.001168147203763778 0 0.011873732291757162 0.0021774299630571404 0 0.010126000066022472 0.0023544479247946597 0 0.010957148031016398 0.001168147203763778 0 0.010790706731875075 6.6927059747171692e-05 0 0.012416119149554044 0.00042106423389963129 0 0.010957148031016398 0.001168147203763778 0 0.011873732291757162 0.0021774299630571404 0 0.012416119149554044 0.00042106423389963129 0 0.011873732291757162 0.0021774299630571404 0 0.01330081938621506 0.0020476498339180626 0 0.012416119149554044 0.00042106423389963129 0 0.01330081938621506 0.0020476498339180626 0 0.013817387272308692 0.0010921439622129769 0 0.012416119149554044 0.00042106423389963129 0 0.012440444016570067 0.0033812939166067636 0 0.011873732291757162 0.0021774299630571404 0 0.01330081938621506 0.0020476498339180626 0 0.013753663355179573 0.0031880775505885852 0 0.012440444016570067 0.0033812939166067636 0 0.01330081938621506 0.0020476498339180626 0 0.013753663355179573 0.0031880775505885852 0 0.014377226641922293 0.0025264456214824692 0 0.01330081938621506 0.0020476498339180626 0 0.013753663355179573 0.0031880775505885852 0 0.014565457706273779 0.003305697606251482 0 0.014377226641922293 0.0025264456214824692 0 0.014377226641922293 0.0025264456214824692 0 0.01330081938621506 0.0020476498339180626 0 0.014405481813841032 0.0016992234545063895 0 0.014565457706273779 0.003305697606251482 0 0.014377226641922293 0.0025264456214824692 0 0.014848729176311965 0.0026870841582385982 0 0.014565457706273779 0.003305697606251482 0 0.015466099643296845 0.0027709561470507364 0 0.014848729176311965 0.0026870841582385982 0 0.015466099643296845 0.0027709561470507364 0 0.014848729176311965 0.0026870841582385982 0 0.014978779017901355 0.0021505456393387978 0 0.014377226641922293 0.0025264456214824692 0 0.014848729176311965 0.0026870841582385982 0 0.014978779017901355 0.0021505456393387978 0 0.014377226641922293 0.0025264456214824692 0 0.014978779017901355 0.0021505456393387978 0 0.014405481813841032 0.0016992234545063895 0 0.015466099643296845 0.0027709561470507364 0 0.014978779017901355 0.0021505456393387978 0 0.015571439739245319 0.0016809285396620394 0 0.015466099643296845 0.0027709561470507364 0 0.015571439739245319 0.0016809285396620394 0 0.016458006867282937 0.0010655037774504879 0 0.015571439739245319 0.0016809285396620394 0 0.015167244613374185 0.0014473503593106245 0 0.015614220114862442 0.00092379422208978073 0 0.014978779017901355 0.0021505456393387978 0 0.015167244613374185 0.0014473503593106245 0 0.014405481813841032 0.0016992234545063895 0 0.015167244613374185 0.0014473503593106245 0 0.014787726496284724 0.00094589133539572576 0 0.014405481813841032 0.0016992234545063895 0 0.014978779017901355 0.0021505456393387978 0 0.015571439739245319 0.0016809285396620394 0 0.015167244613374185 0.0014473503593106245 0 0.015167244613374185 0.0014473503593106245 0 0.014787726496284724 0.00094589133539572576 0 0.015614220114862442 0.00092379422208978073 0 0.014787726496284724 0.00094589133539572576 0 0.015614220114862442 0.00092379422208978073 0 0.015417446883540346 0.00027372139972749339 0 0.015571439739245319 0.0016809285396620394 0 0.015614220114862442 0.00092379422208978073 0 0.016458006867282937 0.0010655037774504879 0 0.013817387272308692 0.0010921439622129769 0 0.014240706680715394 0.00023494353466297851 0 0.012416119149554044 0.00042106423389963129 0 0.01330081938621506 0.0020476498339180626 0 0.014405481813841032 0.0016992234545063895 0 0.013817387272308692 0.0010921439622129769 0 0.014787726496284724 0.00094589133539572576 0 0.014405481813841032 0.0016992234545063895 0 0.013817387272308692 0.0010921439622129769 0 0.014787726496284724 0.00094589133539572576 0 0.013817387272308692 0.0010921439622129769 0 0.014240706680715394 0.00023494353466297851 0 0.013501699877213768 -0.0005565668889238463 0 0.014240706680715394 0.00023494353466297851 0 0.015352621865473738 -0.00089321572942751377 0 0.013501699877213768 -0.0005565668889238463 0 0.014240706680715394 0.00023494353466297851 0 0.012416119149554044 0.00042106423389963129 0 0.014240706680715394 0.00023494353466297851 0 0.015417446883540346 0.00027372139972749339 0 0.015352621865473738 -0.00089321572942751377 0 0.015417446883540346 0.00027372139972749339 0 0.015352621865473738 -0.00089321572942751377 0 0.01663363947361254 -5.7702538024179574e-05 0 0.015614220114862442 0.00092379422208978073 0 0.015417446883540346 0.00027372139972749339 0 0.016228588925810049 0.00058872393270958695 0 0.014787726496284724 0.00094589133539572576 0 0.014240706680715394 0.00023494353466297851 0 0.015417446883540346 0.00027372139972749339 0 0.013501699877213768 -0.0005565668889238463 0 0.012635135326003735 -0.0014110195585246503 0 0.014039947949109071 -0.0020886676001058632 0 0.013501699877213768 -0.0005565668889238463 0 0.015352621865473738 -0.00089321572942751377 0 0.014039947949109071 -0.0020886676001058632 0 0.012635135326003735 -0.0014110195585246503 0 0.011224845835390032 -0.0012133842663175729 0 0.012416119149554044 0.00042106423389963129 0 0.012635135326003735 -0.0014110195585246503 0 0.011224845835390032 -0.0012133842663175729 0 0.012575498096165053 -0.0028552436149885977 0 0.011224845835390032 -0.0012133842663175729 0 0.010790706731875075 6.6927059747171692e-05 0 0.012416119149554044 0.00042106423389963129 0 0.013501699877213768 -0.0005565668889238463 0 0.012635135326003735 -0.0014110195585246503 0 0.012416119149554044 0.00042106423389963129 0 0.0194297044723638 -0.00090841179346548475 0 0.019692962053636229 -0.0011789120847159392 0 0.01915013530808066 -0.0012139568540890978 0 0.019826689634995287 -0.00095227524336384409 0 0.020037911567976557 -0.0012039303274994271 0 0.019692962053636229 -0.0011789120847159392 0 0.0194297044723638 -0.00090841179346548475 0 0.019826689634995287 -0.00095227524336384409 0 0.019692962053636229 -0.0011789120847159392 0 0.0194297044723638 -0.00090841179346548475 0 0.019826689634995287 -0.00095227524336384409 0 0.019635725184006868 -0.00059237757869716533 0 0.019826689634995287 -0.00095227524336384409 0 0.020118611728246243 -0.00089454389725762999 0 0.019635725184006868 -0.00059237757869716533 0 0.019826689634995287 -0.00095227524336384409 0 0.020118611728246243 -0.00089454389725762999 0 0.020260224598517125 -0.0011230538361534737 0 0.020118611728246243 -0.00089454389725762999 0 0.020260224598517125 -0.0011230538361534737 0 0.020528805169804348 -0.0011257579510015462 0 0.019826689634995287 -0.00095227524336384409 0 0.020260224598517125 -0.0011230538361534737 0 0.020037911567976557 -0.0012039303274994271 0 0.020260224598517125 -0.0011230538361534737 0 0.020037911567976557 -0.0012039303274994271 0 0.020370913481254371 -0.0013502950769047756 0 0.020037911567976557 -0.0012039303274994271 0 0.020370913481254371 -0.0013502950769047756 0 0.020079460977519725 -0.0013800744879937474 0 0.020260224598517125 -0.0011230538361534737 0 0.020370913481254371 -0.0013502950769047756 0 0.020544058218390972 -0.0012856931159552368 0 0.020370913481254371 -0.0013502950769047756 0 0.020612866211403208 -0.0015118667574079737 0 0.020369582568440098 -0.0015080688243839363 0 0.020370913481254371 -0.0013502950769047756 0 0.020618028273477213 -0.0014018980159097505 0 0.020612866211403208 -0.0015118667574079737 0 0.020370913481254371 -0.0013502950769047756 0 0.020618028273477213 -0.0014018980159097505 0 0.020544058218390972 -0.0012856931159552368 0 0.020370913481254371 -0.0013502950769047756 0 0.020079460977519725 -0.0013800744879937474 0 0.020369582568440098 -0.0015080688243839363 0 0.019816230985380389 -0.0014426640174643327 0 0.019692962053636229 -0.0011789120847159392 0 0.01915013530808066 -0.0012139568540890978 0 0.020079460977519725 -0.0013800744879937474 0 0.019816230985380389 -0.0014426640174643327 0 0.020161332469789121 -0.0016447073239357873 0 0.019816230985380389 -0.0014426640174643327 0 0.01915013530808066 -0.0012139568540890978 0 0.019695667665839352 -0.0019408838679277085 0 0.020079460977519725 -0.0013800744879937474 0 0.019816230985380389 -0.0014426640174643327 0 0.019692962053636229 -0.0011789120847159392 0 0.020037911567976557 -0.0012039303274994271 0 0.020079460977519725 -0.0013800744879937474 0 0.019692962053636229 -0.0011789120847159392 0 0.017973704471861231 -0.00034783608799959152 0 0.017090109968634765 -0.0010980686595208925 0 0.018089015047130824 -0.0016753970728935509 0 0.018470267679403237 -0.00086291224708945238 0 0.018910739778385938 -0.0015200766364351674 0 0.017973704471861231 -0.00034783608799959152 0 0.017090109968634765 -0.0010980686595208925 0 0.01663363947361254 -5.7702538024179574e-05 0 0.015352621865473738 -0.00089321572942751377 0 0.017090109968634765 -0.0010980686595208925 0 0.01665373920093656 -0.0020637762903516887 0 0.015352621865473738 -0.00089321572942751377 0 0.017090109968634765 -0.0010980686595208925 0 0.01663363947361254 -5.7702538024179574e-05 0 0.017973704471861231 -0.00034783608799959152 0 0.01663363947361254 -5.7702538024179574e-05 0 0.016726907565165972 0.0012001539291787719 0 0.01663363947361254 -5.7702538024179574e-05 0 0.016228588925810049 0.00058872393270958695 0 0.016726907565165972 0.0012001539291787719 0 0.015417446883540346 0.00027372139972749339 0 0.01663363947361254 -5.7702538024179574e-05 0 0.016228588925810049 0.00058872393270958695 0 0.018470267679403237 -0.00086291224708945238 0 0.017792011612826921 8.4612952414078372e-05 0 0.01915013530808066 -0.0012139568540890978 0 0.018965548875614097 -0.00078107425380864964 0 0.018470702209919702 -0.00070790107643026472 0 0.0194297044723638 -0.00090841179346548475 0 0.01915013530808066 -0.0012139568540890978 0 0.018965548875614097 -0.00078107425380864964 0 0.0194297044723638 -0.00090841179346548475 0 0.018965548875614097 -0.00078107425380864964 0 0.019055568785347417 -0.00052026706315478428 0 0.018965548875614097 -0.00078107425380864964 0 0.018709444165794314 -0.00050750904648368849 0 0.018470702209919702 -0.00070790107643026472 0 0.018965548875614097 -0.00078107425380864964 0 0.018709444165794314 -0.00050750904648368849 0 0.019055568785347417 -0.00052026706315478428 0 0.016680844199110308 0.0012288402851246525 0 0.016458006867282937 0.0010655037774504879 0 0.016726907565165972 0.0012001539291787719 0 0.016228588925810049 0.00058872393270958695 0 0.016458006867282937 0.0010655037774504879 0 0.016726907565165972 0.0012001539291787719 0 0.015614220114862442 0.00092379422208978073 0 0.016228588925810049 0.00058872393270958695 0 0.016458006867282937 0.0010655037774504879 0 0.016680844199110308 0.0012288402851246525 0 0.016726907565165972 0.0012001539291787719 0 0.016661586555406369 0.0011663492055915803 0 0.015811625662598753 0.0018787143018249013 0 0.016045073801461709 0.0014869641010947694 0 0.018470702209919702 -0.00070790107643026472 0 0.018373769041461548 -0.00025824451039538208 0 0.017668768333065459 -4.6724980892761772e-05 0 0.017792011612826921 8.4612952414078372e-05 0 0.017374557532179823 0.00059628588759731824 0 0.018709444165794314 -0.00050750904648368849 0 0.018470702209919702 -0.00070790107643026472 0 0.018373769041461548 -0.00025824451039538208 0 0.019055568785347417 -0.00052026706315478428 0 0.018750541816895953 -0.00026914515851034589 0 0.019003266445307795 -0.00023167566806514767 0 0.018709444165794314 -0.00050750904648368849 0 0.019055568785347417 -0.00052026706315478428 0 0.018750541816895953 -0.00026914515851034589 0 0.018709444165794314 -0.00050750904648368849 0 0.018373769041461548 -0.00025824451039538208 0 0.018750541816895953 -0.00026914515851034589 0 0.018373769041461548 -0.00025824451039538208 0 0.018750541816895953 -0.00026914515851034589 0 0.018506823043594578 -2.8355433205900875e-05 0 0.018750541816895953 -0.00026914515851034589 0 0.018903066194819289 -5.4763875264398804e-05 0 0.018506823043594578 -2.8355433205900875e-05 0 0.018750541816895953 -0.00026914515851034589 0 0.019003266445307795 -0.00023167566806514767 0 0.018903066194819289 -5.4763875264398804e-05 0 0.019003266445307795 -0.00023167566806514767 0 0.019251068065375521 -0.0002892385178934944 0 0.019187007354623278 -7.4281798611123835e-05 0 0.019003266445307795 -0.00023167566806514767 0 0.019187007354623278 -7.4281798611123835e-05 0 0.018903066194819289 -5.4763875264398804e-05 0 0.019251068065375521 -0.0002892385178934944 0 0.019529094594832947 -0.00029782113854479318 0 0.019446947605126372 -9.6352430922576812e-05 0 0.019251068065375521 -0.0002892385178934944 0 0.019446947605126372 -9.6352430922576812e-05 0 0.019187007354623278 -7.4281798611123835e-05 0 0.019251068065375521 -0.0002892385178934944 0 0.019635725184006868 -0.00059237757869716533 0 0.019529094594832947 -0.00029782113854479318 0 0.019055568785347417 -0.00052026706315478428 0 0.019003266445307795 -0.00023167566806514767 0 0.019251068065375521 -0.0002892385178934944 0 0.0194297044723638 -0.00090841179346548475 0 0.019055568785347417 -0.00052026706315478428 0 0.019635725184006868 -0.00059237757869716533 0 0.019055568785347417 -0.00052026706315478428 0 0.019251068065375521 -0.0002892385178934944 0 0.019635725184006868 -0.00059237757869716533 0 0.019635725184006868 -0.00059237757869716533 0 0.019775450474308114 -0.00029584360711571464 0 0.020134659406444811 -0.00065111802811123709 0 0.020118611728246243 -0.00089454389725762999 0 0.019635725184006868 -0.00059237757869716533 0 0.020134659406444811 -0.00065111802811123709 0 0.019635725184006868 -0.00059237757869716533 0 0.019775450474308114 -0.00029584360711571464 0 0.019529094594832947 -0.00029782113854479318 0 0.019775450474308114 -0.00029584360711571464 0 0.019529094594832947 -0.00029782113854479318 0 0.019446947605126372 -9.6352430922576812e-05 0 0.019775450474308114 -0.00029584360711571464 0 0.019446947605126372 -9.6352430922576812e-05 0 0.019620795469209668 -7.7790423154885913e-06 0 0.019775450474308114 -0.00029584360711571464 0 0.019620795469209668 -7.7790423154885913e-06 0 0.019684973517100766 2.6744292471535583e-05 0 0.019620795469209668 -7.7790423154885913e-06 0 0.019692535830051077 3.0752275108564164e-05 0 0.019472139771685344 9.0007571986950541e-05 0 0.019620795469209668 -7.7790423154885913e-06 0 0.019692535830051077 3.0752275108564164e-05 0 0.019684973517100766 2.6744292471535583e-05 0 0.019692535830051077 3.0752275108564164e-05 0 0.019472139771685344 9.0007571986950541e-05 0 0.019350031720990476 0.00032678774371511259 0 0.019446947605126372 -9.6352430922576812e-05 0 0.019620795469209668 -7.7790423154885913e-06 0 0.019472139771685344 9.0007571986950541e-05 0 0.019446947605126372 -9.6352430922576812e-05 0 0.019187007354623278 -7.4281798611123835e-05 0 0.019183832013297188 0.00014292836779649328 0 0.019446947605126372 -9.6352430922576812e-05 0 0.019472139771685344 9.0007571986950541e-05 0 0.019183832013297188 0.00014292836779649328 0 0.018903066194819289 -5.4763875264398804e-05 0 0.019183832013297188 0.00014292836779649328 0 0.018696392843748549 0.00021137796513202964 0 0.019187007354623278 -7.4281798611123835e-05 0 0.018903066194819289 -5.4763875264398804e-05 0 0.019183832013297188 0.00014292836779649328 0 0.019183832013297188 0.00014292836779649328 0 0.018929124859809618 0.00048191765023668953 0 0.018696392843748549 0.00021137796513202964 0 0.019183832013297188 0.00014292836779649328 0 0.019350031720990476 0.00032678774371511259 0 0.018929124859809618 0.00048191765023668953 0 0.019472139771685344 9.0007571986950541e-05 0 0.019183832013297188 0.00014292836779649328 0 0.019350031720990476 0.00032678774371511259 0 0.019350031720990476 0.00032678774371511259 0 0.018929124859809618 0.00048191765023668953 0 0.019401321242499044 0.00076826882291302961 0 0.018929124859809618 0.00048191765023668953 0 0.019401321242499044 0.00076826882291302961 0 0.018547431494194612 0.00098039350768009607 0 0.018393472802258289 0.00014979973768656718 0 0.018016727951960583 0.00037601485971279247 0 0.019692535830051077 3.0752275108564164e-05 0 0.019350031720990476 0.00032678774371511259 0 0.019401321242499044 0.00076826882291302961 0 0.01794078861181727 -0.00033902168142935723 0 0.018322080578416118 -6.6663736160789319e-05 0 0.01843410438191883 -0.00035738938287076385 0 0.019692535830051077 3.0752275108564164e-05 0 0.020144498824680161 -0.00058959993583509855 0 0.019573740593819403 -0.00049505312413840698 0 0.018393472802258289 0.00014979973768656718 0 0.018762131169625742 -3.0929937738357805e-05 0 0.018799649566706017 -8.8722481290736413e-05 0 0.018393472802258289 0.00014979973768656718 0 0.017668768333065459 -4.6724980892761772e-05 0 0.017867191033980004 0.00022142776640645832 0 0.017542383673464199 0.00044883742102420449 0 0.017867191033980004 0.00022142776640645832 0 0.017825755324971954 0.0004079645818900937 0 0.017542383673464199 0.00044883742102420449 0 0.017668768333065459 -4.6724980892761772e-05 0 0.01810272760076943 2.4844110448697739e-05 0 0.017867191033980004 0.00022142776640645832 0 0.018373769041461548 -0.00025824451039538208 0 0.017668768333065459 -4.6724980892761772e-05 0 0.01810272760076943 2.4844110448697739e-05 0 0.017867191033980004 0.00022142776640645832 0 0.018191150349649885 0.00027029901658989411 0 0.017825755324971954 0.0004079645818900937 0 0.01810272760076943 2.4844110448697739e-05 0 0.017867191033980004 0.00022142776640645832 0 0.018191150349649885 0.00027029901658989411 0 0.018191150349649885 0.00027029901658989411 0 0.018696392843748549 0.00021137796513202964 0 0.018411282860472684 0.00051212020265509 0 0.018191150349649885 0.00027029901658989411 0 0.018506823043594578 -2.8355433205900875e-05 0 0.018696392843748549 0.00021137796513202964 0 0.018373769041461548 -0.00025824451039538208 0 0.01810272760076943 2.4844110448697739e-05 0 0.018506823043594578 -2.8355433205900875e-05 0 0.01810272760076943 2.4844110448697739e-05 0 0.018191150349649885 0.00027029901658989411 0 0.018506823043594578 -2.8355433205900875e-05 0 0.018903066194819289 -5.4763875264398804e-05 0 0.018506823043594578 -2.8355433205900875e-05 0 0.018696392843748549 0.00021137796513202964 0 0.018929124859809618 0.00048191765023668953 0 0.018696392843748549 0.00021137796513202964 0 0.018411282860472684 0.00051212020265509 0 0.018929124859809618 0.00048191765023668953 0 0.018411282860472684 0.00051212020265509 0 0.018547431494194612 0.00098039350768009607 0 0.018411282860472684 0.00051212020265509 0 0.017820417480782749 0.0006126938570347434 0 0.018547431494194612 0.00098039350768009607 0 0.018191150349649885 0.00027029901658989411 0 0.018411282860472684 0.00051212020265509 0 0.017820417480782749 0.0006126938570347434 0 0.017820417480782749 0.0006126938570347434 0 0.017236499173590443 0.0007989324190710883 0 0.018547431494194612 0.00098039350768009607 0 0.018191150349649885 0.00027029901658989411 0 0.017825755324971954 0.0004079645818900937 0 0.017820417480782749 0.0006126938570347434 0 0.017825755324971954 0.0004079645818900937 0 0.017820417480782749 0.0006126938570347434 0 0.01755171510575676 0.00062296151945765755 0 0.017328822579830389 0.00073164886511994617 0 0.01755171510575676 0.00062296151945765755 0 0.017236499173590443 0.0007989324190710883 0 0.017820417480782749 0.0006126938570347434 0 0.01755171510575676 0.00062296151945765755 0 0.017236499173590443 0.0007989324190710883 0 0.017328822579830389 0.00073164886511994617 0 0.01755171510575676 0.00062296151945765755 0 0.017542383673464199 0.00044883742102420449 0 0.017825755324971954 0.0004079645818900937 0 0.01755171510575676 0.00062296151945765755 0 0.017542383673464199 0.00044883742102420449 0 0.017822133754360699 0.00045756666476794757 0 0.018016727951960583 0.00037601485971279247 0 0.015601899534457928 0.001732113523133906 0 0.016246085397103066 0.001270991144006587 0 0.017244376143379567 0.00092765370166874282 0 0.017236499173590443 0.0007989324190710883 0 0.01709456387124357 0.00059327186085567063 0 0.017236499173590443 0.0007989324190710883 0 0.01709456387124357 0.00059327186085567063 0 0.017091055202600687 0.00042083369895386095 0 0.014821070980731134 0.00065784236117272536 0 0.01709456387124357 0.00059327186085567063 0 0.016356683302536538 0.00085570706364314342 0 0.01709456387124357 0.00059327186085567063 0 0.016356683302536538 0.00085570706364314342 0 0.016924159742525417 0.00080601252597617564 0 0.016924159742525417 0.00080601252597617564 0 0.017091055202600687 0.00042083369895386095 0 0.017401259774157372 0.0010687283693475507 0 0.01709456387124357 0.00059327186085567063 0 0.016924159742525417 0.00080601252597617564 0 0.017091055202600687 0.00042083369895386095 0 0.016924159742525417 0.00080601252597617564 0 0.017401259774157372 0.0010687283693475507 0 0.016338928625726137 0.0013681930870518837 0 0.016533701812655462 0.002459397358147819 0 0.017401259774157372 0.0010687283693475507 0 0.016338928625726137 0.0013681930870518837 0 0.016107908729430725 0.0016859377133061559 0 0.017304833580241704 0.0008311877399576139 0 0.014821070980731134 0.00065784236117272536 0 0.016356683302536538 0.00085570706364314342 0 0.016338928625726137 0.0013681930870518837 0 0.016356683302536538 0.00085570706364314342 0 0.016924159742525417 0.00080601252597617564 0 0.016338928625726137 0.0013681930870518837 0 0.015905216118012832 0.0019608106757669362 0 0.015242186621559642 0.0016519204366915526 0 0.016338928625726137 0.0013681930870518837 0 0.01794078861181727 -0.00033902168142935723 0 0.018322080578416118 -6.6663736160789319e-05 0 0.018032078463021347 0.00024935131257777132 0 0.018322080578416118 -6.6663736160789319e-05 0 0.018032078463021347 0.00024935131257777132 0 0.018644414286542815 0.00025241178316199811 0 0.01794078861181727 -0.00033902168142935723 0 0.017353852839964663 0.00030175877257079809 0 0.018032078463021347 0.00024935131257777132 0 0.018393472802258289 0.00014979973768656718 0 0.017304833580241704 0.0008311877399576139 0 0.017867285542580338 0.00028393641824734001 0 0.017091055202600687 0.00042083369895386095 0 0.017401259774157372 0.0010687283693475507 0 0.017468297750489928 0.00083176409765332653 0 0.017353852839964663 0.00030175877257079809 0 0.017791547335847691 0.00060305638242153425 0 0.017353852839964663 0.00030175877257079809 0 0.017791547335847691 0.00060305638242153425 0 0.018032078463021347 0.00024935131257777132 0 0.018091308545921756 0.00091378093649425367 0 0.017791547335847691 0.00060305638242153425 0 0.018032078463021347 0.00024935131257777132 0 0.018091308545921756 0.00091378093649425367 0 0.018032078463021347 0.00024935131257777132 0 0.018644414286542815 0.00025241178316199811 0 0.017053018254593235 0.00089610555137314572 0 0.017854123233388176 0.00030799161672463043 0 0.018322080578416118 -6.6663736160789319e-05 0 0.018644414286542815 0.00025241178316199811 0 0.018655757894129151 -0.00012673088670982801 0 0.018322080578416118 -6.6663736160789319e-05 0 0.018655757894129151 -0.00012673088670982801 0 0.01843410438191883 -0.00035738938287076385 0 0.017791772503420171 5.3560052125476314e-05 0 0.01872005138711633 -0.00020386279758186001 0 0.018669214754101059 9.8776557642731976e-05 0 0.018644414286542815 0.00025241178316199811 0 0.018655757894129151 -0.00012673088670982801 0 0.01872005138711633 -0.00020386279758186001 0 0.017854123233388176 0.00030799161672463043 0 0.018168642842054911 7.3604770154124836e-05 0 0.018481825024434365 0.00057948298528499409 0 0.017791772503420171 5.3560052125476314e-05 0 0.018669214754101059 9.8776557642731976e-05 0 0.018971104015531842 0.00058953286908045889 0 0.018481825024434365 0.00057948298528499409 0 0.018669214754101059 9.8776557642731976e-05 0 0.018971104015531842 0.00058953286908045889 0 0.018669214754101059 9.8776557642731976e-05 0 0.018919479828251588 -3.6886310050692033e-06 0 0.017851679321464652 -0.00099179705812415934 0 0.018449858682551071 -0.00077744093358912312 0 0.01872005138711633 -0.00020386279758186001 0 0.018669214754101059 9.8776557642731976e-05 0 0.018919479828251588 -3.6886310050692033e-06 0 0.01872005138711633 -0.00020386279758186001 0 0.018885245658180082 -0.00021868546386273678 0 0.018958780195872691 -0.00019123122210981216 0 0.01872005138711633 -0.00020386279758186001 0 0.018919479828251588 -3.6886310050692033e-06 0 0.018885245658180082 -0.00021868546386273678 0 0.018449858682551071 -0.00077744093358912312 0 0.018881693523645448 -0.00043483856262031899 0 0.018493879611180319 -0.001952608574831257 0 0.019191761640495068 -0.00083826167673968217 0 0.018161683922856019 -0.001013912006013895 0 0.019191761640495068 -0.00083826167673968217 0 0.019058397344605491 -0.0002114473655420159 0 0.018161683922856019 -0.001013912006013895 0 0.018881693523645448 -0.00043483856262031899 0 0.019172803153915081 -0.00015456737648897044 0 0.019191761640495068 -0.00083826167673968217 0 0.019058397344605491 -0.0002114473655420159 0 0.019695829572233762 0.00024696863545663964 0 0.018885245658180082 -0.00021868546386273678 0 0.01906640326189241 -7.7850212662158183e-05 0 0.018958780195872691 -0.00019123122210981216 0 0.018885245658180082 -0.00021868546386273678 0 0.01906640326189241 -7.7850212662158183e-05 0 0.019148422208869222 3.3163067503257528e-05 0 0.01906640326189241 -7.7850212662158183e-05 0 0.018958780195872691 -0.00019123122210981216 0 0.019154556832095465 -4.6679858469888565e-05 0 0.018958780195872691 -0.00019123122210981216 0 0.019070185064747211 -0.00015645845488484667 0 0.019154556832095465 -4.6679858469888565e-05 0 0.019070185064747211 -0.00015645845488484667 0 0.019154556832095465 -4.6679858469888565e-05 0 0.01928720430548702 -0.00010018906336321618 0 0.019070185064747211 -0.00015645845488484667 0 0.01928720430548702 -0.00010018906336321618 0 0.018913718101321524 -0.00029039233386363362 0 0.019154556832095465 -4.6679858469888565e-05 0 0.019367469287060197 -2.0264953934446551e-06 0 0.01928720430548702 -0.00010018906336321618 0 0.019367469287060197 -2.0264953934446551e-06 0 0.019519202827803599 -3.3001258678149333e-05 0 0.01928720430548702 -0.00010018906336321618 0 0.019692535830051077 3.0752275108564164e-05 0 0.019519202827803599 -3.3001258678149333e-05 0 0.019684973517100766 2.6744292471535583e-05 0 0.019367469287060197 -2.0264953934446551e-06 0 0.019519202827803599 -3.3001258678149333e-05 0 0.019684973517100766 2.6744292471535583e-05 0 0.019692535830051077 3.0752275108564164e-05 0 0.019519202827803599 -3.3001258678149333e-05 0 0.019440013522094512 -0.00019329665772888638 0 0.019519202827803599 -3.3001258678149333e-05 0 0.01928720430548702 -0.00010018906336321618 0 0.019440013522094512 -0.00019329665772888638 0 0.018762131169625742 -3.0929937738357805e-05 0 0.018833210404635824 -7.406561736113223e-05 0 0.019440013522094512 -0.00019329665772888638 0 0.019573740593819403 -0.00049505312413840698 0 0.018913718101321524 -0.00029039233386363362 0 0.018655757894129151 -0.00012673088670982801 0 0.01843410438191883 -0.00035738938287076385 0 0.018913718101321524 -0.00029039233386363362 0 0.01928720430548702 -0.00010018906336321618 0 0.019440013522094512 -0.00019329665772888638 0 0.018913718101321524 -0.00029039233386363362 0 0.019692535830051077 3.0752275108564164e-05 0 0.019440013522094512 -0.00019329665772888638 0 0.019573740593819403 -0.00049505312413840698 0 0.018655757894129151 -0.00012673088670982801 0 0.01872005138711633 -0.00020386279758186001 0 0.018913718101321524 -0.00029039233386363362 0 0.01872005138711633 -0.00020386279758186001 0 0.018958780195872691 -0.00019123122210981216 0 0.018913718101321524 -0.00029039233386363362 0 0.018958780195872691 -0.00019123122210981216 0 0.019070185064747211 -0.00015645845488484667 0 0.018913718101321524 -0.00029039233386363362 0 0.015362934929923957 -0.0017289102947807139 0 0.01605080499493234 -0.0027280310248928102 0 0.016386224805340951 -0.0018667217258357515 0 0.015143119570977642 -0.0014568737432772434 0 0.01564933047691008 -0.0023420106468697807 0 0.014617440673262838 -0.00099939422367631165 0 0.015328922489779084 -0.0019380001087730052 0 0.014238600729777709 -0.0016729577193345775 0 0.01605080499493234 -0.0027280310248928102 0 0.016386224805340951 -0.0018667217258357515 0 0.017070750632841625 -0.002372265513766317 0 0.015362934929923957 -0.0017289102947807139 0 0.016386224805340951 -0.0018667217258357515 0 0.01625549972199997 -0.0010680589820895978 0 0.016386224805340951 -0.0018667217258357515 0 0.017070750632841625 -0.002372265513766317 0 0.017207290077895954 -0.0013226754662479254 0 0.017070750632841625 -0.002372265513766317 0 0.017700540626320656 -0.0018763316131821385 0 0.017207290077895954 -0.0013226754662479254 0 0.017897129195946819 -0.0029166032809369658 0 0.017070750632841625 -0.002372265513766317 0 0.017700540626320656 -0.0018763316131821385 0 0.017897129195946819 -0.0029166032809369658 0 0.018493879611180319 -0.001952608574831257 0 0.017700540626320656 -0.0018763316131821385 0 0.018493879611180319 -0.001952608574831257 0 0.017700540626320656 -0.0018763316131821385 0 0.018161683922856019 -0.001013912006013895 0 0.017700540626320656 -0.0018763316131821385 0 0.018161683922856019 -0.001013912006013895 0 0.017207290077895954 -0.0013226754662479254 0 0.018161683922856019 -0.001013912006013895 0 0.018044775652341059 -0.00027896791023184278 0 0.017367358542511861 -0.00062106264927955549 0 0.019058397344605491 -0.0002114473655420159 0 0.018161683922856019 -0.001013912006013895 0 0.018044775652341059 -0.00027896791023184278 0 0.018052504726729646 -0.00064746619800656673 0 0.018303987777488127 -0.00051117405650349338 0 0.018044775652341059 -0.00027896791023184278 0 0.017367358542511861 -0.00062106264927955549 0 0.017427866698076083 0.00015116830861383504 0 0.017207801132916711 -0.00052389801946782369 0 0.016102128372914765 5.5704833508597556e-06 0 0.017227614266176503 0.00029136928115129895 0 0.017207801132916711 -0.00052389801946782369 0 0.017207290077895954 -0.0013226754662479254 0 0.01625549972199997 -0.0010680589820895978 0 0.018052504726729646 -0.00064746619800656673 0 0.017969119145713513 -0.00081209682781996275 0 0.018161683922856019 -0.001013912006013895 0 0.017367358542511861 -0.00062106264927955549 0 0.017207290077895954 -0.0013226754662479254 0 0.016386224805340951 -0.0018667217258357515 0 0.017207290077895954 -0.0013226754662479254 0 0.01625549972199997 -0.0010680589820895978 0 0.01625549972199997 -0.0010680589820895978 0 0.016102128372914765 5.5704833508597556e-06 0 0.015384758616479779 -0.00084054234547530917 0 0.017207801132916711 -0.00052389801946782369 0 0.01625549972199997 -0.0010680589820895978 0 0.016102128372914765 5.5704833508597556e-06 0 0.017027806759068891 -0.00068386477950724766 0 0.016194994185899286 -0.00082829981449989267 0 0.017555973117393413 -0.0010943725490925886 0 0.016575564862093353 -0.0013134802504347228 0 0.016584672094849887 -0.00081201430727236598 0 0.016102128372914765 5.5704833508597556e-06 0 0.015384758616479779 -0.00084054234547530917 0 0.01484714418802559 -0.00039819142876254879 0 0.015362934929923957 -0.0017289102947807139 0 0.01625549972199997 -0.0010680589820895978 0 0.015384758616479779 -0.00084054234547530917 0 0.017342957014965601 -0.00026910985332494029 0 0.01701567096877139 -0.00053555030511812107 0 0.016784650300836323 -0.00013877474091072257 0 0.017342957014965601 -0.00026910985332494029 0 0.01701567096877139 -0.00053555030511812107 0 0.017740605550847454 -0.00052147552261067791 0 0.017555973117393413 -0.0010943725490925886 0 0.01701567096877139 -0.00053555030511812107 0 0.016584672094849887 -0.00081201430727236598 0 0.017555973117393413 -0.0010943725490925886 0 0.01701567096877139 -0.00053555030511812107 0 0.017740605550847454 -0.00052147552261067791 0 0.017555973117393413 -0.0010943725490925886 0 0.017740605550847454 -0.00052147552261067791 0 0.018137606003155157 -0.0009029011317605312 0 0.017027806759068891 -0.00068386477950724766 0 0.018303987777488127 -0.00051117405650349338 0 0.017740605550847454 -0.00052147552261067791 0 0.018115686355297148 -0.00036328821109691569 0 0.018137606003155157 -0.0009029011317605312 0 0.018966820210802197 -0.00039779260532317901 0 0.018303987777488127 -0.00051117405650349338 0 0.021009287773407472 -0.0003722973145454053 0 0.021047100926657753 0.00050888076552843314 0 0.020469932446203307 0.00037736664056965094 0 0.019058397344605491 -0.0002114473655420159 0 0.018044775652341059 -0.00027896791023184278 0 0.018414827250026803 0.0003313631851419584 0 0.018303987777488127 -0.00051117405650349338 0 0.019029563850448749 -0.0001755124248562862 0 0.018044775652341059 -0.00027896791023184278 0 0.017427866698076083 0.00015116830861383504 0 0.018414827250026803 0.0003313631851419584 0 0.021009287773407472 -0.0003722973145454053 0 0.020469932446203307 0.00037736664056965094 0 0.02033767660373411 -0.00014942379780399378 0 0.021009287773407472 -0.0003722973145454053 0 0.02033767660373411 -0.00014942379780399378 0 0.020477681534196324 -0.0006709586768982275 0 0.021009287773407472 -0.0003722973145454053 0 0.020834363901698207 -0.0011012442368522894 0 0.020477681534196324 -0.0006709586768982275 0 0.020834363901698207 -0.0011012442368522894 0 0.020477681534196324 -0.0006709586768982275 0 0.020636939524099052 -0.0012552226215493808 0 0.018966820210802197 -0.00039779260532317901 0 0.019289643250749042 -0.00045328449748672649 0 0.018115686355297148 -0.00036328821109691569 0 0.018231182285084708 -0.00020116756266462735 0 0.017846298653787434 -0.00013787171792737103 0 0.017342957014965601 -0.00026910985332494029 0 0.017740605550847454 -0.00052147552261067791 0 0.017846298653787434 -0.00013787171792737103 0 0.017740605550847454 -0.00052147552261067791 0 0.018115686355297148 -0.00036328821109691569 0 0.017846298653787434 -0.00013787171792737103 0 0.018231182285084708 -0.00020116756266462735 0 0.017846298653787434 -0.00013787171792737103 0 0.018345015131115326 -0.00026403918625771166 0 0.017846298653787434 -0.00013787171792737103 0 0.017770692136578635 -8.0722947603847038e-05 0 0.017223725944243404 4.8656269262794173e-05 0 0.017342957014965601 -0.00026910985332494029 0 0.017846298653787434 -0.00013787171792737103 0 0.017223725944243404 4.8656269262794173e-05 0 0.01927327579779815 -6.3519638314073499e-05 0 0.019152970935884882 1.0445602760159045e-05 0 0.019545448738695292 -0.00037832782945072281 0 0.01927327579779815 -6.3519638314073499e-05 0 0.019152970935884882 1.0445602760159045e-05 0 0.019203782193165635 9.1794897216493662e-06 0 0.019775450474308114 -0.00029584360711571464 0 0.020134659406444811 -0.00065111802811123709 0 0.020592276389555072 -0.00055317719217989815 0 0.020134659406444811 -0.00065111802811123709 0 0.020592276389555072 -0.00055317719217989815 0 0.020557652697066352 -0.00095459407272248658 0 0.019367469287060197 -2.0264953934446551e-06 0 0.019684973517100766 2.6744292471535583e-05 0 0.019152970935884882 1.0445602760159045e-05 0 0.019775450474308114 -0.00029584360711571464 0 0.019684973517100766 2.6744292471535583e-05 0 0.020592276389555072 -0.00055317719217989815 0 0.019923081398096683 -0.00034055345137783702 0 0.0200104961291931 -0.00048028485883748104 0 0.019367469287060197 -2.0264953934446551e-06 0 0.019152970935884882 1.0445602760159045e-05 0 0.01922754468343648 1.1297762858813248e-05 0 0.019154556832095465 -4.6679858469888565e-05 0 0.019367469287060197 -2.0264953934446551e-06 0 0.01922754468343648 1.1297762858813248e-05 0 0.019154556832095465 -4.6679858469888565e-05 0 0.01922754468343648 1.1297762858813248e-05 0 0.019203782193165635 9.1794897216493662e-06 0 0.019152970935884882 1.0445602760159045e-05 0 0.01922754468343648 1.1297762858813248e-05 0 0.019203782193165635 9.1794897216493662e-06 0 0.01906640326189241 -7.7850212662158183e-05 0 0.019154556832095465 -4.6679858469888565e-05 0 0.019203782193165635 9.1794897216493662e-06 0 0.01906640326189241 -7.7850212662158183e-05 0 0.019203782193165635 9.1794897216493662e-06 0 0.019148422208869222 3.3163067503257528e-05 0 0.01927327579779815 -6.3519638314073499e-05 0 0.019203782193165635 9.1794897216493662e-06 0 0.019148422208869222 3.3163067503257528e-05 0 0.020469932446203307 0.00037736664056965094 0 0.019673632043445619 0.00024740238676788186 0 0.02033767660373411 -0.00014942379780399378 0 0.019058397344605491 -0.0002114473655420159 0 0.018414827250026803 0.0003313631851419584 0 0.019673632043445619 0.00024740238676788186 0 0.019029563850448749 -0.0001755124248562862 0 0.019216972824611309 -8.9209324269646175e-05 0 0.019058397344605491 -0.0002114473655420159 0 0.019695829572233762 0.00024696863545663964 0 0.019673632043445619 0.00024740238676788186 0 0.02033767660373411 -0.00014942379780399378 0 0.01991439009172092 -0.00019939422824581733 0 0.020477681534196324 -0.0006709586768982275 0 0.019673632043445619 0.00024740238676788186 0 0.02033767660373411 -0.00014942379780399378 0 0.01991439009172092 -0.00019939422824581733 0 0.01927327579779815 -6.3519638314073499e-05 0 0.019148422208869222 3.3163067503257528e-05 0 0.019545448738695292 -0.00037832782945072281 0 0.019695829572233762 0.00024696863545663964 0 0.01991439009172092 -0.00019939422824581733 0 0.019545448738695292 -0.00037832782945072281 0 0.019695829572233762 0.00024696863545663964 0 0.019673632043445619 0.00024740238676788186 0 0.01991439009172092 -0.00019939422824581733 0 0.019172803153915081 -0.00015456737648897044 0 0.019240137942408517 -0.00021166978769391364 0 0.01991439009172092 -0.00019939422824581733 0 0.020117913550866708 -0.00073779668539862998 0 0.019545448738695292 -0.00037832782945072281 0 0.020117913550866708 -0.00073779668539862998 0 0.019533188102904924 -0.00068906212719293094 0 0.019545448738695292 -0.00037832782945072281 0 0.01991439009172092 -0.00019939422824581733 0 0.020117913550866708 -0.00073779668539862998 0 0.020477681534196324 -0.0006709586768982275 0 0.020117913550866708 -0.00073779668539862998 0 0.020688186686942625 -0.0013511494949306889 0 0.020636939524099052 -0.0012552226215493808 0 0.020117913550866708 -0.00073779668539862998 0 0.020477681534196324 -0.0006709586768982275 0 0.020636939524099052 -0.0012552226215493808 0 0.020117913550866708 -0.00073779668539862998 0 0.019533188102904924 -0.00068906212719293094 0 0.020688186686942625 -0.0013511494949306889 0 0.021025067861744729 -0.0012616029262929934 0 0.020957018616311572 -0.0013777768309072866 0 0.020688186686942625 -0.0013511494949306889 0 0.020204524919385104 -0.00078281233542532166 0 0.020323539998879842 -0.00095105400546138623 0 0.020934455980936406 -0.0013216721819672898 0 0.021025067861744729 -0.0012616029262929934 0 0.020957018616311572 -0.0013777768309072866 0 0.020893935429719502 -0.001357825376628076 0 0.020934455980936406 -0.0013216721819672898 0 0.020957018616311572 -0.0013777768309072866 0 0.020893935429719502 -0.001357825376628076 0 0.02096866702597229 -0.0014297911062821724 0 0.020957018616311572 -0.0013777768309072866 0 0.020934455980936406 -0.0013216721819672898 0 0.021025067861744729 -0.0012616029262929934 0 0.020801433093510686 -0.0012153520801451115 0 0.020893935429719502 -0.001357825376628076 0 0.020934455980936406 -0.0013216721819672898 0 0.020801433093510686 -0.0012153520801451115 0 0.0200104961291931 -0.00048028485883748104 0 0.020204524919385104 -0.00078281233542532166 0 0.021025067861744729 -0.0012616029262929934 0 0.020801433093510686 -0.0012153520801451115 0 0.020557652697066352 -0.00095459407272248658 0 0.020592276389555072 -0.00055317719217989815 0 0.021025067861744729 -0.0012616029262929934 0 0.020557652697066352 -0.00095459407272248658 0 0.019152970935884882 1.0445602760159045e-05 0 0.019533188102904924 -0.00068906212719293094 0 0.019545448738695292 -0.00037832782945072281 0 0.020118611728246243 -0.00089454389725762999 0 0.020557652697066352 -0.00095459407272248658 0 0.020528805169804348 -0.0011257579510015462 0 0.020118611728246243 -0.00089454389725762999 0 0.020134659406444811 -0.00065111802811123709 0 0.020557652697066352 -0.00095459407272248658 0 0.020801433093510686 -0.0012153520801451115 0 0.020557652697066352 -0.00095459407272248658 0 0.020528805169804348 -0.0011257579510015462 0 0.020801433093510686 -0.0012153520801451115 0 0.020528805169804348 -0.0011257579510015462 0 0.020723818990053187 -0.0012745529979986381 0 0.020260224598517125 -0.0011230538361534737 0 0.020528805169804348 -0.0011257579510015462 0 0.020544058218390972 -0.0012856931159552368 0 0.020528805169804348 -0.0011257579510015462 0 0.020544058218390972 -0.0012856931159552368 0 0.020723818990053187 -0.0012745529979986381 0 0.020544058218390972 -0.0012856931159552368 0 0.020723818990053187 -0.0012745529979986381 0 0.020774500452770864 -0.0013714195980612019 0 0.020893935429719502 -0.001357825376628076 0 0.020801433093510686 -0.0012153520801451115 0 0.020723818990053187 -0.0012745529979986381 0 0.020893935429719502 -0.001357825376628076 0 0.020774500452770864 -0.0013714195980612019 0 0.02096866702597229 -0.0014297911062821724 0 0.020893935429719502 -0.001357825376628076 0 0.020723818990053187 -0.0012745529979986381 0 0.020774500452770864 -0.0013714195980612019 0 0.020618028273477213 -0.0014018980159097505 0 0.020544058218390972 -0.0012856931159552368 0 0.020774500452770864 -0.0013714195980612019 0 0.020618028273477213 -0.0014018980159097505 0 0.020774500452770864 -0.0013714195980612019 0 0.020819201025134522 -0.0014685931991217449 0 0.020819201025134522 -0.0014685931991217449 0 0.020868722183843363 -0.001554039315317213 0 0.020612866211403208 -0.0015118667574079737 0 0.020819201025134522 -0.0014685931991217449 0 0.02099421049366388 -0.0015059305038965711 0 0.020868722183843363 -0.001554039315317213 0 0.020819201025134522 -0.0014685931991217449 0 0.02096866702597229 -0.0014297911062821724 0 0.02099421049366388 -0.0015059305038965711 0 0.020774500452770864 -0.0013714195980612019 0 0.020819201025134522 -0.0014685931991217449 0 0.02096866702597229 -0.0014297911062821724 0 0.02099421049366388 -0.0015059305038965711 0 0.02112193479843261 -0.0015885766375211847 0 0.021150231616820676 -0.0014477345199405227 0 0.02096866702597229 -0.0014297911062821724 0 0.02099421049366388 -0.0015059305038965711 0 0.021150231616820676 -0.0014477345199405227 0 0.02099421049366388 -0.0015059305038965711 0 0.020868722183843363 -0.001554039315317213 0 0.02112193479843261 -0.0015885766375211847 0 0.02112193479843261 -0.0015885766375211847 0 0.021558543952214047 -0.0013810379835629588 0 0.021342111026432003 -0.0016274697345582091 0 0.02112193479843261 -0.0015885766375211847 0 0.021150231616820676 -0.0014477345199405227 0 0.021558543952214047 -0.0013810379835629588 0 0.021150231616820676 -0.0014477345199405227 0 0.02113255452846638 -0.0013026935401564935 0 0.021558543952214047 -0.0013810379835629588 0 0.02113255452846638 -0.0013026935401564935 0 0.021385199061434434 -0.0010986988960433981 0 0.021558543952214047 -0.0013810379835629588 0 0.021150231616820676 -0.0014477345199405227 0 0.020957018616311572 -0.0013777768309072866 0 0.02113255452846638 -0.0013026935401564935 0 0.02096866702597229 -0.0014297911062821724 0 0.021150231616820676 -0.0014477345199405227 0 0.020957018616311572 -0.0013777768309072866 0 0.020957018616311572 -0.0013777768309072866 0 0.020688186686942625 -0.0013511494949306889 0 0.02113255452846638 -0.0013026935401564935 0 0.020688186686942625 -0.0013511494949306889 0 0.020636939524099052 -0.0012552226215493808 0 0.020911744701017358 -0.0011584549536682381 0 0.020688186686942625 -0.0013511494949306889 0 0.020911744701017358 -0.0011584549536682381 0 0.02113255452846638 -0.0013026935401564935 0 0.020911744701017358 -0.0011584549536682381 0 0.02113255452846638 -0.0013026935401564935 0 0.021385199061434434 -0.0010986988960433981 0 0.021385199061434434 -0.0010986988960433981 0 0.021417181629373918 -0.0007228256385597067 0 0.021856857061188794 -0.00088894757779812029 0 0.020911744701017358 -0.0011584549536682381 0 0.021385199061434434 -0.0010986988960433981 0 0.021417181629373918 -0.0007228256385597067 0 0.020911744701017358 -0.0011584549536682381 0 0.021417181629373918 -0.0007228256385597067 0 0.021091553989606254 -0.00025332165004279681 0 0.021417181629373918 -0.0007228256385597067 0 0.021091553989606254 -0.00025332165004279681 0 0.022005529872312125 -0.0001526010866293426 0 0.021417181629373918 -0.0007228256385597067 0 0.021856857061188794 -0.00088894757779812029 0 0.022005529872312125 -0.0001526010866293426 0 0.021856857061188794 -0.00088894757779812029 0 0.022479727262394368 -0.00023278701765382548 0 0.022005529872312125 -0.0001526010866293426 0 0.021856857061188794 -0.00088894757779812029 0 0.022421314431613392 -0.00069243814411530256 0 0.022479727262394368 -0.00023278701765382548 0 0.021856857061188794 -0.00088894757779812029 0 0.022421314431613392 -0.00069243814411530256 0 0.021829969465061504 -0.0015865581921717278 0 0.021558543952214047 -0.0013810379835629588 0 0.021829969465061504 -0.0015865581921717278 0 0.021342111026432003 -0.0016274697345582091 0 0.021856857061188794 -0.00088894757779812029 0 0.021558543952214047 -0.0013810379835629588 0 0.021829969465061504 -0.0015865581921717278 0 0.021385199061434434 -0.0010986988960433981 0 0.021856857061188794 -0.00088894757779812029 0 0.021558543952214047 -0.0013810379835629588 0 0.01804509565119982 -0.00021105243965044841 0 0.018345015131115326 -0.00026403918625771166 0 0.018710054832866033 -0.00043166651875921401 0 0.01804509565119982 -0.00021105243965044841 0 0.017770692136578635 -8.0722947603847038e-05 0 0.018345015131115326 -0.00026403918625771166 0 0.017846298653787434 -0.00013787171792737103 0 0.017770692136578635 -8.0722947603847038e-05 0 0.018345015131115326 -0.00026403918625771166 0 0.018345015131115326 -0.00026403918625771166 0 0.018732990834128486 -0.00039570593071493074 0 0.018710054832866033 -0.00043166651875921401 0 0.019467783477597308 -0.00041313096146377919 0 0.019549499574899976 -0.0003090895161066474 0 0.018231182285084708 -0.00020116756266462735 0 0.018345015131115326 -0.00026403918625771166 0 0.018732990834128486 -0.00039570593071493074 0 0.019289643250749042 -0.00045328449748672649 0 0.019467783477597308 -0.00041313096146377919 0 0.020834363901698207 -0.0011012442368522894 0 0.020636939524099052 -0.0012552226215493808 0 0.020428878497375416 -0.001261701281552264 0 0.020911744701017358 -0.0011584549536682381 0 0.020428878497375416 -0.001261701281552264 0 0.019942418476697733 -0.00059143537679516643 0 0.020636939524099052 -0.0012552226215493808 0 0.020911744701017358 -0.0011584549536682381 0 0.020428878497375416 -0.001261701281552264 0 0.020911744701017358 -0.0011584549536682381 0 0.021091553989606254 -0.00025332165004279681 0 0.019942418476697733 -0.00059143537679516643 0 0.021091553989606254 -0.00025332165004279681 0 0.019942418476697733 -0.00059143537679516643 0 0.020327803878983464 -0.00010407958348856678 0 0.019942418476697733 -0.00059143537679516643 0 0.019036746111684828 -0.00027148023417415332 0 0.020327803878983464 -0.00010407958348856678 0 0.018732990834128486 -0.00039570593071493074 0 0.019942418476697733 -0.00059143537679516643 0 0.018710054832866033 -0.00043166651875921401 0 0.019942418476697733 -0.00059143537679516643 0 0.018710054832866033 -0.00043166651875921401 0 0.019036746111684828 -0.00027148023417415332 0 0.019036746111684828 -0.00027148023417415332 0 0.019679455153243035 7.8401263807152918e-05 0 0.020327803878983464 -0.00010407958348856678 0 0.019036746111684828 -0.00027148023417415332 0 0.018571334517681844 -0.00015651568164757579 0 0.019128405636049815 8.0326108499230125e-05 0 0.019036746111684828 -0.00027148023417415332 0 0.018571334517681844 -0.00015651568164757579 0 0.018368428509635461 -0.00031992898737893608 0 0.018710054832866033 -0.00043166651875921401 0 0.019036746111684828 -0.00027148023417415332 0 0.018368428509635461 -0.00031992898737893608 0 0.01804509565119982 -0.00021105243965044841 0 0.018710054832866033 -0.00043166651875921401 0 0.018368428509635461 -0.00031992898737893608 0 0.018752320683662158 0.00087307837882792238 0 0.018818091152339435 0.00039475567543502182 0 0.019236251952030971 0.0014208852976877377 0 0.020924800846174336 0.00029049802265667909 0 0.021799027952919058 0.00056295226755774454 0 0.018752320683662158 0.00087307837882792238 0 0.018818091152339435 0.00039475567543502182 0 0.018296889212865319 0.00032763728333884596 0 0.018571334517681844 -0.00015651568164757579 0 0.018818091152339435 0.00039475567543502182 0 0.018296889212865319 0.00032763728333884596 0 0.018571334517681844 -0.00015651568164757579 0 0.019128405636049815 8.0326108499230125e-05 0 0.018818091152339435 0.00039475567543502182 0 0.019036746111684828 -0.00027148023417415332 0 0.019128405636049815 8.0326108499230125e-05 0 0.019679455153243035 7.8401263807152918e-05 0 0.019128405636049815 8.0326108499230125e-05 0 0.018818091152339435 0.00039475567543502182 0 0.019795382701441558 0.00059513311225284425 0 0.019128405636049815 8.0326108499230125e-05 0 0.019679455153243035 7.8401263807152918e-05 0 0.019795382701441558 0.00059513311225284425 0 0.018818091152339435 0.00039475567543502182 0 0.019795382701441558 0.00059513311225284425 0 0.019465612012065946 0.00156465548862951 0 0.019679455153243035 7.8401263807152918e-05 0 0.019795382701441558 0.00059513311225284425 0 0.020782345192851256 0.00048660086421747055 0 0.019795382701441558 0.00059513311225284425 0 0.020782345192851256 0.00048660086421747055 0 0.021079905594952944 0.0012978465030068879 0 0.019679455153243035 7.8401263807152918e-05 0 0.020782345192851256 0.00048660086421747055 0 0.020327803878983464 -0.00010407958348856678 0 0.021091553989606254 -0.00025332165004279681 0 0.020327803878983464 -0.00010407958348856678 0 0.021622691840979785 0.00033442219007283775 0 0.020782345192851256 0.00048660086421747055 0 0.020327803878983464 -0.00010407958348856678 0 0.021622691840979785 0.00033442219007283775 0 0.020782345192851256 0.00048660086421747055 0 0.021622691840979785 0.00033442219007283775 0 0.022377227398853464 0.00099197819464686755 0 0.020782345192851256 0.00048660086421747055 0 0.021079905594952944 0.0012978465030068879 0 0.022377227398853464 0.00099197819464686755 0 0.023387591385458859 0.002095034073147531 0 0.021079905594952944 0.0012978465030068879 0 0.022377227398853464 0.00099197819464686755 0 0.023255438618610083 0.001538056990069503 0 0.02330848025102002 0.001308487573140054 0 0.023387591385458859 0.002095034073147531 0 0.021079905594952944 0.0012978465030068879 0 0.020808240544407986 0.0030789323466998623 0 0.019795382701441558 0.00059513311225284425 0 0.021079905594952944 0.0012978465030068879 0 0.019465612012065946 0.00156465548862951 0 0.021799027952919058 0.00056295226755774454 0 0.02330848025102002 0.001308487573140054 0 0.022450503494956253 0.00052214158417346541 0 0.022865066916012908 0.0016876067696031925 0 0.023295536370905961 0.0015636501330737783 0 0.021799027952919058 0.00056295226755774454 0 0.023855108618380895 0.0010508025830429557 0 0.022475209996999142 -0.00019607846532249988 0 0.022482312866976308 -0.00019931543771475825 0 0.022487248018978175 -0.00019397923499666448 0 0.021079905594952944 0.0012978465030068879 0 0.019465612012065946 0.00156465548862951 0 0.020808240544407986 0.0030789323466998623 0 0.022482312866976308 -0.00019931543771475825 0 0.022479598348071329 -0.0002010377039177518 0 0.022490269199943617 -0.00020753686531693478 0 0.022475209996999142 -0.00019607846532249988 0 0.022482312866976308 -0.00019931543771475825 0 0.022479598348071329 -0.0002010377039177518 0 0.022468532700144431 -0.00019348413758724897 0 0.022475209996999142 -0.00019607846532249988 0 0.022479598348071329 -0.0002010377039177518 0 0.021010936761960076 0.00015381096968504886 0 0.021799027952919058 0.00056295226755774454 0 0.022944828381862518 0.00050725228191273624 0 0.023646337995167174 0.00089687646628333964 0 0.023195274950095705 0.0001455790682245942 0 0.022421314431613392 -0.00069243814411530256 0 0.022479727262394368 -0.00023278701765382548 0 0.023195274950095705 0.0001455790682245942 0 0.022944828381862518 0.00050725228191273624 0 0.022479727262394368 -0.00023278701765382548 0 0.023195274950095705 0.0001455790682245942 0 0.022944828381862518 0.00050725228191273624 0 0.022479727262394368 -0.00023278701765382548 0 0.022005529872312125 -0.0001526010866293426 0 0.021091553989606254 -0.00025332165004279681 0 0.021622691840979785 0.00033442219007283775 0 0.022005529872312125 -0.0001526010866293426 0 0.021622691840979785 0.00033442219007283775 0 0.022005529872312125 -0.0001526010866293426 0 0.02242539851480841 0.00053080751124741843 0 0.021622691840979785 0.00033442219007283775 0 0.02242539851480841 0.00053080751124741843 0 0.022377227398853464 0.00099197819464686755 0 0.022944828381862518 0.00050725228191273624 0 0.02242539851480841 0.00053080751124741843 0 0.023161232058126223 0.0010369811795924767 0 0.022944828381862518 0.00050725228191273624 0 0.022005529872312125 -0.0001526010866293426 0 0.02242539851480841 0.00053080751124741843 0 0.02242539851480841 0.00053080751124741843 0 0.023161232058126223 0.0010369811795924767 0 0.022377227398853464 0.00099197819464686755 0 0.023161232058126223 0.0010369811795924767 0 0.022377227398853464 0.00099197819464686755 0 0.023370100243846628 0.0014992298296759474 0 0.023387591385458859 0.002095034073147531 0 0.022377227398853464 0.00099197819464686755 0 0.023370100243846628 0.0014992298296759474 0 0.023387591385458859 0.002095034073147531 0 0.023370100243846628 0.0014992298296759474 0 0.023997666475523548 0.0017139714695378265 0 0.023161232058126223 0.0010369811795924767 0 0.023949642774242167 0.0015028693345973318 0 0.023792083188324164 0.0012168396240824137 0 0.023370100243846628 0.0014992298296759474 0 0.023949642774242167 0.0015028693345973318 0 0.023997666475523548 0.0017139714695378265 0 0.023161232058126223 0.0010369811795924767 0 0.023370100243846628 0.0014992298296759474 0 0.023949642774242167 0.0015028693345973318 0 0.023949642774242167 0.0015028693345973318 0 0.024188947664654802 0.0014264618143884167 0 0.023792083188324164 0.0012168396240824137 0 0.024188947664654802 0.0014264618143884167 0 0.023792083188324164 0.0012168396240824137 0 0.024233970729231002 0.0013575392403041952 0 0.022944828381862518 0.00050725228191273624 0 0.023161232058126223 0.0010369811795924767 0 0.023792083188324164 0.0012168396240824137 0 0.022944828381862518 0.00050725228191273624 0 0.023792083188324164 0.0012168396240824137 0 0.023646337995167174 0.00089687646628333964 0 0.023352948246656128 -0.00069324654655508169 0 0.024190278526218873 -0.00035862334581368614 0 0.023792083188324164 0.0012168396240824137 0 0.023646337995167174 0.00089687646628333964 0 0.0241525397966562 0.0013659149249686262 0 0.023792083188324164 0.0012168396240824137 0 0.024233970729231002 0.0013575392403041952 0 0.0241525397966562 0.0013659149249686262 0 0.022996630716523157 -0.002321499381425595 0 0.023100462588981695 -0.0022105181041302351 0 0.022932307051645374 -0.0020771257019630398 0 0.023100462588981695 -0.0022105181041302351 0 0.023092441778808429 -0.002075679043756743 0 0.022932307051645374 -0.0020771257019630398 0 0.023100462588981695 -0.0022105181041302351 0 0.023253556876492009 -0.0020704896322167989 0 0.023092441778808429 -0.002075679043756743 0 0.023100462588981695 -0.0022105181041302351 0 0.023236933017657731 -0.0022702149532344632 0 0.023253556876492009 -0.0020704896322167989 0 0.023236933017657731 -0.0022702149532344632 0 0.023141973073588364 -0.0023983414930350776 0 0.023291279835047123 -0.0024001531767483607 0 0.023100462588981695 -0.0022105181041302351 0 0.023236933017657731 -0.0022702149532344632 0 0.023141973073588364 -0.0023983414930350776 0 0.022996630716523157 -0.002321499381425595 0 0.023100462588981695 -0.0022105181041302351 0 0.023141973073588364 -0.0023983414930350776 0 0.023141973073588364 -0.0023983414930350776 0 0.023144713016058596 -0.0025763278397948741 0 0.023084529919923148 -0.002547707056442975 0 0.022996630716523157 -0.002321499381425595 0 0.023141973073588364 -0.0023983414930350776 0 0.023084529919923148 -0.002547707056442975 0 0.023352948246656128 -0.00069324654655508169 0 0.022656168372348552 -0.0014208564417814251 0 0.023144713016058596 -0.0025763278397948741 0 0.02303514535529735 -0.00269369541691406 0 0.023071808277045063 -0.0028869341052569241 0 0.023903914158875508 -0.0027542197526911208 0 0.024128965009783256 -0.0026460606386409548 0 0.023141973073588364 -0.0023983414930350776 0 0.023144713016058596 -0.0025763278397948741 0 0.023291279835047123 -0.0024001531767483607 0 0.023144713016058596 -0.0025763278397948741 0 0.023025448551809005 -0.0025412698122348758 0 0.023147676930513603 -0.0025430982070080454 0 0.022656168372348552 -0.0014208564417814251 0 0.021822907245620967 -0.0028562880981424783 0 0.023144713016058596 -0.0025763278397948741 0 0.023084529919923148 -0.002547707056442975 0 0.023147676930513603 -0.0025430982070080454 0 0.020595425663136616 -0.0043193228067044389 0 0.019875131372318278 -0.0048190632088823621 0 0.016477720483086034 -0.0073236929935236277 0 0.018630433019837276 -0.007443062518709494 0 0.016539088723715602 -0.008948346782927951 0 0.023025448551809005 -0.0025412698122348758 0 0.022892119001513018 -0.00279606787705808 0 0.02303514535529735 -0.00269369541691406 0 0.023144713016058596 -0.0025763278397948741 0 0.023025448551809005 -0.0025412698122348758 0 0.02303514535529735 -0.00269369541691406 0 0.023025448551809005 -0.0025412698122348758 0 0.022892119001513018 -0.00279606787705808 0 0.022649122492673566 -0.0027607891446376417 0 0.022892119001513018 -0.00279606787705808 0 0.02303514535529735 -0.00269369541691406 0 0.023071808277045063 -0.0028869341052569241 0 0.022892119001513018 -0.00279606787705808 0 0.023071808277045063 -0.0028869341052569241 0 0.022824005357739343 -0.0030409413856912803 0 0.022892119001513018 -0.00279606787705808 0 0.022649122492673566 -0.0027607891446376417 0 0.022824005357739343 -0.0030409413856912803 0 0.019875131372318278 -0.0048190632088823621 0 0.020337358080007011 -0.0045076250817986784 0 0.022564040840425206 -0.0026602693488088384 0 0.022671894635500157 -0.0030386786622344196 0 0.022382452767000592 -0.0027936745854281425 0 0.023880418312915708 -0.0029276349808641539 0 0.021496721432024468 -0.0035957916551147204 0 0.022564040840425206 -0.0026602693488088384 0 0.022671894635500157 -0.0030386786622344196 0 0.022824005357739343 -0.0030409413856912803 0 0.029664445716981576 -0.00099632950763351379 0 0.029802578394072261 -0.0010042856747860375 0 0.029776291524070693 -0.0010657720464583597 0 0.022671894635500157 -0.0030386786622344196 0 0.022824005357739343 -0.0030409413856912803 0 0.022930904185939141 -0.0032424362653472464 0 0.029664445716981576 -0.00099632950763351379 0 0.029217697125159359 -0.00064610941918639834 0 0.029657488010120588 -0.0006227121987437145 0 0.023880418312915708 -0.0029276349808641539 0 0.025062397032633413 -0.0018954962406839079 0 0.029664445716981576 -0.00099632950763351379 0 0.029807158623228535 -0.00078182537881919703 0 0.029802578394072261 -0.0010042856747860375 0 0.029664445716981576 -0.00099632950763351379 0 0.029807158623228535 -0.00078182537881919703 0 0.029657488010120588 -0.0006227121987437145 0 0.023236933017657731 -0.0022702149532344632 0 0.023291279835047123 -0.0024001531767483607 0 0.023398982367386585 -0.0022065404278055773 0 0.023071808277045063 -0.0028869341052569241 0 0.022824005357739343 -0.0030409413856912803 0 0.022930904185939141 -0.0032424362653472464 0 0.024128965009783256 -0.0026460606386409548 0 0.025062397032633413 -0.0018954962406839079 0 0.025062397032633413 -0.0018954962406839079 0 0.025507171105476598 -0.00060070841540663014 0 0.02541593096127822 -0.00055244935421637259 0 0.02511591752810529 -0.0011969282507585299 0 0.02609235576836132 -0.0011631926252512158 0 0.023236933017657731 -0.0022702149532344632 0 0.023398982367386585 -0.0022065404278055773 0 0.023253556876492009 -0.0020704896322167989 0 0.025062397032633413 -0.0018954962406839079 0 0.027383195573013209 -0.00025571293011114593 0 0.029840496071796663 -0.00057038090888511907 0 0.029657488010120588 -0.0006227121987437145 0 0.029822504095296635 -0.00037717514007297421 0 0.029807158623228535 -0.00078182537881919703 0 0.029840496071796663 -0.00057038090888511907 0 0.029964822761501586 -0.00062221983555583993 0 0.029807158623228535 -0.00078182537881919703 0 0.029840496071796663 -0.00057038090888511907 0 0.029657488010120588 -0.0006227121987437145 0 0.029217697125159359 -0.00064610941918639834 0 0.029657488010120588 -0.0006227121987437145 0 0.029576494826998007 -0.00040137935171851287 0 0.029576494826998007 -0.00040137935171851287 0 0.029714080947742302 -0.00025021147792116648 0 0.02945621848019454 -0.00010899425369557267 0 0.029217697125159359 -0.00064610941918639834 0 0.029576494826998007 -0.00040137935171851287 0 0.02945621848019454 -0.00010899425369557267 0 0.029714080947742302 -0.00025021147792116648 0 0.029936042035431518 -0.00024831875127425768 0 0.029780888203236378 -7.9447810958413269e-05 0 0.029657488010120588 -0.0006227121987437145 0 0.029576494826998007 -0.00040137935171851287 0 0.029822504095296635 -0.00037717514007297421 0 0.029576494826998007 -0.00040137935171851287 0 0.029714080947742302 -0.00025021147792116648 0 0.029822504095296635 -0.00037717514007297421 0 0.029840496071796663 -0.00057038090888511907 0 0.029822504095296635 -0.00037717514007297421 0 0.029945349884891784 -0.0004352451431505614 0 0.029822504095296635 -0.00037717514007297421 0 0.029949278536317948 -0.00033152664966165765 0 0.029945349884891784 -0.0004352451431505614 0 0.029822504095296635 -0.00037717514007297421 0 0.029949278536317948 -0.00033152664966165765 0 0.029936042035431518 -0.00024831875127425768 0 0.029714080947742302 -0.00025021147792116648 0 0.029822504095296635 -0.00037717514007297421 0 0.029936042035431518 -0.00024831875127425768 0 0.030100552406794521 -0.00026397772795261077 0 0.029945349884891784 -0.0004352451431505614 0 0.029964822761501586 -0.00062221983555583993 0 0.030100552406794521 -0.00026397772795261077 0 0.03024192478912607 -0.0002630509170474379 0 0.030181957712472934 -0.00039743617985731403 0 0.030100552406794521 -0.00026397772795261077 0 0.029964822761501586 -0.00062221983555583993 0 0.030081517941854839 -0.00083978614134451728 0 0.025827925183478088 -0.0023062053991162348 0 0.025323953687249472 -0.0027035335725829166 0 0.029936042035431518 -0.00024831875127425768 0 0.030100552406794521 -0.00026397772795261077 0 0.030152456809567327 -0.00010668664666669329 0 0.029949278536317948 -0.00033152664966165765 0 0.029936042035431518 -0.00024831875127425768 0 0.030100552406794521 -0.00026397772795261077 0 0.029949278536317948 -0.00033152664966165765 0 0.030100552406794521 -0.00026397772795261077 0 0.029945349884891784 -0.0004352451431505614 0 0.029840496071796663 -0.00057038090888511907 0 0.029945349884891784 -0.0004352451431505614 0 0.029964822761501586 -0.00062221983555583993 0 0.03024192478912607 -0.0002630509170474379 0 0.030323900238872048 -0.00029990097140047408 0 0.030181957712472934 -0.00039743617985731403 0 0.030100552406794521 -0.00026397772795261077 0 0.03024192478912607 -0.0002630509170474379 0 0.030235560554370645 -0.00016885071116967641 0 0.03024192478912607 -0.0002630509170474379 0 0.030322737131214056 -0.00016297021132236008 0 0.030235560554370645 -0.00016885071116967641 0 0.030323900238872048 -0.00029990097140047408 0 0.030480920164638284 -0.00035834072023003703 0 0.030406240958921214 -0.00017765909667111392 0 0.030323900238872048 -0.00029990097140047408 0 0.030406240958921214 -0.00017765909667111392 0 0.030322737131214056 -0.00016297021132236008 0 0.03024192478912607 -0.0002630509170474379 0 0.030323900238872048 -0.00029990097140047408 0 0.030322737131214056 -0.00016297021132236008 0 0.030307210075246376 -0.00043673960088644797 0 0.030480920164638284 -0.00035834072023003703 0 0.030277660304199493 -0.00062102000542989841 0 0.030323900238872048 -0.00029990097140047408 0 0.030307210075246376 -0.00043673960088644797 0 0.030480920164638284 -0.00035834072023003703 0 0.030307210075246376 -0.00043673960088644797 0 0.030181957712472934 -0.00039743617985731403 0 0.030210702216214476 -0.00056537022963574102 0 0.030323900238872048 -0.00029990097140047408 0 0.030307210075246376 -0.00043673960088644797 0 0.030181957712472934 -0.00039743617985731403 0 0.025323953687249472 -0.0027035335725829166 0 0.023639162392029043 -0.0038548714608307938 0 0.029802578394072261 -0.0010042856747860375 0 0.030081517941854839 -0.00083978614134451728 0 0.030215787169005581 -0.0013355188536796382 0 0.025180432321336176 -0.0040531639793126694 0 0.023639162392029043 -0.0038548714608307938 0 0.029807158623228535 -0.00078182537881919703 0 0.029802578394072261 -0.0010042856747860375 0 0.02991882156865185 -0.00082103724326085237 0 0.029802578394072261 -0.0010042856747860375 0 0.02991882156865185 -0.00082103724326085237 0 0.030081517941854839 -0.00083978614134451728 0 0.029807158623228535 -0.00078182537881919703 0 0.029964822761501586 -0.00062221983555583993 0 0.02991882156865185 -0.00082103724326085237 0 0.029964822761501586 -0.00062221983555583993 0 0.02991882156865185 -0.00082103724326085237 0 0.030081517941854839 -0.00083978614134451728 0 0.023263659438678783 -0.0025405443000659114 0 0.023456069112055597 -0.0025651000036949613 0 0.023482815529880192 -0.0022620187606157745 0 0.030480920164638284 -0.00035834072023003703 0 0.030495887007461427 -9.2496321488217127e-05 0 0.030616454002664242 -0.00013854645171355523 0 0.023456069112055597 -0.0025651000036949613 0 0.023482815529880192 -0.0022620187606157745 0 0.023578465648706911 -0.0024239241753355911 0 0.02567558747368907 -0.0011281946504615287 0 0.02665457581878081 7.6911355626961957e-05 0 0.030480920164638284 -0.00035834072023003703 0 0.030495887007461427 -9.2496321488217127e-05 0 0.030406240958921214 -0.00017765909667111392 0 0.02567558747368907 -0.0011281946504615287 0 0.022520976794961584 -0.0036609513940761354 0 0.023456069112055597 -0.0025651000036949613 0 0.023383759184554903 -0.0027545217884037288 0 0.023507730585200906 -0.002757486748820817 0 0.023263659438678783 -0.0025405443000659114 0 0.023456069112055597 -0.0025651000036949613 0 0.023383759184554903 -0.0027545217884037288 0 0.023383759184554903 -0.0027545217884037288 0 0.023445785189859191 -0.0028969262263654405 0 0.023507730585200906 -0.002757486748820817 0 0.023383759184554903 -0.0027545217884037288 0 0.023345938331443147 -0.0028572459915134586 0 0.023242128914252848 -0.002811449336506444 0 0.023383759184554903 -0.0027545217884037288 0 0.023345938331443147 -0.0028572459915134586 0 0.023445785189859191 -0.0028969262263654405 0 0.023263659438678783 -0.0025405443000659114 0 0.023242128914252848 -0.002811449336506444 0 0.023055538924452178 -0.0028027990887707441 0 0.023263659438678783 -0.0025405443000659114 0 0.023383759184554903 -0.0027545217884037288 0 0.023242128914252848 -0.002811449336506444 0 0.023242128914252848 -0.002811449336506444 0 0.023311747108599717 -0.002964767500952991 0 0.023055538924452178 -0.0028027990887707441 0 0.012401077701540574 -0.0078277200481412946 0 0.014867558640841744 -0.0083358750916809644 0 0.012767469396622797 -0.0066273122379377448 0 0.020542284235498823 -0.0045904445226241548 0 0.017650912050187307 -0.0042548957839691412 0 0.01903732877570935 -0.0041082735822294868 0 0.022520976794961584 -0.0036609513940761354 0 0.023345938331443147 -0.0028572459915134586 0 0.023242128914252848 -0.002811449336506444 0 0.023311747108599717 -0.002964767500952991 0 0.023311747108599717 -0.002964767500952991 0 0.023445785189859191 -0.0028969262263654405 0 0.023563518708651334 -0.0030710205948608132 0 0.023345938331443147 -0.0028572459915134586 0 0.023311747108599717 -0.002964767500952991 0 0.023445785189859191 -0.0028969262263654405 0 0.021496721432024468 -0.0035957916551147204 0 0.021570830958444552 -0.0046631266900178771 0 0.015924761236057249 -0.0088782188235527783 0 0.01494889529835408 -0.008023177454049674 0 0.015590313172219337 -0.0079598799251030181 0 0.029776291524070693 -0.0010657720464583597 0 0.029717738288128896 -0.0010815742938932763 0 0.029680490631921453 -0.0010292069519618053 0 0.016555948012139887 -0.0084063450917683628 0 0.015924761236057249 -0.0088782188235527783 0 0.015590313172219337 -0.0079598799251030181 0 0.029802578394072261 -0.0010042856747860375 0 0.029776291524070693 -0.0010657720464583597 0 0.029717738288128896 -0.0010815742938932763 0 0.019875131372318278 -0.0048190632088823621 0 0.021496721432024468 -0.0035957916551147204 0 0.030307210075246376 -0.00043673960088644797 0 0.030210702216214476 -0.00056537022963574102 0 0.030277660304199493 -0.00062102000542989841 0 0.023639162392029043 -0.0038548714608307938 0 0.022520976794961584 -0.0036609513940761354 0 0.029717738288128896 -0.0010815742938932763 0 0.029671706075894547 -0.0010413094575931591 0 0.029680490631921453 -0.0010292069519618053 0 0.014788085762257815 -0.0093732972233010296 0 0.015128356145890401 -0.0089505891872998025 0 0.014867558640841744 -0.0083358750916809644 0 0.023639162392029043 -0.0038548714608307938 0 0.021842040622361999 -0.0043591027694731208 0 0.022916056910266606 -0.0036371354303199525 0 0.022156784378282932 -0.0031183668584535778 0 0.022525864738607938 -0.0026644135962023913 0 0.022520976794961584 -0.0036609513940761354 0 0.021842040622361999 -0.0043591027694731208 0 0.021842040622361999 -0.0043591027694731208 0 0.021570830958444552 -0.0046631266900178771 0 0.020542284235498823 -0.0045904445226241548 0 0.017700431754915123 -0.0047564808522902397 0 0.014942680491016753 -0.0080287993288053246 0 0.014600279907000933 -0.0077356759648376777 0 0.015137476607861758 -0.0077866906082337721 0 0.014600279907000933 -0.0077356759648376777 0 0.014934656907801004 -0.0071679764462075938 0 0.015137476607861758 -0.0077866906082337721 0 0.021570830958444552 -0.0046631266900178771 0 0.021440628606068012 -0.0047898632111730063 0 0.012401077701540574 -0.0078277200481412946 0 0.014788085762257815 -0.0093732972233010296 0 0.014867558640841744 -0.0083358750916809644 0 0.014600279907000933 -0.0077356759648376777 0 0.014934656907801004 -0.0071679764462075938 0 0.014579613470960609 -0.0065497353216137436 0 0.021187118732472945 -0.0054492391411630472 0 0.021318287209000562 -0.005287519331332759 0 0.021010278237960884 -0.0050116021885774388 0 0.021842040622361999 -0.0043591027694731208 0 0.020542284235498823 -0.0045904445226241548 0 0.021570830958444552 -0.0046631266900178771 0 0.020542284235498823 -0.0045904445226241548 0 0.019875131372318278 -0.0048190632088823621 0 0.016995431744675892 -0.0053734143654081074 0 0.015590313172219337 -0.0079598799251030181 0 0.015137476607861758 -0.0077866906082337721 0 0.01539011750636001 -0.0067031616141402075 0 0.016555948012139887 -0.0084063450917683628 0 0.015590313172219337 -0.0079598799251030181 0 0.01539011750636001 -0.0067031616141402075 0 0.016477720483086034 -0.0073236929935236277 0 0.016539088723715602 -0.008948346782927951 0 0.01513987261262398 -0.0067946665585721542 0 0.014934656907801004 -0.0071679764462075938 0 0.015137476607861758 -0.0077866906082337721 0 0.01539011750636001 -0.0067031616141402075 0 0.01494889529835408 -0.008023177454049674 0 0.015590313172219337 -0.0079598799251030181 0 0.015137476607861758 -0.0077866906082337721 0 0.016015043191784855 -0.0060868579926171692 0 0.01513987261262398 -0.0067946665585721542 0 0.01528915231965618 -0.0051673449723305641 0 0.016477720483086034 -0.0073236929935236277 0 0.016015043191784855 -0.0060868579926171692 0 0.01513987261262398 -0.0067946665585721542 0 0.014579613470960609 -0.0065497353216137436 0 0.013850771249123681 -0.0061458936790662602 0 0.014127067371077003 -0.0049537756203195246 0 0.014934656907801004 -0.0071679764462075938 0 0.01539011750636001 -0.0067031616141402075 0 0.014579613470960609 -0.0065497353216137436 0 0.01539011750636001 -0.0067031616141402075 0 0.014579613470960609 -0.0065497353216137436 0 0.014127067371077003 -0.0049537756203195246 0 0.014600279907000933 -0.0077356759648376777 0 0.014579613470960609 -0.0065497353216137436 0 0.013850771249123681 -0.0061458936790662602 0 0.016995431744675892 -0.0053734143654081074 0 0.014832063909649475 -0.0043104432681482265 0 0.0138238489155492 -0.0046950798956634822 0 0.01528915231965618 -0.0051673449723305641 0 0.014730980599159596 -0.0041313569849899447 0 0.01513987261262398 -0.0067946665585721542 0 0.0138238489155492 -0.0046950798956634822 0 0.01528915231965618 -0.0051673449723305641 0 0.01528915231965618 -0.0051673449723305641 0 0.015716821947083379 -0.0040686553890942837 0 0.014730980599159596 -0.0041313569849899447 0 0.01528915231965618 -0.0051673449723305641 0 0.015716821947083379 -0.0040686553890942837 0 0.016620319032559439 -0.0049818571528090867 0 0.016015043191784855 -0.0060868579926171692 0 0.01528915231965618 -0.0051673449723305641 0 0.016620319032559439 -0.0049818571528090867 0 0.012767469396622797 -0.0066273122379377448 0 0.01165561748996692 -0.0053407364254527915 0 0.010208156960089924 -0.0063370914341056971 0 0.01903732877570935 -0.0041082735822294868 0 0.017240701710060497 -0.0041666312441077267 0 0.012401077701540574 -0.0078277200481412946 0 0.012767469396622797 -0.0066273122379377448 0 0.010208156960089924 -0.0063370914341056971 0 0.014631515170084703 -0.0082090673334694955 0 0.013823690655713334 -0.0063570124317937609 0 0.012767469396622797 -0.0066273122379377448 0 0.013823690655713334 -0.0063570124317937609 0 0.012767469396622797 -0.0066273122379377448 0 0.012778979597104409 -0.0056546237491338046 0 0.017700431754915123 -0.0047564808522902397 0 0.016689373287946032 -0.0043571415965850671 0 0.013850771249123681 -0.0061458936790662602 0 0.014127067371077003 -0.0049537756203195246 0 0.012976367067564961 -0.0044831423380816684 0 0.013823690655713334 -0.0063570124317937609 0 0.012778979597104409 -0.0056546237491338046 0 0.012976367067564961 -0.0044831423380816684 0 0.012778979597104409 -0.0056546237491338046 0 0.01165561748996692 -0.0053407364254527915 0 0.012976367067564961 -0.0044831423380816684 0 0.012767469396622797 -0.0066273122379377448 0 0.012778979597104409 -0.0056546237491338046 0 0.01165561748996692 -0.0053407364254527915 0 0.01165561748996692 -0.0053407364254527915 0 0.011826648501000885 -0.0039016978811788417 0 0.010769324989008445 -0.0044117361164890739 0 0.01165561748996692 -0.0053407364254527915 0 0.011826648501000885 -0.0039016978811788417 0 0.012976367067564961 -0.0044831423380816684 0 0.011826648501000885 -0.0039016978811788417 0 0.010840097510944434 -0.0027399847506473941 0 0.010769324989008445 -0.0044117361164890739 0 0.011826648501000885 -0.0039016978811788417 0 0.012695499926998604 -0.0030656459187632743 0 0.010840097510944434 -0.0027399847506473941 0 0.014832063909649475 -0.0043104432681482265 0 0.013233606396167117 -0.0028703815523929916 0 0.011826648501000885 -0.0039016978811788417 0 0.012976367067564961 -0.0044831423380816684 0 0.012695499926998604 -0.0030656459187632743 0 0.014127067371077003 -0.0049537756203195246 0 0.012976367067564961 -0.0044831423380816684 0 0.012695499926998604 -0.0030656459187632743 0 0.012635135326003735 -0.0014110195585246503 0 0.012575498096165053 -0.0028552436149885977 0 0.014039947949109071 -0.0020886676001058632 0 0.012452390207790275 -0.0019886649201824131 0 0.013233606396167117 -0.0028703815523929916 0 0.011224845835390032 -0.0012133842663175729 0 0.012695499926998604 -0.0030656459187632743 0 0.010840097510944434 -0.0027399847506473941 0 0.01485795814799622 -0.0030673147562474599 0 0.016074168468037612 -0.0029863946860164015 0 0.015716821947083379 -0.0040686553890942837 0 0.01485795814799622 -0.0030673147562474599 0 0.015716821947083379 -0.0040686553890942837 0 0.014730980599159596 -0.0041313569849899447 0 0.0138238489155492 -0.0046950798956634822 0 0.012575498096165053 -0.0028552436149885977 0 0.014000880643337829 -0.0033574864580485485 0 0.0138238489155492 -0.0046950798956634822 0 0.014730980599159596 -0.0041313569849899447 0 0.014000880643337829 -0.0033574864580485485 0 0.01485795814799622 -0.0030673147562474599 0 0.014730980599159596 -0.0041313569849899447 0 0.014000880643337829 -0.0033574864580485485 0 0.01485795814799622 -0.0030673147562474599 0 0.014000880643337829 -0.0033574864580485485 0 0.014039947949109071 -0.0020886676001058632 0 0.012575498096165053 -0.0028552436149885977 0 0.014000880643337829 -0.0033574864580485485 0 0.014039947949109071 -0.0020886676001058632 0 0.015352621865473738 -0.00089321572942751377 0 0.014039947949109071 -0.0020886676001058632 0 0.015390818742774355 -0.0022093918488025645 0 0.015352621865473738 -0.00089321572942751377 0 0.015390818742774355 -0.0022093918488025645 0 0.01665373920093656 -0.0020637762903516887 0 0.01485795814799622 -0.0030673147562474599 0 0.014039947949109071 -0.0020886676001058632 0 0.015390818742774355 -0.0022093918488025645 0 0.01485795814799622 -0.0030673147562474599 0 0.016074168468037612 -0.0029863946860164015 0 0.015390818742774355 -0.0022093918488025645 0 0.016074168468037612 -0.0029863946860164015 0 0.015390818742774355 -0.0022093918488025645 0 0.01665373920093656 -0.0020637762903516887 0 0.017090109968634765 -0.0010980686595208925 0 0.01665373920093656 -0.0020637762903516887 0 0.017491020308955038 -0.0022222862704206242 0 0.01665373920093656 -0.0020637762903516887 0 0.017491020308955038 -0.0022222862704206242 0 0.01708545417393631 -0.0029114150072353062 0 0.016074168468037612 -0.0029863946860164015 0 0.01665373920093656 -0.0020637762903516887 0 0.01708545417393631 -0.0029114150072353062 0 0.016074168468037612 -0.0029863946860164015 0 0.01708545417393631 -0.0029114150072353062 0 0.016747491426548217 -0.0037967438229583924 0 0.01708545417393631 -0.0029114150072353062 0 0.017441326105464949 -0.0034831374286110601 0 0.018075840077936622 -0.0030332305719399464 0 0.017491020308955038 -0.0022222862704206242 0 0.01708545417393631 -0.0029114150072353062 0 0.018075840077936622 -0.0030332305719399464 0 0.01708545417393631 -0.0029114150072353062 0 0.017441326105464949 -0.0034831374286110601 0 0.016747491426548217 -0.0037967438229583924 0 0.017441326105464949 -0.0034831374286110601 0 0.016747491426548217 -0.0037967438229583924 0 0.017813044110936069 -0.0041382908901578331 0 0.016074168468037612 -0.0029863946860164015 0 0.015716821947083379 -0.0040686553890942837 0 0.016747491426548217 -0.0037967438229583924 0 0.0186175158163608 -0.0034794814476082842 0 0.01941133707487145 -0.0031831531110034362 0 0.019049320605531009 -0.0042109914087571209 0 0.0186175158163608 -0.0034794814476082842 0 0.017813044110936069 -0.0041382908901578331 0 0.019049320605531009 -0.0042109914087571209 0 0.017441326105464949 -0.0034831374286110601 0 0.018075840077936622 -0.0030332305719399464 0 0.017813044110936069 -0.0041382908901578331 0 0.0186175158163608 -0.0034794814476082842 0 0.018075840077936622 -0.0030332305719399464 0 0.017813044110936069 -0.0041382908901578331 0 0.018075840077936622 -0.0030332305719399464 0 0.018812979829808202 -0.0028140728628372543 0 0.018584873585461594 -0.0023337962096615936 0 0.0186175158163608 -0.0034794814476082842 0 0.018075840077936622 -0.0030332305719399464 0 0.018812979829808202 -0.0028140728628372543 0 0.018812979829808202 -0.0028140728628372543 0 0.019303382482765058 -0.0024664168990202236 0 0.01941133707487145 -0.0031831531110034362 0 0.0186175158163608 -0.0034794814476082842 0 0.018812979829808202 -0.0028140728628372543 0 0.01941133707487145 -0.0031831531110034362 0 0.018812979829808202 -0.0028140728628372543 0 0.018584873585461594 -0.0023337962096615936 0 0.019303382482765058 -0.0024664168990202236 0 0.018584873585461594 -0.0023337962096615936 0 0.019695667665839352 -0.0019408838679277085 0 0.019303382482765058 -0.0024664168990202236 0 0.018584873585461594 -0.0023337962096615936 0 0.018089015047130824 -0.0016753970728935509 0 0.019695667665839352 -0.0019408838679277085 0 0.017973704471861231 -0.00034783608799959152 0 0.018089015047130824 -0.0016753970728935509 0 0.019695667665839352 -0.0019408838679277085 0 0.017491020308955038 -0.0022222862704206242 0 0.018584873585461594 -0.0023337962096615936 0 0.018089015047130824 -0.0016753970728935509 0 0.017491020308955038 -0.0022222862704206242 0 0.018075840077936622 -0.0030332305719399464 0 0.018584873585461594 -0.0023337962096615936 0 0.017090109968634765 -0.0010980686595208925 0 0.017491020308955038 -0.0022222862704206242 0 0.018089015047130824 -0.0016753970728935509 0 0.019816230985380389 -0.0014426640174643327 0 0.020161332469789121 -0.0016447073239357873 0 0.019695667665839352 -0.0019408838679277085 0 0.020161332469789121 -0.0016447073239357873 0 0.020156398265616521 -0.0019175683573085379 0 0.019695667665839352 -0.0019408838679277085 0 0.020161332469789121 -0.0016447073239357873 0 0.020333872738833091 -0.0017933068974211657 0 0.020156398265616521 -0.0019175683573085379 0 0.020333872738833091 -0.0017933068974211657 0 0.020156398265616521 -0.0019175683573085379 0 0.020428163359842138 -0.0019617105329178719 0 0.020156398265616521 -0.0019175683573085379 0 0.019695667665839352 -0.0019408838679277085 0 0.020045750043642077 -0.0022139652834651147 0 0.019695667665839352 -0.0019408838679277085 0 0.019303382482765058 -0.0024664168990202236 0 0.020045750043642077 -0.0022139652834651147 0 0.020612866211403208 -0.0015118667574079737 0 0.020455486672761647 -0.0016457809116984137 0 0.020738294268303821 -0.0016572875604971735 0 0.020618028273477213 -0.0014018980159097505 0 0.020819201025134522 -0.0014685931991217449 0 0.020612866211403208 -0.0015118667574079737 0 0.020079460977519725 -0.0013800744879937474 0 0.020161332469789121 -0.0016447073239357873 0 0.020369582568440098 -0.0015080688243839363 0 0.020612866211403208 -0.0015118667574079737 0 0.020369582568440098 -0.0015080688243839363 0 0.020455486672761647 -0.0016457809116984137 0 0.020161332469789121 -0.0016447073239357873 0 0.020369582568440098 -0.0015080688243839363 0 0.020455486672761647 -0.0016457809116984137 0 0.020556782088761983 -0.0017760463667796319 0 0.020738294268303821 -0.0016572875604971735 0 0.020823388041600572 -0.0017637301111971214 0 0.020333872738833091 -0.0017933068974211657 0 0.020455486672761647 -0.0016457809116984137 0 0.020556782088761983 -0.0017760463667796319 0 0.020161332469789121 -0.0016447073239357873 0 0.020333872738833091 -0.0017933068974211657 0 0.020455486672761647 -0.0016457809116984137 0 0.020333872738833091 -0.0017933068974211657 0 0.020556782088761983 -0.0017760463667796319 0 0.020428163359842138 -0.0019617105329178719 0 0.020455486672761647 -0.0016457809116984137 0 0.020556782088761983 -0.0017760463667796319 0 0.020738294268303821 -0.0016572875604971735 0 0.020868722183843363 -0.001554039315317213 0 0.02112193479843261 -0.0015885766375211847 0 0.020738294268303821 -0.0016572875604971735 0 0.020868722183843363 -0.001554039315317213 0 0.020612866211403208 -0.0015118667574079737 0 0.020738294268303821 -0.0016572875604971735 0 0.020823388041600572 -0.0017637301111971214 0 0.021342111026432003 -0.0016274697345582091 0 0.020733218754997555 -0.001811404270173497 0 0.02112193479843261 -0.0015885766375211847 0 0.020738294268303821 -0.0016572875604971735 0 0.020823388041600572 -0.0017637301111971214 0 0.02112193479843261 -0.0015885766375211847 0 0.020823388041600572 -0.0017637301111971214 0 0.021342111026432003 -0.0016274697345582091 0 0.020556782088761983 -0.0017760463667796319 0 0.020823388041600572 -0.0017637301111971214 0 0.020428163359842138 -0.0019617105329178719 0 0.020823388041600572 -0.0017637301111971214 0 0.020428163359842138 -0.0019617105329178719 0 0.020733218754997555 -0.001811404270173497 0 0.02118394746103356 -0.0023785784430679262 0 0.021386801267894953 -0.0026371109436637979 0 0.020045750043642077 -0.0022139652834651147 0 0.020428163359842138 -0.0019617105329178719 0 0.020733218754997555 -0.001811404270173497 0 0.020045750043642077 -0.0022139652834651147 0 0.01941133707487145 -0.0031831531110034362 0 0.020420951012442415 -0.0042832866387523556 0 0.019303382482765058 -0.0024664168990202236 0 0.020045750043642077 -0.0022139652834651147 0 0.01941133707487145 -0.0031831531110034362 0 0.020156398265616521 -0.0019175683573085379 0 0.020045750043642077 -0.0022139652834651147 0 0.020428163359842138 -0.0019617105329178719 0 0.01941133707487145 -0.0031831531110034362 0 0.020420951012442415 -0.0042832866387523556 0 0.019049320605531009 -0.0042109914087571209 0 0.021386801267894953 -0.0026371109436637979 0 0.021822907245620967 -0.0028562880981424783 0 0.020420951012442415 -0.0042832866387523556 0 0.019400748208011707 -0.0054614659352968326 0 0.019049320605531009 -0.0042109914087571209 0 0.020420951012442415 -0.0042832866387523556 0 0.019400748208011707 -0.0054614659352968326 0 0.0208320581899024 -0.005889798595848145 0 0.021829969465061504 -0.0015865581921717278 0 0.020733218754997555 -0.001811404270173497 0 0.021047163302884336 -0.0023851072396142594 0 0.021829969465061504 -0.0015865581921717278 0 0.021342111026432003 -0.0016274697345582091 0 0.020733218754997555 -0.001811404270173497 0 0.02202208805509364 -0.0025656493962305312 0 0.021822907245620967 -0.0028562880981424783 0 0.022421314431613392 -0.00069243814411530256 0 0.021829969465061504 -0.0015865581921717278 0 0.023138116132477033 -0.00095428954195474495 0 0.022421314431613392 -0.00069243814411530256 0 0.023195274950095705 0.0001455790682245942 0 0.023138116132477033 -0.00095428954195474495 0 0.018630433019837276 -0.007443062518709494 0 0.019400748208011707 -0.0054614659352968326 0 0.0208320581899024 -0.005889798595848145 0 0.020595425663136616 -0.0043193228067044389 0 0.021822907245620967 -0.0028562880981424783 0 0.018630433019837276 -0.007443062518709494 0 0.017011461282831975 -0.0062797288385480462 0 0.018093857720762913 -0.0053945296279446784 0 0.018630433019837276 -0.007443062518709494 0 0.019400748208011707 -0.0054614659352968326 0 0.018093857720762913 -0.0053945296279446784 0 0.016477720483086034 -0.0073236929935236277 0 0.018630433019837276 -0.007443062518709494 0 0.017011461282831975 -0.0062797288385480462 0 0.016477720483086034 -0.0073236929935236277 0 0.016015043191784855 -0.0060868579926171692 0 0.017011461282831975 -0.0062797288385480462 0 0.016015043191784855 -0.0060868579926171692 0 0.017011461282831975 -0.0062797288385480462 0 0.016620319032559439 -0.0049818571528090867 0 0.017011461282831975 -0.0062797288385480462 0 0.016620319032559439 -0.0049818571528090867 0 0.018093857720762913 -0.0053945296279446784 0 0.015716821947083379 -0.0040686553890942837 0 0.016747491426548217 -0.0037967438229583924 0 0.016620319032559439 -0.0049818571528090867 0 0.016747491426548217 -0.0037967438229583924 0 0.016620319032559439 -0.0049818571528090867 0 0.017813044110936069 -0.0041382908901578331 0 0.016620319032559439 -0.0049818571528090867 0 0.017813044110936069 -0.0041382908901578331 0 0.018093857720762913 -0.0053945296279446784 0 0.017813044110936069 -0.0041382908901578331 0 0.019049320605531009 -0.0042109914087571209 0 0.018093857720762913 -0.0053945296279446784 0 0.019400748208011707 -0.0054614659352968326 0 0.019049320605531009 -0.0042109914087571209 0 0.018093857720762913 -0.0053945296279446784 0 0.0081359835472418068 0.00017711425189352806 0 0.0085439675009231792 0.00033635046493213805 0 0.009381931228333246 0.0004747698640244144 0 0.0081359835472418068 0.00017711425189352806 0 0.009381931228333246 0.0004747698640244144 0 0.0091622246250431527 4.2890564444577108e-05 0 0.0081359835472418068 0.00017711425189352806 0 0.0075471208967900312 1.9336989062004481e-06 0 0.0054835810211383701 -3.2609810711751908e-06 0 0.0081359835472418068 0.00017711425189352806 0 0.0075471208967900312 1.9336989062004481e-06 0 0.0085439675009231792 0.00033635046493213805 0 0.0075471208967900312 1.9336989062004481e-06 0 0.0085842465479364291 0.00023639466900325412 0 0.0085439675009231792 0.00033635046493213805 0 0.0085842465479364291 0.00023639466900325412 0 0.0085439675009231792 0.00033635046493213805 0 0.0092272096048611214 0.0007004903617346403 0 0.0075471208967900312 1.9336989062004481e-06 0 0.0085842465479364291 0.00023639466900325412 0 0.0096169634892579615 1.905897774759192e-07 0 0.0085439675009231792 0.00033635046493213805 0 0.009381931228333246 0.0004747698640244144 0 0.0092272096048611214 0.0007004903617346403 0 0.009381931228333246 0.0004747698640244144 0 0.0099234791064346014 0.00088103426576412972 0 0.0092272096048611214 0.0007004903617346403 0 0.009381931228333246 0.0004747698640244144 0 0.010522220339974223 0.00083534551134222337 0 0.01019896315385384 0.00012536010666414272 0 0.009381931228333246 0.0004747698640244144 0 0.010522220339974223 0.00083534551134222337 0 0.0099234791064346014 0.00088103426576412972 0 0.010522220339974223 0.00083534551134222337 0 0.01019896315385384 0.00012536010666414272 0 0.011508526891591183 0.000952317729629804 0 0.01019896315385384 0.00012536010666414272 0 0.0091622246250431527 4.2890564444577108e-05 0 0.0095034927855450792 -0.0003999356244670625 0 0.009381931228333246 0.0004747698640244144 0 0.01019896315385384 0.00012536010666414272 0 0.0091622246250431527 4.2890564444577108e-05 0 0.0095034927855450792 -0.0003999356244670625 0 0.0087783852085324167 -0.0010972461787133226 0 0.0082978264380761096 -0.00034963341592990181 0 0.0091622246250431527 4.2890564444577108e-05 0 0.0095034927855450792 -0.0003999356244670625 0 0.0082978264380761096 -0.00034963341592990181 0 0.0095034927855450792 -0.0003999356244670625 0 0.010370664080891838 -0.00039027522928039424 0 0.0097591564628937821 -0.00096468335969145569 0 0.01019896315385384 0.00012536010666414272 0 0.0095034927855450792 -0.0003999356244670625 0 0.010370664080891838 -0.00039027522928039424 0 0.01019896315385384 0.00012536010666414272 0 0.010370664080891838 -0.00039027522928039424 0 0.010884906010026939 8.3048945366509588e-06 0 0.0097591564628937821 -0.00096468335969145569 0 0.010026046525680317 -0.001508580487475336 0 0.010484527195326636 -0.00092146572559638062 0 0.010370664080891838 -0.00039027522928039424 0 0.0097591564628937821 -0.00096468335969145569 0 0.010484527195326636 -0.00092146572559638062 0 0.0097591564628937821 -0.00096468335969145569 0 0.0087783852085324167 -0.0010972461787133226 0 0.0092733805614574807 -0.0016208971363199504 0 0.0095034927855450792 -0.0003999356244670625 0 0.0097591564628937821 -0.00096468335969145569 0 0.0087783852085324167 -0.0010972461787133226 0 0.0087783852085324167 -0.0010972461787133226 0 0.0082978264380761096 -0.00034963341592990181 0 0.0077333131371331238 -0.0017552143374525225 0 0.0087783852085324167 -0.0010972461787133226 0 0.0077333131371331238 -0.0017552143374525225 0 0.0092733805614574807 -0.0016208971363199504 0 0.0081359835472418068 0.00017711425189352806 0 0.0091622246250431527 4.2890564444577108e-05 0 0.0082978264380761096 -0.00034963341592990181 0 0.0081359835472418068 0.00017711425189352806 0 0.0082978264380761096 -0.00034963341592990181 0 0.0054835810211383701 -3.2609810711751908e-06 0 0.0054764261672298727 -1.4922623944702982e-06 0 0.0034413663526345886 5.3888641252380241e-07 0 0.0030367033612333466 -0.00024456770957868358 0 0.0082978264380761096 -0.00034963341592990181 0 0.0054835810211383701 -3.2609810711751908e-06 0 0.0077333131371331238 -0.0017552143374525225 0 0.0054782078459763772 -1.7037034293119918e-07 0 0.0054405667903148691 -0.00022975651105959535 0 0.0034413663526345886 5.3888641252380241e-07 0 0.0030367033612333466 -0.00024456770957868358 0 0.0021812194459699397 0.00018737032861974322 0 0.0077333131371331238 -0.0017552143374525225 0 0.0089035031290114752 -0.0022888452810414517 0 0.0092733805614574807 -0.0016208971363199504 0 0.0054405667903148691 -0.00022975651105959535 0 0.0056192143118706144 -0.0003475953233198716 0 0.0030367033612333466 -0.00024456770957868358 0 0.0021812194459699397 0.00018737032861974322 0 0.0018094991401044695 6.7620885410699436e-05 0 0.0021812194459699397 0.00018737032861974322 0 0.0017090057118742564 0.00024093647422774943 0 0.0018094991401044695 6.7620885410699436e-05 0 0.0034413663526345886 5.3888641252380241e-07 0 0.0021812194459699397 0.00018737032861974322 0 0.0014043868074664519 3.169419507700879e-07 0 0.0021812194459699397 0.00018737032861974322 0 0.0014043868074664519 3.169419507700879e-07 0 0.0013363053130230483 0.00017624098432800773 0 0.0021812194459699397 0.00018737032861974322 0 0.0017090057118742564 0.00024093647422774943 0 0.0013363053130230483 0.00017624098432800773 0 0.0017090057118742564 0.00024093647422774943 0 0.0013363053130230483 0.00017624098432800773 0 0.0016075142606485351 0.00013595611328652405 0 0.0013363053130230483 0.00017624098432800773 0 0.00025623516899366157 0.00012909993935906303 0 0.0016075142606485351 0.00013595611328652405 0 0.0025424736295021804 -0.00041659753549872283 0 0.0032968279048851048 -0.00023765325430570309 0 0.0009251323741640737 0.0002201446673699466 0 0.00025623516899366157 0.00012909993935906303 0 0.0016446358776718529 0.0011864582231252336 0 -0.00029397601169225057 1.7015251007417883e-05 0 0.0009251323741640737 0.0002201446673699466 0 0.00025623516899366157 0.00012909993935906303 0 0.0014043868074664519 3.169419507700879e-07 0 0.0013363053130230483 0.00017624098432800773 0 0.00025623516899366157 0.00012909993935906303 0 -0.00063242682907376554 3.5383527893575771e-07 0 -0.00029397601169225057 1.7015251007417883e-05 0 0.0014043868074664519 3.169419507700879e-07 0 -0.00029397601169225057 1.7015251007417883e-05 0 0.0014043868074664519 3.169419507700879e-07 0 0.00025623516899366157 0.00012909993935906303 0 0.0041388181566028599 -0.00033767213533344667 0 0.0020799075694968206 -0.00036790193032917271 0 0.0029418085836033728 0.0007175227736778521 0 0.0041388181566028599 -0.00033767213533344667 0 0.0029418085836033728 0.0007175227736778521 0 0.0039564292144580876 0.0012942936337087213 0 0.0020799075694968206 -0.00036790193032917271 0 0.0029418085836033728 0.0007175227736778521 0 0.0016446358776718529 0.0011864582231252336 0 0.0020799075694968206 -0.00036790193032917271 0 0.0009251323741640737 0.0002201446673699466 0 0.0016446358776718529 0.0011864582231252336 0 0.0029418085836033728 0.0007175227736778521 0 0.0016446358776718529 0.0011864582231252336 0 0.0030991451969219538 0.0021888016072284973 0 0.0017090057118742564 0.00024093647422774943 0 0.0016075142606485351 0.00013595611328652405 0 0.0016821543149427068 0.00022749993785143124 0 0.0032968279048851048 -0.00023765325430570309 0 0.0055607533539604502 0.00025004613527477372 0 0.0029418085836033728 0.0007175227736778521 0 0.0030991451969219538 0.0021888016072284973 0 0.0039564292144580876 0.0012942936337087213 0 0.0032521636917117909 0.0020100552944134968 0 0.0039564292144580876 0.0012942936337087213 0 0.0041904918862146557 0.0027116515179827607 0 0.0055607533539604502 0.00025004613527477372 0 0.005095054173731294 0.00066786713451015231 0 0.0097451223400131012 -0.0029713721848995916 0 0.0097855075763346039 -0.0021169754078660913 0 0.010404719180463606 -0.0024633969291766983 0 0.0055607533539604502 0.00025004613527477372 0 0.0067430619038586796 0.00022981831378799864 0 0.0097855075763346039 -0.0021169754078660913 0 0.010411011205567918 -0.0018198036635399335 0 0.010404719180463606 -0.0024633969291766983 0 0.0017090057118742564 0.00024093647422774943 0 0.0016821543149427068 0.00022749993785143124 0 0.0018094991401044695 6.7620885410699436e-05 0 0.0097451223400131012 -0.0029713721848995916 0 0.0097855075763346039 -0.0021169754078660913 0 0.0089035031290114752 -0.0022888452810414517 0 0.0055607533539604502 0.00025004613527477372 0 0.0056192143118706144 -0.0003475953233198716 0 0.0097855075763346039 -0.0021169754078660913 0 0.0089035031290114752 -0.0022888452810414517 0 0.0092733805614574807 -0.0016208971363199504 0 0.0097855075763346039 -0.0021169754078660913 0 0.010026046525680317 -0.001508580487475336 0 0.010411011205567918 -0.0018198036635399335 0 0.0097855075763346039 -0.0021169754078660913 0 0.0092733805614574807 -0.0016208971363199504 0 0.010026046525680317 -0.001508580487475336 0 0.0097591564628937821 -0.00096468335969145569 0 0.0092733805614574807 -0.0016208971363199504 0 0.010026046525680317 -0.001508580487475336 0 0.010026046525680317 -0.001508580487475336 0 0.010497073523610387 -0.0013453888822850654 0 0.010484527195326636 -0.00092146572559638062 0 0.010026046525680317 -0.001508580487475336 0 0.010497073523610387 -0.0013453888822850654 0 0.010411011205567918 -0.0018198036635399335 0 0.010497073523610387 -0.0013453888822850654 0 0.010861418442697815 -0.001416911612054772 0 0.010997751472881002 -0.00095379816049595285 0 0.010861418442697815 -0.001416911612054772 0 0.011127355465231331 -0.0018407085787234038 0 0.010411011205567918 -0.0018198036635399335 0 0.0077605193566031927 -0.00014657771751380364 0 0.0075666803693152209 5.6201979577276404e-05 0 0.010497073523610387 -0.0013453888822850654 0 0.010861418442697815 -0.001416911612054772 0 0.010411011205567918 -0.0018198036635399335 0 0.011590660808813994 -0.00088341736809534159 0 0.01140457368351154 -0.0010093804522567521 0 0.011502416379165079 -0.00082669275745800785 0 0.01140457368351154 -0.0010093804522567521 0 0.011501738792597463 -0.00080630599603892115 0 0.011400171800929304 -0.00065917544050999764 0 0.010861418442697815 -0.001416911612054772 0 0.01140457368351154 -0.0010093804522567521 0 0.010997751472881002 -0.00095379816049595285 0 0.0075666803693152209 5.6201979577276404e-05 0 0.008070915650792267 0.00019383214529779838 0 0.010861418442697815 -0.001416911612054772 0 0.011022297309701841 -0.0015682879249893195 0 0.01140457368351154 -0.0010093804522567521 0 0.01140457368351154 -0.0010093804522567521 0 0.011502416379165079 -0.00082669275745800785 0 0.011501738792597463 -0.00080630599603892115 0 0.011590660808813994 -0.00088341736809534159 0 0.011627651616746582 -0.00066376355347113052 0 0.011502416379165079 -0.00082669275745800785 0 0.0051478636376517794 0.0034196904730956208 0 0.0050546080391609665 0.0025481464655548059 0 0.006038605313492271 0.0021671780556732118 0 0.0075666803693152209 5.6201979577276404e-05 0 0.0080144017969488758 0.00025245074493994934 0 0.011127355465231331 -0.0018407085787234038 0 0.010411011205567918 -0.0018198036635399335 0 0.010404719180463606 -0.0024633969291766983 0 0.0075666803693152209 5.6201979577276404e-05 0 0.0067430619038586796 0.00022981831378799864 0 0.0051478636376517794 0.0034196904730956208 0 0.0050546080391609665 0.0025481464655548059 0 0.0041904918862146557 0.0027116515179827607 0 0.0050546080391609665 0.0025481464655548059 0 0.0041904918862146557 0.0027116515179827607 0 0.0048491946237863509 0.0018932251655275514 0 0.0039564292144580876 0.0012942936337087213 0 0.0048491946237863509 0.0018932251655275514 0 0.0053524429506498807 0.00093432351586376309 0 0.0039564292144580876 0.0012942936337087213 0 0.0041904918862146557 0.0027116515179827607 0 0.0048491946237863509 0.0018932251655275514 0 0.006038605313492271 0.0021671780556732118 0 0.0053524429506498807 0.00093432351586376309 0 0.0069385005639149688 0.00089125378397290477 0 0.0048491946237863509 0.0018932251655275514 0 0.006038605313492271 0.0021671780556732118 0 0.0053524429506498807 0.00093432351586376309 0 0.0050546080391609665 0.0025481464655548059 0 0.0048491946237863509 0.0018932251655275514 0 0.006038605313492271 0.0021671780556732118 0 0.0060023854370978144 -0.00033826286109535158 0 0.0053524429506498807 0.00093432351586376309 0 0.0069385005639149688 0.00089125378397290477 0 0.0041388181566028599 -0.00033767213533344667 0 0.0039564292144580876 0.0012942936337087213 0 0.0053524429506498807 0.00093432351586376309 0 0.0041388181566028599 -0.00033767213533344667 0 0.0060023854370978144 -0.00033826286109535158 0 0.0053524429506498807 0.00093432351586376309 0 0.011464811942310084 0.00056128992344983361 0 0.011716303976138121 -0.000287474742865132 0 0.010873418694509401 -8.3753205623773999e-05 0 0.011716303976138121 -0.000287474742865132 0 0.011293221342228193 -0.0005795625468602725 0 0.010873418694509401 -8.3753205623773999e-05 0 0.0074857426616090307 0.00070236055819364253 0 0.0081650368709538998 0.00022062479049650153 0 0.0078259162761582929 -0.00037283918483068496 0 0.0060023854370978144 -0.00033826286109535158 0 0.0069385005639149688 0.00089125378397290477 0 0.0080144017969488758 0.00025245074493994934 0 0.0081650368709538998 0.00022062479049650153 0 0.011627651616746582 -0.00066376355347113052 0 0.011716303976138121 -0.000287474742865132 0 0.011535387713147254 -0.00064188261318120804 0 0.011716303976138121 -0.000287474742865132 0 0.011535387713147254 -0.00064188261318120804 0 0.011293221342228193 -0.0005795625468602725 0 0.011293221342228193 -0.0005795625468602725 0 0.011517736463454947 -0.00079270167377465785 0 0.01155261400724272 -0.00074012303944338191 0 0.011535387713147254 -0.00064188261318120804 0 0.011293221342228193 -0.0005795625468602725 0 0.011517736463454947 -0.00079270167377465785 0 0.011627651616746582 -0.00066376355347113052 0 0.011535387713147254 -0.00064188261318120804 0 0.011502416379165079 -0.00082669275745800785 0 0.011535387713147254 -0.00064188261318120804 0 0.011517736463454947 -0.00079270167377465785 0 0.011502416379165079 -0.00082669275745800785 0 0.011517736463454947 -0.00079270167377465785 0 0.011501738792597463 -0.00080630599603892115 0 0.011640612321189698 -0.00061510456501332215 0 0.011517736463454947 -0.00079270167377465785 0 0.011502416379165079 -0.00082669275745800785 0 0.011501738792597463 -0.00080630599603892115 0 0.011517736463454947 -0.00079270167377465785 0 0.011640612321189698 -0.00061510456501332215 0 0.01155261400724272 -0.00074012303944338191 0 0.011640612321189698 -0.00061510456501332215 0 0.01202049510069934 -0.00043680925224374642 0 0.01155261400724272 -0.00074012303944338191 0 0.011640612321189698 -0.00061510456501332215 0 0.01212535963536732 2.3774329281193708e-05 0 0.01202049510069934 -0.00043680925224374642 0 0.012088405664973085 0.00019830770962914491 0 0.01223829614625066 0.00041955949920440396 0 0.01212535963536732 2.3774329281193708e-05 0 0.011640612321189698 -0.00061510456501332215 0 0.011525914104260246 -7.5804779356050068e-05 0 0.01212535963536732 2.3774329281193708e-05 0 0.011687875077173775 2.7560266116288897e-05 0 0.011940431830656056 -3.5612069348730685e-06 0 0.011640612321189698 -0.00061510456501332215 0 0.011525914104260246 -7.5804779356050068e-05 0 0.011400171800929304 -0.00065917544050999764 0 0.011501738792597463 -0.00080630599603892115 0 0.011640612321189698 -0.00061510456501332215 0 0.011400171800929304 -0.00065917544050999764 0 0.01140457368351154 -0.0010093804522567521 0 0.011400171800929304 -0.00065917544050999764 0 0.010997751472881002 -0.00095379816049595285 0 0.011400171800929304 -0.00065917544050999764 0 0.011005926302959521 -0.00050413799104176372 0 0.010997751472881002 -0.00095379816049595285 0 0.010370664080891838 -0.00039027522928039424 0 0.011005926302959521 -0.00050413799104176372 0 0.010484527195326636 -0.00092146572559638062 0 0.010497073523610387 -0.0013453888822850654 0 0.010484527195326636 -0.00092146572559638062 0 0.010997751472881002 -0.00095379816049595285 0 0.011005926302959521 -0.00050413799104176372 0 0.010484527195326636 -0.00092146572559638062 0 0.010997751472881002 -0.00095379816049595285 0 0.010370664080891838 -0.00039027522928039424 0 0.011005926302959521 -0.00050413799104176372 0 0.010884906010026939 8.3048945366509588e-06 0 0.011525914104260246 -7.5804779356050068e-05 0 0.011400171800929304 -0.00065917544050999764 0 0.011005926302959521 -0.00050413799104176372 0 0.011687875077173775 2.7560266116288897e-05 0 0.01114752194740022 8.9636110336921247e-05 0 0.011525914104260246 -7.5804779356050068e-05 0 0.011005926302959521 -0.00050413799104176372 0 0.010884906010026939 8.3048945366509588e-06 0 0.012088405664973085 0.00019830770962914491 0 0.011539619620473059 9.0863821513265808e-05 0 0.012130840998549258 0.00073741920011307098 0 0.01019896315385384 0.00012536010666414272 0 0.011539619620473059 9.0863821513265808e-05 0 0.011508526891591183 0.000952317729629804 0 0.010751942309150464 0.00013997453629680223 0 0.01114752194740022 8.9636110336921247e-05 0 0.011539619620473059 9.0863821513265808e-05 0 0.011508526891591183 0.000952317729629804 0 0.012130840998549258 0.00073741920011307098 0 0.012130840998549258 0.00073741920011307098 0 0.012425449680441488 0.00085580802492378418 0 0.012474386557590781 0.0013050127640136381 0 0.012425449680441488 0.00085580802492378418 0 0.01223829614625066 0.00041955949920440396 0 0.012565990439705759 0.00060727584042990297 0 0.012130840998549258 0.00073741920011307098 0 0.012425449680441488 0.00085580802492378418 0 0.01223829614625066 0.00041955949920440396 0 0.01223829614625066 0.00041955949920440396 0 0.012565990439705759 0.00060727584042990297 0 0.01212535963536732 2.3774329281193708e-05 0 0.012088405664973085 0.00019830770962914491 0 0.012130840998549258 0.00073741920011307098 0 0.01223829614625066 0.00041955949920440396 0 0.012565990439705759 0.00060727584042990297 0 0.013185750103023388 0.00094353442419507858 0 0.012737580285556171 0.00018996435915920768 0 0.012565990439705759 0.00060727584042990297 0 0.012737580285556171 0.00018996435915920768 0 0.01212535963536732 2.3774329281193708e-05 0 0.012425449680441488 0.00085580802492378418 0 0.012565990439705759 0.00060727584042990297 0 0.012812666010716863 0.0012032735127381292 0 0.012565990439705759 0.00060727584042990297 0 0.013185750103023388 0.00094353442419507858 0 0.012812666010716863 0.0012032735127381292 0 0.013185750103023388 0.00094353442419507858 0 0.014052983457331511 0.0006902306422040753 0 0.01377041459272247 0.0015457404151410336 0 0.013185750103023388 0.00094353442419507858 0 0.013358550286109733 0.00044734657283454195 0 0.014052983457331511 0.0006902306422040753 0 0.013358550286109733 0.00044734657283454195 0 0.01344641994523239 -0.00010887491469879877 0 0.014052983457331511 0.0006902306422040753 0 0.013185750103023388 0.00094353442419507858 0 0.013358550286109733 0.00044734657283454195 0 0.012737580285556171 0.00018996435915920768 0 0.01344641994523239 -0.00010887491469879877 0 0.012665421893282802 -0.00026796778186487973 0 0.012737580285556171 0.00018996435915920768 0 0.013358550286109733 0.00044734657283454195 0 0.01344641994523239 -0.00010887491469879877 0 0.012737580285556171 0.00018996435915920768 0 0.01344641994523239 -0.00010887491469879877 0 0.013121856588115868 -0.00046677600039212223 0 0.014146278765097511 -0.0004271850009761867 0 0.01344641994523239 -0.00010887491469879877 0 0.013121856588115868 -0.00046677600039212223 0 0.012665421893282802 -0.00026796778186487973 0 0.013121856588115868 -0.00046677600039212223 0 0.012665421893282802 -0.00026796778186487973 0 0.012184426651606375 -0.00057678770851400923 0 0.012665421893282802 -0.00026796778186487973 0 0.01202049510069934 -0.00043680925224374642 0 0.012184426651606375 -0.00057678770851400923 0 0.012665421893282802 -0.00026796778186487973 0 0.012737580285556171 0.00018996435915920768 0 0.01202049510069934 -0.00043680925224374642 0 0.012737580285556171 0.00018996435915920768 0 0.01212535963536732 2.3774329281193708e-05 0 0.01202049510069934 -0.00043680925224374642 0 0.01202049510069934 -0.00043680925224374642 0 0.011645876364698521 -0.00071693540917304476 0 0.01155261400724272 -0.00074012303944338191 0 0.01202049510069934 -0.00043680925224374642 0 0.011645876364698521 -0.00071693540917304476 0 0.012184426651606375 -0.00057678770851400923 0 0.011645876364698521 -0.00071693540917304476 0 0.010984237672073072 -0.00054768859884378235 0 0.011599758487709453 -0.00084127392770431888 0 0.011645876364698521 -0.00071693540917304476 0 0.011599758487709453 -0.00084127392770431888 0 0.012184426651606375 -0.00057678770851400923 0 0.011645876364698521 -0.00071693540917304476 0 0.01155261400724272 -0.00074012303944338191 0 0.010984237672073072 -0.00054768859884378235 0 0.011293221342228193 -0.0005795625468602725 0 0.010984237672073072 -0.00054768859884378235 0 0.010873418694509401 -8.3753205623773999e-05 0 0.011293221342228193 -0.0005795625468602725 0 0.01155261400724272 -0.00074012303944338191 0 0.010984237672073072 -0.00054768859884378235 0 0.010984237672073072 -0.00054768859884378235 0 0.010960284897328665 -0.00062477027405595021 0 0.011599758487709453 -0.00084127392770431888 0 0.010984237672073072 -0.00054768859884378235 0 0.010570841634396767 -0.0001304915780553905 0 0.010960284897328665 -0.00062477027405595021 0 0.010984237672073072 -0.00054768859884378235 0 0.010570841634396767 -0.0001304915780553905 0 0.010295571174714808 9.9802876541044478e-05 0 0.010025588824300906 0.00045667035419000735 0 0.010570841634396767 -0.0001304915780553905 0 0.010295571174714808 9.9802876541044478e-05 0 0.010984237672073072 -0.00054768859884378235 0 0.010295571174714808 9.9802876541044478e-05 0 0.010873418694509401 -8.3753205623773999e-05 0 0.0096324594128279466 0.00081356503572815289 0 0.010295571174714808 9.9802876541044478e-05 0 0.010873418694509401 -8.3753205623773999e-05 0 0.011279004202226207 -0.0012092846264925815 0 0.012296221847399615 -0.0011661952173026241 0 0.011215817178983609 -0.0018123493666275512 0 0.010519435140667794 -0.0016987060726800802 0 0.011515874663458681 -0.0011318897814822395 0 0.010892410040242505 -0.0021812876768177894 0 0.011215817178983609 -0.0018123493666275512 0 0.010519435140667794 -0.0016987060726800802 0 0.011270442772423459 -0.0011980889709407526 0 0.011279004202226207 -0.0012092846264925815 0 0.010025588824300906 0.00045667035419000735 0 0.010570841634396767 -0.0001304915780553905 0 0.010348722912084739 2.4155774180727899e-05 0 0.010570841634396767 -0.0001304915780553905 0 0.010348722912084739 2.4155774180727899e-05 0 0.010960284897328665 -0.00062477027405595021 0 0.010348722912084739 2.4155774180727899e-05 0 0.010334853006454876 -0.00017870887988875463 0 0.010960284897328665 -0.00062477027405595021 0 0.010334853006454876 -0.00017870887988875463 0 0.011626721750182948 -0.0011140441501526371 0 0.010960284897328665 -0.00062477027405595021 0 0.011279004202226207 -0.0012092846264925815 0 0.011294650215105614 -0.0010393273787293769 0 0.011626721750182948 -0.0011140441501526371 0 0.010960284897328665 -0.00062477027405595021 0 0.011599758487709453 -0.00084127392770431888 0 0.011594018027577742 -0.0025647578776008392 0 0.011626721750182948 -0.0011140441501526371 0 0.013424194257471518 -0.001839543864447482 0 0.011626721750182948 -0.0011140441501526371 0 0.013602927709046435 -0.0010725659297320031 0 0.013424194257471518 -0.001839543864447482 0 0.011626721750182948 -0.0011140441501526371 0 0.012673487072932468 -0.00075614721591429532 0 0.013602927709046435 -0.0010725659297320031 0 0.011626721750182948 -0.0011140441501526371 0 0.012673487072932468 -0.00075614721591429532 0 0.011599758487709453 -0.00084127392770431888 0 0.012673487072932468 -0.00075614721591429532 0 0.011599758487709453 -0.00084127392770431888 0 0.012184426651606375 -0.00057678770851400923 0 0.013121856588115868 -0.00046677600039212223 0 0.012673487072932468 -0.00075614721591429532 0 0.012184426651606375 -0.00057678770851400923 0 0.013121856588115868 -0.00046677600039212223 0 0.012673487072932468 -0.00075614721591429532 0 0.013829449432167355 -0.00070696240930011311 0 0.013829449432167355 -0.00070696240930011311 0 0.014486454982652492 -0.00096966360215341768 0 0.013602927709046435 -0.0010725659297320031 0 0.013829449432167355 -0.00070696240930011311 0 0.014486454982652492 -0.00096966360215341768 0 0.014892440086216319 -0.00065307551534878419 0 0.014486454982652492 -0.00096966360215341768 0 0.014921238362683518 -0.0010353919893851045 0 0.014892440086216319 -0.00065307551534878419 0 0.014486454982652492 -0.00096966360215341768 0 0.014645975574234081 -0.0013062413304035729 0 0.013602927709046435 -0.0010725659297320031 0 0.014486454982652492 -0.00096966360215341768 0 0.014645975574234081 -0.0013062413304035729 0 0.014921238362683518 -0.0010353919893851045 0 0.012673487072932468 -0.00075614721591429532 0 0.013829449432167355 -0.00070696240930011311 0 0.013602927709046435 -0.0010725659297320031 0 0.014645975574234081 -0.0013062413304035729 0 0.013602927709046435 -0.0010725659297320031 0 0.013424194257471518 -0.001839543864447482 0 0.013231577824935692 -0.00093405841864838439 0 0.012296221847399615 -0.0011661952173026241 0 0.012889682898191647 -0.00064144106447593455 0 0.011515874663458681 -0.0011318897814822395 0 0.012236461781575237 -0.0017065785086632437 0 0.012889682898191647 -0.00064144106447593455 0 0.012236461781575237 -0.0017065785086632437 0 0.013819647515167432 -0.0011690028792607251 0 0.011268146229435705 -0.002416729895908232 0 0.011215817178983609 -0.0018123493666275512 0 0.012236461781575237 -0.0017065785086632437 0 0.011215817178983609 -0.0018123493666275512 0 0.011515874663458681 -0.0011318897814822395 0 0.012236461781575237 -0.0017065785086632437 0 0.014238600729777709 -0.0016729577193345775 0 0.01330190120505787 -0.0020196372629485019 0 0.013819647515167432 -0.0011690028792607251 0 0.012236461781575237 -0.0017065785086632437 0 0.01330190120505787 -0.0020196372629485019 0 0.013819647515167432 -0.0011690028792607251 0 0.014617440673262838 -0.00099939422367631165 0 0.014238600729777709 -0.0016729577193345775 0 0.013819647515167432 -0.0011690028792607251 0 0.014617440673262838 -0.00099939422367631165 0 0.013819647515167432 -0.0011690028792607251 0 0.014568006562540146 -0.00068090890089146921 0 0.015362934929923957 -0.0017289102947807139 0 0.015384758616479779 -0.00084054234547530917 0 0.014723294702857522 -0.0006309151534367452 0 0.015143119570977642 -0.0014568737432772434 0 0.014901828606147848 -0.0010078301156093597 0 0.014617440673262838 -0.00099939422367631165 0 0.014568006562540146 -0.00068090890089146921 0 0.014723294702857522 -0.0006309151534367452 0 0.013231577824935692 -0.00093405841864838439 0 0.013623508493783265 -0.00081539499699992629 0 0.012889682898191647 -0.00064144106447593455 0 0.013819647515167432 -0.0011690028792607251 0 0.014568006562540146 -0.00068090890089146921 0 0.014645975574234081 -0.0013062413304035729 0 0.014568006562540146 -0.00068090890089146921 0 0.014921238362683518 -0.0010353919893851045 0 0.014921238362683518 -0.0010353919893851045 0 0.015679912148862208 -0.00080869262367981273 0 0.014892440086216319 -0.00065307551534878419 0 0.014568006562540146 -0.00068090890089146921 0 0.014921238362683518 -0.0010353919893851045 0 0.014723294702857522 -0.0006309151534367452 0 0.014921238362683518 -0.0010353919893851045 0 0.016575564862093353 -0.0013134802504347228 0 0.015679912148862208 -0.00080869262367981273 0 0.014921238362683518 -0.0010353919893851045 0 0.014723294702857522 -0.0006309151534367452 0 0.01484714418802559 -0.00039819142876254879 0 0.015384758616479779 -0.00084054234547530917 0 0.014723294702857522 -0.0006309151534367452 0 0.01484714418802559 -0.00039819142876254879 0 0.015854700795050101 -0.00089434706936575943 0 0.016194994185899286 -0.00082829981449989267 0 0.01701567096877139 -0.00053555030511812107 0 0.016584672094849887 -0.00081201430727236598 0 0.015948495640639469 -0.00040920334560550116 0 0.016584672094849887 -0.00081201430727236598 0 0.015948495640639469 -0.00040920334560550116 0 0.015679912148862208 -0.00080869262367981273 0 0.016575564862093353 -0.0013134802504347228 0 0.016584672094849887 -0.00081201430727236598 0 0.015679912148862208 -0.00080869262367981273 0 0.01701567096877139 -0.00053555030511812107 0 0.015948495640639469 -0.00040920334560550116 0 0.016784650300836323 -0.00013877474091072257 0 0.015948495640639469 -0.00040920334560550116 0 0.015679912148862208 -0.00080869262367981273 0 0.014892440086216319 -0.00065307551534878419 0 0.015948495640639469 -0.00040920334560550116 0 0.014892440086216319 -0.00065307551534878419 0 0.014628801617626511 -0.00010728391019517597 0 0.014892440086216319 -0.00065307551534878419 0 0.014146278765097511 -0.0004271850009761867 0 0.014628801617626511 -0.00010728391019517597 0 0.013829449432167355 -0.00070696240930011311 0 0.014892440086216319 -0.00065307551534878419 0 0.014146278765097511 -0.0004271850009761867 0 0.013121856588115868 -0.00046677600039212223 0 0.013829449432167355 -0.00070696240930011311 0 0.014146278765097511 -0.0004271850009761867 0 0.01344641994523239 -0.00010887491469879877 0 0.014628801617626511 -0.00010728391019517597 0 0.014052983457331511 0.0006902306422040753 0 0.01344641994523239 -0.00010887491469879877 0 0.014146278765097511 -0.0004271850009761867 0 0.014628801617626511 -0.00010728391019517597 0 0.015948495640639469 -0.00040920334560550116 0 0.014628801617626511 -0.00010728391019517597 0 0.016325383470054074 0.00036287206712712458 0 0.014628801617626511 -0.00010728391019517597 0 0.014052983457331511 0.0006902306422040753 0 0.016325383470054074 0.00036287206712712458 0 0.014052983457331511 0.0006902306422040753 0 0.016325383470054074 0.00036287206712712458 0 0.014946045627236948 0.0015404876255319542 0 0.016571047694041788 0.00029964879258557916 0 0.016503824177937904 0.00049187810914346148 0 0.017223725944243404 4.8656269262794173e-05 0 0.016325383470054074 0.00036287206712712458 0 0.017463483595646739 5.9408330880967615e-05 0 0.017770692136578635 -8.0722947603847038e-05 0 0.017223725944243404 4.8656269262794173e-05 0 0.017463483595646739 5.9408330880967615e-05 0 0.017342957014965601 -0.00026910985332494029 0 0.017223725944243404 4.8656269262794173e-05 0 0.016784650300836323 -0.00013877474091072257 0 0.017223725944243404 4.8656269262794173e-05 0 0.016784650300836323 -0.00013877474091072257 0 0.016325383470054074 0.00036287206712712458 0 0.015948495640639469 -0.00040920334560550116 0 0.016784650300836323 -0.00013877474091072257 0 0.016325383470054074 0.00036287206712712458 0 0.017463483595646739 5.9408330880967615e-05 0 0.01804675643717751 -0.00013154582974404442 0 0.017976201545286046 -0.00022452715871070945 0 0.01804509565119982 -0.00021105243965044841 0 0.017463483595646739 5.9408330880967615e-05 0 0.017976201545286046 -0.00022452715871070945 0 0.01804509565119982 -0.00021105243965044841 0 0.017770692136578635 -8.0722947603847038e-05 0 0.017463483595646739 5.9408330880967615e-05 0 0.016325383470054074 0.00036287206712712458 0 0.017463483595646739 5.9408330880967615e-05 0 0.017817965982197401 0.00011913166882193712 0 0.014052983457331511 0.0006902306422040753 0 0.014946045627236948 0.0015404876255319542 0 0.01377041459272247 0.0015457404151410336 0 0.014946045627236948 0.0015404876255319542 0 0.014149547997582347 0.0019327145697287927 0 0.01377041459272247 0.0015457404151410336 0 0.016503824177937904 0.00049187810914346148 0 0.01645103204541051 0.00062872387762754852 0 0.017817965982197401 0.00011913166882193712 0 0.01804675643717751 -0.00013154582974404442 0 0.01856161356980628 -8.2267655159740224e-05 0 0.017463483595646739 5.9408330880967615e-05 0 0.017817965982197401 0.00011913166882193712 0 0.01804675643717751 -0.00013154582974404442 0 0.01804675643717751 -0.00013154582974404442 0 0.018223877266067581 -0.00030860128428767921 0 0.01856161356980628 -8.2267655159740224e-05 0 0.01804675643717751 -0.00013154582974404442 0 0.018223877266067581 -0.00030860128428767921 0 0.018120295408702157 -0.00031968165814812773 0 0.018223877266067581 -0.00030860128428767921 0 0.01856161356980628 -8.2267655159740224e-05 0 0.018505896398862548 -0.0004487147805630915 0 0.01856161356980628 -8.2267655159740224e-05 0 0.018505896398862548 -0.0004487147805630915 0 0.01907107564512529 -0.00081059220153660192 0 0.018505896398862548 -0.0004487147805630915 0 0.018678482601565315 -0.00067684175837389208 0 0.018451656248014325 -0.00063694490608967569 0 0.018505896398862548 -0.0004487147805630915 0 0.018678482601565315 -0.00067684175837389208 0 0.01907107564512529 -0.00081059220153660192 0 0.018223877266067581 -0.00030860128428767921 0 0.018283301591186202 -0.00043626640803919882 0 0.018120295408702157 -0.00031968165814812773 0 0.018223877266067581 -0.00030860128428767921 0 0.018505896398862548 -0.0004487147805630915 0 0.018283301591186202 -0.00043626640803919882 0 0.018505896398862548 -0.0004487147805630915 0 0.018283301591186202 -0.00043626640803919882 0 0.018451656248014325 -0.00063694490608967569 0 0.018283301591186202 -0.00043626640803919882 0 0.018226968627700929 -0.00047000262954785896 0 0.018451656248014325 -0.00063694490608967569 0 0.018144908677012919 -0.00034556634486113645 0 0.018120295408702157 -0.00031968165814812773 0 0.018226968627700929 -0.00047000262954785896 0 0.018283301591186202 -0.00043626640803919882 0 0.018120295408702157 -0.00031968165814812773 0 0.018226968627700929 -0.00047000262954785896 0 0.018144908677012919 -0.00034556634486113645 0 0.018120295408702157 -0.00031968165814812773 0 0.01817357181438016 -0.00030343167034389319 0 0.018120295408702157 -0.00031968165814812773 0 0.017976201545286046 -0.00022452715871070945 0 0.01817357181438016 -0.00030343167034389319 0 0.01804675643717751 -0.00013154582974404442 0 0.018120295408702157 -0.00031968165814812773 0 0.017976201545286046 -0.00022452715871070945 0 0.018368428509635461 -0.00031992898737893608 0 0.017976201545286046 -0.00022452715871070945 0 0.01817357181438016 -0.00030343167034389319 0 0.01804509565119982 -0.00021105243965044841 0 0.018368428509635461 -0.00031992898737893608 0 0.017976201545286046 -0.00022452715871070945 0 0.018571334517681844 -0.00015651568164757579 0 0.018368428509635461 -0.00031992898737893608 0 0.01817357181438016 -0.00030343167034389319 0 0.018571334517681844 -0.00015651568164757579 0 0.01817357181438016 -0.00030343167034389319 0 0.01811998224074228 -0.00033303553829904913 0 0.018144908677012919 -0.00034556634486113645 0 0.01817357181438016 -0.00030343167034389319 0 0.01811998224074228 -0.00033303553829904913 0 0.018571334517681844 -0.00015651568164757579 0 0.01811998224074228 -0.00033303553829904913 0 0.018283522400740184 -9.6796531981904559e-05 0 0.019979992996053585 5.1145957421519465e-05 0 0.020413903736958634 -0.0002165402432659357 0 0.01811998224074228 -0.00033303553829904913 0 0.017906846139699572 -0.00061430454378119822 0 0.018187523127474341 -0.00062755046941890115 0 0.020182963380461535 -0.00037216777385037453 0 0.020413903736958634 -0.0002165402432659357 0 0.01811998224074228 -0.00033303553829904913 0 0.018226968627700929 -0.00047000262954785896 0 0.018187523127474341 -0.00062755046941890115 0 0.018144908677012919 -0.00034556634486113645 0 0.01811998224074228 -0.00033303553829904913 0 0.018226968627700929 -0.00047000262954785896 0 0.018226968627700929 -0.00047000262954785896 0 0.018187523127474341 -0.00062755046941890115 0 0.018362825707616427 -0.00075428585438491616 0 0.018187523127474341 -0.00062755046941890115 0 0.018198381812244875 -0.0010018907408094434 0 0.018362825707616427 -0.00075428585438491616 0 0.018198381812244875 -0.0010018907408094434 0 0.018362825707616427 -0.00075428585438491616 0 0.018505780611578638 -0.0010033278942554475 0 0.022468532700144431 -0.00019348413758724897 0 0.02246463152111404 -0.00018835499594588718 0 0.022476583008912056 -0.0001942803675906543 0 0.020413903736958634 -0.0002165402432659357 0 0.020462496209092747 -0.00050082576655071439 0 0.017906846139699572 -0.00061430454378119822 0 0.018187523127474341 -0.00062755046941890115 0 0.018198381812244875 -0.0010018907408094434 0 0.021010936761960076 0.00015381096968504886 0 0.020413903736958634 -0.0002165402432659357 0 0.022468532700144431 -0.00019348413758724897 0 0.022476583008912056 -0.0001942803675906543 0 0.022479598348071329 -0.0002010377039177518 0 0.022476583008912056 -0.0001942803675906543 0 0.022479598348071329 -0.0002010377039177518 0 0.02248932447551942 -0.00020359662464948023 0 0.018198381812244875 -0.0010018907408094434 0 0.018426994662364211 -0.0012691926157492037 0 0.018505780611578638 -0.0010033278942554475 0 0.020462496209092747 -0.00050082576655071439 0 0.020572312166212855 -0.00076384306243734755 0 0.022479598348071329 -0.0002010377039177518 0 0.02248932447551942 -0.00020359662464948023 0 0.02248913684946461 -0.00021138417059533886 0 0.02248932447551942 -0.00020359662464948023 0 0.022498512949058608 -0.00022152824507992849 0 0.02248913684946461 -0.00021138417059533886 0 0.022479598348071329 -0.0002010377039177518 0 0.02248913684946461 -0.00021138417059533886 0 0.022490269199943617 -0.00020753686531693478 0 0.020101741560438306 -0.001321729277939258 0 0.020822617920873834 -0.0011571779763289861 0 0.020243569043658319 -0.0015166085671990161 0 0.020052544374474467 -0.0016815930007936521 0 0.020019173108461744 -0.0015707377620774107 0 0.020243569043658319 -0.0015166085671990161 0 0.020052544374474467 -0.0016815930007936521 0 0.020304922855101187 -0.0015071646017539835 0 0.018426994662364211 -0.0012691926157492037 0 0.018701300996821324 -0.0011961325930625951 0 0.018633520447320171 -0.001509806525742429 0 0.020572312166212855 -0.00076384306243734755 0 0.020822617920873834 -0.0011571779763289861 0 0.02248932447551942 -0.00020359662464948023 0 0.022498512949058608 -0.00022152824507992849 0 0.022503554385334627 -0.00021792903645517103 0 0.018426994662364211 -0.0012691926157492037 0 0.018701300996821324 -0.0011961325930625951 0 0.018505780611578638 -0.0010033278942554475 0 0.020101741560438306 -0.001321729277939258 0 0.019768503871220887 -0.0011660547987235176 0 0.020052544374474467 -0.0016815930007936521 0 0.019488804129022895 -0.001691305796386483 0 0.019748628725555967 -0.0018104030439658311 0 0.018764423494290309 -0.00093120585391464022 0 0.018505780611578638 -0.0010033278942554475 0 0.018566324235372914 -0.0008311882868425397 0 0.018701300996821324 -0.0011961325930625951 0 0.018764423494290309 -0.00093120585391464022 0 0.018505780611578638 -0.0010033278942554475 0 0.018362825707616427 -0.00075428585438491616 0 0.018505780611578638 -0.0010033278942554475 0 0.018566324235372914 -0.0008311882868425397 0 0.018362825707616427 -0.00075428585438491616 0 0.018566324235372914 -0.0008311882868425397 0 0.018451656248014325 -0.00063694490608967569 0 0.018566324235372914 -0.0008311882868425397 0 0.018451656248014325 -0.00063694490608967569 0 0.018699671158149363 -0.00079715108678479892 0 0.018226968627700929 -0.00047000262954785896 0 0.018362825707616427 -0.00075428585438491616 0 0.018451656248014325 -0.00063694490608967569 0 0.019768503871220887 -0.0011660547987235176 0 0.019684224612248832 -0.0010039065091239864 0 0.018764423494290309 -0.00093120585391464022 0 0.018699671158149363 -0.00079715108678479892 0 0.01907107564512529 -0.00081059220153660192 0 0.018764423494290309 -0.00093120585391464022 0 0.018566324235372914 -0.0008311882868425397 0 0.018699671158149363 -0.00079715108678479892 0 0.018678482601565315 -0.00067684175837389208 0 0.018451656248014325 -0.00063694490608967569 0 0.018699671158149363 -0.00079715108678479892 0 0.018678482601565315 -0.00067684175837389208 0 0.018699671158149363 -0.00079715108678479892 0 0.01907107564512529 -0.00081059220153660192 0 0.019503766259995156 -0.0014719506931821986 0 0.01907107564512529 -0.00081059220153660192 0 0.019451378416156809 -0.00080548981434619014 0 0.019488804129022895 -0.001691305796386483 0 0.019503766259995156 -0.0014719506931821986 0 0.01907107564512529 -0.00081059220153660192 0 0.019503766259995156 -0.0014719506931821986 0 0.019832715415525701 -0.001986143517124265 0 0.019451378416156809 -0.00080548981434619014 0 0.016378044692527953 0.00043801783684579564 0 0.016475966129068081 0.00051673624768934793 0 0.0134639104989946 0.0021049938239331152 0 0.013525914396104777 0.0022145721487722468 0 0.013685185661382932 0.0021131960232519953 0 0.019488804129022895 -0.001691305796386483 0 0.019503766259995156 -0.0014719506931821986 0 0.019748628725555967 -0.0018104030439658311 0 0.019503766259995156 -0.0014719506931821986 0 0.019832715415525701 -0.001986143517124265 0 0.019748628725555967 -0.0018104030439658311 0 0.019748628725555967 -0.0018104030439658311 0 0.019731211836196815 -0.0017488344880791336 0 0.020019173108461744 -0.0015707377620774107 0 0.020052544374474467 -0.0016815930007936521 0 0.019748628725555967 -0.0018104030439658311 0 0.020019173108461744 -0.0015707377620774107 0 0.019832715415525701 -0.001986143517124265 0 0.019748628725555967 -0.0018104030439658311 0 0.019731211836196815 -0.0017488344880791336 0 0.019832715415525701 -0.001986143517124265 0 0.019368497391657923 -0.0017341903198690332 0 0.019731211836196815 -0.0017488344880791336 0 0.019832715415525701 -0.001986143517124265 0 0.019368497391657923 -0.0017341903198690332 0 0.018133973845781731 -0.0016311986477156053 0 0.019368497391657923 -0.0017341903198690332 0 0.019731211836196815 -0.0017488344880791336 0 0.019858869383026802 -0.0013315130806861347 0 0.019368497391657923 -0.0017341903198690332 0 0.019858869383026802 -0.0013315130806861347 0 0.018133973845781731 -0.0016311986477156053 0 0.020243569043658319 -0.0015166085671990161 0 0.020019173108461744 -0.0015707377620774107 0 0.020241698453361118 -0.001476089874654333 0 0.019858869383026802 -0.0013315130806861347 0 0.020019173108461744 -0.0015707377620774107 0 0.020241698453361118 -0.001476089874654333 0 0.019731211836196815 -0.0017488344880791336 0 0.019858869383026802 -0.0013315130806861347 0 0.020019173108461744 -0.0015707377620774107 0 0.013876303678989111 0.001844865779265822 0 0.013918544886897095 0.0017480292741634104 0 0.014475368155092795 0.0018852290395110465 0 0.013888243303786747 0.0022640085575334886 0 0.015316399526914198 0.0018137481456255915 0 0.015001435749607512 0.0016259704218982984 0 0.014475368155092795 0.0018852290395110465 0 0.015316399526914198 0.0018137481456255915 0 0.015001435749607512 0.0016259704218982984 0 0.015316399526914198 0.0018137481456255915 0 0.015290384696266441 0.001500083869830076 0 0.014475368155092795 0.0018852290395110465 0 0.013782784971173629 0.0021434899450629712 0 0.015759459816836199 0.0012281648284758469 0 0.019858869383026802 -0.0013315130806861347 0 0.018133973845781731 -0.0016311986477156053 0 0.016688933541773598 0.0010573207775324801 0 0.014475368155092795 0.0018852290395110465 0 0.013782784971173629 0.0021434899450629712 0 0.013888243303786747 0.0022640085575334886 0 0.013525914396104777 0.0022145721487722468 0 0.013782784971173629 0.0021434899450629712 0 0.01357842108660305 0.0022143253738527682 0 0.013782784971173629 0.0021434899450629712 0 0.013888243303786747 0.0022640085575334886 0 0.01357842108660305 0.0022143253738527682 0 0.016378044692527953 0.00043801783684579564 0 0.016008435465665081 0.00077611205692004986 0 0.013888243303786747 0.0022640085575334886 0 0.013364251642752203 0.0022372792087130334 0 0.01311420828778127 0.0026027533258806174 0 0.013888243303786747 0.0022640085575334886 0 0.013364251642752203 0.0022372792087130334 0 0.01357842108660305 0.0022143253738527682 0 0.013364251642752203 0.0022372792087130334 0 0.013209914263664373 0.0021061301182898084 0 0.012989044074507423 0.0021565114349341172 0 0.013364251642752203 0.0022372792087130334 0 0.013209914263664373 0.0021061301182898084 0 0.01357842108660305 0.0022143253738527682 0 0.013209914263664373 0.0021061301182898084 0 0.01357842108660305 0.0022143253738527682 0 0.013391061220205612 0.0021266580664291422 0 0.013525914396104777 0.0022145721487722468 0 0.01357842108660305 0.0022143253738527682 0 0.013391061220205612 0.0021266580664291422 0 0.0134639104989946 0.0021049938239331152 0 0.013391061220205612 0.0021266580664291422 0 0.013221776333291552 0.0019900645691130216 0 0.0134639104989946 0.0021049938239331152 0 0.013525914396104777 0.0022145721487722468 0 0.013391061220205612 0.0021266580664291422 0 0.013209914263664373 0.0021061301182898084 0 0.013391061220205612 0.0021266580664291422 0 0.013058960355532286 0.0020161044131174846 0 0.013209914263664373 0.0021061301182898084 0 0.013058960355532286 0.0020161044131174846 0 0.012854718455083207 0.0020082405171221881 0 0.013391061220205612 0.0021266580664291422 0 0.013058960355532286 0.0020161044131174846 0 0.013221776333291552 0.0019900645691130216 0 0.013058960355532286 0.0020161044131174846 0 0.012953861691582537 0.0018754460176897505 0 0.013221776333291552 0.0019900645691130216 0 0.012953861691582537 0.0018754460176897505 0 0.013227059723278123 0.0018577565066089743 0 0.013221776333291552 0.0019900645691130216 0 0.012953861691582537 0.0018754460176897505 0 0.013227059723278123 0.0018577565066089743 0 0.013075682435931362 0.0016045043467386819 0 0.012953861691582537 0.0018754460176897505 0 0.013075682435931362 0.0016045043467386819 0 0.012743738707585668 0.0015968716231986133 0 0.013227059723278123 0.0018577565066089743 0 0.01341664090393703 0.0017537639727869365 0 0.013075682435931362 0.0016045043467386819 0 0.013227059723278123 0.0018577565066089743 0 0.013221776333291552 0.0019900645691130216 0 0.013468286188070801 0.0020048342545840457 0 0.0134639104989946 0.0021049938239331152 0 0.013221776333291552 0.0019900645691130216 0 0.013468286188070801 0.0020048342545840457 0 0.013468286188070801 0.0020048342545840457 0 0.013685185661382932 0.0021131960232519953 0 0.013692138155386724 0.0019245685932819292 0 0.0134639104989946 0.0021049938239331152 0 0.013468286188070801 0.0020048342545840457 0 0.013685185661382932 0.0021131960232519953 0 0.01645103204541051 0.00062872387762754852 0 0.016475966129068081 0.00051673624768934793 0 0.01856161356980628 -8.2267655159740224e-05 0 0.01907107564512529 -0.00081059220153660192 0 0.019451378416156809 -0.00080548981434619014 0 0.014149547997582347 0.0019327145697287927 0 0.013685185661382932 0.0021131960232519953 0 0.013692138155386724 0.0019245685932819292 0 0.013468286188070801 0.0020048342545840457 0 0.013692138155386724 0.0019245685932819292 0 0.01341664090393703 0.0017537639727869365 0 0.013227059723278123 0.0018577565066089743 0 0.013468286188070801 0.0020048342545840457 0 0.01341664090393703 0.0017537639727869365 0 0.013692138155386724 0.0019245685932819292 0 0.01341664090393703 0.0017537639727869365 0 0.01377041459272247 0.0015457404151410336 0 0.01341664090393703 0.0017537639727869365 0 0.01377041459272247 0.0015457404151410336 0 0.013252130964717272 0.0014160605307705007 0 0.014149547997582347 0.0019327145697287927 0 0.013692138155386724 0.0019245685932819292 0 0.01377041459272247 0.0015457404151410336 0 0.013185750103023388 0.00094353442419507858 0 0.01377041459272247 0.0015457404151410336 0 0.013252130964717272 0.0014160605307705007 0 0.013185750103023388 0.00094353442419507858 0 0.013252130964717272 0.0014160605307705007 0 0.012812666010716863 0.0012032735127381292 0 0.012812666010716863 0.0012032735127381292 0 0.013075682435931362 0.0016045043467386819 0 0.012743738707585668 0.0015968716231986133 0 0.013252130964717272 0.0014160605307705007 0 0.012812666010716863 0.0012032735127381292 0 0.013075682435931362 0.0016045043467386819 0 0.01341664090393703 0.0017537639727869365 0 0.013252130964717272 0.0014160605307705007 0 0.013075682435931362 0.0016045043467386819 0 0.012438562003857795 0.0017150046313603342 0 0.012474386557590781 0.0013050127640136381 0 0.012210150009791412 0.0014357750354935836 0 0.012438562003857795 0.0017150046313603342 0 0.012743738707585668 0.0015968716231986133 0 0.012474386557590781 0.0013050127640136381 0 0.012812666010716863 0.0012032735127381292 0 0.012743738707585668 0.0015968716231986133 0 0.012474386557590781 0.0013050127640136381 0 0.012425449680441488 0.00085580802492378418 0 0.012812666010716863 0.0012032735127381292 0 0.012474386557590781 0.0013050127640136381 0 0.012130840998549258 0.00073741920011307098 0 0.012474386557590781 0.0013050127640136381 0 0.012210150009791412 0.0014357750354935836 0 0.011508526891591183 0.000952317729629804 0 0.012210150009791412 0.0014357750354935836 0 0.011874352747927076 0.0015945473100881218 0 0.011508526891591183 0.000952317729629804 0 0.012130840998549258 0.00073741920011307098 0 0.012210150009791412 0.0014357750354935836 0 0.011508526891591183 0.000952317729629804 0 0.011874352747927076 0.0015945473100881218 0 0.011265186005739317 0.0013209027700169015 0 0.011874352747927076 0.0015945473100881218 0 0.012275755035130181 0.0022262643088825028 0 0.01161904377442712 0.0018716201481277399 0 0.011874352747927076 0.0015945473100881218 0 0.012269582348533583 0.0018577433372663403 0 0.012275755035130181 0.0022262643088825028 0 0.011874352747927076 0.0015945473100881218 0 0.01161904377442712 0.0018716201481277399 0 0.011265186005739317 0.0013209027700169015 0 0.012210150009791412 0.0014357750354935836 0 0.011874352747927076 0.0015945473100881218 0 0.012269582348533583 0.0018577433372663403 0 0.012438562003857795 0.0017150046313603342 0 0.012210150009791412 0.0014357750354935836 0 0.012269582348533583 0.0018577433372663403 0 0.012269582348533583 0.0018577433372663403 0 0.01246074453359671 0.0020610534558461297 0 0.012275755035130181 0.0022262643088825028 0 0.012438562003857795 0.0017150046313603342 0 0.012269582348533583 0.0018577433372663403 0 0.01246074453359671 0.0020610534558461297 0 0.012275755035130181 0.0022262643088825028 0 0.012579252699948425 0.0024578969245452153 0 0.01214795740198293 0.0024319441222304217 0 0.012275755035130181 0.0022262643088825028 0 0.012570907346745926 0.0022107110933371732 0 0.012579252699948425 0.0024578969245452153 0 0.01246074453359671 0.0020610534558461297 0 0.012275755035130181 0.0022262643088825028 0 0.012570907346745926 0.0022107110933371732 0 0.01246074453359671 0.0020610534558461297 0 0.012570907346745926 0.0022107110933371732 0 0.012589743692336262 0.0020477241842503753 0 0.01246074453359671 0.0020610534558461297 0 0.012589743692336262 0.0020477241842503753 0 0.012637035877879999 0.001899240366215508 0 0.012589743692336262 0.0020477241842503753 0 0.012637035877879999 0.001899240366215508 0 0.012764980959258994 0.0019856607559210564 0 0.012438562003857795 0.0017150046313603342 0 0.01246074453359671 0.0020610534558461297 0 0.012637035877879999 0.001899240366215508 0 0.012438562003857795 0.0017150046313603342 0 0.012743738707585668 0.0015968716231986133 0 0.012637035877879999 0.001899240366215508 0 0.012953861691582537 0.0018754460176897505 0 0.012743738707585668 0.0015968716231986133 0 0.012637035877879999 0.001899240366215508 0 0.012953861691582537 0.0018754460176897505 0 0.012637035877879999 0.001899240366215508 0 0.012764980959258994 0.0019856607559210564 0 0.013058960355532286 0.0020161044131174846 0 0.012953861691582537 0.0018754460176897505 0 0.012764980959258994 0.0019856607559210564 0 0.012764980959258994 0.0019856607559210564 0 0.012854718455083207 0.0020082405171221881 0 0.01265580682457711 0.002000735979844512 0 0.013058960355532286 0.0020161044131174846 0 0.012764980959258994 0.0019856607559210564 0 0.012854718455083207 0.0020082405171221881 0 0.01265580682457711 0.002000735979844512 0 0.012576900171115691 0.0019313831224724565 0 0.012637997735751043 0.0020036533532320627 0 0.012589743692336262 0.0020477241842503753 0 0.01265580682457711 0.002000735979844512 0 0.012637997735751043 0.0020036533532320627 0 0.012589743692336262 0.0020477241842503753 0 0.012764980959258994 0.0019856607559210564 0 0.01265580682457711 0.002000735979844512 0 0.012854718455083207 0.0020082405171221881 0 0.01265580682457711 0.002000735979844512 0 0.012576900171115691 0.0019313831224724565 0 0.013209914263664373 0.0021061301182898084 0 0.012854718455083207 0.0020082405171221881 0 0.012989044074507423 0.0021565114349341172 0 0.012854718455083207 0.0020082405171221881 0 0.012576900171115691 0.0019313831224724565 0 0.012989044074507423 0.0021565114349341172 0 0.013364251642752203 0.0022372792087130334 0 0.012989044074507423 0.0021565114349341172 0 0.01311420828778127 0.0026027533258806174 0 0.012989044074507423 0.0021565114349341172 0 0.012703136922979526 0.0023484618607618945 0 0.01311420828778127 0.0026027533258806174 0 0.012576900171115691 0.0019313831224724565 0 0.012989044074507423 0.0021565114349341172 0 0.012703136922979526 0.0023484618607618945 0 0.012576900171115691 0.0019313831224724565 0 0.012703136922979526 0.0023484618607618945 0 0.012323302947881027 0.0023760706974144618 0 0.013169825129900118 0.0017671183467318314 0 0.013394068848215701 0.0015978499205662085 0 0.012703136922979526 0.0023484618607618945 0 0.012568677910496354 0.0026840410220931297 0 0.012323302947881027 0.0023760706974144618 0 0.013917561018736998 0.0014559671130966764 0 0.013918544886897095 0.0017480292741634104 0 0.012703136922979526 0.0023484618607618945 0 0.012568677910496354 0.0026840410220931297 0 0.01311420828778127 0.0026027533258806174 0 0.015148501084400053 0.001530515340747315 0 0.015316399526914198 0.0018137481456255915 0 0.015200584716189573 0.0015445691612143429 0 0.015316399526914198 0.0018137481456255915 0 0.015290384696266441 0.001500083869830076 0 0.015200584716189573 0.0015445691612143429 0 0.014370532973661938 0.00079336416850504929 0 0.014200967750705284 0.00070928292295553003 0 0.014242465602005368 0.00022579902157959913 0 0.014050602855417682 0.00027473036039102919 0 0.014098717252729681 0.00084274795156404124 0 0.013020426942489713 0.00026767139804993262 0 0.013141187568490177 0.0011071463963728885 0 0.014098717252729681 0.00084274795156404124 0 0.014351726181754365 0.00077173935374110273 0 0.014370532973661938 0.00079336416850504929 0 0.013917561018736998 0.0014559671130966764 0 0.014370532973661938 0.00079336416850504929 0 0.013020426942489713 0.00026767139804993262 0 0.012608563847591611 0.0011311203679270506 0 0.013141187568490177 0.0011071463963728885 0 0.014370532973661938 0.00079336416850504929 0 0.013394068848215701 0.0015978499205662085 0 0.012568677910496354 0.0026840410220931297 0 0.012070391394922667 0.002739703867583267 0 0.012323302947881027 0.0023760706974144618 0 0.012576900171115691 0.0019313831224724565 0 0.012608563847591611 0.0011311203679270506 0 0.012837535283728982 0.0016782291694128627 0 0.012608563847591611 0.0011311203679270506 0 0.013141187568490177 0.0011071463963728885 0 0.012837535283728982 0.0016782291694128627 0 0.013141187568490177 0.0011071463963728885 0 0.013338513802385476 0.0014396825232608653 0 0.014098717252729681 0.00084274795156404124 0 0.013141187568490177 0.0011071463963728885 0 0.013338513802385476 0.0014396825232608653 0 0.012837535283728982 0.0016782291694128627 0 0.013338513802385476 0.0014396825232608653 0 0.012945938168715638 0.0019713533962574634 0 0.013669322569342307 0.0015544738408631604 0 0.013338513802385476 0.0014396825232608653 0 0.012837535283728982 0.0016782291694128627 0 0.012945938168715638 0.0019713533962574634 0 0.012837535283728982 0.0016782291694128627 0 0.012637997735751043 0.0020036533532320627 0 0.012945938168715638 0.0019713533962574634 0 0.012576900171115691 0.0019313831224724565 0 0.012837535283728982 0.0016782291694128627 0 0.012637997735751043 0.0020036533532320627 0 0.012570907346745926 0.0022107110933371732 0 0.012637997735751043 0.0020036533532320627 0 0.012945938168715638 0.0019713533962574634 0 0.012570907346745926 0.0022107110933371732 0 0.012589743692336262 0.0020477241842503753 0 0.012637997735751043 0.0020036533532320627 0 0.012570907346745926 0.0022107110933371732 0 0.012945938168715638 0.0019713533962574634 0 0.012579252699948425 0.0024578969245452153 0 0.012945938168715638 0.0019713533962574634 0 0.01354060278246938 0.002060594878122152 0 0.013669322569342307 0.0015544738408631604 0 0.012945938168715638 0.0019713533962574634 0 0.01354060278246938 0.002060594878122152 0 0.012579252699948425 0.0024578969245452153 0 0.01354060278246938 0.002060594878122152 0 0.014510238130843242 0.0013218770922385451 0 0.015056467751591985 0.0021336250989966335 0 0.01354060278246938 0.002060594878122152 0 0.015056467751591985 0.0021336250989966335 0 0.013746358179196025 0.0025191017703588754 0 0.014510238130843242 0.0013218770922385451 0 0.013669322569342307 0.0015544738408631604 0 0.014098717252729681 0.00084274795156404124 0 0.01354060278246938 0.002060594878122152 0 0.014510238130843242 0.0013218770922385451 0 0.013669322569342307 0.0015544738408631604 0 0.013338513802385476 0.0014396825232608653 0 0.013669322569342307 0.0015544738408631604 0 0.014098717252729681 0.00084274795156404124 0 0.014098717252729681 0.00084274795156404124 0 0.015079998617632859 0.00077091883234747067 0 0.015022292398749819 0.00040266426153944505 0 0.014510238130843242 0.0013218770922385451 0 0.015079998617632859 0.00077091883234747067 0 0.015538481166505309 0.00089036117077146825 0 0.014510238130843242 0.0013218770922385451 0 0.014098717252729681 0.00084274795156404124 0 0.015079998617632859 0.00077091883234747067 0 0.015022292398749819 0.00040266426153944505 0 0.01589597964431709 0.00045950477067326388 0 0.015897555575401467 0.0001300704357041512 0 0.015079998617632859 0.00077091883234747067 0 0.015022292398749819 0.00040266426153944505 0 0.01589597964431709 0.00045950477067326388 0 0.015022292398749819 0.00040266426153944505 0 0.015897555575401467 0.0001300704357041512 0 0.015378589198152316 -3.062472642170554e-05 0 0.015022292398749819 0.00040266426153944505 0 0.014925246989316585 5.3677182843977705e-05 0 0.015378589198152316 -3.062472642170554e-05 0 0.014098717252729681 0.00084274795156404124 0 0.015022292398749819 0.00040266426153944505 0 0.014572222858630364 0.00030078577875477342 0 0.014242465602005368 0.00022579902157959913 0 0.014098717252729681 0.00084274795156404124 0 0.014572222858630364 0.00030078577875477342 0 0.015022292398749819 0.00040266426153944505 0 0.014572222858630364 0.00030078577875477342 0 0.014925246989316585 5.3677182843977705e-05 0 0.016730326195476836 0.00019675723352942216 0 0.01589597964431709 0.00045950477067326388 0 0.016349444993991706 1.6701468323624873e-06 0 0.016730326195476836 0.00019675723352942216 0 0.016349444993991706 1.6701468323624873e-06 0 0.017626324379177272 5.12044786660227e-07 0 0.016730326195476836 0.00019675723352942216 0 0.01589597964431709 0.00045950477067326388 0 0.015897555575401467 0.0001300704357041512 0 0.01589597964431709 0.00045950477067326388 0 0.015538481166505309 0.00089036117077146825 0 0.016349444993991706 1.6701468323624873e-06 0 0.015079998617632859 0.00077091883234747067 0 0.01589597964431709 0.00045950477067326388 0 0.015538481166505309 0.00089036117077146825 0 0.016346164297578177 -3.8308416587929085e-07 0 0.014649519131698509 7.5777564861230059e-05 0 0.0151914984186656 3.1476556985086834e-07 0 0.016344887131821403 6.1269790326257311e-07 0 0.015208089233130806 0.00055535350753716851 0 0.015538481166505309 0.00089036117077146825 0 0.016349444993991706 1.6701468323624873e-06 0 0.015967778167122738 0.0012145395954752272 0 0.014649519131698509 7.5777564861230059e-05 0 0.0151914984186656 3.1476556985086834e-07 0 0.014038943246678297 -2.0220565505604578e-07 0 0.014510238130843242 0.0013218770922385451 0 0.015538481166505309 0.00089036117077146825 0 0.015056467751591985 0.0021336250989966335 0 0.015538481166505309 0.00089036117077146825 0 0.015967778167122738 0.0012145395954752272 0 0.015056467751591985 0.0021336250989966335 0 0.015208089233130806 0.00055535350753716851 0 0.014165815339876781 0.00074721551283120314 0 0.014649519131698509 7.5777564861230059e-05 0 0.014038943246678297 -2.0220565505604578e-07 0 0.014364829953312867 -0.00021060803316677845 0 0.014649519131698509 7.5777564861230059e-05 0 0.014558794105147384 -0.00022789264221670337 0 0.014364829953312867 -0.00021060803316677845 0 0.01403372973185295 3.5102514600541078e-06 0 0.013060545519817812 0.00013790010178328391 0 0.014038943246678297 -2.0220565505604578e-07 0 0.014364829953312867 -0.00021060803316677845 0 0.014177623736895554 -0.0003955560899911888 0 0.014558794105147384 -0.00022789264221670337 0 0.014364829953312867 -0.00021060803316677845 0 0.014421267209444833 -0.00042745626373469423 0 0.014177623736895554 -0.0003955560899911888 0 0.014421267209444833 -0.00042745626373469423 0 0.014204724362678929 -0.00066794872606810074 0 0.013060545519817812 0.00013790010178328391 0 0.011981401870223453 0.00011527268205456745 0 0.012874024745062889 4.5481864099022155e-08 0 0.011686559556887143 -4.3112126109823145e-08 0 0.011743749376213428 -1.1157368482160656e-06 0 0.014364829953312867 -0.00021060803316677845 0 0.014177623736895554 -0.0003955560899911888 0 0.014421267209444833 -0.00042745626373469423 0 0.014421267209444833 -0.00042745626373469423 0 0.014204724362678929 -0.00066794872606810074 0 0.01447583816388098 -0.00062242997963202391 0 0.0084001100528917523 0.0028056504080268304 0 0.009082360847283236 0.0022240774116025473 0 0.0084835823792507696 0.0015501359606241536 0 0.011981401870223453 0.00011527268205456745 0 0.010937800987708943 0.00091998248796295473 0 0.011685113888991907 -2.8120164957750183e-07 0 0.011631822798825801 -8.6232407859072027e-06 0 0.01016373947522768 -2.6492608240206373e-05 0 0.011688514322000968 1.6649273301628626e-06 0 0.011981401870223453 0.00011527268205456745 0 0.011981401870223453 0.00011527268205456745 0 0.012213985296226271 0.00066767152124569233 0 0.0084001100528917523 0.0028056504080268304 0 0.009082360847283236 0.0022240774116025473 0 0.0093386679284078213 0.0029608575101149385 0 0.0099428083920195219 0.0025697958509560926 0 0.010417907576018409 0.0021822331727826172 0 0.0097491955956540491 0.0019357091051282274 0 0.009082360847283236 0.0022240774116025473 0 0.0099428083920195219 0.0025697958509560926 0 0.0097491955956540491 0.0019357091051282274 0 0.009082360847283236 0.0022240774116025473 0 0.0099428083920195219 0.0025697958509560926 0 0.0093386679284078213 0.0029608575101149385 0 0.012213985296226271 0.00066767152124569233 0 0.01264420939666387 0.0011417579742137205 0 0.0099428083920195219 0.0025697958509560926 0 0.0093386679284078213 0.0029608575101149385 0 0.010494462080347284 0.0031277292522663273 0 0.014421267209444833 -0.00042745626373469423 0 0.01447583816388098 -0.00062242997963202391 0 0.014728543729321107 -0.00057983606340350328 0 0.014558794105147384 -0.00022789264221670337 0 0.014421267209444833 -0.00042745626373469423 0 0.014728543729321107 -0.00057983606340350328 0 0.014165815339876781 0.00074721551283120314 0 0.01264420939666387 0.0011417579742137205 0 0.01354060278246938 0.002060594878122152 0 0.013746358179196025 0.0025191017703588754 0 0.012435983710192781 0.002913283001310293 0 0.015056467751591985 0.0021336250989966335 0 0.013746358179196025 0.0025191017703588754 0 0.014086575907197691 0.0033762058333899445 0 0.013746358179196025 0.0025191017703588754 0 0.012435983710192781 0.002913283001310293 0 0.014086575907197691 0.0033762058333899445 0 0.012585819588669457 0.0012994709769677483 0 0.01264420939666387 0.0011417579742137205 0 0.01354060278246938 0.002060594878122152 0 0.012579252699948425 0.0024578969245452153 0 0.012435983710192781 0.002913283001310293 0 0.012579252699948425 0.0024578969245452153 0 0.012435983710192781 0.002913283001310293 0 0.01214795740198293 0.0024319441222304217 0 0.012435983710192781 0.002913283001310293 0 0.01214795740198293 0.0024319441222304217 0 0.011625095592086788 0.0022143769107830311 0 0.01214795740198293 0.0024319441222304217 0 0.011625095592086788 0.0022143769107830311 0 0.01161904377442712 0.0018716201481277399 0 0.012275755035130181 0.0022262643088825028 0 0.01214795740198293 0.0024319441222304217 0 0.01161904377442712 0.0018716201481277399 0 0.0099428083920195219 0.0025697958509560926 0 0.010814903508979108 0.0025650035489340512 0 0.010494462080347284 0.0031277292522663273 0 0.012545168106349569 0.0012879230471827216 0 0.01264420939666387 0.0011417579742137205 0 0.012435983710192781 0.002913283001310293 0 0.010814903508979108 0.0025650035489340512 0 0.010488485468798608 0.0031917097134845527 0 0.012435983710192781 0.002913283001310293 0 0.011625095592086788 0.0022143769107830311 0 0.010814903508979108 0.0025650035489340512 0 0.011625095592086788 0.0022143769107830311 0 0.010814903508979108 0.0025650035489340512 0 0.010943052852296076 0.0021814487631988625 0 0.0099428083920195219 0.0025697958509560926 0 0.010814903508979108 0.0025650035489340512 0 0.010417907576018409 0.0021822331727826172 0 0.010814903508979108 0.0025650035489340512 0 0.010943052852296076 0.0021814487631988625 0 0.010417907576018409 0.0021822331727826172 0 0.01059601025902478 0.0017680723885608095 0 0.01161904377442712 0.0018716201481277399 0 0.010642643309342857 0.0012826422102630052 0 0.010943052852296076 0.0021814487631988625 0 0.010417907576018409 0.0021822331727826172 0 0.01059601025902478 0.0017680723885608095 0 0.010417907576018409 0.0021822331727826172 0 0.01059601025902478 0.0017680723885608095 0 0.0097491955956540491 0.0019357091051282274 0 0.011625095592086788 0.0022143769107830311 0 0.010943052852296076 0.0021814487631988625 0 0.01059601025902478 0.0017680723885608095 0 0.01059601025902478 0.0017680723885608095 0 0.010642643309342857 0.0012826422102630052 0 0.0098560457567502917 0.0011855023799438502 0 0.011625095592086788 0.0022143769107830311 0 0.01059601025902478 0.0017680723885608095 0 0.01161904377442712 0.0018716201481277399 0 0.01161904377442712 0.0018716201481277399 0 0.011265186005739317 0.0013209027700169015 0 0.010642643309342857 0.0012826422102630052 0 0.010522220339974223 0.00083534551134222337 0 0.011508526891591183 0.000952317729629804 0 0.011265186005739317 0.0013209027700169015 0 0.010522220339974223 0.00083534551134222337 0 0.011265186005739317 0.0013209027700169015 0 0.010642643309342857 0.0012826422102630052 0 0.010642643309342857 0.0012826422102630052 0 0.0099234791064346014 0.00088103426576412972 0 0.0098560457567502917 0.0011855023799438502 0 0.010522220339974223 0.00083534551134222337 0 0.010642643309342857 0.0012826422102630052 0 0.0099234791064346014 0.00088103426576412972 0 0.0099234791064346014 0.00088103426576412972 0 0.0092272096048611214 0.0007004903617346403 0 0.0098560457567502917 0.0011855023799438502 0 0.0092272096048611214 0.0007004903617346403 0 0.0098560457567502917 0.0011855023799438502 0 0.0090982571912328475 0.0010155484815874546 0 0.0098560457567502917 0.0011855023799438502 0 0.0090982571912328475 0.0010155484815874546 0 0.0096146758904283262 0.0014411775754423028 0 0.0085842465479364291 0.00023639466900325412 0 0.0090982571912328475 0.0010155484815874546 0 0.0084835823792507696 0.0015501359606241536 0 0.010588094919821831 0.00095054282430910662 0 0.010937800987708943 0.00091998248796295473 0 0.0085842465479364291 0.00023639466900325412 0 0.0092272096048611214 0.0007004903617346403 0 0.0090982571912328475 0.0010155484815874546 0 0.0085842465479364291 0.00023639466900325412 0 0.0096169634892579615 1.905897774759192e-07 0 0.01016373947522768 -2.6492608240206373e-05 0 0.0090982571912328475 0.0010155484815874546 0 0.0084835823792507696 0.0015501359606241536 0 0.0091896911091785671 0.0016142542772674784 0 0.011685113888991907 -2.8120164957750183e-07 0 0.0096169634892579615 1.905897774759192e-07 0 0.01016373947522768 -2.6492608240206373e-05 0 0.009082360847283236 0.0022240774116025473 0 0.0084835823792507696 0.0015501359606241536 0 0.0091896911091785671 0.0016142542772674784 0 0.009082360847283236 0.0022240774116025473 0 0.0097491955956540491 0.0019357091051282274 0 0.0091896911091785671 0.0016142542772674784 0 0.01059601025902478 0.0017680723885608095 0 0.0097491955956540491 0.0019357091051282274 0 0.0096146758904283262 0.0014411775754423028 0 0.01059601025902478 0.0017680723885608095 0 0.0098560457567502917 0.0011855023799438502 0 0.0096146758904283262 0.0014411775754423028 0 0.0090982571912328475 0.0010155484815874546 0 0.0096146758904283262 0.0014411775754423028 0 0.0091896911091785671 0.0016142542772674784 0 0.0097491955956540491 0.0019357091051282274 0 0.0096146758904283262 0.0014411775754423028 0 0.0091896911091785671 0.0016142542772674784 0 0.025339434002395026 0.00012314271493594133 0 0.025003261974498085 8.8217595494837183e-05 0 0.024083609133504678 9.5381889922042281e-05 0 0.025339434002395026 0.00012314271493594133 0 0.025095516962670934 2.7974222058886281e-07 0 0.024083609133504678 9.5381889922042281e-05 0 0.025095516962670934 2.7974222058886281e-07 0 0.026358040678462116 0.00022907482866305295 0 0.027157620065154837 4.6288747433578809e-07 0 0.025339434002395026 0.00012314271493594133 0 0.025095516962670934 2.7974222058886281e-07 0 0.026358040678462116 0.00022907482866305295 0 0.025339434002395026 0.00012314271493594133 0 0.026270445960221368 0.00023813764587390994 0 0.026358040678462116 0.00022907482866305295 0 0.026270445960221368 0.00023813764587390994 0 0.026291658975600127 0.00016382144939087705 0 0.026423148281745069 0.00020203849264255837 0 0.025339434002395026 0.00012314271493594133 0 0.026270445960221368 0.00023813764587390994 0 0.025003261974498085 8.8217595494837183e-05 0 0.026270445960221368 0.00023813764587390994 0 0.026291658975600127 0.00016382144939087705 0 0.026208569433507994 0.00017105739733724249 0 0.024961004661950659 0.00064396231272251204 0 0.024637664512527625 0.00056365431315520481 0 0.026208569433507994 0.00017105739733724249 0 0.026223105096570356 0.00012827543215153538 0 0.026142717742593271 9.8803674375241328e-05 0 0.026291658975600127 0.00016382144939087705 0 0.026208569433507994 0.00017105739733724249 0 0.026223105096570356 0.00012827543215153538 0 0.024637664512527625 0.00056365431315520481 0 0.023730084308502795 0.00030294510997772945 0 0.026291658975600127 0.00016382144939087705 0 0.026223105096570356 0.00012827543215153538 0 0.026240897772004709 0.00011397984097540334 0 0.026291658975600127 0.00016382144939087705 0 0.026240897772004709 0.00011397984097540334 0 0.026291189648459723 0.00015971415033589581 0 0.021272631276123107 -0.00024194332442955169 0 0.020672828896397911 0.00038739813073446265 0 0.026223105096570356 0.00012827543215153538 0 0.026240897772004709 0.00011397984097540334 0 0.026218289898075581 6.1722305228190246e-05 0 0.026240897772004709 0.00011397984097540334 0 0.026218289898075581 6.1722305228190246e-05 0 0.026229448852319186 0.00012557109129203195 0 0.026223105096570356 0.00012827543215153538 0 0.026142717742593271 9.8803674375241328e-05 0 0.026218289898075581 6.1722305228190246e-05 0 0.023658483068971996 6.02444869650815e-05 0 0.024083609133504678 9.5381889922042281e-05 0 0.022499906724557317 2.8258895385789617e-05 0 0.025003261974498085 8.8217595494837183e-05 0 0.023658483068971996 6.02444869650815e-05 0 0.024083609133504678 9.5381889922042281e-05 0 0.025095516962670934 2.7974222058886281e-07 0 0.024083609133504678 9.5381889922042281e-05 0 0.023033536176715455 5.2703770632353723e-07 0 0.023033536176715455 5.2703770632353723e-07 0 0.022499906724557317 2.8258895385789617e-05 0 0.020969748636405182 -1.2637851482053511e-06 0 0.024083609133504678 9.5381889922042281e-05 0 0.023033536176715455 5.2703770632353723e-07 0 0.022499906724557317 2.8258895385789617e-05 0 0.022499906724557317 2.8258895385789617e-05 0 0.021700147877445772 -0.00013280517464360836 0 0.020969748636405182 -1.2637851482053511e-06 0 0.022499906724557317 2.8258895385789617e-05 0 0.021700147877445772 -0.00013280517464360836 0 0.022633462238083393 -0.00041069030715049646 0 0.021700147877445772 -0.00013280517464360836 0 0.020969748636405182 -1.2637851482053511e-06 0 0.020271990884744396 -0.00018077813407113195 0 0.023730084308502795 0.00030294510997772945 0 0.022035739566874674 -0.00057612734245740592 0 0.023658483068971996 6.02444869650815e-05 0 0.022499906724557317 2.8258895385789617e-05 0 0.022633462238083393 -0.00041069030715049646 0 0.018653106110177283 -0.0011099932665557186 0 0.018905892367295892 7.8316729538958771e-05 0 0.020271990884744396 -0.00018077813407113195 0 0.018013249395033751 -0.0015010442530883124 0 0.01760101636038109 -0.00059229817600226387 0 0.016561232735657593 -0.0010944190841772991 0 0.018013249395033751 -0.0015010442530883124 0 0.01760101636038109 -0.00059229817600226387 0 0.018905892367295892 7.8316729538958771e-05 0 0.022035739566874674 -0.00057612734245740592 0 0.021738170224746479 -0.00060773580071498941 0 0.01760101636038109 -0.00059229817600226387 0 0.018905892367295892 7.8316729538958771e-05 0 0.018734632001650417 0.00034379143626586884 0 0.018905892367295892 7.8316729538958771e-05 0 0.020271990884744396 -0.00018077813407113195 0 0.018909910297010994 8.7818958916611581e-07 0 0.020969748636405182 -1.2637851482053511e-06 0 0.020271990884744396 -0.00018077813407113195 0 0.018909910297010994 8.7818958916611581e-07 0 0.021700147877445772 -0.00013280517464360836 0 0.022633462238083393 -0.00041069030715049646 0 0.020271990884744396 -0.00018077813407113195 0 0.022035739566874674 -0.00057612734245740592 0 0.021518596892894572 -0.00066961504101992187 0 0.018905892367295892 7.8316729538958771e-05 0 0.018909910297010994 8.7818958916611581e-07 0 0.018734632001650417 0.00034379143626586884 0 0.018904971548820284 -2.162581106364467e-06 0 0.016995838082378031 -0.00034955020835640479 0 0.017572948500042238 1.6777038836072801e-05 0 0.018904971548820284 -2.162581106364467e-06 0 0.016355921826950073 -0.0011479787162809408 0 0.016995838082378031 -0.00034955020835640479 0 0.018905993641402802 -3.5448735463314233e-07 0 0.017737044071926035 -0.0003741089769142582 0 0.016355921826950073 -0.0011479787162809408 0 0.016363110081148005 -0.00071864883414553759 0 0.016995838082378031 -0.00034955020835640479 0 0.016355921826950073 -0.0011479787162809408 0 0.016363110081148005 -0.00071864883414553759 0 0.016010696997495591 -0.00080966794241076382 0 0.016219974648202219 -0.00047168373477787594 0 0.016363110081148005 -0.00071864883414553759 0 0.016010696997495591 -0.00080966794241076382 0 0.016219974648202219 -0.00047168373477787594 0 0.016995838082378031 -0.00034955020835640479 0 0.016549976630077571 -7.3543414573801812e-05 0 0.016219974648202219 -0.00047168373477787594 0 0.016363110081148005 -0.00071864883414553759 0 0.016995838082378031 -0.00034955020835640479 0 0.016730326195476836 0.00019675723352942216 0 0.016549976630077571 -7.3543414573801812e-05 0 0.015897555575401467 0.0001300704357041512 0 0.016219974648202219 -0.00047168373477787594 0 0.016549976630077571 -7.3543414573801812e-05 0 0.015806232492231762 -0.00025029856440282058 0 0.016549976630077571 -7.3543414573801812e-05 0 0.015897555575401467 0.0001300704357041512 0 0.015806232492231762 -0.00025029856440282058 0 0.018904971548820284 -2.162581106364467e-06 0 0.017626324379177272 5.12044786660227e-07 0 0.017572948500042238 1.6777038836072801e-05 0 0.016730326195476836 0.00019675723352942216 0 0.016549976630077571 -7.3543414573801812e-05 0 0.017572948500042238 1.6777038836072801e-05 0 0.016730326195476836 0.00019675723352942216 0 0.017626324379177272 5.12044786660227e-07 0 0.017572948500042238 1.6777038836072801e-05 0 0.016995838082378031 -0.00034955020835640479 0 0.016549976630077571 -7.3543414573801812e-05 0 0.017572948500042238 1.6777038836072801e-05 0 0.015289235547670527 -0.00037713572021864515 0 0.014630064428880927 -1.3754966865616017e-05 0 0.014446761147424167 -0.00032702941609261485 0 0.014242465602005368 0.00022579902157959913 0 0.014572222858630364 0.00030078577875477342 0 0.014630064428880927 -1.3754966865616017e-05 0 0.014572222858630364 0.00030078577875477342 0 0.014630064428880927 -1.3754966865616017e-05 0 0.014925246989316585 5.3677182843977705e-05 0 0.015289235547670527 -0.00037713572021864515 0 0.014630064428880927 -1.3754966865616017e-05 0 0.014925246989316585 5.3677182843977705e-05 0 0.015289235547670527 -0.00037713572021864515 0 0.014925246989316585 5.3677182843977705e-05 0 0.015378589198152316 -3.062472642170554e-05 0 0.015897555575401467 0.0001300704357041512 0 0.015378589198152316 -3.062472642170554e-05 0 0.015806232492231762 -0.00025029856440282058 0 0.015289235547670527 -0.00037713572021864515 0 0.015378589198152316 -3.062472642170554e-05 0 0.015806232492231762 -0.00025029856440282058 0 0.015289235547670527 -0.00037713572021864515 0 0.015801673830552716 -0.00060457560961703837 0 0.015700525835452183 -0.00070551853195968532 0 0.015289235547670527 -0.00037713572021864515 0 0.015806232492231762 -0.00025029856440282058 0 0.015801673830552716 -0.00060457560961703837 0 0.016219974648202219 -0.00047168373477787594 0 0.015801673830552716 -0.00060457560961703837 0 0.016010696997495591 -0.00080966794241076382 0 0.016219974648202219 -0.00047168373477787594 0 0.015806232492231762 -0.00025029856440282058 0 0.015801673830552716 -0.00060457560961703837 0 0.015801673830552716 -0.00060457560961703837 0 0.016010696997495591 -0.00080966794241076382 0 0.015700525835452183 -0.00070551853195968532 0 0.016010696997495591 -0.00080966794241076382 0 0.015700525835452183 -0.00070551853195968532 0 0.015896652232001391 -0.00066678692439255159 0 0.015056163196044935 -0.00030980911275493319 0 0.014908283465325408 -9.1987287119325221e-05 0 0.015289235547670527 -0.00037713572021864515 0 0.015455741809269556 -0.00079657252712903601 0 0.014446761147424167 -0.00032702941609261485 0 0.015289235547670527 -0.00037713572021864515 0 0.015700525835452183 -0.00070551853195968532 0 0.015455741809269556 -0.00079657252712903601 0 0.015455741809269556 -0.00079657252712903601 0 0.015594797026027691 -0.00084033184694345541 0 0.015625262902707181 -0.00085749622598135962 0 0.015700525835452183 -0.00070551853195968532 0 0.015455741809269556 -0.00079657252712903601 0 0.015896652232001391 -0.00066678692439255159 0 0.015455741809269556 -0.00079657252712903601 0 0.015594797026027691 -0.00084033184694345541 0 0.015896652232001391 -0.00066678692439255159 0 0.015594797026027691 -0.00084033184694345541 0 0.015896652232001391 -0.00066678692439255159 0 0.015841751451513141 -0.0010063568637120315 0 0.016355921826950073 -0.0011479787162809408 0 0.016010696997495591 -0.00080966794241076382 0 0.015896652232001391 -0.00066678692439255159 0 0.01760101636038109 -0.00059229817600226387 0 0.018734632001650417 0.00034379143626586884 0 0.015896652232001391 -0.00066678692439255159 0 0.017737044071926035 -0.0003741089769142582 0 0.017116581633542956 -0.00056643692666379238 0 0.015896652232001391 -0.00066678692439255159 0 0.016561232735657593 -0.0010944190841772991 0 0.015841751451513141 -0.0010063568637120315 0 0.01760101636038109 -0.00059229817600226387 0 0.015896652232001391 -0.00066678692439255159 0 0.016561232735657593 -0.0010944190841772991 0 0.018013249395033751 -0.0015010442530883124 0 0.016561232735657593 -0.0010944190841772991 0 0.015765639642435506 -0.0013887234842090458 0 0.022035739566874674 -0.00057612734245740592 0 0.021272631276123107 -0.00024194332442955169 0 0.026142717742593271 9.8803674375241328e-05 0 0.026083419493348869 -1.8317593809434113e-05 0 0.026218289898075581 6.1722305228190246e-05 0 0.016561232735657593 -0.0010944190841772991 0 0.015841751451513141 -0.0010063568637120315 0 0.015765639642435506 -0.0013887234842090458 0 0.015646417240194398 -0.0010023039821437456 0 0.015765639642435506 -0.0013887234842090458 0 0.015626805632757017 -0.00092007983792609556 0 0.015594797026027691 -0.00084033184694345541 0 0.015646417240194398 -0.0010023039821437456 0 0.015617075303061093 -0.00087329214441521548 0 0.015594797026027691 -0.00084033184694345541 0 0.015646417240194398 -0.0010023039821437456 0 0.015841751451513141 -0.0010063568637120315 0 0.015646417240194398 -0.0010023039821437456 0 0.015841751451513141 -0.0010063568637120315 0 0.015765639642435506 -0.0013887234842090458 0 0.015626805632757017 -0.00092007983792609556 0 0.015617075303061093 -0.00087329214441521548 0 0.015696857004422082 -0.00073274758956189861 0 0.015617075303061093 -0.00087329214441521548 0 0.015696857004422082 -0.00073274758956189861 0 0.015724039285365615 -0.00083547606019493414 0 0.015646417240194398 -0.0010023039821437456 0 0.015626805632757017 -0.00092007983792609556 0 0.015617075303061093 -0.00087329214441521548 0 0.015696857004422082 -0.00073274758956189861 0 0.0158980319242964 -0.00073927520692572825 0 0.016072239791263175 -0.00018351898229578342 0 0.015696857004422082 -0.00073274758956189861 0 0.0158980319242964 -0.00073927520692572825 0 0.015724039285365615 -0.00083547606019493414 0 0.0158980319242964 -0.00073927520692572825 0 0.015843322412307622 -0.00084292028573477919 0 0.015724039285365615 -0.00083547606019493414 0 0.015843322412307622 -0.00084292028573477919 0 0.015724039285365615 -0.00083547606019493414 0 0.015760056823955194 -0.00088347345250385477 0 0.015724039285365615 -0.00083547606019493414 0 0.015760056823955194 -0.00088347345250385477 0 0.015625262902707181 -0.00085749622598135962 0 0.015843322412307622 -0.00084292028573477919 0 0.015760056823955194 -0.00088347345250385477 0 0.015866485214681422 -0.00090452950345155643 0 0.015617075303061093 -0.00087329214441521548 0 0.015724039285365615 -0.00083547606019493414 0 0.015625262902707181 -0.00085749622598135962 0 0.015594797026027691 -0.00084033184694345541 0 0.015617075303061093 -0.00087329214441521548 0 0.015625262902707181 -0.00085749622598135962 0 0.015625262902707181 -0.00085749622598135962 0 0.015737115114119089 -0.0009661480858679536 0 0.015582865432369281 -0.0010156163315613151 0 0.015455741809269556 -0.00079657252712903601 0 0.015625262902707181 -0.00085749622598135962 0 0.015582865432369281 -0.0010156163315613151 0 0.015737115114119089 -0.0009661480858679536 0 0.015872976693917282 -0.0010170768589816905 0 0.015866485214681422 -0.00090452950345155643 0 0.015760056823955194 -0.00088347345250385477 0 0.015625262902707181 -0.00085749622598135962 0 0.015737115114119089 -0.0009661480858679536 0 0.015760056823955194 -0.00088347345250385477 0 0.015737115114119089 -0.0009661480858679536 0 0.015866485214681422 -0.00090452950345155643 0 0.015688776901855706 -0.0011531632804693446 0 0.015704161179533702 -0.0010859942715501069 0 0.015872976693917282 -0.0010170768589816905 0 0.015737115114119089 -0.0009661480858679536 0 0.015704161179533702 -0.0010859942715501069 0 0.015872976693917282 -0.0010170768589816905 0 0.014370532973661938 0.00079336416850504929 0 0.015576130268073366 0.00024373551041387425 0 0.015148501084400053 0.001530515340747315 0 0.015063878519899829 0.0015292518021039767 0 0.015063061790350251 0.0015739422136635411 0 0.014242465602005368 0.00022579902157959913 0 0.013786025471676464 0.00034485146012801682 0 0.014446761147424167 -0.00032702941609261485 0 0.015688776901855706 -0.0011531632804693446 0 0.015704161179533702 -0.0010859942715501069 0 0.015582865432369281 -0.0010156163315613151 0 0.014370532973661938 0.00079336416850504929 0 0.014908283465325408 -9.1987287119325221e-05 0 0.015737115114119089 -0.0009661480858679536 0 0.015704161179533702 -0.0010859942715501069 0 0.015582865432369281 -0.0010156163315613151 0 0.014242465602005368 0.00022579902157959913 0 0.014630064428880927 -1.3754966865616017e-05 0 0.014446761147424167 -0.00032702941609261485 0 0.015187654338747371 0.0015307206348687792 0 0.015200584716189573 0.0015445691612143429 0 0.015063061790350251 0.0015739422136635411 0 0.015187654338747371 0.0015307206348687792 0 0.015290384696266441 0.001500083869830076 0 0.015367682550860441 0.0014034859902852827 0 0.015187654338747371 0.0015307206348687792 0 0.015290384696266441 0.001500083869830076 0 0.015200584716189573 0.0015445691612143429 0 0.015148501084400053 0.001530515340747315 0 0.015200584716189573 0.0015445691612143429 0 0.015063061790350251 0.0015739422136635411 0 0.015872976693917282 -0.0010170768589816905 0 0.015866485214681422 -0.00090452950345155643 0 0.016023250829641542 -0.00090095064460634419 0 0.015187654338747371 0.0015307206348687792 0 0.014925946065739311 0.0021490772131816981 0 0.015759459816836199 0.0012281648284758469 0 0.015576130268073366 0.00024373551041387425 0 0.016695847800607243 -0.00040458911639524843 0 0.015187654338747371 0.0015307206348687792 0 0.015063061790350251 0.0015739422136635411 0 0.014925946065739311 0.0021490772131816981 0 0.01728765989216061 -0.0019900427915617112 0 0.016488457483203083 -0.0012632382090502509 0 0.017301807481200179 -0.00084645051299039994 0 0.016695847800607243 -0.00040458911639524843 0 0.016550433208414272 -0.00056932377189138528 0 0.015866485214681422 -0.00090452950345155643 0 0.016023250829641542 -0.00090095064460634419 0 0.015929955099172784 -0.00082962140685059857 0 0.015843322412307622 -0.00084292028573477919 0 0.015866485214681422 -0.00090452950345155643 0 0.015929955099172784 -0.00082962140685059857 0 0.0158980319242964 -0.00073927520692572825 0 0.015843322412307622 -0.00084292028573477919 0 0.015929955099172784 -0.00082962140685059857 0 0.0158980319242964 -0.00073927520692572825 0 0.016563061242345585 -0.00052110514412869856 0 0.016072239791263175 -0.00018351898229578342 0 0.016433682624381721 -0.00055768916193873151 0 0.016550433208414272 -0.00056932377189138528 0 0.0158980319242964 -0.00073927520692572825 0 0.016488457483203083 -0.0012632382090502509 0 0.016563061242345585 -0.00052110514412869856 0 0.016563061242345585 -0.00052110514412869856 0 0.017301807481200179 -0.00084645051299039994 0 0.017275385825105894 0.00022741973773794739 0 0.016488457483203083 -0.0012632382090502509 0 0.016563061242345585 -0.00052110514412869856 0 0.017301807481200179 -0.00084645051299039994 0 0.017179416993922319 0.0010716833816154432 0 0.016565406198188883 0.001987783543118338 0 0.015677555408172124 0.0014139614941592715 0 0.017179416993922319 0.0010716833816154432 0 0.016565406198188883 0.001987783543118338 0 0.01818036329086934 0.0023747627264761833 0 0.016565406198188883 0.001987783543118338 0 0.016828839326086864 0.00298595445289705 0 0.01818036329086934 0.0023747627264761833 0 0.016565406198188883 0.001987783543118338 0 0.016828839326086864 0.00298595445289705 0 0.015532020297888237 0.0021707274670029588 0 0.02182394940023227 0.0012192814768192531 0 0.021151204994061302 0.0008630680791618156 0 0.02617538983676208 0.00021054129488958166 0 0.026261957114850409 0.00020736969745788542 0 0.026278222416824051 0.00018309403356903882 0 0.017652893620487251 0.00063280547630356219 0 0.017458246314799593 0.00066739805236534127 0 0.016565406198188883 0.001987783543118338 0 0.015532020297888237 0.0021707274670029588 0 0.015677555408172124 0.0014139614941592715 0 0.016563061242345585 -0.00052110514412869856 0 0.017275385825105894 0.00022741973773794739 0 0.016072239791263175 -0.00018351898229578342 0 0.017458246314799593 0.00066739805236534127 0 0.020672828896397911 0.00038739813073446265 0 0.015696857004422082 -0.00073274758956189861 0 0.016072239791263175 -0.00018351898229578342 0 0.015618033290555377 -0.00060104028112635435 0 0.015532020297888237 0.0021707274670029588 0 0.015677555408172124 0.0014139614941592715 0 0.014464719748238371 0.001587115295769058 0 0.021151204994061302 0.0008630680791618156 0 0.020672828896397911 0.00038739813073446265 0 0.022462074203374476 0.00019944293641775668 0 0.020672828896397911 0.00038739813073446265 0 0.015765639642435506 -0.0013887234842090458 0 0.015626805632757017 -0.00092007983792609556 0 0.015618033290555377 -0.00060104028112635435 0 0.026240897772004709 0.00011397984097540334 0 0.026284618435260299 0.00014946800304320464 0 0.026291189648459723 0.00015971415033589581 0 0.015626805632757017 -0.00092007983792609556 0 0.015696857004422082 -0.00073274758956189861 0 0.015618033290555377 -0.00060104028112635435 0 0.026291658975600127 0.00016382144939087705 0 0.026291189648459723 0.00015971415033589581 0 0.026324534099817835 0.00018103712621609687 0 0.026284618435260299 0.00014946800304320464 0 0.026291189648459723 0.00015971415033589581 0 0.026294771998903631 0.00017904880000010366 0 0.026291189648459723 0.00015971415033589581 0 0.026294771998903631 0.00017904880000010366 0 0.026324534099817835 0.00018103712621609687 0 0.026261957114850409 0.00020736969745788542 0 0.026284618435260299 0.00014946800304320464 0 0.026294771998903631 0.00017904880000010366 0 0.026261957114850409 0.00020736969745788542 0 0.026294771998903631 0.00017904880000010366 0 0.026278222416824051 0.00018309403356903882 0 0.026294771998903631 0.00017904880000010366 0 0.026278222416824051 0.00018309403356903882 0 0.026324534099817835 0.00018103712621609687 0 0.026278222416824051 0.00018309403356903882 0 0.026324534099817835 0.00018103712621609687 0 0.026312666827107312 0.00016008226418858003 0 0.026278222416824051 0.00018309403356903882 0 0.026312666827107312 0.00016008226418858003 0 0.026245527562994243 0.0001594304052239677 0 0.026291658975600127 0.00016382144939087705 0 0.026324534099817835 0.00018103712621609687 0 0.026423148281745069 0.00020203849264255837 0 0.026324534099817835 0.00018103712621609687 0 0.026423148281745069 0.00020203849264255837 0 0.026312666827107312 0.00016008226418858003 0 0.026423148281745069 0.00020203849264255837 0 0.026312666827107312 0.00016008226418858003 0 0.026299744970124161 4.3001084710626186e-05 0 0.026312666827107312 0.00016008226418858003 0 0.026223665892022657 8.8107305961236356e-05 0 0.026299744970124161 4.3001084710626186e-05 0 0.026223665892022657 8.8107305961236356e-05 0 0.026165088345053295 0.00014081549149645519 0 0.026245527562994243 0.0001594304052239677 0 0.026312666827107312 0.00016008226418858003 0 0.026223665892022657 8.8107305961236356e-05 0 0.026245527562994243 0.0001594304052239677 0 0.026223665892022657 8.8107305961236356e-05 0 0.026165088345053295 0.00014081549149645519 0 0.026111302258873155 7.3877089937607923e-05 0 0.02617538983676208 0.00021054129488958166 0 0.026165088345053295 0.00014081549149645519 0 0.026245527562994243 0.0001594304052239677 0 0.02617538983676208 0.00021054129488958166 0 0.026165088345053295 0.00014081549149645519 0 0.026075510025895442 0.00017390344886800461 0 0.02617538983676208 0.00021054129488958166 0 0.026278222416824051 0.00018309403356903882 0 0.026245527562994243 0.0001594304052239677 0 0.022728457122743729 0.001438350113255145 0 0.024039293368891278 0.0014496838344202757 0 0.019339842383048381 0.0038268758107767378 0 0.018375745328581317 0.003944152184081764 0 0.020067047001906025 0.0050060878239026477 0 0.019339842383048381 0.0038268758107767378 0 0.019927724721688678 0.0039796771784783372 0 0.020067047001906025 0.0050060878239026477 0 0.019339842383048381 0.0038268758107767378 0 0.019927724721688678 0.0039796771784783372 0 0.0198673414147531 0.0031971887632867096 0 0.019339842383048381 0.0038268758107767378 0 0.018375745328581317 0.003944152184081764 0 0.01818036329086934 0.0023747627264761833 0 0.02182394940023227 0.0012192814768192531 0 0.022728457122743729 0.001438350113255145 0 0.026165088345053295 0.00014081549149645519 0 0.026075510025895442 0.00017390344886800461 0 0.026111302258873155 7.3877089937607923e-05 0 0.026075510025895442 0.00017390344886800461 0 0.026111302258873155 7.3877089937607923e-05 0 0.026048624031266416 0.0001243948864626338 0 0.026111302258873155 7.3877089937607923e-05 0 0.026046386392864045 7.975189637256011e-05 0 0.026048624031266416 0.0001243948864626338 0 0.026075510025895442 0.00017390344886800461 0 0.026048624031266416 0.0001243948864626338 0 0.025988977370784833 0.00012427274555618654 0 0.026046386392864045 7.975189637256011e-05 0 0.026048624031266416 0.0001243948864626338 0 0.026010146462174102 9.7336843693643653e-05 0 0.026048624031266416 0.0001243948864626338 0 0.026010146462174102 9.7336843693643653e-05 0 0.025988977370784833 0.00012427274555618654 0 0.026010146462174102 9.7336843693643653e-05 0 0.025988977370784833 0.00012427274555618654 0 0.025992345473319151 0.00010908654827913724 0 0.026046386392864045 7.975189637256011e-05 0 0.026010146462174102 9.7336843693643653e-05 0 0.026013619357172051 6.5934234904893479e-05 0 0.026013619357172051 6.5934234904893479e-05 0 0.025996026567116491 7.6755617783707321e-05 0 0.025992152977948605 5.6343009215364941e-05 0 0.026010146462174102 9.7336843693643653e-05 0 0.026013619357172051 6.5934234904893479e-05 0 0.025996026567116491 7.6755617783707321e-05 0 0.020699996912026675 0.0049404639202090157 0 0.020067047001906025 0.0050060878239026477 0 0.021511837504258689 0.005295727267347488 0 0.025996026567116491 7.6755617783707321e-05 0 0.025987862168225639 9.3203199776820732e-05 0 0.025976410875022508 7.0934634853080163e-05 0 0.025996026567116491 7.6755617783707321e-05 0 0.025976410875022508 7.0934634853080163e-05 0 0.025992152977948605 5.6343009215364941e-05 0 0.024039293368891278 0.0014496838344202757 0 0.025035828463220926 0.0016781363654757408 0 0.025965056646374159 0.00010024037790437187 0 0.025988977370784833 0.00012427274555618654 0 0.025889706519151574 7.3307767205248571e-05 0 0.025965056646374159 0.00010024037790437187 0 0.025951634862516108 8.9948132953721817e-05 0 0.025889706519151574 7.3307767205248571e-05 0 0.024039293368891278 0.0014496838344202757 0 0.024824289168171493 0.0013196601516562913 0 0.020067047001906025 0.0050060878239026477 0 0.022423069427631 0.005969799650132797 0 0.021511837504258689 0.005295727267347488 0 0.026010146462174102 9.7336843693643653e-05 0 0.025987862168225639 9.3203199776820732e-05 0 0.025992345473319151 0.00010908654827913724 0 0.026010146462174102 9.7336843693643653e-05 0 0.025996026567116491 7.6755617783707321e-05 0 0.025987862168225639 9.3203199776820732e-05 0 0.025987862168225639 9.3203199776820732e-05 0 0.025992345473319151 0.00010908654827913724 0 0.025980469799440558 0.00010319661992079377 0 0.025987862168225639 9.3203199776820732e-05 0 0.02597064440949581 8.853849218588192e-05 0 0.025980469799440558 0.00010319661992079377 0 0.025987862168225639 9.3203199776820732e-05 0 0.02597064440949581 8.853849218588192e-05 0 0.025976410875022508 7.0934634853080163e-05 0 0.025965056646374159 0.00010024037790437187 0 0.02597064440949581 8.853849218588192e-05 0 0.025980469799440558 0.00010319661992079377 0 0.02597064440949581 8.853849218588192e-05 0 0.025976410875022508 7.0934634853080163e-05 0 0.02595798016410264 7.7899191616369914e-05 0 0.02595798016410264 7.7899191616369914e-05 0 0.025935939054613007 7.7309289827531374e-05 0 0.025954790397371433 6.3054693266565435e-05 0 0.025976410875022508 7.0934634853080163e-05 0 0.02595798016410264 7.7899191616369914e-05 0 0.025954790397371433 6.3054693266565435e-05 0 0.02595798016410264 7.7899191616369914e-05 0 0.025935939054613007 7.7309289827531374e-05 0 0.025951634862516108 8.9948132953721817e-05 0 0.025935939054613007 7.7309289827531374e-05 0 0.025932404268432931 6.0552053530289887e-05 0 0.025954790397371433 6.3054693266565435e-05 0 0.02597064440949581 8.853849218588192e-05 0 0.02595798016410264 7.7899191616369914e-05 0 0.025951634862516108 8.9948132953721817e-05 0 0.025965056646374159 0.00010024037790437187 0 0.02597064440949581 8.853849218588192e-05 0 0.025951634862516108 8.9948132953721817e-05 0 0.021068234821153532 0.0049814130843840983 0 0.020699996912026675 0.0049404639202090157 0 0.021511837504258689 0.005295727267347488 0 0.021262871569313842 0.0050220444500314937 0 0.021068234821153532 0.0049814130843840983 0 0.021511837504258689 0.005295727267347488 0 0.021262871569313842 0.0050220444500314937 0 0.02150185183787711 0.0048957300378586338 0 0.021135565674242386 0.0047129018727606053 0 0.021068234821153532 0.0049814130843840983 0 0.020789284589204732 0.0047395717989773154 0 0.021135565674242386 0.0047129018727606053 0 0.021262871569313842 0.0050220444500314937 0 0.021068234821153532 0.0049814130843840983 0 0.021135565674242386 0.0047129018727606053 0 0.021068234821153532 0.0049814130843840983 0 0.020699996912026675 0.0049404639202090157 0 0.020789284589204732 0.0047395717989773154 0 0.020699996912026675 0.0049404639202090157 0 0.020476056178766768 0.0048032151905029307 0 0.020789284589204732 0.0047395717989773154 0 0.020699996912026675 0.0049404639202090157 0 0.020476056178766768 0.0048032151905029307 0 0.020067047001906025 0.0050060878239026477 0 0.020476056178766768 0.0048032151905029307 0 0.020067047001906025 0.0050060878239026477 0 0.020382978692220766 0.0046301555791559519 0 0.025988977370784833 0.00012427274555618654 0 0.025992345473319151 0.00010908654827913724 0 0.025980469799440558 0.00010319661992079377 0 0.025965056646374159 0.00010024037790437187 0 0.025988977370784833 0.00012427274555618654 0 0.025980469799440558 0.00010319661992079377 0 0.025699940783331817 4.8078151412644639e-05 0 0.025889706519151574 7.3307767205248571e-05 0 0.025901656799513846 5.9551502334326357e-05 0 0.022423069427631 0.005969799650132797 0 0.022582567638997252 0.0055701849752997157 0 0.022987477702507857 0.0056181447869166025 0 0.025893020565622288 5.9364419411183703e-05 0 0.025901656799513846 5.9551502334326357e-05 0 0.025884941778494788 4.8906199544177035e-05 0 0.025893020565622288 5.9364419411183703e-05 0 0.025889706519151574 7.3307767205248571e-05 0 0.025901656799513846 5.9551502334326357e-05 0 0.022423069427631 0.005969799650132797 0 0.02209606759905821 0.0055774736157425406 0 0.022320330554167482 0.0055412801207797811 0 0.022423069427631 0.005969799650132797 0 0.022320330554167482 0.0055412801207797811 0 0.022582567638997252 0.0055701849752997157 0 0.025935939054613007 7.7309289827531374e-05 0 0.025951634862516108 8.9948132953721817e-05 0 0.025889706519151574 7.3307767205248571e-05 0 0.025935939054613007 7.7309289827531374e-05 0 0.025889706519151574 7.3307767205248571e-05 0 0.025917870307334105 6.4541888073399396e-05 0 0.025935939054613007 7.7309289827531374e-05 0 0.025932404268432931 6.0552053530289887e-05 0 0.025917870307334105 6.4541888073399396e-05 0 0.022423069427631 0.005969799650132797 0 0.021511837504258689 0.005295727267347488 0 0.02209606759905821 0.0055774736157425406 0 0.021511837504258689 0.005295727267347488 0 0.02150185183787711 0.0048957300378586338 0 0.021819516826669917 0.0050551875407681239 0 0.021262871569313842 0.0050220444500314937 0 0.021511837504258689 0.005295727267347488 0 0.02150185183787711 0.0048957300378586338 0 0.021819516826669917 0.0050551875407681239 0 0.022058180952485788 0.0052833894746327232 0 0.022198093841470281 0.0049226731421147902 0 0.021511837504258689 0.005295727267347488 0 0.021819516826669917 0.0050551875407681239 0 0.022058180952485788 0.0052833894746327232 0 0.021511837504258689 0.005295727267347488 0 0.022058180952485788 0.0052833894746327232 0 0.02209606759905821 0.0055774736157425406 0 0.022058180952485788 0.0052833894746327232 0 0.02209606759905821 0.0055774736157425406 0 0.022320330554167482 0.0055412801207797811 0 0.022320330554167482 0.0055412801207797811 0 0.022418212283216256 0.005305825725148333 0 0.022582567638997252 0.0055701849752997157 0 0.022058180952485788 0.0052833894746327232 0 0.022320330554167482 0.0055412801207797811 0 0.022418212283216256 0.005305825725148333 0 0.022058180952485788 0.0052833894746327232 0 0.022418212283216256 0.005305825725148333 0 0.022198093841470281 0.0049226731421147902 0 0.022418212283216256 0.005305825725148333 0 0.022198093841470281 0.0049226731421147902 0 0.022759265123167786 0.0048809842811824078 0 0.022418212283216256 0.005305825725148333 0 0.022790044371767907 0.0053171151975469674 0 0.022759265123167786 0.0048809842811824078 0 0.022790044371767907 0.0053171151975469674 0 0.022582567638997252 0.0055701849752997157 0 0.022987477702507857 0.0056181447869166025 0 0.022418212283216256 0.005305825725148333 0 0.022790044371767907 0.0053171151975469674 0 0.022582567638997252 0.0055701849752997157 0 0.022759265123167786 0.0048809842811824078 0 0.022353154888670981 0.0045059674890261135 0 0.022878811084436162 0.0041432144853726363 0 0.022353154888670981 0.0045059674890261135 0 0.022122458246431321 0.0039914539461083061 0 0.022878811084436162 0.0041432144853726363 0 0.022198093841470281 0.0049226731421147902 0 0.022759265123167786 0.0048809842811824078 0 0.022353154888670981 0.0045059674890261135 0 0.022198093841470281 0.0049226731421147902 0 0.022353154888670981 0.0045059674890261135 0 0.021877749540341478 0.0046225818146499349 0 0.022353154888670981 0.0045059674890261135 0 0.021877749540341478 0.0046225818146499349 0 0.022122458246431321 0.0039914539461083061 0 0.021877749540341478 0.0046225818146499349 0 0.021532527366956027 0.0040212381909526217 0 0.022122458246431321 0.0039914539461083061 0 0.02150185183787711 0.0048957300378586338 0 0.021819516826669917 0.0050551875407681239 0 0.021877749540341478 0.0046225818146499349 0 0.021819516826669917 0.0050551875407681239 0 0.022198093841470281 0.0049226731421147902 0 0.021877749540341478 0.0046225818146499349 0 0.02150185183787711 0.0048957300378586338 0 0.021877749540341478 0.0046225818146499349 0 0.021439573643340492 0.0045437909072426523 0 0.02150185183787711 0.0048957300378586338 0 0.021439573643340492 0.0045437909072426523 0 0.021135565674242386 0.0047129018727606053 0 0.021439573643340492 0.0045437909072426523 0 0.021532527366956027 0.0040212381909526217 0 0.02108242514649614 0.0043007755949014655 0 0.021877749540341478 0.0046225818146499349 0 0.021439573643340492 0.0045437909072426523 0 0.021532527366956027 0.0040212381909526217 0 0.021532527366956027 0.0040212381909526217 0 0.021219924514950448 0.0034954567849954333 0 0.021705989943789548 0.0033141891722004171 0 0.021532527366956027 0.0040212381909526217 0 0.022122458246431321 0.0039914539461083061 0 0.021705989943789548 0.0033141891722004171 0 0.022122458246431321 0.0039914539461083061 0 0.022416471280469606 0.0035413986387454366 0 0.022878811084436162 0.0041432144853726363 0 0.022122458246431321 0.0039914539461083061 0 0.022416471280469606 0.0035413986387454366 0 0.021705989943789548 0.0033141891722004171 0 0.019927724721688678 0.0039796771784783372 0 0.020067047001906025 0.0050060878239026477 0 0.020254782769805319 0.0043819704597237337 0 0.020630613167037321 0.0041756063451288267 0 0.020254782769805319 0.0043819704597237337 0 0.020559608587534004 0.0045082933290992236 0 0.020313717547986457 0.0040598494100595036 0 0.020630613167037321 0.0041756063451288267 0 0.020254782769805319 0.0043819704597237337 0 0.019927724721688678 0.0039796771784783372 0 0.020313717547986457 0.0040598494100595036 0 0.020254782769805319 0.0043819704597237337 0 0.020067047001906025 0.0050060878239026477 0 0.020254782769805319 0.0043819704597237337 0 0.020382978692220766 0.0046301555791559519 0 0.020254782769805319 0.0043819704597237337 0 0.020382978692220766 0.0046301555791559519 0 0.020559608587534004 0.0045082933290992236 0 0.020476056178766768 0.0048032151905029307 0 0.020382978692220766 0.0046301555791559519 0 0.020559608587534004 0.0045082933290992236 0 0.020476056178766768 0.0048032151905029307 0 0.020559608587534004 0.0045082933290992236 0 0.020789284589204732 0.0047395717989773154 0 0.020789284589204732 0.0047395717989773154 0 0.020829731487956644 0.004503725047480615 0 0.021135565674242386 0.0047129018727606053 0 0.020559608587534004 0.0045082933290992236 0 0.020789284589204732 0.0047395717989773154 0 0.020829731487956644 0.004503725047480615 0 0.021439573643340492 0.0045437909072426523 0 0.021135565674242386 0.0047129018727606053 0 0.02108242514649614 0.0043007755949014655 0 0.020829731487956644 0.004503725047480615 0 0.021135565674242386 0.0047129018727606053 0 0.02108242514649614 0.0043007755949014655 0 0.020630613167037321 0.0041756063451288267 0 0.020829731487956644 0.004503725047480615 0 0.02108242514649614 0.0043007755949014655 0 0.020630613167037321 0.0041756063451288267 0 0.02108242514649614 0.0043007755949014655 0 0.020935796750385285 0.0038526709336701831 0 0.020630613167037321 0.0041756063451288267 0 0.020559608587534004 0.0045082933290992236 0 0.020829731487956644 0.004503725047480615 0 0.020630613167037321 0.0041756063451288267 0 0.020935796750385285 0.0038526709336701831 0 0.020383190954457134 0.0036906581620164344 0 0.021532527366956027 0.0040212381909526217 0 0.020935796750385285 0.0038526709336701831 0 0.021219924514950448 0.0034954567849954333 0 0.021532527366956027 0.0040212381909526217 0 0.02108242514649614 0.0043007755949014655 0 0.020935796750385285 0.0038526709336701831 0 0.020935796750385285 0.0038526709336701831 0 0.021219924514950448 0.0034954567849954333 0 0.020767921304625597 0.0034303738229135021 0 0.020935796750385285 0.0038526709336701831 0 0.020767921304625597 0.0034303738229135021 0 0.020383190954457134 0.0036906581620164344 0 0.020767921304625597 0.0034303738229135021 0 0.020383190954457134 0.0036906581620164344 0 0.020440134531860818 0.0030357561060565747 0 0.019927724721688678 0.0039796771784783372 0 0.020383190954457134 0.0036906581620164344 0 0.0198673414147531 0.0031971887632867096 0 0.020313717547986457 0.0040598494100595036 0 0.020630613167037321 0.0041756063451288267 0 0.020383190954457134 0.0036906581620164344 0 0.019927724721688678 0.0039796771784783372 0 0.020313717547986457 0.0040598494100595036 0 0.020383190954457134 0.0036906581620164344 0 0.020440134531860818 0.0030357561060565747 0 0.019982583790893526 0.0023603213483936142 0 0.0198673414147531 0.0031971887632867096 0 0.020383190954457134 0.0036906581620164344 0 0.020440134531860818 0.0030357561060565747 0 0.0198673414147531 0.0031971887632867096 0 0.020767921304625597 0.0034303738229135021 0 0.020440134531860818 0.0030357561060565747 0 0.021047474819476157 0.0029671263281709093 0 0.021219924514950448 0.0034954567849954333 0 0.020767921304625597 0.0034303738229135021 0 0.021047474819476157 0.0029671263281709093 0 0.020440134531860818 0.0030357561060565747 0 0.021047474819476157 0.0029671263281709093 0 0.02071211569686178 0.002353360694955529 0 0.021047474819476157 0.0029671263281709093 0 0.02071211569686178 0.002353360694955529 0 0.02143255668602596 0.0025497454362468225 0 0.02071211569686178 0.002353360694955529 0 0.02143255668602596 0.0025497454362468225 0 0.021083756382354803 0.0016758742823733391 0 0.020440134531860818 0.0030357561060565747 0 0.02071211569686178 0.002353360694955529 0 0.019982583790893526 0.0023603213483936142 0 0.02071211569686178 0.002353360694955529 0 0.019982583790893526 0.0023603213483936142 0 0.020290469719203223 0.0017421341901771867 0 0.022416471280469606 0.0035413986387454366 0 0.022179262128794071 0.0028666633379057409 0 0.023220574758170496 0.0033186989824598935 0 0.022416471280469606 0.0035413986387454366 0 0.022179262128794071 0.0028666633379057409 0 0.021705989943789548 0.0033141891722004171 0 0.021047474819476157 0.0029671263281709093 0 0.021705989943789548 0.0033141891722004171 0 0.02143255668602596 0.0025497454362468225 0 0.022179262128794071 0.0028666633379057409 0 0.021705989943789548 0.0033141891722004171 0 0.02143255668602596 0.0025497454362468225 0 0.021219924514950448 0.0034954567849954333 0 0.021047474819476157 0.0029671263281709093 0 0.021705989943789548 0.0033141891722004171 0 0.022179262128794071 0.0028666633379057409 0 0.02143255668602596 0.0025497454362468225 0 0.021906595023721141 0.0021466809712850331 0 0.02143255668602596 0.0025497454362468225 0 0.021906595023721141 0.0021466809712850331 0 0.021083756382354803 0.0016758742823733391 0 0.022179262128794071 0.0028666633379057409 0 0.021906595023721141 0.0021466809712850331 0 0.022843348780654579 0.0020660784121945283 0 0.021882853757161359 0.0014186393901456347 0 0.022467980420017152 0.00079751395634421413 0 0.022843348780654579 0.0020660784121945283 0 0.021906595023721141 0.0021466809712850331 0 0.021882853757161359 0.0014186393901456347 0 0.022843348780654579 0.0020660784121945283 0 0.021882853757161359 0.0014186393901456347 0 0.021158079165822054 0.00079722563368866527 0 0.021083756382354803 0.0016758742823733391 0 0.021906595023721141 0.0021466809712850331 0 0.021882853757161359 0.0014186393901456347 0 0.021083756382354803 0.0016758742823733391 0 0.021882853757161359 0.0014186393901456347 0 0.021158079165822054 0.00079722563368866527 0 0.022467980420017152 0.00079751395634421413 0 0.020290469719203223 0.0017421341901771867 0 0.021083756382354803 0.0016758742823733391 0 0.020368292325653271 0.00099552644729424878 0 0.020290469719203223 0.0017421341901771867 0 0.020368292325653271 0.00099552644729424878 0 0.019598134302897575 0.0014855130097758869 0 0.02071211569686178 0.002353360694955529 0 0.020290469719203223 0.0017421341901771867 0 0.021083756382354803 0.0016758742823733391 0 0.021158079165822054 0.00079722563368866527 0 0.020368292325653271 0.00099552644729424878 0 0.020207756196538453 6.2874470197400595e-05 0 0.021158079165822054 0.00079722563368866527 0 0.021083756382354803 0.0016758742823733391 0 0.020368292325653271 0.00099552644729424878 0 0.020368292325653271 0.00099552644729424878 0 0.019786214018118534 0.00057111735881677881 0 0.019598134302897575 0.0014855130097758869 0 0.019786214018118534 0.00057111735881677881 0 0.019050721819587415 0.00057372113251887881 0 0.019598134302897575 0.0014855130097758869 0 0.019598134302897575 0.0014855130097758869 0 0.019280597454179885 0.0024543320063820581 0 0.018639021577746238 0.0015831608995862561 0 0.019050721819587415 0.00057372113251887881 0 0.019598134302897575 0.0014855130097758869 0 0.018639021577746238 0.0015831608995862561 0 0.019982583790893526 0.0023603213483936142 0 0.020290469719203223 0.0017421341901771867 0 0.019598134302897575 0.0014855130097758869 0 0.019339842383048381 0.0038268758107767378 0 0.019280597454179885 0.0024543320063820581 0 0.01818036329086934 0.0023747627264761833 0 0.019982583790893526 0.0023603213483936142 0 0.019598134302897575 0.0014855130097758869 0 0.019280597454179885 0.0024543320063820581 0 0.019339842383048381 0.0038268758107767378 0 0.019280597454179885 0.0024543320063820581 0 0.0198673414147531 0.0031971887632867096 0 0.019982583790893526 0.0023603213483936142 0 0.019280597454179885 0.0024543320063820581 0 0.0198673414147531 0.0031971887632867096 0 0.016828839326086864 0.00298595445289705 0 0.018375745328581317 0.003944152184081764 0 0.01818036329086934 0.0023747627264761833 0 0.019280597454179885 0.0024543320063820581 0 0.01818036329086934 0.0023747627264761833 0 0.018639021577746238 0.0015831608995862561 0 0.017179416993922319 0.0010716833816154432 0 0.01818036329086934 0.0023747627264761833 0 0.018639021577746238 0.0015831608995862561 0 0.017179416993922319 0.0010716833816154432 0 0.019050721819587415 0.00057372113251887881 0 0.018639021577746238 0.0015831608995862561 0 0.017652893620487251 0.00063280547630356219 0 0.018217169975995401 0.00057309052557912477 0 0.017275385825105894 0.00022741973773794739 0 0.019050721819587415 0.00057372113251887881 0 0.018233658582158127 -0.00027032697138618659 0 0.017301807481200179 -0.00084645051299039994 0 0.017275385825105894 0.00022741973773794739 0 0.018233658582158127 -0.00027032697138618659 0 0.018233658582158127 -0.00027032697138618659 0 0.019533886254611769 -0.00025669181506598484 0 0.018255321594464323 -0.0012873281797734404 0 0.017301807481200179 -0.00084645051299039994 0 0.018233658582158127 -0.00027032697138618659 0 0.018255321594464323 -0.0012873281797734404 0 0.019786214018118534 0.00057111735881677881 0 0.019533886254611769 -0.00025669181506598484 0 0.020207756196538453 6.2874470197400595e-05 0 0.019786214018118534 0.00057111735881677881 0 0.019050721819587415 0.00057372113251887881 0 0.019533886254611769 -0.00025669181506598484 0 0.019050721819587415 0.00057372113251887881 0 0.018233658582158127 -0.00027032697138618659 0 0.019533886254611769 -0.00025669181506598484 0 0.018207979081315346 -4.7991315699360841e-05 0 0.017768792427635124 -0.00020817523397899387 0 0.019533886254611769 -0.00025669181506598484 0 0.019963923056965441 -0.00056726698292041235 0 0.019719436992600828 -0.00086255621710850554 0 0.019533886254611769 -0.00025669181506598484 0 0.019963923056965441 -0.00056726698292041235 0 0.020207756196538453 6.2874470197400595e-05 0 0.019963923056965441 -0.00056726698292041235 0 0.019719436992600828 -0.00086255621710850554 0 0.02013586370777222 -0.00091236714117420056 0 0.019533886254611769 -0.00025669181506598484 0 0.019719436992600828 -0.00086255621710850554 0 0.019344658899652069 -0.00080535089487076411 0 0.019719436992600828 -0.00086255621710850554 0 0.019344658899652069 -0.00080535089487076411 0 0.019648490960679853 -0.0011982863074297592 0 0.019719436992600828 -0.00086255621710850554 0 0.019648490960679853 -0.0011982863074297592 0 0.02010588413888963 -0.0012403606089561284 0 0.019719436992600828 -0.00086255621710850554 0 0.02010588413888963 -0.0012403606089561284 0 0.02013586370777222 -0.00091236714117420056 0 0.01896895221594885 -0.0011614204880582043 0 0.019344658899652069 -0.00080535089487076411 0 0.019648490960679853 -0.0011982863074297592 0 0.01728765989216061 -0.0019900427915617112 0 0.017301807481200179 -0.00084645051299039994 0 0.018255321594464323 -0.0012873281797734404 0 0.016695847800607243 -0.00040458911639524843 0 0.017768792427635124 -0.00020817523397899387 0 0.01896895221594885 -0.0011614204880582043 0 0.019648490960679853 -0.0011982863074297592 0 0.019799260507225885 -0.0016073001630913556 0 0.016695847800607243 -0.00040458911639524843 0 0.017937535441066237 -0.00068455369863813765 0 0.014925946065739311 0.0021490772131816981 0 0.016688933541773598 0.0010573207775324801 0 0.015759459816836199 0.0012281648284758469 0 0.019648490960679853 -0.0011982863074297592 0 0.019965143011410877 -0.0014516950151445451 0 0.019799260507225885 -0.0016073001630913556 0 0.019648490960679853 -0.0011982863074297592 0 0.019965143011410877 -0.0014516950151445451 0 0.02010588413888963 -0.0012403606089561284 0 0.018737255497219087 -0.0011087949779054944 0 0.017937535441066237 -0.00068455369863813765 0 0.019965143011410877 -0.0014516950151445451 0 0.019799260507225885 -0.0016073001630913556 0 0.020095492688652898 -0.0015065241867560752 0 0.018133973845781731 -0.0016311986477156053 0 0.016688933541773598 0.0010573207775324801 0 0.015759459816836199 0.0012281648284758469 0 0.016008435465665081 0.00077611205692004986 0 0.015766316454577919 0.0011469441933890877 0 0.015001435749607512 0.0016259704218982984 0 0.014475368155092795 0.0018852290395110465 0 0.015759459816836199 0.0012281648284758469 0 0.015001435749607512 0.0016259704218982984 0 0.015367682550860441 0.0014034859902852827 0 0.015759459816836199 0.0012281648284758469 0 0.015001435749607512 0.0016259704218982984 0 0.015290384696266441 0.001500083869830076 0 0.015367682550860441 0.0014034859902852827 0 0.015187654338747371 0.0015307206348687792 0 0.015367682550860441 0.0014034859902852827 0 0.015759459816836199 0.0012281648284758469 0 0.020243569043658319 -0.0015166085671990161 0 0.020241698453361118 -0.001476089874654333 0 0.020644678452242531 -0.0014339681926278124 0 0.020241698453361118 -0.001476089874654333 0 0.020095492688652898 -0.0015065241867560752 0 0.020526341371965521 -0.0014914933152786901 0 0.020241698453361118 -0.001476089874654333 0 0.020526341371965521 -0.0014914933152786901 0 0.020644678452242531 -0.0014339681926278124 0 0.019858869383026802 -0.0013315130806861347 0 0.020241698453361118 -0.001476089874654333 0 0.020095492688652898 -0.0015065241867560752 0 0.019858869383026802 -0.0013315130806861347 0 0.019799260507225885 -0.0016073001630913556 0 0.020095492688652898 -0.0015065241867560752 0 0.020095492688652898 -0.0015065241867560752 0 0.02016585758151385 -0.0014493934937480782 0 0.020496446716144302 -0.0014984860964404496 0 0.020095492688652898 -0.0015065241867560752 0 0.020496446716144302 -0.0014984860964404496 0 0.020526341371965521 -0.0014914933152786901 0 0.019965143011410877 -0.0014516950151445451 0 0.020095492688652898 -0.0015065241867560752 0 0.02016585758151385 -0.0014493934937480782 0 0.019965143011410877 -0.0014516950151445451 0 0.02016585758151385 -0.0014493934937480782 0 0.02010588413888963 -0.0012403606089561284 0 0.02016585758151385 -0.0014493934937480782 0 0.02010588413888963 -0.0012403606089561284 0 0.020496446716144302 -0.0014984860964404496 0 0.02010588413888963 -0.0012403606089561284 0 0.020496446716144302 -0.0014984860964404496 0 0.020535302265032928 -0.0011807620064439215 0 0.020496446716144302 -0.0014984860964404496 0 0.020526341371965521 -0.0014914933152786901 0 0.021199594373965704 -0.0017147857030147277 0 0.020496446716144302 -0.0014984860964404496 0 0.021199594373965704 -0.0017147857030147277 0 0.020535302265032928 -0.0011807620064439215 0 0.020526341371965521 -0.0014914933152786901 0 0.021199594373965704 -0.0017147857030147277 0 0.020644678452242531 -0.0014339681926278124 0 0.021199594373965704 -0.0017147857030147277 0 0.021029316352228909 -0.00087888293991696196 0 0.022552609272383548 -0.0005937422047242925 0 0.021199594373965704 -0.0017147857030147277 0 0.021029316352228909 -0.00087888293991696196 0 0.020535302265032928 -0.0011807620064439215 0 0.02010588413888963 -0.0012403606089561284 0 0.020535302265032928 -0.0011807620064439215 0 0.02013586370777222 -0.00091236714117420056 0 0.021029316352228909 -0.00087888293991696196 0 0.020535302265032928 -0.0011807620064439215 0 0.020438807459329918 -0.00062712483105001153 0 0.019963923056965441 -0.00056726698292041235 0 0.020438807459329918 -0.00062712483105001153 0 0.02013586370777222 -0.00091236714117420056 0 0.020535302265032928 -0.0011807620064439215 0 0.020438807459329918 -0.00062712483105001153 0 0.02013586370777222 -0.00091236714117420056 0 0.019963923056965441 -0.00056726698292041235 0 0.020438807459329918 -0.00062712483105001153 0 0.020207756196538453 6.2874470197400595e-05 0 0.020438807459329918 -0.00062712483105001153 0 0.020207756196538453 6.2874470197400595e-05 0 0.021188558323566111 -1.7992773041374332e-05 0 0.021029316352228909 -0.00087888293991696196 0 0.020438807459329918 -0.00062712483105001153 0 0.021188558323566111 -1.7992773041374332e-05 0 0.021158079165822054 0.00079722563368866527 0 0.020207756196538453 6.2874470197400595e-05 0 0.021188558323566111 -1.7992773041374332e-05 0 0.020368292325653271 0.00099552644729424878 0 0.019786214018118534 0.00057111735881677881 0 0.020207756196538453 6.2874470197400595e-05 0 0.021188558323566111 -1.7992773041374332e-05 0 0.022552609272383548 -0.0005937422047242925 0 0.022467980420017152 0.00079751395634421413 0 0.021029316352228909 -0.00087888293991696196 0 0.021188558323566111 -1.7992773041374332e-05 0 0.022552609272383548 -0.0005937422047242925 0 0.021158079165822054 0.00079722563368866527 0 0.021188558323566111 -1.7992773041374332e-05 0 0.022467980420017152 0.00079751395634421413 0 0.023582977409525332 0.00029956804472647047 0 0.022552609272383548 -0.0005937422047242925 0 0.022467980420017152 0.00079751395634421413 0 0.023582977409525332 0.00029956804472647047 0 0.025137302928264018 -0.00042905189173117486 0 0.022552609272383548 -0.0005937422047242925 0 0.023582977409525332 0.00029956804472647047 0 0.025137302928264018 -0.00042905189173117486 0 0.024258798915623669 0.0013790743891323369 0 0.025137302928264018 -0.00042905189173117486 0 0.022552609272383548 -0.0005937422047242925 0 0.024236789636702928 -0.0028435621644535398 0 0.026619338206833848 -0.00054662647249580098 0 0.02632319980217852 -0.0022581362256603467 0 0.027640893083564707 -0.0015752433538176801 0 0.024642266736031537 5.2319785553398892e-05 0 0.023116808710718535 -0.00093710481409455698 0 0.021199594373965704 -0.0017147857030147277 0 0.022552609272383548 -0.0005937422047242925 0 0.024236789636702928 -0.0028435621644535398 0 0.021199594373965704 -0.0017147857030147277 0 0.020644678452242531 -0.0014339681926278124 0 0.01997210703322351 -0.0016407759466224203 0 0.02221254403393005 -0.0010202415927028827 0 0.023116808710718535 -0.00093710481409455698 0 0.023116808710718535 -0.00093710481409455698 0 0.020822617920873834 -0.0011571779763289861 0 0.022506859268215579 -0.00023632807199071263 0 0.022498512949058608 -0.00022152824507992849 0 0.022503554385334627 -0.00021792903645517103 0 0.020644678452242531 -0.0014339681926278124 0 0.01997210703322351 -0.0016407759466224203 0 0.0201800853605766 -0.0008500832707149232 0 0.020731190080626884 -0.0011424957186836357 0 0.020822617920873834 -0.0011571779763289861 0 0.020243569043658319 -0.0015166085671990161 0 0.020644678452242531 -0.0014339681926278124 0 0.020304922855101187 -0.0015071646017539835 0 0.02248913684946461 -0.00021138417059533886 0 0.022495855260571629 -0.00022376127443382807 0 0.022490269199943617 -0.00020753686531693478 0 0.024874077541360569 -0.00061822368140710988 0 0.025568481721300062 0.00024855502450928964 0 0.022498512949058608 -0.00022152824507992849 0 0.02248913684946461 -0.00021138417059533886 0 0.022495855260571629 -0.00022376127443382807 0 0.02632319980217852 -0.0022581362256603467 0 0.027853332028470092 -0.0026336321255388036 0 0.027640893083564707 -0.0015752433538176801 0 0.022506859268215579 -0.00023632807199071263 0 0.022498512949058608 -0.00022152824507992849 0 0.022495855260571629 -0.00022376127443382807 0 0.023116808710718535 -0.00093710481409455698 0 0.024874077541360569 -0.00061822368140710988 0 0.027853332028470092 -0.0026336321255388036 0 0.028912303064720729 -0.0016684604506155788 0 0.029293992103989773 -0.0029365381558501295 0 0.027853332028470092 -0.0026336321255388036 0 0.028912303064720729 -0.0016684604506155788 0 0.027640893083564707 -0.0015752433538176801 0 0.028912303064720729 -0.0016684604506155788 0 0.027640893083564707 -0.0015752433538176801 0 0.028489202216775009 -0.00061226142485504753 0 0.028912303064720729 -0.0016684604506155788 0 0.028489202216775009 -0.00061226142485504753 0 0.029645683557223589 -0.00019492024515197978 0 0.026619338206833848 -0.00054662647249580098 0 0.027640893083564707 -0.0015752433538176801 0 0.028489202216775009 -0.00061226142485504753 0 0.026619338206833848 -0.00054662647249580098 0 0.028489202216775009 -0.00061226142485504753 0 0.029042696209841703 0.0007796647520857832 0 0.028489202216775009 -0.00061226142485504753 0 0.029042696209841703 0.0007796647520857832 0 0.029645683557223589 -0.00019492024515197978 0 0.029042696209841703 0.0007796647520857832 0 0.029893409309286835 0.00070463570052834335 0 0.029741322601640807 0.00053838093734574267 0 0.029042696209841703 0.0007796647520857832 0 0.029972857327845579 0.00066078235313565836 0 0.03047698466088114 0.00059678437407262297 0 0.029110655667479585 0.0011270056133105336 0 0.028954617232754037 0.0015390928991489956 0 0.029042696209841703 0.0007796647520857832 0 0.029972857327845579 0.00066078235313565836 0 0.029893409309286835 0.00070463570052834335 0 0.029972857327845579 0.00066078235313565836 0 0.03047698466088114 0.00059678437407262297 0 0.030342760229889298 0.00045569470682720075 0 0.029972857327845579 0.00066078235313565836 0 0.030178484366307889 0.00052860309105987296 0 0.029893409309286835 0.00070463570052834335 0 0.029972857327845579 0.00066078235313565836 0 0.030178484366307889 0.00052860309105987296 0 0.030342760229889298 0.00045569470682720075 0 0.029042696209841703 0.0007796647520857832 0 0.027658394138015529 0.0032693769758811967 0 0.026617203014655186 0.0018215688362731789 0 0.027658394138015529 0.0032693769758811967 0 0.026617203014655186 0.0018215688362731789 0 0.02595209960871446 0.003310909808730121 0 0.024642266736031537 5.2319785553398892e-05 0 0.025269798532707805 0.0010748104278796178 0 0.026619338206833848 -0.00054662647249580098 0 0.029042696209841703 0.0007796647520857832 0 0.026617203014655186 0.0018215688362731789 0 0.026617203014655186 0.0018215688362731789 0 0.024258798915623669 0.0013790743891323369 0 0.025158963231143177 0.0024760654810874589 0 0.025137302928264018 -0.00042905189173117486 0 0.026617203014655186 0.0018215688362731789 0 0.024258798915623669 0.0013790743891323369 0 0.024258798915623669 0.0013790743891323369 0 0.022467980420017152 0.00079751395634421413 0 0.022843348780654579 0.0020660784121945283 0 0.023582977409525332 0.00029956804472647047 0 0.024258798915623669 0.0013790743891323369 0 0.022467980420017152 0.00079751395634421413 0 0.022843348780654579 0.0020660784121945283 0 0.024149123560525208 0.00267273562947183 0 0.023220574758170496 0.0033186989824598935 0 0.024258798915623669 0.0013790743891323369 0 0.022843348780654579 0.0020660784121945283 0 0.024149123560525208 0.00267273562947183 0 0.024149123560525208 0.00267273562947183 0 0.024023389647106548 0.0034459226731891881 0 0.023220574758170496 0.0033186989824598935 0 0.022179262128794071 0.0028666633379057409 0 0.022843348780654579 0.0020660784121945283 0 0.023220574758170496 0.0033186989824598935 0 0.026617203014655186 0.0018215688362731789 0 0.025158963231143177 0.0024760654810874589 0 0.02595209960871446 0.003310909808730121 0 0.024258798915623669 0.0013790743891323369 0 0.024149123560525208 0.00267273562947183 0 0.025158963231143177 0.0024760654810874589 0 0.024149123560525208 0.00267273562947183 0 0.025158963231143177 0.0024760654810874589 0 0.024754453246367325 0.0036205162939834628 0 0.024149123560525208 0.00267273562947183 0 0.024023389647106548 0.0034459226731891881 0 0.024754453246367325 0.0036205162939834628 0 0.025158963231143177 0.0024760654810874589 0 0.02595209960871446 0.003310909808730121 0 0.024754453246367325 0.0036205162939834628 0 0.02595209960871446 0.003310909808730121 0 0.025358261100320658 0.0041995194912353654 0 0.024754453246367325 0.0036205162939834628 0 0.02595209960871446 0.003310909808730121 0 0.025358261100320658 0.0041995194912353654 0 0.026166198980706181 0.0044491413670305581 0 0.024754453246367325 0.0036205162939834628 0 0.024645430653442144 0.0044878047007172947 0 0.023845646997290259 0.0040958367696733835 0 0.025358261100320658 0.0041995194912353654 0 0.024754453246367325 0.0036205162939834628 0 0.024645430653442144 0.0044878047007172947 0 0.025358261100320658 0.0041995194912353654 0 0.024645430653442144 0.0044878047007172947 0 0.025249511257414974 0.0048828088843834482 0 0.024645430653442144 0.0044878047007172947 0 0.024021243607291805 0.0049123214761051153 0 0.024635429061093315 0.0051943654610774916 0 0.024645430653442144 0.0044878047007172947 0 0.025249511257414974 0.0048828088843834482 0 0.024635429061093315 0.0051943654610774916 0 0.025358261100320658 0.0041995194912353654 0 0.025249511257414974 0.0048828088843834482 0 0.026166198980706181 0.0044491413670305581 0 0.025249511257414974 0.0048828088843834482 0 0.025716564258593092 0.0052840454538576973 0 0.026166198980706181 0.0044491413670305581 0 0.022416471280469606 0.0035413986387454366 0 0.023220574758170496 0.0033186989824598935 0 0.022878811084436162 0.0041432144853726363 0 0.023220574758170496 0.0033186989824598935 0 0.022878811084436162 0.0041432144853726363 0 0.023845646997290259 0.0040958367696733835 0 0.024023389647106548 0.0034459226731891881 0 0.024754453246367325 0.0036205162939834628 0 0.023845646997290259 0.0040958367696733835 0 0.024023389647106548 0.0034459226731891881 0 0.023220574758170496 0.0033186989824598935 0 0.023845646997290259 0.0040958367696733835 0 0.023845646997290259 0.0040958367696733835 0 0.024021243607291805 0.0049123214761051153 0 0.02339252440455284 0.0047737734975753822 0 0.024645430653442144 0.0044878047007172947 0 0.023845646997290259 0.0040958367696733835 0 0.024021243607291805 0.0049123214761051153 0 0.022878811084436162 0.0041432144853726363 0 0.023845646997290259 0.0040958367696733835 0 0.02339252440455284 0.0047737734975753822 0 0.022759265123167786 0.0048809842811824078 0 0.022878811084436162 0.0041432144853726363 0 0.02339252440455284 0.0047737734975753822 0 0.025035828463220926 0.0016781363654757408 0 0.027840641390857623 0.001426915555732898 0 0.022423069427631 0.005969799650132797 0 0.024062861413536515 0.0061310974344816029 0 0.023478567691741538 0.0058515532139711106 0 0.025901656799513846 5.9551502334326357e-05 0 0.025825871745302223 5.7044072178443735e-05 0 0.025884941778494788 4.8906199544177035e-05 0 0.022423069427631 0.005969799650132797 0 0.024062861413536515 0.0061310974344816029 0 0.02500275818052285 0.006805994836888327 0 0.022987477702507857 0.0056181447869166025 0 0.023169334461843126 0.0052419023341848245 0 0.02342246234540625 0.0055579021943464703 0 0.022790044371767907 0.0053171151975469674 0 0.022987477702507857 0.0056181447869166025 0 0.023169334461843126 0.0052419023341848245 0 0.022790044371767907 0.0053171151975469674 0 0.022759265123167786 0.0048809842811824078 0 0.023169334461843126 0.0052419023341848245 0 0.022759265123167786 0.0048809842811824078 0 0.02339252440455284 0.0047737734975753822 0 0.023169334461843126 0.0052419023341848245 0 0.02339252440455284 0.0047737734975753822 0 0.023169334461843126 0.0052419023341848245 0 0.023665215958692951 0.0053093919698063308 0 0.022987477702507857 0.0056181447869166025 0 0.02342246234540625 0.0055579021943464703 0 0.023478567691741538 0.0058515532139711106 0 0.023169334461843126 0.0052419023341848245 0 0.02342246234540625 0.0055579021943464703 0 0.023665215958692951 0.0053093919698063308 0 0.02342246234540625 0.0055579021943464703 0 0.023721052657293327 0.0056358241245777181 0 0.023478567691741538 0.0058515532139711106 0 0.023721052657293327 0.0056358241245777181 0 0.023665215958692951 0.0053093919698063308 0 0.024100256352039311 0.0056081463179390818 0 0.023721052657293327 0.0056358241245777181 0 0.024100256352039311 0.0056081463179390818 0 0.023939627146071778 0.0058527272318131887 0 0.02342246234540625 0.0055579021943464703 0 0.023721052657293327 0.0056358241245777181 0 0.023665215958692951 0.0053093919698063308 0 0.024021243607291805 0.0049123214761051153 0 0.02339252440455284 0.0047737734975753822 0 0.023665215958692951 0.0053093919698063308 0 0.024021243607291805 0.0049123214761051153 0 0.023665215958692951 0.0053093919698063308 0 0.024100256352039311 0.0056081463179390818 0 0.024021243607291805 0.0049123214761051153 0 0.024100256352039311 0.0056081463179390818 0 0.024635429061093315 0.0051943654610774916 0 0.024256860681007041 0.0059119259026906108 0 0.024062861413536515 0.0061310974344816029 0 0.024500741838751599 0.0060587033692905906 0 0.024100256352039311 0.0056081463179390818 0 0.024256860681007041 0.0059119259026906108 0 0.024663322640909997 0.0057979859291511964 0 0.024100256352039311 0.0056081463179390818 0 0.024256860681007041 0.0059119259026906108 0 0.023939627146071778 0.0058527272318131887 0 0.024256860681007041 0.0059119259026906108 0 0.024062861413536515 0.0061310974344816029 0 0.023939627146071778 0.0058527272318131887 0 0.024062861413536515 0.0061310974344816029 0 0.023939627146071778 0.0058527272318131887 0 0.023478567691741538 0.0058515532139711106 0 0.023721052657293327 0.0056358241245777181 0 0.023939627146071778 0.0058527272318131887 0 0.023478567691741538 0.0058515532139711106 0 0.022423069427631 0.005969799650132797 0 0.022987477702507857 0.0056181447869166025 0 0.023478567691741538 0.0058515532139711106 0 0.025646536646055689 0.0058948618228412053 0 0.026416176098708062 0.0052175989369038882 0 0.02569100648882244 0.0069792591485229117 0 0.025716564258593092 0.0052840454538576973 0 0.025646536646055689 0.0058948618228412053 0 0.026416176098708062 0.0052175989369038882 0 0.025134971229117099 0.0055133708994244716 0 0.025089293011948351 0.0059778460155242383 0 0.025646536646055689 0.0058948618228412053 0 0.025716564258593092 0.0052840454538576973 0 0.025134971229117099 0.0055133708994244716 0 0.025646536646055689 0.0058948618228412053 0 0.025249511257414974 0.0048828088843834482 0 0.025716564258593092 0.0052840454538576973 0 0.025134971229117099 0.0055133708994244716 0 0.025249511257414974 0.0048828088843834482 0 0.024635429061093315 0.0051943654610774916 0 0.025134971229117099 0.0055133708994244716 0 0.024100256352039311 0.0056081463179390818 0 0.024635429061093315 0.0051943654610774916 0 0.024663322640909997 0.0057979859291511964 0 0.024635429061093315 0.0051943654610774916 0 0.025134971229117099 0.0055133708994244716 0 0.024663322640909997 0.0057979859291511964 0 0.025134971229117099 0.0055133708994244716 0 0.025089293011948351 0.0059778460155242383 0 0.024663322640909997 0.0057979859291511964 0 0.025089293011948351 0.0059778460155242383 0 0.024797745592959927 0.0060794502102837272 0 0.024663322640909997 0.0057979859291511964 0 0.024062861413536515 0.0061310974344816029 0 0.024736658162055621 0.0063487543043199215 0 0.02500275818052285 0.006805994836888327 0 0.025089293011948351 0.0059778460155242383 0 0.024797745592959927 0.0060794502102837272 0 0.025021746834277252 0.0062876274872314024 0 0.024256860681007041 0.0059119259026906108 0 0.024663322640909997 0.0057979859291511964 0 0.024500741838751599 0.0060587033692905906 0 0.024797745592959927 0.0060794502102837272 0 0.024663322640909997 0.0057979859291511964 0 0.024500741838751599 0.0060587033692905906 0 0.024062861413536515 0.0061310974344816029 0 0.024500741838751599 0.0060587033692905906 0 0.024736658162055621 0.0063487543043199215 0 0.024797745592959927 0.0060794502102837272 0 0.024500741838751599 0.0060587033692905906 0 0.024736658162055621 0.0063487543043199215 0 0.025089293011948351 0.0059778460155242383 0 0.025021746834277252 0.0062876274872314024 0 0.025289726321476937 0.0063833936995145741 0 0.024736658162055621 0.0063487543043199215 0 0.025021746834277252 0.0062876274872314024 0 0.02500275818052285 0.006805994836888327 0 0.025021746834277252 0.0062876274872314024 0 0.025289726321476937 0.0063833936995145741 0 0.02500275818052285 0.006805994836888327 0 0.024797745592959927 0.0060794502102837272 0 0.024736658162055621 0.0063487543043199215 0 0.025021746834277252 0.0062876274872314024 0 0.025289726321476937 0.0063833936995145741 0 0.025646536646055689 0.0058948618228412053 0 0.02569100648882244 0.0069792591485229117 0 0.025089293011948351 0.0059778460155242383 0 0.025289726321476937 0.0063833936995145741 0 0.025646536646055689 0.0058948618228412053 0 0.028720406617299996 0.0019328560862016822 0 0.028333039253344409 0.0015479703494382185 0 0.030990966915313577 0.0001121269746148235 0 0.031056401908031016 3.2043429780681893e-05 0 0.030662980224506569 0.00024781838359889469 0 0.028720406617299996 0.0019328560862016822 0 0.029857715332900499 0.0012320935380654412 0 0.030990966915313577 0.0001121269746148235 0 0.031056401908031016 3.2043429780681893e-05 0 0.031207076519036668 -4.1577154115442595e-05 0 0.030662980224506569 0.00024781838359889469 0 0.03085180152603666 -0.00023406149544341788 0 0.030685281290200688 -6.899971275219046e-05 0 0.031056401908031016 3.2043429780681893e-05 0 0.030662980224506569 0.00024781838359889469 0 0.031376596388997931 -9.7655696467402507e-05 0 0.030662980224506569 0.00024781838359889469 0 0.030685281290200688 -6.899971275219046e-05 0 0.030534759012524362 0.00012381243822891041 0 0.031282210914142433 6.5913038936220486e-06 0 0.03142299692328742 -0.0001380468821639757 0 0.030662980224506569 0.00024781838359889469 0 0.030400264918813338 0.0003383137528866485 0 0.030534759012524362 0.00012381243822891041 0 0.030178484366307889 0.00052860309105987296 0 0.030400264918813338 0.0003383137528866485 0 0.030342760229889298 0.00045569470682720075 0 0.03047698466088114 0.00059678437407262297 0 0.030662980224506569 0.00024781838359889469 0 0.030342760229889298 0.00045569470682720075 0 0.030662980224506569 0.00024781838359889469 0 0.030400264918813338 0.0003383137528866485 0 0.030342760229889298 0.00045569470682720075 0 0.028954617232754037 0.0015390928991489956 0 0.028720406617299996 0.0019328560862016822 0 0.03047698466088114 0.00059678437407262297 0 0.030990966915313577 0.0001121269746148235 0 0.030662980224506569 0.00024781838359889469 0 0.027658394138015529 0.0032693769758811967 0 0.02652495692346335 0.0054039998154727063 0 0.026166198980706181 0.0044491413670305581 0 0.027658394138015529 0.0032693769758811967 0 0.02595209960871446 0.003310909808730121 0 0.026166198980706181 0.0044491413670305581 0 0.025716564258593092 0.0052840454538576973 0 0.026416176098708062 0.0052175989369038882 0 0.026166198980706181 0.0044491413670305581 0 0.028720406617299996 0.0019328560862016822 0 0.028692036960514866 0.0021921256098323162 0 0.030028506749967276 0.0011413442567816119 0 0.029990568051274334 0.001222549467746827 0 0.029950541202414947 0.0010943470108203336 0 0.030028506749967276 0.0011413442567816119 0 0.030003661666419369 0.0010852087328761366 0 0.029950541202414947 0.0010943470108203336 0 0.030028506749967276 0.0011413442567816119 0 0.029990568051274334 0.001222549467746827 0 0.030035674818647433 0.0011910958779947111 0 0.030028506749967276 0.0011413442567816119 0 0.030035674818647433 0.0011910958779947111 0 0.030069907623981987 0.001168401884430669 0 0.030028506749967276 0.0011413442567816119 0 0.030078468516901422 0.0011197201021383297 0 0.030059848316718801 0.001084216788469052 0 0.030028506749967276 0.0011413442567816119 0 0.030003661666419369 0.0010852087328761366 0 0.030059848316718801 0.001084216788469052 0 0.030028506749967276 0.0011413442567816119 0 0.030069907623981987 0.001168401884430669 0 0.030078468516901422 0.0011197201021383297 0 0.031530919123627231 -0.00012052470275058892 0 0.031376596388997931 -9.7655696467402507e-05 0 0.032083394581027755 -0.00023366757946978862 0 0.029857715332900499 0.0012320935380654412 0 0.031457676056917613 0.00080088957920953574 0 0.031530919123627231 -0.00012052470275058892 0 0.031877457728474702 -0.00020993873703166314 0 0.032083394581027755 -0.00023366757946978862 0 0.031530919123627231 -0.00012052470275058892 0 0.031559996036701822 -0.00010072683670114631 0 0.031877457728474702 -0.00020993873703166314 0 0.03142299692328742 -0.0001380468821639757 0 0.031794321826144348 -0.00028093259760178122 0 0.031530919123627231 -0.00012052470275058892 0 0.031376596388997931 -9.7655696467402507e-05 0 0.031207076519036668 -4.1577154115442595e-05 0 0.030081486099751874 0.0012035364640652186 0 0.029857715332900499 0.0012320935380654412 0 0.03085180152603666 -0.00023406149544341788 0 0.030685281290200688 -6.899971275219046e-05 0 0.030787849394605309 -0.00023896930477540864 0 0.031056401908031016 3.2043429780681893e-05 0 0.031376596388997931 -9.7655696467402507e-05 0 0.031207076519036668 -4.1577154115442595e-05 0 0.029153797025214628 0.0015897355614023683 0 0.028957373898143842 0.0010736724854308679 0 0.029318435004766014 0.0011806531329627461 0 0.029990568051274334 0.001222549467746827 0 0.030035674818647433 0.0011910958779947111 0 0.030074590369068111 0.0012482790503589476 0 0.029857715332900499 0.0012320935380654412 0 0.028333039253344409 0.0015479703494382185 0 0.030035674818647433 0.0011910958779947111 0 0.030074590369068111 0.0012482790503589476 0 0.030069907623981987 0.001168401884430669 0 0.030003653895508305 0.0013741162932731231 0 0.030081204146460171 0.001395141072732878 0 0.030128818579122172 0.0011309296663480303 0 0.027840641390857623 0.001426915555732898 0 0.029199429569416294 0.00095752454061944175 0 0.028333039253344409 0.0015479703494382185 0 0.027840641390857623 0.001426915555732898 0 0.025289726321476937 0.0063833936995145741 0 0.02569100648882244 0.0069792591485229117 0 0.02500275818052285 0.006805994836888327 0 0.025825871745302223 5.7044072178443735e-05 0 0.025884941778494788 4.8906199544177035e-05 0 0.025865735507722521 1.6549017726951306e-05 0 0.025825871745302223 5.7044072178443735e-05 0 0.025865735507722521 1.6549017726951306e-05 0 0.025858215044709761 -5.5783434206814775e-05 0 0.025884941778494788 4.8906199544177035e-05 0 0.025865735507722521 1.6549017726951306e-05 0 0.02589114051531136 8.7732553658089657e-06 0 0.025865735507722521 1.6549017726951306e-05 0 0.025858215044709761 -5.5783434206814775e-05 0 0.02589114051531136 8.7732553658089657e-06 0 0.025858215044709761 -5.5783434206814775e-05 0 0.025928060735019163 -3.1632822245137176e-05 0 0.02589114051531136 8.7732553658089657e-06 0 0.028333039253344409 0.0015479703494382185 0 0.028843300728902468 0.0011254038718814337 0 0.030074590369068111 0.0012482790503589476 0 0.030069907623981987 0.001168401884430669 0 0.030128818579122172 0.0011309296663480303 0 0.030081204146460171 0.001395141072732878 0 0.030205521832547738 0.0011296752420968173 0 0.030128818579122172 0.0011309296663480303 0 0.030205521832547738 0.0011296752420968173 0 0.030128818579122172 0.0011309296663480303 0 0.03013516751527863 0.00106966735476816 0 0.030128818579122172 0.0011309296663480303 0 0.030078468516901422 0.0011197201021383297 0 0.03013516751527863 0.00106966735476816 0 0.030069907623981987 0.001168401884430669 0 0.030128818579122172 0.0011309296663480303 0 0.030078468516901422 0.0011197201021383297 0 0.030078468516901422 0.0011197201021383297 0 0.03013516751527863 0.00106966735476816 0 0.030059848316718801 0.001084216788469052 0 0.03013516751527863 0.00106966735476816 0 0.030282941213092066 0.000948168297554832 0 0.030086105184294568 0.0010028572471291251 0 0.03013516751527863 0.00106966735476816 0 0.030086105184294568 0.0010028572471291251 0 0.030059848316718801 0.001084216788469052 0 0.030205521832547738 0.0011296752420968173 0 0.03013516751527863 0.00106966735476816 0 0.030282941213092066 0.000948168297554832 0 0.025858215044709761 -5.5783434206814775e-05 0 0.025915281879776871 -0.00017426300470447785 0 0.025941438274530063 -0.00011600152074385047 0 0.029199429569416294 0.00095752454061944175 0 0.031426114398436893 0.00053679398013370037 0 0.031426114398436893 0.00053679398013370037 0 0.032333501298902376 0.00060429697540318849 0 0.034950131959916121 8.3679899110501457e-06 0 0.03495282749929822 9.017083249895984e-06 0 0.034962499630362409 5.1238488796644117e-06 0 0.03495282749929822 9.017083249895984e-06 0 0.03495658191360717 6.5965824585242517e-06 0 0.034962499630362409 5.1238488796644117e-06 0 0.03495282749929822 9.017083249895984e-06 0 0.03495658191360717 6.5965824585242517e-06 0 0.034946089688923709 1.1743239620415269e-05 0 0.03495658191360717 6.5965824585242517e-06 0 0.034960514178120142 5.0984388776752153e-06 0 0.034964906577986059 4.2960433375270976e-06 0 0.030086105184294568 0.0010028572471291251 0 0.030003661666419369 0.0010852087328761366 0 0.029935671752273955 0.0010480300083914348 0 0.032333501298902376 0.00060429697540318849 0 0.032202876801095799 0.00092290572682461483 0 0.030086105184294568 0.0010028572471291251 0 0.030003661666419369 0.0010852087328761366 0 0.030059848316718801 0.001084216788469052 0 0.031877457728474702 -0.00020993873703166314 0 0.032075391203159255 -0.00014405054724752979 0 0.032083394581027755 -0.00023366757946978862 0 0.031457676056917613 0.00080088957920953574 0 0.032202876801095799 0.00092290572682461483 0 0.030003661666419369 0.0010852087328761366 0 0.029950541202414947 0.0010943470108203336 0 0.029935671752273955 0.0010480300083914348 0 0.03495282044344817 6.6142141542052086e-06 0 0.034962435352262879 -4.8339422727760698e-06 0 0.034950482922524222 4.4405903682902131e-06 0 0.034946089688923709 1.1743239620415269e-05 0 0.03495282044344817 6.6142141542052086e-06 0 0.034950482922524222 4.4405903682902131e-06 0 0.03495658191360717 6.5965824585242517e-06 0 0.034946089688923709 1.1743239620415269e-05 0 0.03495282044344817 6.6142141542052086e-06 0 0.032202876801095799 0.00092290572682461483 0 0.032838140210918201 0.00043346247515210052 0 0.03495282044344817 6.6142141542052086e-06 0 0.034960514178120142 5.0984388776752153e-06 0 0.034966208748315013 3.8589427536180638e-06 0 0.03495658191360717 6.5965824585242517e-06 0 0.03495282044344817 6.6142141542052086e-06 0 0.034960514178120142 5.0984388776752153e-06 0 0.034973797185879521 1.6617197736361469e-06 0 0.03497779626119623 -3.0397116695070002e-07 0 0.03495282044344817 6.6142141542052086e-06 0 0.034966208748315013 3.8589427536180638e-06 0 0.034973013892107059 2.7630659088050869e-06 0 0.034960514178120142 5.0984388776752153e-06 0 0.034966208748315013 3.8589427536180638e-06 0 0.034964906577986059 4.2960433375270976e-06 0 0.034966208748315013 3.8589427536180638e-06 0 0.034964906577986059 4.2960433375270976e-06 0 0.034972775277942812 3.0188316493997429e-06 0 0.034966208748315013 3.8589427536180638e-06 0 0.034973013892107059 2.7630659088050869e-06 0 0.034972775277942812 3.0188316493997429e-06 0 0.034964906577986059 4.2960433375270976e-06 0 0.034971510245334868 3.1901669093709667e-06 0 0.034962499630362409 5.1238488796644117e-06 0 0.03495658191360717 6.5965824585242517e-06 0 0.034964906577986059 4.2960433375270976e-06 0 0.034962499630362409 5.1238488796644117e-06 0 0.034964906577986059 4.2960433375270976e-06 0 0.034971510245334868 3.1901669093709667e-06 0 0.034972775277942812 3.0188316493997429e-06 0 0.034971510245334868 3.1901669093709667e-06 0 0.034979489278541706 2.3601867129858061e-06 0 0.034975149269632716 2.3665316873252259e-06 0 0.034971510245334868 3.1901669093709667e-06 0 0.034979489278541706 2.3601867129858061e-06 0 0.034972775277942812 3.0188316493997429e-06 0 0.034973013892107059 2.7630659088050869e-06 0 0.03498075098521463 2.3273413395243179e-06 0 0.034988292418348964 1.7590347702276324e-06 0 0.034973013892107059 2.7630659088050869e-06 0 0.034972775277942812 3.0188316493997429e-06 0 0.03498075098521463 2.3273413395243179e-06 0 0.034979489278541706 2.3601867129858061e-06 0 0.034972775277942812 3.0188316493997429e-06 0 0.03498075098521463 2.3273413395243179e-06 0 0.034979489278541706 2.3601867129858061e-06 0 0.03498075098521463 2.3273413395243179e-06 0 0.034990616207735033 1.5227708902593934e-06 0 0.03498075098521463 2.3273413395243179e-06 0 0.034990616207735033 1.5227708902593934e-06 0 0.034988292418348964 1.7590347702276324e-06 0 0.034979489278541706 2.3601867129858061e-06 0 0.034990616207735033 1.5227708902593934e-06 0 0.034988200069826392 1.3976572320980164e-06 0 0.034979489278541706 2.3601867129858061e-06 0 0.034988200069826392 1.3976572320980164e-06 0 0.034975149269632716 2.3665316873252259e-06 0 0.034999981567739161 2.0776873286637178e-09 0 0.034999985897410713 -6.1776521562775772e-10 0 0.034988200069826392 1.3976572320980164e-06 0 0.034990616207735033 1.5227708902593934e-06 0 0.034999981567739161 2.0776873286637178e-09 0 0.034988200069826392 1.3976572320980164e-06 0 0.034990616207735033 1.5227708902593934e-06 0 0.034999981567739161 2.0776873286637178e-09 0 0.034999991176683114 1.2907083397833852e-09 0 0.034999985897410713 -6.1776521562775772e-10 0 0.034982295220595927 8.3678499146529548e-07 0 0.034999964412882591 8.3074317395182426e-09 0 0.034999985897410713 -6.1776521562775772e-10 0 0.034988200069826392 1.3976572320980164e-06 0 0.034982295220595927 8.3678499146529548e-07 0 0.034988200069826392 1.3976572320980164e-06 0 0.034982295220595927 8.3678499146529548e-07 0 0.034975149269632716 2.3665316873252259e-06 0 0.034982295220595927 8.3678499146529548e-07 0 0.034966975365651305 2.5141338045368711e-06 0 0.034965399954258063 -2.6644097703397554e-07 0 0.034982295220595927 8.3678499146529548e-07 0 0.034975149269632716 2.3665316873252259e-06 0 0.034966975365651305 2.5141338045368711e-06 0 0.034975149269632716 2.3665316873252259e-06 0 0.034962499630362409 5.1238488796644117e-06 0 0.034966975365651305 2.5141338045368711e-06 0 0.034971510245334868 3.1901669093709667e-06 0 0.034975149269632716 2.3665316873252259e-06 0 0.034962499630362409 5.1238488796644117e-06 0 0.034950131959916121 8.3679899110501457e-06 0 0.034962499630362409 5.1238488796644117e-06 0 0.034966975365651305 2.5141338045368711e-06 0 0.034800213411575368 0.00012098761879236178 0 0.034873666407468175 3.4550870592980925e-05 0 0.034899626196640401 8.8889711961128381e-05 0 0.034950131959916121 8.3679899110501457e-06 0 0.034966975365651305 2.5141338045368711e-06 0 0.034965399954258063 -2.6644097703397554e-07 0 0.031426114398436893 0.00053679398013370037 0 0.033428470102784311 -0.00029333747334654893 0 0.034873666407468175 3.4550870592980925e-05 0 0.034944077866084389 2.4043020580889518e-05 0 0.034899626196640401 8.8889711961128381e-05 0 0.033428470102784311 -0.00029333747334654893 0 0.033890012408804973 -0.00033041525240225705 0 0.034873666407468175 3.4550870592980925e-05 0 0.034967988298100529 -5.0533919563009493e-07 0 0.034944077866084389 2.4043020580889518e-05 0 0.034982295220595927 8.3678499146529548e-07 0 0.034965399954258063 -2.6644097703397554e-07 0 0.034967988298100529 -5.0533919563009493e-07 0 0.034967988298100529 -5.0533919563009493e-07 0 0.034999964412882591 8.3074317395182426e-09 0 0.034999957413280741 -2.7945985933773846e-09 0 0.034982295220595927 8.3678499146529548e-07 0 0.034967988298100529 -5.0533919563009493e-07 0 0.034999964412882591 8.3074317395182426e-09 0 0.034999957413280741 -2.7945985933773846e-09 0 0.034978096008413714 3.2160837229304776e-06 0 0.034999975185082556 2.9521714019871391e-09 0 0.034967988298100529 -5.0533919563009493e-07 0 0.034999957413280741 -2.7945985933773846e-09 0 0.034978096008413714 3.2160837229304776e-06 0 0.034978096008413714 3.2160837229304776e-06 0 0.034970064944007895 1.2227559003549004e-05 0 0.034944077866084389 2.4043020580889518e-05 0 0.034967988298100529 -5.0533919563009493e-07 0 0.034978096008413714 3.2160837229304776e-06 0 0.034944077866084389 2.4043020580889518e-05 0 0.034978096008413714 3.2160837229304776e-06 0 0.034970064944007895 1.2227559003549004e-05 0 0.034999975185082556 2.9521714019871391e-09 0 0.034970064944007895 1.2227559003549004e-05 0 0.034944954973025508 5.0171120453895493e-05 0 0.034965891651060364 2.0188523923060061e-05 0 0.034970064944007895 1.2227559003549004e-05 0 0.034944077866084389 2.4043020580889518e-05 0 0.034944954973025508 5.0171120453895493e-05 0 0.034944077866084389 2.4043020580889518e-05 0 0.034944954973025508 5.0171120453895493e-05 0 0.034899626196640401 8.8889711961128381e-05 0 0.026101350848994016 -0.00028171571390837673 0 0.026070772032754673 -0.00016013448018368956 0 0.026161725796233867 -0.00022457559798106868 0 0.026122156261722897 -8.4316355748797618e-05 0 0.026193008905288698 -2.8155197069769859e-05 0 0.026070772032754673 -0.00016013448018368956 0 0.026071050115032912 -7.0692733261308477e-05 0 0.026192212422851888 -5.208382451693589e-05 0 0.026070772032754673 -0.00016013448018368956 0 0.025993978852721929 -0.00010260181382929909 0 0.026071050115032912 -7.0692733261308477e-05 0 0.026070772032754673 -0.00016013448018368956 0 0.026010953043692008 -0.00021411575629148112 0 0.025993978852721929 -0.00010260181382929909 0 0.026101350848994016 -0.00028171571390837673 0 0.026070772032754673 -0.00016013448018368956 0 0.026010953043692008 -0.00021411575629148112 0 0.030538632072223536 -5.2331386616309507e-05 0 0.030661609097296323 0.00020147120045059327 0 0.031426114398436893 0.00053679398013370037 0 0.030661609097296323 0.00020147120045059327 0 0.025915281879776871 -0.00017426300470447785 0 0.026010953043692008 -0.00021411575629148112 0 0.025941438274530063 -0.00011600152074385047 0 0.026010953043692008 -0.00021411575629148112 0 0.025941438274530063 -0.00011600152074385047 0 0.025993978852721929 -0.00010260181382929909 0 0.025993978852721929 -0.00010260181382929909 0 0.025974923736864438 -2.6430567971975891e-05 0 0.026023654905384309 -1.9989057622909761e-05 0 0.025993978852721929 -0.00010260181382929909 0 0.025974923736864438 -2.6430567971975891e-05 0 0.025928060735019163 -3.1632822245137176e-05 0 0.025974923736864438 -2.6430567971975891e-05 0 0.025928060735019163 -3.1632822245137176e-05 0 0.025944037125981787 2.2389146243972426e-05 0 0.025974923736864438 -2.6430567971975891e-05 0 0.025984040782506861 8.8268832360976408e-06 0 0.026023654905384309 -1.9989057622909761e-05 0 0.025941438274530063 -0.00011600152074385047 0 0.025993978852721929 -0.00010260181382929909 0 0.025928060735019163 -3.1632822245137176e-05 0 0.025858215044709761 -5.5783434206814775e-05 0 0.025941438274530063 -0.00011600152074385047 0 0.025928060735019163 -3.1632822245137176e-05 0 0.025928060735019163 -3.1632822245137176e-05 0 0.02589114051531136 8.7732553658089657e-06 0 0.0259135007314465 1.8615817622074683e-05 0 0.02589114051531136 8.7732553658089657e-06 0 0.0259135007314465 1.8615817622074683e-05 0 0.025896390449226599 4.3195967830789946e-05 0 0.025928060735019163 -3.1632822245137176e-05 0 0.0259135007314465 1.8615817622074683e-05 0 0.025944037125981787 2.2389146243972426e-05 0 0.0259135007314465 1.8615817622074683e-05 0 0.025913093005717334 4.7626498769262329e-05 0 0.025944037125981787 2.2389146243972426e-05 0 0.025932404268432931 6.0552053530289887e-05 0 0.025913093005717334 4.7626498769262329e-05 0 0.025944037125981787 2.2389146243972426e-05 0 0.025932404268432931 6.0552053530289887e-05 0 0.025917870307334105 6.4541888073399396e-05 0 0.025913093005717334 4.7626498769262329e-05 0 0.025889706519151574 7.3307767205248571e-05 0 0.025917870307334105 6.4541888073399396e-05 0 0.025913093005717334 4.7626498769262329e-05 0 0.025884941778494788 4.8906199544177035e-05 0 0.02589114051531136 8.7732553658089657e-06 0 0.025896390449226599 4.3195967830789946e-05 0 0.0259135007314465 1.8615817622074683e-05 0 0.025913093005717334 4.7626498769262329e-05 0 0.025896390449226599 4.3195967830789946e-05 0 0.025889706519151574 7.3307767205248571e-05 0 0.025913093005717334 4.7626498769262329e-05 0 0.025896390449226599 4.3195967830789946e-05 0 0.025893020565622288 5.9364419411183703e-05 0 0.025889706519151574 7.3307767205248571e-05 0 0.025896390449226599 4.3195967830789946e-05 0 0.025893020565622288 5.9364419411183703e-05 0 0.025884941778494788 4.8906199544177035e-05 0 0.025896390449226599 4.3195967830789946e-05 0 0.025984040782506861 8.8268832360976408e-06 0 0.025970715136375611 4.1870084240687692e-05 0 0.02600682066513503 2.6598940547033091e-05 0 0.025974923736864438 -2.6430567971975891e-05 0 0.025984040782506861 8.8268832360976408e-06 0 0.025944037125981787 2.2389146243972426e-05 0 0.025984040782506861 8.8268832360976408e-06 0 0.025944037125981787 2.2389146243972426e-05 0 0.025970715136375611 4.1870084240687692e-05 0 0.025932404268432931 6.0552053530289887e-05 0 0.025944037125981787 2.2389146243972426e-05 0 0.025950275714487107 4.6280861309331424e-05 0 0.025944037125981787 2.2389146243972426e-05 0 0.025950275714487107 4.6280861309331424e-05 0 0.025970715136375611 4.1870084240687692e-05 0 0.025932404268432931 6.0552053530289887e-05 0 0.025950275714487107 4.6280861309331424e-05 0 0.025954790397371433 6.3054693266565435e-05 0 0.025950275714487107 4.6280861309331424e-05 0 0.025954790397371433 6.3054693266565435e-05 0 0.025970715136375611 4.1870084240687692e-05 0 0.025976410875022508 7.0934634853080163e-05 0 0.025970715136375611 4.1870084240687692e-05 0 0.025992152977948605 5.6343009215364941e-05 0 0.025970715136375611 4.1870084240687692e-05 0 0.025992152977948605 5.6343009215364941e-05 0 0.02600682066513503 2.6598940547033091e-05 0 0.025976410875022508 7.0934634853080163e-05 0 0.025954790397371433 6.3054693266565435e-05 0 0.025970715136375611 4.1870084240687692e-05 0 0.026049968084640565 3.6903893066914957e-05 0 0.02609846601713621 -8.3475657534500829e-06 0 0.026023654905384309 -1.9989057622909761e-05 0 0.026013619357172051 6.5934234904893479e-05 0 0.025992152977948605 5.6343009215364941e-05 0 0.02600682066513503 2.6598940547033091e-05 0 0.026013619357172051 6.5934234904893479e-05 0 0.02600682066513503 2.6598940547033091e-05 0 0.026049968084640565 3.6903893066914957e-05 0 0.02600682066513503 2.6598940547033091e-05 0 0.026049968084640565 3.6903893066914957e-05 0 0.026023654905384309 -1.9989057622909761e-05 0 0.025984040782506861 8.8268832360976408e-06 0 0.02600682066513503 2.6598940547033091e-05 0 0.026023654905384309 -1.9989057622909761e-05 0 0.026046386392864045 7.975189637256011e-05 0 0.026013619357172051 6.5934234904893479e-05 0 0.026049968084640565 3.6903893066914957e-05 0 0.026111302258873155 7.3877089937607923e-05 0 0.026049968084640565 3.6903893066914957e-05 0 0.02609846601713621 -8.3475657534500829e-06 0 0.026111302258873155 7.3877089937607923e-05 0 0.02609846601713621 -8.3475657534500829e-06 0 0.026192212422851888 -5.208382451693589e-05 0 0.026111302258873155 7.3877089937607923e-05 0 0.026046386392864045 7.975189637256011e-05 0 0.026049968084640565 3.6903893066914957e-05 0 0.02609846601713621 -8.3475657534500829e-06 0 0.026071050115032912 -7.0692733261308477e-05 0 0.026192212422851888 -5.208382451693589e-05 0 0.02609846601713621 -8.3475657534500829e-06 0 0.026071050115032912 -7.0692733261308477e-05 0 0.026023654905384309 -1.9989057622909761e-05 0 0.025993978852721929 -0.00010260181382929909 0 0.026071050115032912 -7.0692733261308477e-05 0 0.026023654905384309 -1.9989057622909761e-05 0 0.026193008905288698 -2.8155197069769859e-05 0 0.026314449200924381 7.0617073064321945e-05 0 0.026158896509256402 -5.7814565344615393e-05 0 0.026366854584411466 0.00014693177126215597 0 0.026291038475730315 -0.00016329483223011479 0 0.026223665892022657 8.8107305961236356e-05 0 0.026111302258873155 7.3877089937607923e-05 0 0.026192212422851888 -5.208382451693589e-05 0 0.026223665892022657 8.8107305961236356e-05 0 0.026192212422851888 -5.208382451693589e-05 0 0.026299744970124161 4.3001084710626186e-05 0 0.026374556326994644 0.0001213310823297838 0 0.026314449200924381 7.0617073064321945e-05 0 0.026423148281745069 0.00020203849264255837 0 0.026366854584411466 0.00014693177126215597 0 0.026480779117001044 0.00015612537588817954 0 0.026480779117001044 0.00015612537588817954 0 0.026452334516770589 1.1573678113368747e-06 0 0.026580218327394826 9.7630409139874892e-05 0 0.026452334516770589 1.1573678113368747e-06 0 0.026571857815621401 -9.4932534973241655e-05 0 0.026580218327394826 9.7630409139874892e-05 0 0.026366854584411466 0.00014693177126215597 0 0.026480779117001044 0.00015612537588817954 0 0.026452334516770589 1.1573678113368747e-06 0 0.026366854584411466 0.00014693177126215597 0 0.026452334516770589 1.1573678113368747e-06 0 0.026291038475730315 -0.00016329483223011479 0 0.026452334516770589 1.1573678113368747e-06 0 0.026466578757182356 -0.00024917851419958061 0 0.026291038475730315 -0.00016329483223011479 0 0.026452334516770589 1.1573678113368747e-06 0 0.026571857815621401 -9.4932534973241655e-05 0 0.026466578757182356 -0.00024917851419958061 0 0.026571857815621401 -9.4932534973241655e-05 0 0.026466578757182356 -0.00024917851419958061 0 0.026696190996925179 -0.00028252478192645493 0 0.026466578757182356 -0.00024917851419958061 0 0.026666866671811867 -0.00054793188347222017 0 0.026696190996925179 -0.00028252478192645493 0 0.026466578757182356 -0.00024917851419958061 0 0.026666866671811867 -0.00054793188347222017 0 0.026446946452901268 -0.00048117239743060398 0 0.026466578757182356 -0.00024917851419958061 0 0.0263430583600801 -0.00032078237488208065 0 0.026291038475730315 -0.00016329483223011479 0 0.026466578757182356 -0.00024917851419958061 0 0.0263430583600801 -0.00032078237488208065 0 0.026446946452901268 -0.00048117239743060398 0 0.0263430583600801 -0.00032078237488208065 0 0.026446946452901268 -0.00048117239743060398 0 0.026315292444064768 -0.0004368692163543936 0 0.026261108112910006 -0.00031120849825732591 0 0.026161725796233867 -0.00022457559798106868 0 0.026228420292103788 -0.00040909717209207456 0 0.026261108112910006 -0.00031120849825732591 0 0.026291038475730315 -0.00016329483223011479 0 0.026161725796233867 -0.00022457559798106868 0 0.0263430583600801 -0.00032078237488208065 0 0.026261108112910006 -0.00031120849825732591 0 0.026315292444064768 -0.0004368692163543936 0 0.0263430583600801 -0.00032078237488208065 0 0.026261108112910006 -0.00031120849825732591 0 0.026291038475730315 -0.00016329483223011479 0 0.026070772032754673 -0.00016013448018368956 0 0.026158896509256402 -5.7814565344615393e-05 0 0.026161725796233867 -0.00022457559798106868 0 0.026158896509256402 -5.7814565344615393e-05 0 0.026291038475730315 -0.00016329483223011479 0 0.026161725796233867 -0.00022457559798106868 0 0.026101350848994016 -0.00028171571390837673 0 0.026161725796233867 -0.00022457559798106868 0 0.026228420292103788 -0.00040909717209207456 0 0.030538632072223536 -5.2331386616309507e-05 0 0.030390449323585235 -0.00025446620817374524 0 0.034944954973025508 5.0171120453895493e-05 0 0.034953436866224825 2.47804513171187e-05 0 0.034965891651060364 2.0188523923060061e-05 0 0.034953436866224825 2.47804513171187e-05 0 0.034964239831847474 1.4241935476959627e-05 0 0.034949727788977702 1.0429200239175685e-05 0 0.030390449323585235 -0.00025446620817374524 0 0.029419128219383979 -0.00036666846030366146 0 0.026261108112910006 -0.00031120849825732591 0 0.026228420292103788 -0.00040909717209207456 0 0.026315292444064768 -0.0004368692163543936 0 0.034953436866224825 2.47804513171187e-05 0 0.034964239831847474 1.4241935476959627e-05 0 0.034965891651060364 2.0188523923060061e-05 0 0.034964239831847474 1.4241935476959627e-05 0 0.034965891651060364 2.0188523923060061e-05 0 0.03498099854457605 8.5643411866465246e-06 0 0.034970064944007895 1.2227559003549004e-05 0 0.034965891651060364 2.0188523923060061e-05 0 0.03498099854457605 8.5643411866465246e-06 0 0.034970064944007895 1.2227559003549004e-05 0 0.03498099854457605 8.5643411866465246e-06 0 0.034999975185082556 2.9521714019871391e-09 0 0.03498099854457605 8.5643411866465246e-06 0 0.03499998424206819 3.9373521495217379e-09 0 0.03497501960927131 7.5007891698761762e-06 0 0.034964239831847474 1.4241935476959627e-05 0 0.03498099854457605 8.5643411866465246e-06 0 0.03497501960927131 7.5007891698761762e-06 0 0.03498099854457605 8.5643411866465246e-06 0 0.03499998424206819 3.9373521495217379e-09 0 0.034999975185082556 2.9521714019871391e-09 0 0.034983799301688365 4.5790919627522442e-06 0 0.034999940339905417 1.6610955963500098e-08 0 0.034968236840316844 5.4683963446965248e-06 0 0.034997069562356056 1.102556240265031e-06 0 0.033691835438001763 0.00012424497139137844 0 0.03499998424206819 3.9373521495217379e-09 0 0.034983799301688365 4.5790919627522442e-06 0 0.03497501960927131 7.5007891698761762e-06 0 0.03499998424206819 3.9373521495217379e-09 0 0.034983799301688365 4.5790919627522442e-06 0 0.034999940339905417 1.6610955963500098e-08 0 0.034983799301688365 4.5790919627522442e-06 0 0.034967277688370504 3.3819349046954591e-06 0 0.034968236840316844 5.4683963446965248e-06 0 0.03497501960927131 7.5007891698761762e-06 0 0.034967277688370504 3.3819349046954591e-06 0 0.03495379168876233 2.0920309577304753e-06 0 0.034983799301688365 4.5790919627522442e-06 0 0.03497501960927131 7.5007891698761762e-06 0 0.034967277688370504 3.3819349046954591e-06 0 0.030690980460334662 -0.00038907987841283918 0 0.029419128219383979 -0.00036666846030366146 0 0.03497501960927131 7.5007891698761762e-06 0 0.03495379168876233 2.0920309577304753e-06 0 0.034949727788977702 1.0429200239175685e-05 0 0.026728752548691514 -0.0010782254192095847 0 0.026446962483487001 -0.00083283852281380009 0 0.026727173859596182 -0.0009079600658301911 0 0.034964239831847474 1.4241935476959627e-05 0 0.03497501960927131 7.5007891698761762e-06 0 0.034949727788977702 1.0429200239175685e-05 0 0.026228420292103788 -0.00040909717209207456 0 0.026420135648509573 -0.00053669725622476801 0 0.026315292444064768 -0.0004368692163543936 0 0.026446946452901268 -0.00048117239743060398 0 0.026430416019088472 -0.00069446093733182396 0 0.026315292444064768 -0.0004368692163543936 0 0.029419128219383979 -0.00036666846030366146 0 0.028676539027572012 -7.806236822452658e-05 0 0.026430416019088472 -0.00069446093733182396 0 0.026727173859596182 -0.0009079600658301911 0 0.026591706443827093 -0.00067058458821882207 0 0.029419128219383979 -0.00036666846030366146 0 0.028520270520547016 -0.00030107662959790311 0 0.026727173859596182 -0.0009079600658301911 0 0.026591706443827093 -0.00067058458821882207 0 0.026747690937832282 -0.0007546705408277201 0 0.026446946452901268 -0.00048117239743060398 0 0.026430416019088472 -0.00069446093733182396 0 0.026591706443827093 -0.00067058458821882207 0 0.026666866671811867 -0.00054793188347222017 0 0.026446946452901268 -0.00048117239743060398 0 0.026591706443827093 -0.00067058458821882207 0 0.026666866671811867 -0.00054793188347222017 0 0.026591706443827093 -0.00067058458821882207 0 0.026747690937832282 -0.0007546705408277201 0 0.026666866671811867 -0.00054793188347222017 0 0.026747690937832282 -0.0007546705408277201 0 0.026898848392156408 -0.00075939046791281687 0 0.026666866671811867 -0.00054793188347222017 0 0.026898848392156408 -0.00075939046791281687 0 0.026918569556074638 -0.00052804870376951265 0 0.026898848392156408 -0.00075939046791281687 0 0.0271185793402881 -0.00075820255812779802 0 0.026918569556074638 -0.00052804870376951265 0 0.026898848392156408 -0.00075939046791281687 0 0.027066797261223779 -0.0010021269198739107 0 0.026874383362742761 -0.00094757504221721094 0 0.026898848392156408 -0.00075939046791281687 0 0.027066797261223779 -0.0010021269198739107 0 0.0271185793402881 -0.00075820255812779802 0 0.026747690937832282 -0.0007546705408277201 0 0.026898848392156408 -0.00075939046791281687 0 0.026874383362742761 -0.00094757504221721094 0 0.026727173859596182 -0.0009079600658301911 0 0.026747690937832282 -0.0007546705408277201 0 0.026874383362742761 -0.00094757504221721094 0 0.027066797261223779 -0.0010021269198739107 0 0.027478721722168118 -0.00096923630482959934 0 0.0271185793402881 -0.00075820255812779802 0 0.027478721722168118 -0.00096923630482959934 0 0.0271185793402881 -0.00075820255812779802 0 0.027281966443476066 -0.00050049805985600897 0 0.032069586876165866 -0.00021216358235319246 0 0.032010429572758806 -0.00015918717706737406 0 0.027066797261223779 -0.0010021269198739107 0 0.027478721722168118 -0.00096923630482959934 0 0.02706075586388941 -0.0013185101538654598 0 0.030368887486254277 0.0010107285368547239 0 0.030242208933680039 0.0010962390897449686 0 0.029730177979800407 0.0008031011965753032 0 0.029823520019743466 0.00026448551702411857 0 0.030368887486254277 0.0010107285368547239 0 0.029730177979800407 0.0008031011965753032 0 0.029846243992288492 -0.00060679582028750636 0 0.031696453578291872 -0.00021898702612351009 0 0.030690980460334662 -0.00038907987841283918 0 0.031696453578291872 -0.00021898702612351009 0 0.026728752548691514 -0.0010782254192095847 0 0.026941499461795977 -0.0011053897205997526 0 0.02706075586388941 -0.0013185101538654598 0 0.034967277688370504 3.3819349046954591e-06 0 0.03495379168876233 2.0920309577304753e-06 0 0.034945764734950147 -1.0077845098799691e-06 0 0.027066797261223779 -0.0010021269198739107 0 0.026941499461795977 -0.0011053897205997526 0 0.02706075586388941 -0.0013185101538654598 0 0.026728752548691514 -0.0010782254192095847 0 0.026874383362742761 -0.00094757504221721094 0 0.026941499461795977 -0.0011053897205997526 0 0.026728752548691514 -0.0010782254192095847 0 0.026727173859596182 -0.0009079600658301911 0 0.026874383362742761 -0.00094757504221721094 0 0.027066797261223779 -0.0010021269198739107 0 0.026874383362742761 -0.00094757504221721094 0 0.026941499461795977 -0.0011053897205997526 0 0.034967277688370504 3.3819349046954591e-06 0 0.034945764734950147 -1.0077845098799691e-06 0 0.034968236840316844 5.4683963446965248e-06 0 0.03498436997892166 -9.4092650369614473e-06 0 0.034975445525740528 -1.5479568272482682e-05 0 0.034991409465286318 -5.8141256401995489e-06 0 0.031696453578291872 -0.00021898702612351009 0 0.033691835438001763 0.00012424497139137844 0 0.034973280796631492 -2.0247351256756904e-05 0 0.034975445525740528 -1.5479568272482682e-05 0 0.034991409465286318 -5.8141256401995489e-06 0 0.03290175061546867 2.3805138307028634e-05 0 0.032574619532698607 0.00024327710955511877 0 0.032424237858407139 -0.00025949055450873968 0 0.031696453578291872 -0.00021898702612351009 0 0.032069586876165866 -0.00021216358235319246 0 0.034973280796631492 -2.0247351256756904e-05 0 0.034975445525740528 -1.5479568272482682e-05 0 0.034966520048515332 -1.8387553734687371e-05 0 0.034975445525740528 -1.5479568272482682e-05 0 0.034974793273289846 -1.648499206341422e-05 0 0.03497976005925521 -1.188907879598595e-05 0 0.032109773426449023 -0.00019482323455866812 0 0.032069586876165866 -0.00021216358235319246 0 0.032069586876165866 -0.00021216358235319246 0 0.033246092393563062 -0.00027599201857766352 0 0.034974793273289846 -1.648499206341422e-05 0 0.034972993720294256 -1.1801448925589986e-05 0 0.03497976005925521 -1.188907879598595e-05 0 0.03498436997892166 -9.4092650369614473e-06 0 0.03497976005925521 -1.188907879598595e-05 0 0.034989346501459878 -5.2980007398111714e-06 0 0.034972993720294256 -1.1801448925589986e-05 0 0.03497976005925521 -1.188907879598595e-05 0 0.034989346501459878 -5.2980007398111714e-06 0 0.03498436997892166 -9.4092650369614473e-06 0 0.034975445525740528 -1.5479568272482682e-05 0 0.03497976005925521 -1.188907879598595e-05 0 0.034972993720294256 -1.1801448925589986e-05 0 0.034989346501459878 -5.2980007398111714e-06 0 0.034999935743854439 -7.2942946734068459e-09 0 0.033246092393563062 -0.00027599201857766352 0 0.034996219638503454 3.3740720290322068e-07 0 0.035000015675606413 1.0420075123362228e-09 0 0.034989346501459878 -5.2980007398111714e-06 0 0.034999935743854439 -7.2942946734068459e-09 0 0.035000015675606413 1.0420075123362228e-09 0 0.034989346501459878 -5.2980007398111714e-06 0 0.034991409465286318 -5.8141256401995489e-06 0 0.03498436997892166 -9.4092650369614473e-06 0 0.034989346501459878 -5.2980007398111714e-06 0 0.034991409465286318 -5.8141256401995489e-06 0 0.035000672547753998 -1.853036706249679e-07 0 0.034997673633421073 3.4112524022288367e-07 0 0.034885431958050987 -7.0635473080682356e-06 0 0.034997673633421073 3.4112524022288367e-07 0 0.033444157958035653 0.00014087128208253242 0 0.031287290260757751 -5.0072312930712395e-07 0 0.034997673633421073 3.4112524022288367e-07 0 0.034885431958050987 -7.0635473080682356e-06 0 0.033444157958035653 0.00014087128208253242 0 0.034885431958050987 -7.0635473080682356e-06 0 0.03370577104700577 -1.4753879604549469e-06 0 0.033444157958035653 0.00014087128208253242 0 0.033814451323049083 -0.00032744254779950042 0 0.033669461797687462 -0.0003182138934644588 0 0.034971040180416003 -7.0911723289470308e-05 0 0.035000672547753998 -1.853036706249679e-07 0 0.034929343214392998 -3.9628586191418296e-05 0 0.035000672547753998 -1.853036706249679e-07 0 0.034885431958050987 -7.0635473080682356e-06 0 0.034929343214392998 -3.9628586191418296e-05 0 0.033246092393563062 -0.00027599201857766352 0 0.033669461797687462 -0.0003182138934644588 0 0.033246092393563062 -0.00027599201857766352 0 0.032010429572758806 -0.00015918717706737406 0 0.03370577104700577 -1.4753879604549469e-06 0 0.033497956867728419 9.7524638943939936e-05 0 0.033444157958035653 0.00014087128208253242 0 0.033469950632135564 8.534483127878752e-05 0 0.033497956867728419 9.7524638943939936e-05 0 0.033403603039319885 1.9251491449852319e-05 0 0.033469950632135564 8.534483127878752e-05 0 0.03370577104700577 -1.4753879604549469e-06 0 0.033497956867728419 9.7524638943939936e-05 0 0.033497956867728419 9.7524638943939936e-05 0 0.033444157958035653 0.00014087128208253242 0 0.033403603039319885 1.9251491449852319e-05 0 0.033444157958035653 0.00014087128208253242 0 0.032768032108731138 -0.00014358431557391486 0 0.031287290260757751 -5.0072312930712395e-07 0 0.033444157958035653 0.00014087128208253242 0 0.032768032108731138 -0.00014358431557391486 0 0.033403603039319885 1.9251491449852319e-05 0 0.031566732989835415 -0.00014877660605037521 0 0.032010429572758806 -0.00015918717706737406 0 0.032010429572758806 -0.00015918717706737406 0 0.031243941748550705 -0.000386462500716937 0 0.029823520019743466 0.00026448551702411857 0 0.029730177979800407 0.0008031011965753032 0 0.029297968384588903 9.5374274683985015e-05 0 0.029896359116777443 -0.0010031858329412687 0 0.029115105987581734 -0.00148156291086595 0 0.029297968384588903 9.5374274683985015e-05 0 0.029896359116777443 -0.0010031858329412687 0 0.031280003463961453 -1.8260094112240378e-06 0 0.029297968384588903 9.5374274683985015e-05 0 0.031566732989835415 -0.00014877660605037521 0 0.031284106521019629 -5.7793855331464753e-07 0 0.028644983860228939 -8.0961329565283009e-05 0 0.029220617761858993 5.213234075215638e-07 0 0.029297968384588903 9.5374274683985015e-05 0 0.031280003463961453 -1.8260094112240378e-06 0 0.029220617761858993 5.213234075215638e-07 0 0.029297968384588903 9.5374274683985015e-05 0 0.028644983860228939 -8.0961329565283009e-05 0 0.029220617761858993 5.213234075215638e-07 0 0.027632714350597307 0.00016134399156414548 0 0.028644983860228939 -8.0961329565283009e-05 0 0.027636278910929183 0.00010223315993917861 0 0.027632714350597307 0.00016134399156414548 0 0.028644983860228939 -8.0961329565283009e-05 0 0.027636278910929183 0.00010223315993917861 0 0.02739359088517946 -9.1994606504264319e-05 0 0.027478721722168118 -0.00096923630482959934 0 0.028644983860228939 -8.0961329565283009e-05 0 0.027281966443476066 -0.00050049805985600897 0 0.029823520019743466 0.00026448551702411857 0 0.028644983860228939 -8.0961329565283009e-05 0 0.029297968384588903 9.5374274683985015e-05 0 0.029846243992288492 -0.00060679582028750636 0 0.029528000173241302 -0.00043586375178708168 0 0.028644983860228939 -8.0961329565283009e-05 0 0.027281966443476066 -0.00050049805985600897 0 0.02739359088517946 -9.1994606504264319e-05 0 0.0271185793402881 -0.00075820255812779802 0 0.027281966443476066 -0.00050049805985600897 0 0.026918569556074638 -0.00052804870376951265 0 0.027281966443476066 -0.00050049805985600897 0 0.026918569556074638 -0.00052804870376951265 0 0.026964862260251694 -0.00021385810051207643 0 0.027281966443476066 -0.00050049805985600897 0 0.02739359088517946 -9.1994606504264319e-05 0 0.026964862260251694 -0.00021385810051207643 0 0.026666866671811867 -0.00054793188347222017 0 0.026918569556074638 -0.00052804870376951265 0 0.026696190996925179 -0.00028252478192645493 0 0.026918569556074638 -0.00052804870376951265 0 0.026696190996925179 -0.00028252478192645493 0 0.026964862260251694 -0.00021385810051207643 0 0.026571857815621401 -9.4932534973241655e-05 0 0.026696190996925179 -0.00028252478192645493 0 0.026737566277303063 -6.579820286720533e-05 0 0.026696190996925179 -0.00028252478192645493 0 0.026737566277303063 -6.579820286720533e-05 0 0.026964862260251694 -0.00021385810051207643 0 0.026737566277303063 -6.579820286720533e-05 0 0.026964862260251694 -0.00021385810051207643 0 0.026941374303301676 0.00010870519412116059 0 0.026571857815621401 -9.4932534973241655e-05 0 0.026737566277303063 -6.579820286720533e-05 0 0.026580218327394826 9.7630409139874892e-05 0 0.027636278910929183 0.00010223315993917861 0 0.02739359088517946 -9.1994606504264319e-05 0 0.026941374303301676 0.00010870519412116059 0 0.02739359088517946 -9.1994606504264319e-05 0 0.026964862260251694 -0.00021385810051207643 0 0.026941374303301676 0.00010870519412116059 0 0.027636278910929183 0.00010223315993917861 0 0.026941374303301676 0.00010870519412116059 0 0.026941830408124433 0.00026036361983161719 0 0.026941374303301676 0.00010870519412116059 0 0.026572790993070122 0.0002372377790531862 0 0.026941830408124433 0.00026036361983161719 0 0.026941374303301676 0.00010870519412116059 0 0.026580218327394826 9.7630409139874892e-05 0 0.026572790993070122 0.0002372377790531862 0 0.026480779117001044 0.00015612537588817954 0 0.026580218327394826 9.7630409139874892e-05 0 0.026572790993070122 0.0002372377790531862 0 0.026737566277303063 -6.579820286720533e-05 0 0.026941374303301676 0.00010870519412116059 0 0.026580218327394826 9.7630409139874892e-05 0 0.026270445960221368 0.00023813764587390994 0 0.026423148281745069 0.00020203849264255837 0 0.026572790993070122 0.0002372377790531862 0 0.026423148281745069 0.00020203849264255837 0 0.026480779117001044 0.00015612537588817954 0 0.026572790993070122 0.0002372377790531862 0 0.026270445960221368 0.00023813764587390994 0 0.026572790993070122 0.0002372377790531862 0 0.026941830408124433 0.00026036361983161719 0 0.026270445960221368 0.00023813764587390994 0 0.026358040678462116 0.00022907482866305295 0 0.026941830408124433 0.00026036361983161719 0 0.026358040678462116 0.00022907482866305295 0 0.027157620065154837 4.6288747433578809e-07 0 0.027632714350597307 0.00016134399156414548 0 0.029220617761858993 5.213234075215638e-07 0 0.027157620065154837 4.6288747433578809e-07 0 0.027632714350597307 0.00016134399156414548 0 0.027636278910929183 0.00010223315993917861 0 0.027632714350597307 0.00016134399156414548 0 0.026941830408124433 0.00026036361983161719 0 0.026358040678462116 0.00022907482866305295 0 0.027632714350597307 0.00016134399156414548 0 0.026941830408124433 0.00026036361983161719 0 0.031682896614013877 -0.00056643490830055661 0 0.031529056649974192 4.1450161339389431e-05 0 0.032413361288309565 -0.00078545351255268668 0 0.029982750957068496 0.00040979105555009686 0 0.029965344864737127 0.00025841547566582808 0 0.031682896614013877 -0.00056643490830055661 0 0.032413361288309565 -0.00078545351255268668 0 0.031881697001367497 -0.0011431709452244707 0 0.031682896614013877 -0.00056643490830055661 0 0.031139113603586815 -0.00084758772410391139 0 0.031493945251542657 -0.0010655407971120676 0 0.031682896614013877 -0.00056643490830055661 0 0.031139113603586815 -0.00084758772410391139 0 0.03116058419490372 -0.00041747867847867612 0 0.031682896614013877 -0.00056643490830055661 0 0.03116058419490372 -0.00041747867847867612 0 0.031454932803828009 -0.00022184220175864417 0 0.030932798036215549 -0.00017785183759259747 0 0.03116058419490372 -0.00041747867847867612 0 0.031454932803828009 -0.00022184220175864417 0 0.02730809811215262 0.0018317850238138899 0 0.027220968494922251 0.0018100068537600781 0 0.027054868311179696 0.0017120807223969163 0 0.02730809811215262 0.0018317850238138899 0 0.027220968494922251 0.0018100068537600781 0 0.027305295617458366 0.0016758494508540532 0 0.030169348535387237 0.00010037457778466317 0 0.029982750957068496 0.00040979105555009686 0 0.027220968494922251 0.0018100068537600781 0 0.027168716827443783 0.0018300333814012049 0 0.027054868311179696 0.0017120807223969163 0 0.027220968494922251 0.0018100068537600781 0 0.027168716827443783 0.0018300333814012049 0 0.027169954404542153 0.0017538484842746793 0 0.027168716827443783 0.0018300333814012049 0 0.027097278045065412 0.0018456142925148532 0 0.027169954404542153 0.0017538484842746793 0 0.027219888421075828 0.0018401286556015053 0 0.027097278045065412 0.0018456142925148532 0 0.027217798803833765 0.0019137024045342607 0 0.027168716827443783 0.0018300333814012049 0 0.027219888421075828 0.0018401286556015053 0 0.027097278045065412 0.0018456142925148532 0 0.02732855876325628 0.0017000430405188017 0 0.027054868311179696 0.0017120807223969163 0 0.027492303299585994 0.0014260971733186388 0 0.027219888421075828 0.0018401286556015053 0 0.02732855876325628 0.0017000430405188017 0 0.027054868311179696 0.0017120807223969163 0 0.027219888421075828 0.0018401286556015053 0 0.02732855876325628 0.0017000430405188017 0 0.027509296984468825 0.0017930848606623091 0 0.02732855876325628 0.0017000430405188017 0 0.027492303299585994 0.0014260971733186388 0 0.027509296984468825 0.0017930848606623091 0 0.027168716827443783 0.0018300333814012049 0 0.027219888421075828 0.0018401286556015053 0 0.027054868311179696 0.0017120807223969163 0 0.032413361288309565 -0.00078545351255268668 0 0.032410903063175178 -0.0014347796353369295 0 0.033319447594555456 -0.001713270384510787 0 0.029965344864737127 0.00025841547566582808 0 0.03039949241086394 -0.00035692546028436641 0 0.032413361288309565 -0.00078545351255268668 0 0.032410903063175178 -0.0014347796353369295 0 0.031881697001367497 -0.0011431709452244707 0 0.027054868311179696 0.0017120807223969163 0 0.027492303299585994 0.0014260971733186388 0 0.027324693879470202 0.00089610862919887048 0 0.033319447594555456 -0.001713270384510787 0 0.032383848000169552 -0.0019696461304854929 0 0.033419420193507368 -0.0021223282638000887 0 0.032410903063175178 -0.0014347796353369295 0 0.033319447594555456 -0.001713270384510787 0 0.032383848000169552 -0.0019696461304854929 0 0.032410903063175178 -0.0014347796353369295 0 0.032383848000169552 -0.0019696461304854929 0 0.031974373340247886 -0.0014911317119097882 0 0.033933130514246609 -0.0020546117231515283 0 0.033579860094532253 -0.0019729247393200015 0 0.033694193602263271 -0.0020196543092194786 0 0.032383848000169552 -0.0019696461304854929 0 0.031974373340247886 -0.0014911317119097882 0 0.031328328866143722 -0.0014439361182294497 0 0.033933130514246609 -0.0020546117231515283 0 0.033534022939209526 -0.0017210822801866021 0 0.033579860094532253 -0.0019729247393200015 0 0.032920774084711751 -0.0018753936744814836 0 0.032341512244575897 -0.0016247278171644176 0 0.032410903063175178 -0.0014347796353369295 0 0.031974373340247886 -0.0014911317119097882 0 0.031881697001367497 -0.0011431709452244707 0 0.031974373340247886 -0.0014911317119097882 0 0.031690307968281227 -0.001301622094917423 0 0.031328328866143722 -0.0014439361182294497 0 0.031682896614013877 -0.00056643490830055661 0 0.031881697001367497 -0.0011431709452244707 0 0.031493945251542657 -0.0010655407971120676 0 0.031974373340247886 -0.0014911317119097882 0 0.031690307968281227 -0.001301622094917423 0 0.031881697001367497 -0.0011431709452244707 0 0.031690307968281227 -0.001301622094917423 0 0.031881697001367497 -0.0011431709452244707 0 0.031493945251542657 -0.0010655407971120676 0 0.031139113603586815 -0.00084758772410391139 0 0.031493945251542657 -0.0010655407971120676 0 0.031328328866143722 -0.0014439361182294497 0 0.03322567844347294 -0.0020101434988516447 0 0.033534022939209526 -0.0017210822801866021 0 0.030846542938984884 -0.0010647629733790984 0 0.031690307968281227 -0.001301622094917423 0 0.031493945251542657 -0.0010655407971120676 0 0.031328328866143722 -0.0014439361182294497 0 0.03322567844347294 -0.0020101434988516447 0 0.033534022939209526 -0.0017210822801866021 0 0.033579860094532253 -0.0019729247393200015 0 0.033579860094532253 -0.0019729247393200015 0 0.033481681711116373 -0.0020419291834416976 0 0.033694193602263271 -0.0020196543092194786 0 0.03322567844347294 -0.0020101434988516447 0 0.033579860094532253 -0.0019729247393200015 0 0.033386375393151854 -0.0020175007058679949 0 0.033579860094532253 -0.0019729247393200015 0 0.033386375393151854 -0.0020175007058679949 0 0.033481681711116373 -0.0020419291834416976 0 0.03322567844347294 -0.0020101434988516447 0 0.033386375393151854 -0.0020175007058679949 0 0.033390166608760326 -0.0020271490229564434 0 0.033386375393151854 -0.0020175007058679949 0 0.033390166608760326 -0.0020271490229564434 0 0.033481681711116373 -0.0020419291834416976 0 0.03322567844347294 -0.0020101434988516447 0 0.033390166608760326 -0.0020271490229564434 0 0.03347393781849365 -0.002041418743418795 0 0.03322567844347294 -0.0020101434988516447 0 0.030441264949309568 -0.0024013203608967398 0 0.030846542938984884 -0.0010647629733790984 0 0.032629839123088929 -0.0019500680755570002 0 0.032107536768988879 -0.002015964273039586 0 0.030441264949309568 -0.0024013203608967398 0 0.030075974251058672 -0.001420443166334117 0 0.029637298122271269 -0.0017819399640432564 0 0.030441264949309568 -0.0024013203608967398 0 0.030075974251058672 -0.001420443166334117 0 0.030846542938984884 -0.0010647629733790984 0 0.030075974251058672 -0.001420443166334117 0 0.030846542938984884 -0.0010647629733790984 0 0.029855418984564314 -0.00056974347199784732 0 0.032341512244575897 -0.0016247278171644176 0 0.031797883332033997 -0.0014102188478533255 0 0.031139113603586815 -0.00084758772410391139 0 0.031328328866143722 -0.0014439361182294497 0 0.030846542938984884 -0.0010647629733790984 0 0.029637298122271269 -0.0017819399640432564 0 0.029100824744325127 -0.0015683965006043756 0 0.029216517650763222 -0.0023221303562324935 0 0.029100824744325127 -0.0015683965006043756 0 0.029216517650763222 -0.0023221303562324935 0 0.028694467079685048 -0.0017868968810171807 0 0.029100824744325127 -0.0015683965006043756 0 0.028694467079685048 -0.0017868968810171807 0 0.028649278052902308 -0.0013902262166618365 0 0.030441264949309568 -0.0024013203608967398 0 0.029637298122271269 -0.0017819399640432564 0 0.029216517650763222 -0.0023221303562324935 0 0.032107536768988879 -0.002015964273039586 0 0.03163653855122453 -0.0019572839445204386 0 0.030075974251058672 -0.001420443166334117 0 0.029525432103161851 -0.0012511234001392369 0 0.029855418984564314 -0.00056974347199784732 0 0.030075974251058672 -0.001420443166334117 0 0.029637298122271269 -0.0017819399640432564 0 0.029525432103161851 -0.0012511234001392369 0 0.029637298122271269 -0.0017819399640432564 0 0.029525432103161851 -0.0012511234001392369 0 0.029100824744325127 -0.0015683965006043756 0 0.029100824744325127 -0.0015683965006043756 0 0.028922942605927149 -0.00077675578239217477 0 0.028649278052902308 -0.0013902262166618365 0 0.029525432103161851 -0.0012511234001392369 0 0.029100824744325127 -0.0015683965006043756 0 0.028922942605927149 -0.00077675578239217477 0 0.028922942605927149 -0.00077675578239217477 0 0.029855418984564314 -0.00056974347199784732 0 0.028916018894306662 0.0002319372240715467 0 0.029525432103161851 -0.0012511234001392369 0 0.028922942605927149 -0.00077675578239217477 0 0.029855418984564314 -0.00056974347199784732 0 0.029855418984564314 -0.00056974347199784732 0 0.030685273166319204 -0.00031712116866756165 0 0.03002964577628783 0.00038301912983494245 0 0.031139113603586815 -0.00084758772410391139 0 0.03116058419490372 -0.00041747867847867612 0 0.030685273166319204 -0.00031712116866756165 0 0.031139113603586815 -0.00084758772410391139 0 0.030846542938984884 -0.0010647629733790984 0 0.030685273166319204 -0.00031712116866756165 0 0.030846542938984884 -0.0010647629733790984 0 0.029855418984564314 -0.00056974347199784732 0 0.030685273166319204 -0.00031712116866756165 0 0.030932798036215549 -0.00017785183759259747 0 0.03116058419490372 -0.00041747867847867612 0 0.030685273166319204 -0.00031712116866756165 0 0.030932798036215549 -0.00017785183759259747 0 0.030685273166319204 -0.00031712116866756165 0 0.030675118130915533 7.8357885409208349e-05 0 0.030685273166319204 -0.00031712116866756165 0 0.030675118130915533 7.8357885409208349e-05 0 0.030427010552981158 1.6490012528879389e-05 0 0.030019071853184691 -0.00035179312339381967 0 0.029673645613439579 -0.0001910531693504206 0 0.030427010552981158 1.6490012528879389e-05 0 0.030444611345132048 5.8048119228931196e-05 0 0.030483994923299798 2.8086331204128158e-05 0 0.030675118130915533 7.8357885409208349e-05 0 0.030427010552981158 1.6490012528879389e-05 0 0.030444611345132048 5.8048119228931196e-05 0 0.030675118130915533 7.8357885409208349e-05 0 0.030444611345132048 5.8048119228931196e-05 0 0.030493790231818984 6.0788025484502537e-05 0 0.029855418984564314 -0.00056974347199784732 0 0.03002964577628783 0.00038301912983494245 0 0.028916018894306662 0.0002319372240715467 0 0.029673645613439579 -0.0001910531693504206 0 0.028770522689180844 -8.8237749690354435e-05 0 0.03002964577628783 0.00038301912983494245 0 0.028916018894306662 0.0002319372240715467 0 0.029432632344585302 0.0011021382915686181 0 0.028916018894306662 0.0002319372240715467 0 0.029432632344585302 0.0011021382915686181 0 0.028668949356543821 0.0010954869174743618 0 0.028770522689180844 -8.8237749690354435e-05 0 0.02665457581878081 7.6911355626961957e-05 0 0.029432632344585302 0.0011021382915686181 0 0.028659738017694825 0.0017081887510063741 0 0.028668949356543821 0.0010954869174743618 0 0.030483994923299798 2.8086331204128158e-05 0 0.030495887007461427 -9.2496321488217127e-05 0 0.030403732742640834 -4.2628478945480212e-05 0 0.030495887007461427 -9.2496321488217127e-05 0 0.030403732742640834 -4.2628478945480212e-05 0 0.030406240958921214 -0.00017765909667111392 0 0.030483994923299798 2.8086331204128158e-05 0 0.030495887007461427 -9.2496321488217127e-05 0 0.030616454002664242 -0.00013854645171355523 0 0.029432632344585302 0.0011021382915686181 0 0.028831350574723198 0.0019197506292932941 0 0.028659738017694825 0.0017081887510063741 0 0.02665457581878081 7.6911355626961957e-05 0 0.026810644565501682 0.00024927700312359438 0 0.030493790231818984 6.0788025484502537e-05 0 0.030360982714205318 2.6810701858852191e-06 0 0.030213320490611387 -3.7643022218389528e-05 0 0.030444611345132048 5.8048119228931196e-05 0 0.030493790231818984 6.0788025484502537e-05 0 0.030360982714205318 2.6810701858852191e-06 0 0.030444611345132048 5.8048119228931196e-05 0 0.030483994923299798 2.8086331204128158e-05 0 0.030403732742640834 -4.2628478945480212e-05 0 0.030444611345132048 5.8048119228931196e-05 0 0.030360982714205318 2.6810701858852191e-06 0 0.030403732742640834 -4.2628478945480212e-05 0 0.030403732742640834 -4.2628478945480212e-05 0 0.030322737131214056 -0.00016297021132236008 0 0.030290045939128003 -8.3524310815881274e-05 0 0.030403732742640834 -4.2628478945480212e-05 0 0.030406240958921214 -0.00017765909667111392 0 0.030322737131214056 -0.00016297021132236008 0 0.030322737131214056 -0.00016297021132236008 0 0.030235560554370645 -0.00016885071116967641 0 0.030290045939128003 -8.3524310815881274e-05 0 0.030360982714205318 2.6810701858852191e-06 0 0.030403732742640834 -4.2628478945480212e-05 0 0.030290045939128003 -8.3524310815881274e-05 0 0.030360982714205318 2.6810701858852191e-06 0 0.030290045939128003 -8.3524310815881274e-05 0 0.030229043411258899 -7.4072277204946462e-05 0 0.030360982714205318 2.6810701858852191e-06 0 0.030229043411258899 -7.4072277204946462e-05 0 0.030213320490611387 -3.7643022218389528e-05 0 0.030290045939128003 -8.3524310815881274e-05 0 0.030229043411258899 -7.4072277204946462e-05 0 0.030152456809567327 -0.00010668664666669329 0 0.030235560554370645 -0.00016885071116967641 0 0.030290045939128003 -8.3524310815881274e-05 0 0.030152456809567327 -0.00010668664666669329 0 0.030100552406794521 -0.00026397772795261077 0 0.030235560554370645 -0.00016885071116967641 0 0.030152456809567327 -0.00010668664666669329 0 0.029936042035431518 -0.00024831875127425768 0 0.030152456809567327 -0.00010668664666669329 0 0.029780888203236378 -7.9447810958413269e-05 0 0.028439902598662796 -0.00021823775353913298 0 0.028295245497289755 -0.00022481173099752526 0 0.030229043411258899 -7.4072277204946462e-05 0 0.030152456809567327 -0.00010668664666669329 0 0.030181713376163381 -0.00010277588339182396 0 0.028295245497289755 -0.00022481173099752526 0 0.027383195573013209 -0.00025571293011114593 0 0.029714080947742302 -0.00025021147792116648 0 0.029780888203236378 -7.9447810958413269e-05 0 0.02945621848019454 -0.00010899425369557267 0 0.02784792335200326 0.0005500742100348928 0 0.028585040570075292 0.00057707882831121223 0 0.028066349007240535 -0.0005302292525384138 0 0.027580231812939816 0.00084778141817258362 0 0.027684780863314905 0.0010669911065673144 0 0.027422900632377227 0.0010461002000503629 0 0.027383195573013209 -0.00025571293011114593 0 0.028414482730342902 0.00022543395568429538 0 0.030229043411258899 -7.4072277204946462e-05 0 0.030181713376163381 -0.00010277588339182396 0 0.030213320490611387 -3.7643022218389528e-05 0 0.028295245497289755 -0.00022481173099752526 0 0.028414482730342902 0.00022543395568429538 0 0.027580231812939816 0.00084778141817258362 0 0.027422900632377227 0.0010461002000503629 0 0.027204279600005696 0.00082281189158170344 0 0.027383195573013209 -0.00025571293011114593 0 0.025507171105476598 -0.00060070841540663014 0 0.027422900632377227 0.0010461002000503629 0 0.027327959280246721 0.0012533372880046652 0 0.027213068354924062 0.0010612070189035569 0 0.027422900632377227 0.0010461002000503629 0 0.027476712153603249 0.0012713168899964337 0 0.027327959280246721 0.0012533372880046652 0 0.027684780863314905 0.0010669911065673144 0 0.027422900632377227 0.0010461002000503629 0 0.027476712153603249 0.0012713168899964337 0 0.027476712153603249 0.0012713168899964337 0 0.027327959280246721 0.0012533372880046652 0 0.027370136806548047 0.0014645964094793823 0 0.030493790231818984 6.0788025484502537e-05 0 0.030513514015204801 0.00013341373964047011 0 0.030564488213807906 3.9134810207352843e-05 0 0.027684780863314905 0.0010669911065673144 0 0.027476712153603249 0.0012713168899964337 0 0.027535949314766554 0.0015482115089779762 0 0.028794321931279346 0.00037347885529103922 0 0.028414482730342902 0.00022543395568429538 0 0.028414482730342902 0.00022543395568429538 0 0.029117232061851055 0.00063742815978200457 0 0.030675118130915533 7.8357885409208349e-05 0 0.030493790231818984 6.0788025484502537e-05 0 0.030564488213807906 3.9134810207352843e-05 0 0.027476712153603249 0.0012713168899964337 0 0.027535949314766554 0.0015482115089779762 0 0.027370136806548047 0.0014645964094793823 0 0.027327959280246721 0.0012533372880046652 0 0.027370136806548047 0.0014645964094793823 0 0.027213166182407419 0.0015249864477714511 0 0.027370136806548047 0.0014645964094793823 0 0.027305295617458366 0.0016758494508540532 0 0.027213166182407419 0.0015249864477714511 0 0.027535949314766554 0.0015482115089779762 0 0.027370136806548047 0.0014645964094793823 0 0.027305295617458366 0.0016758494508540532 0 0.02730809811215262 0.0018317850238138899 0 0.027535949314766554 0.0015482115089779762 0 0.027305295617458366 0.0016758494508540532 0 0.029982750957068496 0.00040979105555009686 0 0.029117232061851055 0.00063742815978200457 0 0.030506530975544 0.00026758670428617473 0 0.030675118130915533 7.8357885409208349e-05 0 0.030564488213807906 3.9134810207352843e-05 0 0.029982750957068496 0.00040979105555009686 0 0.030448594357290033 2.1179536743040989e-05 0 0.030932798036215549 -0.00017785183759259747 0 0.031454932803828009 -0.00022184220175864417 0 0.030675118130915533 7.8357885409208349e-05 0 0.027076383355996707 0.0016802571708862339 0 0.027097278045065412 0.0018456142925148532 0 0.02687633929442821 0.001668212106051207 0 0.027097278045065412 0.0018456142925148532 0 0.02687633929442821 0.001668212106051207 0 0.026856455833675602 0.0018171616969210242 0 0.027076383355996707 0.0016802571708862339 0 0.027097278045065412 0.0018456142925148532 0 0.027169954404542153 0.0017538484842746793 0 0.027305295617458366 0.0016758494508540532 0 0.027169954404542153 0.0017538484842746793 0 0.027213166182407419 0.0015249864477714511 0 0.027076383355996707 0.0016802571708862339 0 0.027169954404542153 0.0017538484842746793 0 0.027213166182407419 0.0015249864477714511 0 0.027220968494922251 0.0018100068537600781 0 0.027305295617458366 0.0016758494508540532 0 0.027169954404542153 0.0017538484842746793 0 0.027076383355996707 0.0016802571708862339 0 0.027213166182407419 0.0015249864477714511 0 0.027008431096956713 0.0014998883384176155 0 0.027213166182407419 0.0015249864477714511 0 0.027008431096956713 0.0014998883384176155 0 0.027083720212878311 0.0012544349872928304 0 0.027076383355996707 0.0016802571708862339 0 0.027008431096956713 0.0014998883384176155 0 0.02687633929442821 0.001668212106051207 0 0.027008431096956713 0.0014998883384176155 0 0.02687633929442821 0.001668212106051207 0 0.026798910407306406 0.0013692816877844474 0 0.026798910407306406 0.0013692816877844474 0 0.026810195735087597 0.0010906426386631399 0 0.027083720212878311 0.0012544349872928304 0 0.027008431096956713 0.0014998883384176155 0 0.026798910407306406 0.0013692816877844474 0 0.027083720212878311 0.0012544349872928304 0 0.026810195735087597 0.0010906426386631399 0 0.027083720212878311 0.0012544349872928304 0 0.027003490649048174 0.00095538862038584799 0 0.027327959280246721 0.0012533372880046652 0 0.027083720212878311 0.0012544349872928304 0 0.027213068354924062 0.0010612070189035569 0 0.027327959280246721 0.0012533372880046652 0 0.027213166182407419 0.0015249864477714511 0 0.027083720212878311 0.0012544349872928304 0 0.027083720212878311 0.0012544349872928304 0 0.027213068354924062 0.0010612070189035569 0 0.027003490649048174 0.00095538862038584799 0 0.025507171105476598 -0.00060070841540663014 0 0.024893026302177688 -0.00050626371090273909 0 0.027338279149296509 0.00063627796049422699 0 0.027003490649048174 0.00095538862038584799 0 0.026869562126561386 0.00061540146624048135 0 0.027422900632377227 0.0010461002000503629 0 0.027213068354924062 0.0010612070189035569 0 0.027204279600005696 0.00082281189158170344 0 0.027213068354924062 0.0010612070189035569 0 0.027204279600005696 0.00082281189158170344 0 0.027003490649048174 0.00095538862038584799 0 0.025507171105476598 -0.00060070841540663014 0 0.025697688628120639 -0.00047389409413954402 0 0.024893026302177688 -0.00050626371090273909 0 0.024190278526218873 -0.00035862334581368614 0 0.0266905717121005 0.0008393133795233463 0 0.026869562126561386 0.00061540146624048135 0 0.026430938580400139 0.00057758467703136491 0 0.026810195735087597 0.0010906426386631399 0 0.0266905717121005 0.0008393133795233463 0 0.027003490649048174 0.00095538862038584799 0 0.0266905717121005 0.0008393133795233463 0 0.027003490649048174 0.00095538862038584799 0 0.026869562126561386 0.00061540146624048135 0 0.026810195735087597 0.0010906426386631399 0 0.0266905717121005 0.0008393133795233463 0 0.026280920492630287 0.00095157572855049182 0 0.0266905717121005 0.0008393133795233463 0 0.026430938580400139 0.00057758467703136491 0 0.026280920492630287 0.00095157572855049182 0 0.024190278526218873 -0.00035862334581368614 0 0.024406293014301264 0.00062981237090457549 0 0.024362907255436921 0.0013788181944390347 0 0.024843544743802973 0.0014708738729882456 0 0.024462019901920824 0.0014364868091578504 0 0.024233970729231002 0.0013575392403041952 0 0.024362907255436921 0.0013788181944390347 0 0.024462019901920824 0.0014364868091578504 0 0.024197463839521705 -0.00032430704500152006 0 0.024190278526218873 -0.00035862334581368614 0 0.024406293014301264 0.00062981237090457549 0 0.024488871311944424 0.00094618971453471954 0 0.026280920492630287 0.00095157572855049182 0 0.026522166114261073 0.0015486267952099044 0 0.02591869010518924 0.0014855891138881117 0 0.026798910407306406 0.0013692816877844474 0 0.026810195735087597 0.0010906426386631399 0 0.026280920492630287 0.00095157572855049182 0 0.026798910407306406 0.0013692816877844474 0 0.026280920492630287 0.00095157572855049182 0 0.026522166114261073 0.0015486267952099044 0 0.024843544743802973 0.0014708738729882456 0 0.025243124620331577 0.0014799055152858169 0 0.024599156359226541 0.0014849958086638995 0 0.024843544743802973 0.0014708738729882456 0 0.025243124620331577 0.0014799055152858169 0 0.02591869010518924 0.0014855891138881117 0 0.024843544743802973 0.0014708738729882456 0 0.024599156359226541 0.0014849958086638995 0 0.024462019901920824 0.0014364868091578504 0 0.024188947664654802 0.0014264618143884167 0 0.024233970729231002 0.0013575392403041952 0 0.024462019901920824 0.0014364868091578504 0 0.023949642774242167 0.0015028693345973318 0 0.024188947664654802 0.0014264618143884167 0 0.024599156359226541 0.0014849958086638995 0 0.024188947664654802 0.0014264618143884167 0 0.024599156359226541 0.0014849958086638995 0 0.024462019901920824 0.0014364868091578504 0 0.023949642774242167 0.0015028693345973318 0 0.023997666475523548 0.0017139714695378265 0 0.024695092181583028 0.0015619436185827661 0 0.023949642774242167 0.0015028693345973318 0 0.024599156359226541 0.0014849958086638995 0 0.024695092181583028 0.0015619436185827661 0 0.023387591385458859 0.002095034073147531 0 0.023997666475523548 0.0017139714695378265 0 0.024590082591876981 0.0015868070814244156 0 0.023997666475523548 0.0017139714695378265 0 0.024590082591876981 0.0015868070814244156 0 0.024695092181583028 0.0015619436185827661 0 0.025102927512005331 0.0015288690128818392 0 0.024695092181583028 0.0015619436185827661 0 0.025449187652339181 0.0015464180401942936 0 0.024590082591876981 0.0015868070814244156 0 0.025102927512005331 0.0015288690128818392 0 0.024695092181583028 0.0015619436185827661 0 0.025243124620331577 0.0014799055152858169 0 0.024599156359226541 0.0014849958086638995 0 0.024695092181583028 0.0015619436185827661 0 0.025243124620331577 0.0014799055152858169 0 0.024695092181583028 0.0015619436185827661 0 0.025449187652339181 0.0015464180401942936 0 0.025243124620331577 0.0014799055152858169 0 0.025449187652339181 0.0015464180401942936 0 0.025923918875267429 0.0016269246920262331 0 0.025449187652339181 0.0015464180401942936 0 0.025888048143430983 0.0016056899554244867 0 0.025923918875267429 0.0016269246920262331 0 0.025888048143430983 0.0016056899554244867 0 0.025923918875267429 0.0016269246920262331 0 0.02628375637953528 0.0017225053884950465 0 0.025449187652339181 0.0015464180401942936 0 0.025544620681845192 0.0014875495547286531 0 0.025934622035152753 0.0015602937880852188 0 0.025102927512005331 0.0015288690128818392 0 0.025449187652339181 0.0015464180401942936 0 0.025544620681845192 0.0014875495547286531 0 0.025449187652339181 0.0015464180401942936 0 0.025888048143430983 0.0016056899554244867 0 0.025934622035152753 0.0015602937880852188 0 0.025544620681845192 0.0014875495547286531 0 0.025934622035152753 0.0015602937880852188 0 0.02601659720727887 0.0014751140677375493 0 0.025934622035152753 0.0015602937880852188 0 0.026355890727748868 0.0015145277579281552 0 0.02601659720727887 0.0014751140677375493 0 0.025934622035152753 0.0015602937880852188 0 0.026375527579629816 0.0015902745543972838 0 0.02628375637953528 0.0017225053884950465 0 0.025934622035152753 0.0015602937880852188 0 0.026375527579629816 0.0015902745543972838 0 0.026355890727748868 0.0015145277579281552 0 0.02628375637953528 0.0017225053884950465 0 0.02650244289114104 0.0017994830521634363 0 0.02823179909520358 0.0012279585409805474 0 0.025923918875267429 0.0016269246920262331 0 0.02628375637953528 0.0017225053884950465 0 0.02650244289114104 0.0017994830521634363 0 0.025888048143430983 0.0016056899554244867 0 0.025934622035152753 0.0015602937880852188 0 0.02628375637953528 0.0017225053884950465 0 0.025923918875267429 0.0016269246920262331 0 0.02650244289114104 0.0017994830521634363 0 0.026399456250367208 0.0017230240041176874 0 0.02650244289114104 0.0017994830521634363 0 0.026875702150658685 0.0018676551543557098 0 0.026399456250367208 0.0017230240041176874 0 0.02650244289114104 0.0017994830521634363 0 0.026875702150658685 0.0018676551543557098 0 0.027307780480846509 0.0019115552239781309 0 0.026875702150658685 0.0018676551543557098 0 0.026856455833675602 0.0018171616969210242 0 0.027217798803833765 0.0019137024045342607 0 0.027097278045065412 0.0018456142925148532 0 0.026856455833675602 0.0018171616969210242 0 0.027217798803833765 0.0019137024045342607 0 0.026875702150658685 0.0018676551543557098 0 0.026856455833675602 0.0018171616969210242 0 0.026399456250367208 0.0017230240041176874 0 0.02687633929442821 0.001668212106051207 0 0.026856455833675602 0.0018171616969210242 0 0.026522166114261073 0.0015486267952099044 0 0.026856455833675602 0.0018171616969210242 0 0.026522166114261073 0.0015486267952099044 0 0.026399456250367208 0.0017230240041176874 0 0.02687633929442821 0.001668212106051207 0 0.026798910407306406 0.0013692816877844474 0 0.026522166114261073 0.0015486267952099044 0 0.026522166114261073 0.0015486267952099044 0 0.02591869010518924 0.0014855891138881117 0 0.026399456250367208 0.0017230240041176874 0 0.025243124620331577 0.0014799055152858169 0 0.025923918875267429 0.0016269246920262331 0 0.02591869010518924 0.0014855891138881117 0 0.025923918875267429 0.0016269246920262331 0 0.02591869010518924 0.0014855891138881117 0 0.026399456250367208 0.0017230240041176874 0 0.028912303064720729 -0.0016684604506155788 0 0.029293992103989773 -0.0029365381558501295 0 0.030132806052809383 -0.0013235538294223883 0 0.025967379895264198 0.0011435789782346603 0 0.026072054831456415 0.0011935329956751339 0 0.026083271837710344 0.0013036989061768155 0 0.025568481721300062 0.00024855502450928964 0 0.027025547870695287 0.00040570917357648828 0 0.022482312866976308 -0.00019931543771475825 0 0.022490269199943617 -0.00020753686531693478 0 0.022487248018978175 -0.00019397923499666448 0 0.025967379895264198 0.0011435789782346603 0 0.026132306366590561 0.0010947240419574827 0 0.026072054831456415 0.0011935329956751339 0 0.025568481721300062 0.00024855502450928964 0 0.023855108618380895 0.0010508025830429557 0 0.023855108618380895 0.0010508025830429557 0 0.02330848025102002 0.001308487573140054 0 0.023855108618380895 0.0010508025830429557 0 0.024849545931680286 0.00141246222285578 0 0.026132306366590561 0.0010947240419574827 0 0.026072054831456415 0.0011935329956751339 0 0.026192559241559655 0.0012825349028622042 0 0.026072054831456415 0.0011935329956751339 0 0.026192559241559655 0.0012825349028622042 0 0.026083271837710344 0.0013036989061768155 0 0.025406055654858269 0.0017033473696832118 0 0.02537023879449311 0.0013795005801194337 0 0.025027242768322185 0.0014873918116060211 0 0.02537023879449311 0.0013795005801194337 0 0.025027242768322185 0.0014873918116060211 0 0.02524185687939148 0.0014454732718333118 0 0.023387591385458859 0.002095034073147531 0 0.025027242768322185 0.0014873918116060211 0 0.025433513696769269 0.0021262178177909557 0 0.025406055654858269 0.0017033473696832118 0 0.025027242768322185 0.0014873918116060211 0 0.02523194064520351 0.0017511086711280077 0 0.023753406455407324 0.0016295732008434532 0 0.02330848025102002 0.001308487573140054 0 0.023387591385458859 0.002095034073147531 0 0.024590082591876981 0.0015868070814244156 0 0.025027242768322185 0.0014873918116060211 0 0.024590082591876981 0.0015868070814244156 0 0.025027242768322185 0.0014873918116060211 0 0.02524185687939148 0.0014454732718333118 0 0.025102927512005331 0.0015288690128818392 0 0.025544620681845192 0.0014875495547286531 0 0.02524185687939148 0.0014454732718333118 0 0.024590082591876981 0.0015868070814244156 0 0.025102927512005331 0.0015288690128818392 0 0.02524185687939148 0.0014454732718333118 0 0.025544620681845192 0.0014875495547286531 0 0.02524185687939148 0.0014454732718333118 0 0.025675479345824214 0.0014391323988562853 0 0.025544620681845192 0.0014875495547286531 0 0.025675479345824214 0.0014391323988562853 0 0.02601659720727887 0.0014751140677375493 0 0.026355890727748868 0.0015145277579281552 0 0.02601659720727887 0.0014751140677375493 0 0.026457516515055669 0.0014203456372465049 0 0.02601659720727887 0.0014751140677375493 0 0.026457516515055669 0.0014203456372465049 0 0.026200360242334995 0.0014158766012397543 0 0.025675479345824214 0.0014391323988562853 0 0.02601659720727887 0.0014751140677375493 0 0.026200360242334995 0.0014158766012397543 0 0.024849545931680286 0.00141246222285578 0 0.02513148452597538 0.0014326631638786544 0 0.026192559241559655 0.0012825349028622042 0 0.026200360242334995 0.0014158766012397543 0 0.026199651712914222 0.0014177366925057736 0 0.02537023879449311 0.0013795005801194337 0 0.02524185687939148 0.0014454732718333118 0 0.025675479345824214 0.0014391323988562853 0 0.02537023879449311 0.0013795005801194337 0 0.025675479345824214 0.0014391323988562853 0 0.026200360242334995 0.0014158766012397543 0 0.027743099142043495 0.00062672071150273389 0 0.027025547870695287 0.00040570917357648828 0 0.026192559241559655 0.0012825349028622042 0 0.026199651712914222 0.0014177366925057736 0 0.026083271837710344 0.0013036989061768155 0 0.030479061444650259 0.00013358627348305236 0 0.029645683557223589 -0.00019492024515197978 0 0.030132806052809383 -0.0013235538294223883 0 0.030479061444650259 0.00013358627348305236 0 0.029645683557223589 -0.00019492024515197978 0 0.030049959513028895 0.00042952701458998706 0 0.028912303064720729 -0.0016684604506155788 0 0.029645683557223589 -0.00019492024515197978 0 0.030132806052809383 -0.0013235538294223883 0 0.030178484366307889 0.00052860309105987296 0 0.03017180104133077 0.00056572448191193189 0 0.029893409309286835 0.00070463570052834335 0 0.03017180104133077 0.00056572448191193189 0 0.030059184829329819 0.0006557392002362871 0 0.029893409309286835 0.00070463570052834335 0 0.030059184829329819 0.0006557392002362871 0 0.029893409309286835 0.00070463570052834335 0 0.029741322601640807 0.00053838093734574267 0 0.029042696209841703 0.0007796647520857832 0 0.029645683557223589 -0.00019492024515197978 0 0.029741322601640807 0.00053838093734574267 0 0.029645683557223589 -0.00019492024515197978 0 0.029741322601640807 0.00053838093734574267 0 0.030049959513028895 0.00042952701458998706 0 0.030059184829329819 0.0006557392002362871 0 0.029741322601640807 0.00053838093734574267 0 0.030049959513028895 0.00042952701458998706 0 0.030059184829329819 0.0006557392002362871 0 0.030049959513028895 0.00042952701458998706 0 0.03016385786944285 0.00063004744174208953 0 0.030479061444650259 0.00013358627348305236 0 0.030049959513028895 0.00042952701458998706 0 0.03016385786944285 0.00063004744174208953 0 0.030059184829329819 0.0006557392002362871 0 0.03016385786944285 0.00063004744174208953 0 0.030140778364150109 0.00064181395857490758 0 0.03017180104133077 0.00056572448191193189 0 0.030059184829329819 0.0006557392002362871 0 0.030140778364150109 0.00064181395857490758 0 0.03016385786944285 0.00063004744174208953 0 0.030140778364150109 0.00064181395857490758 0 0.029998695478985694 0.00088268326273058674 0 0.030140778364150109 0.00064181395857490758 0 0.029998695478985694 0.00088268326273058674 0 0.029958617042409409 0.00045067417481288799 0 0.029998695478985694 0.00088268326273058674 0 0.028692786405141894 0.00061806099672776275 0 0.029958617042409409 0.00045067417481288799 0 0.030479061444650259 0.00013358627348305236 0 0.03016385786944285 0.00063004744174208953 0 0.029998695478985694 0.00088268326273058674 0 0.026457516515055669 0.0014203456372465049 0 0.026200360242334995 0.0014158766012397543 0 0.026926746220494732 0.0013825887579896605 0 0.026200360242334995 0.0014158766012397543 0 0.026199651712914222 0.0014177366925057736 0 0.026926746220494732 0.0013825887579896605 0 0.027743099142043495 0.00062672071150273389 0 0.027991520568326281 0.00059847015810565501 0 0.026926746220494732 0.0013825887579896605 0 0.026790137063375529 0.0014121655743021826 0 0.027434119141729933 0.001232993275689451 0 0.026457516515055669 0.0014203456372465049 0 0.026926746220494732 0.0013825887579896605 0 0.026790137063375529 0.0014121655743021826 0 0.026355890727748868 0.0015145277579281552 0 0.026457516515055669 0.0014203456372465049 0 0.026790137063375529 0.0014121655743021826 0 0.026926746220494732 0.0013825887579896605 0 0.027434119141729933 0.001232993275689451 0 0.028692786405141894 0.00061806099672776275 0 0.027991520568326281 0.00059847015810565501 0 0.028009681083131423 0.00043815158895621931 0 0.027434119141729933 0.001232993275689451 0 0.028692786405141894 0.00061806099672776275 0 0.028141705514663117 0.00035508855154752422 0 0.028692786405141894 0.00061806099672776275 0 0.029621971724020223 0.00018311822042412065 0 0.029958617042409409 0.00045067417481288799 0 0.028692786405141894 0.00061806099672776275 0 0.029383881525742062 3.9416428208085801e-05 0 0.029621971724020223 0.00018311822042412065 0 0.028692786405141894 0.00061806099672776275 0 0.029383881525742062 3.9416428208085801e-05 0 0.028141705514663117 0.00035508855154752422 0 0.029383881525742062 3.9416428208085801e-05 0 0.028141705514663117 0.00035508855154752422 0 0.030212047060564268 -0.00053029451203344229 0 0.029383881525742062 3.9416428208085801e-05 0 0.03008448730606203 -0.00012327142074222323 0 0.030212047060564268 -0.00053029451203344229 0 0.029383881525742062 3.9416428208085801e-05 0 0.03008448730606203 -0.00012327142074222323 0 0.029621971724020223 0.00018311822042412065 0 0.03008448730606203 -0.00012327142074222323 0 0.030194827082313015 0.000136561738388145 0 0.029621971724020223 0.00018311822042412065 0 0.03008448730606203 -0.00012327142074222323 0 0.030194827082313015 0.000136561738388145 0 0.030522941886456115 -0.00013621256015798041 0 0.030194827082313015 0.000136561738388145 0 0.029621971724020223 0.00018311822042412065 0 0.029958617042409409 0.00045067417481288799 0 0.03017180104133077 0.00056572448191193189 0 0.030140778364150109 0.00064181395857490758 0 0.030297431264442433 0.00030321509029123192 0 0.030194827082313015 0.000136561738388145 0 0.029958617042409409 0.00045067417481288799 0 0.030297431264442433 0.00030321509029123192 0 0.030140778364150109 0.00064181395857490758 0 0.029958617042409409 0.00045067417481288799 0 0.030297431264442433 0.00030321509029123192 0 0.030194827082313015 0.000136561738388145 0 0.030297431264442433 0.00030321509029123192 0 0.030522941886456115 -0.00013621256015798041 0 0.030297431264442433 0.00030321509029123192 0 0.030522941886456115 -0.00013621256015798041 0 0.030517214520551474 4.9997251893292895e-05 0 0.030522941886456115 -0.00013621256015798041 0 0.030517214520551474 4.9997251893292895e-05 0 0.030678000905805591 -0.00015287555906898486 0 0.030517214520551474 4.9997251893292895e-05 0 0.030685281290200688 -6.899971275219046e-05 0 0.030678000905805591 -0.00015287555906898486 0 0.030517214520551474 4.9997251893292895e-05 0 0.030685281290200688 -6.899971275219046e-05 0 0.030534759012524362 0.00012381243822891041 0 0.030517214520551474 4.9997251893292895e-05 0 0.030534759012524362 0.00012381243822891041 0 0.030352527614857648 0.00032547487089371757 0 0.030400264918813338 0.0003383137528866485 0 0.030534759012524362 0.00012381243822891041 0 0.030352527614857648 0.00032547487089371757 0 0.030297431264442433 0.00030321509029123192 0 0.030517214520551474 4.9997251893292895e-05 0 0.030352527614857648 0.00032547487089371757 0 0.03017180104133077 0.00056572448191193189 0 0.030297431264442433 0.00030321509029123192 0 0.030352527614857648 0.00032547487089371757 0 0.030178484366307889 0.00052860309105987296 0 0.03017180104133077 0.00056572448191193189 0 0.030352527614857648 0.00032547487089371757 0 0.030178484366307889 0.00052860309105987296 0 0.030400264918813338 0.0003383137528866485 0 0.030352527614857648 0.00032547487089371757 0 0.027768178994899514 0.0018345021538472414 0 0.027307780480846509 0.0019115552239781309 0 0.028115785474051743 0.0019050595830248157 0 0.027768178994899514 0.0018345021538472414 0 0.028115785474051743 0.0019050595830248157 0 0.028439861209177682 0.001476113711254995 0 0.027768178994899514 0.0018345021538472414 0 0.028439861209177682 0.001476113711254995 0 0.027906665403755734 0.00152778914996011 0 0.027768178994899514 0.0018345021538472414 0 0.027509296984468825 0.0017930848606623091 0 0.027906665403755734 0.00152778914996011 0 0.027492303299585994 0.0014260971733186388 0 0.027509296984468825 0.0017930848606623091 0 0.027906665403755734 0.00152778914996011 0 0.027768178994899514 0.0018345021538472414 0 0.027509296984468825 0.0017930848606623091 0 0.027217798803833765 0.0019137024045342607 0 0.027219888421075828 0.0018401286556015053 0 0.027509296984468825 0.0017930848606623091 0 0.027217798803833765 0.0019137024045342607 0 0.026875702150658685 0.0018676551543557098 0 0.027217798803833765 0.0019137024045342607 0 0.027307780480846509 0.0019115552239781309 0 0.02650244289114104 0.0017994830521634363 0 0.027307780480846509 0.0019115552239781309 0 0.028115785474051743 0.0019050595830248157 0 0.027768178994899514 0.0018345021538472414 0 0.027217798803833765 0.0019137024045342607 0 0.027307780480846509 0.0019115552239781309 0 0.028091933625757581 0.0015494609152814692 0 0.028551957058324338 0.0011944673775514255 0 0.02650244289114104 0.0017994830521634363 0 0.02823179909520358 0.0012279585409805474 0 0.027781770713948366 0.0010086045279208348 0 0.027474968347004455 0.0013156773327511297 0 0.027830339643700186 0.0010437165639302958 0 0.026375527579629816 0.0015902745543972838 0 0.02628375637953528 0.0017225053884950465 0 0.026629567048314661 0.0013661614354572916 0 0.026375527579629816 0.0015902745543972838 0 0.026675272441605415 0.0014788131422938573 0 0.026629567048314661 0.0013661614354572916 0 0.027434119141729933 0.001232993275689451 0 0.026675272441605415 0.0014788131422938573 0 0.026629567048314661 0.0013661614354572916 0 0.026375527579629816 0.0015902745543972838 0 0.026355890727748868 0.0015145277579281552 0 0.026675272441605415 0.0014788131422938573 0 0.026355890727748868 0.0015145277579281552 0 0.026790137063375529 0.0014121655743021826 0 0.026675272441605415 0.0014788131422938573 0 0.026790137063375529 0.0014121655743021826 0 0.027434119141729933 0.001232993275689451 0 0.026675272441605415 0.0014788131422938573 0 0.02823179909520358 0.0012279585409805474 0 0.028663234170347242 0.00055911080296014882 0 0.029603833796784669 8.7382858373930513e-05 0 0.027434119141729933 0.001232993275689451 0 0.026629567048314661 0.0013661614354572916 0 0.028141705514663117 0.00035508855154752422 0 0.027830339643700186 0.0010437165639302958 0 0.028521049531639524 0.00041244582457813304 0 0.02823179909520358 0.0012279585409805474 0 0.027781770713948366 0.0010086045279208348 0 0.028663234170347242 0.00055911080296014882 0 0.027781770713948366 0.0010086045279208348 0 0.028663234170347242 0.00055911080296014882 0 0.028999986632381361 -0.00011907622638542088 0 0.028663234170347242 0.00055911080296014882 0 0.029603833796784669 8.7382858373930513e-05 0 0.028999986632381361 -0.00011907622638542088 0 0.028551957058324338 0.0011944673775514255 0 0.029524869532126696 0.0003138649636190942 0 0.029603833796784669 8.7382858373930513e-05 0 0.029778230434088448 -0.00033900501191497554 0 0.030212047060564268 -0.00053029451203344229 0 0.028521049531639524 0.00041244582457813304 0 0.028924962197381693 8.0015305291524592e-07 0 0.029603833796784669 8.7382858373930513e-05 0 0.029778230434088448 -0.00033900501191497554 0 0.028999986632381361 -0.00011907622638542088 0 0.029745682498537537 0.00091091325422718668 0 0.02846568627402973 0.000737452708837333 0 0.029697532805381403 2.9396124716071208e-05 0 0.029745682498537537 0.00091091325422718668 0 0.028439861209177682 0.001476113711254995 0 0.02846568627402973 0.000737452708837333 0 0.028439861209177682 0.001476113711254995 0 0.027906665403755734 0.00152778914996011 0 0.02846568627402973 0.000737452708837333 0 0.028115785474051743 0.0019050595830248157 0 0.029745682498537537 0.00091091325422718668 0 0.028439861209177682 0.001476113711254995 0 0.027492303299585994 0.0014260971733186388 0 0.027906665403755734 0.00152778914996011 0 0.02846568627402973 0.000737452708837333 0 0.027492303299585994 0.0014260971733186388 0 0.027324693879470202 0.00089610862919887048 0 0.02846568627402973 0.000737452708837333 0 0.027324693879470202 0.00089610862919887048 0 0.02846568627402973 0.000737452708837333 0 0.028780901001482173 -0.00056054330421577577 0 0.03039949241086394 -0.00035692546028436641 0 0.030863140844189663 -0.00090508200587317779 0 0.033319447594555456 -0.001713270384510787 0 0.033299778209183666 -0.0022616793065631719 0 0.033419420193507368 -0.0021223282638000887 0 0.033299778209183666 -0.0022616793065631719 0 0.0334879377107287 -0.0019207902453482783 0 0.033419420193507368 -0.0021223282638000887 0 0.033299778209183666 -0.0022616793065631719 0 0.0334879377107287 -0.0019207902453482783 0 0.033164532375359282 -0.001615049962313211 0 0.0334879377107287 -0.0019207902453482783 0 0.033164532375359282 -0.001615049962313211 0 0.033609155326269895 -0.0015424074744069462 0 0.030863140844189663 -0.00090508200587317779 0 0.03109298688926939 -0.0010921326324057235 0 0.033299778209183666 -0.0022616793065631719 0 0.033164532375359282 -0.001615049962313211 0 0.031892024403934058 -0.0015060428385528515 0 0.028780901001482173 -0.00056054330421577577 0 0.03149564748734987 -0.0010566802514868278 0 0.031892024403934058 -0.0015060428385528515 0 0.02846568627402973 0.000737452708837333 0 0.028780901001482173 -0.00056054330421577577 0 0.029697532805381403 2.9396124716071208e-05 0 0.028780901001482173 -0.00056054330421577577 0 0.029697532805381403 2.9396124716071208e-05 0 0.03149564748734987 -0.0010566802514868278 0 0.029524869532126696 0.0003138649636190942 0 0.030593382910448778 -0.00052339343321321924 0 0.029745682498537537 0.00091091325422718668 0 0.029697532805381403 2.9396124716071208e-05 0 0.03149564748734987 -0.0010566802514868278 0 0.029778230434088448 -0.00033900501191497554 0 0.028999986632381361 -0.00011907622638542088 0 0.030301719894961436 -0.00058519143304690453 0 0.029778230434088448 -0.00033900501191497554 0 0.030301719894961436 -0.00058519143304690453 0 0.030212047060564268 -0.00053029451203344229 0 0.031021614679359977 -0.00062218062418045337 0 0.030301719894961436 -0.00058519143304690453 0 0.030212047060564268 -0.00053029451203344229 0 0.03149564748734987 -0.0010566802514868278 0 0.032382948856843848 -0.0013262313280679103 0 0.031892024403934058 -0.0015060428385528515 0 0.031021614679359977 -0.00062218062418045337 0 0.030301719894961436 -0.00058519143304690453 0 0.031606496203981066 -0.00064082004370804625 0 0.032382948856843848 -0.0013262313280679103 0 0.031892024403934058 -0.0015060428385528515 0 0.032709272396106555 -0.0012434576726891595 0 0.030593382910448778 -0.00052339343321321924 0 0.031425077177070881 -0.00072642819633736194 0 0.031021614679359977 -0.00062218062418045337 0 0.031606496203981066 -0.00064082004370804625 0 0.031958399764583541 -0.00061236119208258949 0 0.031021614679359977 -0.00062218062418045337 0 0.031958399764583541 -0.00061236119208258949 0 0.03165312784174492 -0.00062256443482430323 0 0.031606496203981066 -0.00064082004370804625 0 0.031958399764583541 -0.00061236119208258949 0 0.033136612976536049 -0.00042849938566930556 0 0.031958399764583541 -0.00061236119208258949 0 0.03165312784174492 -0.00062256443482430323 0 0.032373902855810321 -0.00053952189517128058 0 0.031425077177070881 -0.00072642819633736194 0 0.031786586648033431 -0.00059892058954947528 0 0.032382948856843848 -0.0013262313280679103 0 0.033074433459925931 -0.00080822675818290881 0 0.033178727527193995 -0.00095770868004702253 0 0.032382948856843848 -0.0013262313280679103 0 0.033074433459925931 -0.00080822675818290881 0 0.033136612976536049 -0.00042849938566930556 0 0.033074433459925931 -0.00080822675818290881 0 0.033178727527193995 -0.00095770868004702253 0 0.033622720929813638 -0.0006225096132297796 0 0.033178727527193995 -0.00095770868004702253 0 0.033837834278026578 -0.00084135931290870661 0 0.033390805210928111 -0.0011835729634876121 0 0.033178727527193995 -0.00095770868004702253 0 0.033837834278026578 -0.00084135931290870661 0 0.033622720929813638 -0.0006225096132297796 0 0.033837834278026578 -0.00084135931290870661 0 0.033390805210928111 -0.0011835729634876121 0 0.03378857015382989 -0.0011983099719259352 0 0.033390805210928111 -0.0011835729634876121 0 0.03378857015382989 -0.0011983099719259352 0 0.033609155326269895 -0.0015424074744069462 0 0.033164532375359282 -0.001615049962313211 0 0.033390805210928111 -0.0011835729634876121 0 0.033609155326269895 -0.0015424074744069462 0 0.033164532375359282 -0.001615049962313211 0 0.033390805210928111 -0.0011835729634876121 0 0.032709272396106555 -0.0012434576726891595 0 0.032382948856843848 -0.0013262313280679103 0 0.033178727527193995 -0.00095770868004702253 0 0.032709272396106555 -0.0012434576726891595 0 0.033164532375359282 -0.001615049962313211 0 0.031892024403934058 -0.0015060428385528515 0 0.032709272396106555 -0.0012434576726891595 0 0.033178727527193995 -0.00095770868004702253 0 0.033390805210928111 -0.0011835729634876121 0 0.032709272396106555 -0.0012434576726891595 0 0.030922712535443736 -0.00039964167110471304 0 0.031096038243614489 -0.0005542099300739411 0 0.031133613895881308 -0.00057413161087836002 0 0.03085180152603666 -0.00023406149544341788 0 0.030922712535443736 -0.00039964167110471304 0 0.031133613895881308 -0.00057413161087836002 0 0.03085180152603666 -0.00023406149544341788 0 0.030922712535443736 -0.00039964167110471304 0 0.030787849394605309 -0.00023896930477540864 0 0.030685281290200688 -6.899971275219046e-05 0 0.030787849394605309 -0.00023896930477540864 0 0.030678000905805591 -0.00015287555906898486 0 0.030522941886456115 -0.00013621256015798041 0 0.030678000905805591 -0.00015287555906898486 0 0.030802093531484109 -0.00030860112834567614 0 0.030787849394605309 -0.00023896930477540864 0 0.030678000905805591 -0.00015287555906898486 0 0.030802093531484109 -0.00030860112834567614 0 0.030922712535443736 -0.00039964167110471304 0 0.030787849394605309 -0.00023896930477540864 0 0.030802093531484109 -0.00030860112834567614 0 0.030922712535443736 -0.00039964167110471304 0 0.030802093531484109 -0.00030860112834567614 0 0.030812630501004062 -0.00039685986575828044 0 0.030522941886456115 -0.00013621256015798041 0 0.030802093531484109 -0.00030860112834567614 0 0.030812630501004062 -0.00039685986575828044 0 0.030522941886456115 -0.00013621256015798041 0 0.030812630501004062 -0.00039685986575828044 0 0.030543182326180071 -0.00038413352964205682 0 0.030812630501004062 -0.00039685986575828044 0 0.030928655887922214 -0.00052401265733726613 0 0.030543182326180071 -0.00038413352964205682 0 0.030812630501004062 -0.00039685986575828044 0 0.030928655887922214 -0.00052401265733726613 0 0.031096038243614489 -0.0005542099300739411 0 0.030922712535443736 -0.00039964167110471304 0 0.030812630501004062 -0.00039685986575828044 0 0.031096038243614489 -0.0005542099300739411 0 0.030928655887922214 -0.00052401265733726613 0 0.031096038243614489 -0.0005542099300739411 0 0.031290724326123801 -0.00061239197962018022 0 0.03082013348185662 -0.00055492122739006977 0 0.03106865283353728 -0.00061556500392562501 0 0.031290724326123801 -0.00061239197962018022 0 0.030928655887922214 -0.00052401265733726613 0 0.03082013348185662 -0.00055492122739006977 0 0.031290724326123801 -0.00061239197962018022 0 0.030928655887922214 -0.00052401265733726613 0 0.03082013348185662 -0.00055492122739006977 0 0.030543182326180071 -0.00038413352964205682 0 0.03008448730606203 -0.00012327142074222323 0 0.030522941886456115 -0.00013621256015798041 0 0.030543182326180071 -0.00038413352964205682 0 0.03008448730606203 -0.00012327142074222323 0 0.030543182326180071 -0.00038413352964205682 0 0.030212047060564268 -0.00053029451203344229 0 0.03082013348185662 -0.00055492122739006977 0 0.030543182326180071 -0.00038413352964205682 0 0.030212047060564268 -0.00053029451203344229 0 0.03082013348185662 -0.00055492122739006977 0 0.030212047060564268 -0.00053029451203344229 0 0.03106865283353728 -0.00061556500392562501 0 0.031021614679359977 -0.00062218062418045337 0 0.030212047060564268 -0.00053029451203344229 0 0.03106865283353728 -0.00061556500392562501 0 0.03106865283353728 -0.00061556500392562501 0 0.03165312784174492 -0.00062256443482430323 0 0.031750497142902623 -0.00061558426525683925 0 0.031021614679359977 -0.00062218062418045337 0 0.03106865283353728 -0.00061556500392562501 0 0.03165312784174492 -0.00062256443482430323 0 0.03165312784174492 -0.00062256443482430323 0 0.031750497142902623 -0.00061558426525683925 0 0.032373902855810321 -0.00053952189517128058 0 0.031750497142902623 -0.00061558426525683925 0 0.032369327171191078 -0.00049139438353194224 0 0.032373902855810321 -0.00053952189517128058 0 0.031750497142902623 -0.00061558426525683925 0 0.031810813528123316 -0.00058607529787139815 0 0.032369327171191078 -0.00049139438353194224 0 0.031750497142902623 -0.00061558426525683925 0 0.031290724326123801 -0.00061239197962018022 0 0.031810813528123316 -0.00058607529787139815 0 0.03106865283353728 -0.00061556500392562501 0 0.031750497142902623 -0.00061558426525683925 0 0.031290724326123801 -0.00061239197962018022 0 0.031290724326123801 -0.00061239197962018022 0 0.031401543035963445 -0.00060038531982665316 0 0.031810813528123316 -0.00058607529787139815 0 0.031096038243614489 -0.0005542099300739411 0 0.031290724326123801 -0.00061239197962018022 0 0.031401543035963445 -0.00060038531982665316 0 0.031810813528123316 -0.00058607529787139815 0 0.031655522382076723 -0.00053773476888923527 0 0.032292479849979502 -0.00043699765074555212 0 0.031401543035963445 -0.00060038531982665316 0 0.031810813528123316 -0.00058607529787139815 0 0.031655522382076723 -0.00053773476888923527 0 0.032899290390381093 3.9810149912661745e-06 0 0.032481959400619799 -1.4966149771030766e-05 0 0.032083394581027755 -0.00023366757946978862 0 0.032341819734568553 -0.00021834273341100335 0 0.031794321826144348 -0.00028093259760178122 0 0.031401543035963445 -0.00060038531982665316 0 0.031655522382076723 -0.00053773476888923527 0 0.031133613895881308 -0.00057413161087836002 0 0.032075391203159255 -0.00014405054724752979 0 0.032481959400619799 -1.4966149771030766e-05 0 0.032083394581027755 -0.00023366757946978862 0 0.031096038243614489 -0.0005542099300739411 0 0.031401543035963445 -0.00060038531982665316 0 0.031133613895881308 -0.00057413161087836002 0 0.034962435352262879 -4.8339422727760698e-06 0 0.034964784016302188 -5.7602428959419783e-06 0 0.034978433302073106 -2.9727845093496283e-06 0 0.03497779626119623 -3.0397116695070002e-07 0 0.034987440985856585 -1.4868128018553388e-06 0 0.033665368920881122 0.00010876644040927916 0 0.034332526073178382 -2.7254908049499234e-05 0 0.034962435352262879 -4.8339422727760698e-06 0 0.034950482922524222 4.4405903682902131e-06 0 0.034964784016302188 -5.7602428959419783e-06 0 0.032899290390381093 3.9810149912661745e-06 0 0.032481959400619799 -1.4966149771030766e-05 0 0.033202411780757016 0.0001694502979173018 0 0.032838140210918201 0.00043346247515210052 0 0.033665368920881122 0.00010876644040927916 0 0.032341819734568553 -0.00021834273341100335 0 0.03293717691798239 -5.2859714588139465e-05 0 0.031655522382076723 -0.00053773476888923527 0 0.032292479849979502 -0.00043699765074555212 0 0.032667164116131443 -0.00017322540832627996 0 0.032899290390381093 3.9810149912661745e-06 0 0.033202411780757016 0.0001694502979173018 0 0.033713702666272737 0.00019021442848908679 0 0.032292479849979502 -0.00043699765074555212 0 0.032667164116131443 -0.00017322540832627996 0 0.032939881834066445 -0.00029996150420264189 0 0.033202411780757016 0.0001694502979173018 0 0.033713702666272737 0.00019021442848908679 0 0.033964961907023916 0.00021063939564869004 0 0.032667164116131443 -0.00017322540832627996 0 0.032939881834066445 -0.00029996150420264189 0 0.033626665469120784 -7.2692188693437775e-05 0 0.032939881834066445 -0.00029996150420264189 0 0.033583507488899059 -0.00015157410548657672 0 0.033626665469120784 -7.2692188693437775e-05 0 0.032292479849979502 -0.00043699765074555212 0 0.032939881834066445 -0.00029996150420264189 0 0.032369327171191078 -0.00049139438353194224 0 0.031810813528123316 -0.00058607529787139815 0 0.032292479849979502 -0.00043699765074555212 0 0.032369327171191078 -0.00049139438353194224 0 0.032939881834066445 -0.00029996150420264189 0 0.032369327171191078 -0.00049139438353194224 0 0.032880345631623911 -0.00038915679557757001 0 0.032369327171191078 -0.00049139438353194224 0 0.032373902855810321 -0.00053952189517128058 0 0.032880345631623911 -0.00038915679557757001 0 0.032939881834066445 -0.00029996150420264189 0 0.032880345631623911 -0.00038915679557757001 0 0.033583507488899059 -0.00015157410548657672 0 0.032880345631623911 -0.00038915679557757001 0 0.033583507488899059 -0.00015157410548657672 0 0.033136612976536049 -0.00042849938566930556 0 0.033583507488899059 -0.00015157410548657672 0 0.034243745963186092 -1.0546809436565116e-05 0 0.0341703751135762 -6.3477128549211222e-05 0 0.033583507488899059 -0.00015157410548657672 0 0.034243745963186092 -1.0546809436565116e-05 0 0.033626665469120784 -7.2692188693437775e-05 0 0.034243745963186092 -1.0546809436565116e-05 0 0.034998916321562074 4.7499990367999339e-08 0 0.0341703751135762 -6.3477128549211222e-05 0 0.034243745963186092 -1.0546809436565116e-05 0 0.034998916321562074 4.7499990367999339e-08 0 0.034506730765524858 8.9628951157111924e-05 0 0.034998916321562074 4.7499990367999339e-08 0 0.034506730765524858 8.9628951157111924e-05 0 0.034997831149449675 1.5257407408699934e-07 0 0.034243745963186092 -1.0546809436565116e-05 0 0.034506730765524858 8.9628951157111924e-05 0 0.033626665469120784 -7.2692188693437775e-05 0 0.032667164116131443 -0.00017322540832627996 0 0.034506730765524858 8.9628951157111924e-05 0 0.033626665469120784 -7.2692188693437775e-05 0 0.03293717691798239 -5.2859714588139465e-05 0 0.03327595521872919 5.4938770398056365e-05 0 0.033713702666272737 0.00019021442848908679 0 0.034506730765524858 8.9628951157111924e-05 0 0.033964961907023916 0.00021063939564869004 0 0.034985577005219738 -2.7586838771052415e-06 0 0.03500000768394014 -2.6746770077361976e-09 0 0.034999968759327017 3.9233507601872139e-09 0 0.034506730765524858 8.9628951157111924e-05 0 0.033964961907023916 0.00021063939564869004 0 0.034997831149449675 1.5257407408699934e-07 0 0.034332526073178382 -2.7254908049499234e-05 0 0.034998695642213112 6.1381035343164811e-09 0 0.034999974692251003 -5.9220388652791821e-10 0 0.034987440985856585 -1.4868128018553388e-06 0 0.034990616207735033 1.5227708902593934e-06 0 0.034999991176683114 1.2907083397833852e-09 0 0.034988292418348964 1.7590347702276324e-06 0 0.034985577005219738 -2.7586838771052415e-06 0 0.034999968759327017 3.9233507601872139e-09 0 0.034978433302073106 -2.9727845093496283e-06 0 0.034964784016302188 -5.7602428959419783e-06 0 0.034985577005219738 -2.7586838771052415e-06 0 0.034978433302073106 -2.9727845093496283e-06 0 0.034064731179282902 -0.00028545635429733671 0 0.033136612976536049 -0.00042849938566930556 0 0.034345855066208325 -6.8999750357668559e-05 0 0.034064731179282902 -0.00028545635429733671 0 0.034585466805090094 -9.7735930181159337e-05 0 0.034197477980059968 -0.00045893020014197919 0 0.034064731179282902 -0.00028545635429733671 0 0.033622720929813638 -0.0006225096132297796 0 0.034197477980059968 -0.00045893020014197919 0 0.033837834278026578 -0.00084135931290870661 0 0.033622720929813638 -0.0006225096132297796 0 0.034197477980059968 -0.00045893020014197919 0 0.034064731179282902 -0.00028545635429733671 0 0.033622720929813638 -0.0006225096132297796 0 0.033136612976536049 -0.00042849938566930556 0 0.033074433459925931 -0.00080822675818290881 0 0.033622720929813638 -0.0006225096132297796 0 0.033136612976536049 -0.00042849938566930556 0 0.031958399764583541 -0.00061236119208258949 0 0.032373902855810321 -0.00053952189517128058 0 0.033136612976536049 -0.00042849938566930556 0 0.032373902855810321 -0.00053952189517128058 0 0.032880345631623911 -0.00038915679557757001 0 0.033136612976536049 -0.00042849938566930556 0 0.033583507488899059 -0.00015157410548657672 0 0.033136612976536049 -0.00042849938566930556 0 0.0341703751135762 -6.3477128549211222e-05 0 0.033136612976536049 -0.00042849938566930556 0 0.0341703751135762 -6.3477128549211222e-05 0 0.034345855066208325 -6.8999750357668559e-05 0 0.034998916321562074 4.7499990367999339e-08 0 0.0341703751135762 -6.3477128549211222e-05 0 0.034999017335929403 -6.8346822613969229e-11 0 0.0341703751135762 -6.3477128549211222e-05 0 0.034999017335929403 -6.8346822613969229e-11 0 0.034345855066208325 -6.8999750357668559e-05 0 0.034999017335929403 -6.8346822613969229e-11 0 0.034345855066208325 -6.8999750357668559e-05 0 0.034999349890653071 3.8046415774988525e-08 0 0.034064731179282902 -0.00028545635429733671 0 0.034345855066208325 -6.8999750357668559e-05 0 0.034585466805090094 -9.7735930181159337e-05 0 0.034999349890653071 3.8046415774988525e-08 0 0.034999650818558554 -1.7085907715794736e-08 0 0.034585466805090094 -9.7735930181159337e-05 0 0.034345855066208325 -6.8999750357668559e-05 0 0.034999349890653071 3.8046415774988525e-08 0 0.034585466805090094 -9.7735930181159337e-05 0 0.034999650818558554 -1.7085907715794736e-08 0 0.034844399838529549 -7.1296609591115761e-05 0 0.034585466805090094 -9.7735930181159337e-05 0 0.034999650818558554 -1.7085907715794736e-08 0 0.034844399838529549 -7.1296609591115761e-05 0 0.034999861141177063 -1.8321062190001897e-08 0 0.034844399838529549 -7.1296609591115761e-05 0 0.034841871696284187 -0.00019237637747477178 0 0.034596005430538194 -0.00028937864707490361 0 0.034844399838529549 -7.1296609591115761e-05 0 0.034585466805090094 -9.7735930181159337e-05 0 0.034596005430538194 -0.00028937864707490361 0 0.034999861141177063 -1.8321062190001897e-08 0 0.034969059271967903 -5.9066581887531282e-05 0 0.035000028975565971 -3.2985603991942567e-08 0 0.034844399838529549 -7.1296609591115761e-05 0 0.034999861141177063 -1.8321062190001897e-08 0 0.034969059271967903 -5.9066581887531282e-05 0 0.034844399838529549 -7.1296609591115761e-05 0 0.034969059271967903 -5.9066581887531282e-05 0 0.034841871696284187 -0.00019237637747477178 0 0.034969059271967903 -5.9066581887531282e-05 0 0.035006704416923926 -0.00019749928797148914 0 0.034841871696284187 -0.00019237637747477178 0 0.034822994083264031 -0.00026341712821794001 0 0.034802145058711993 -0.00030774873672402553 0 0.035006704416923926 -0.00019749928797148914 0 0.034841871696284187 -0.00019237637747477178 0 0.034791749024203365 -0.00042877286418294201 0 0.034841871696284187 -0.00019237637747477178 0 0.034791749024203365 -0.00042877286418294201 0 0.034596005430538194 -0.00028937864707490361 0 0.034791749024203365 -0.00042877286418294201 0 0.034596005430538194 -0.00028937864707490361 0 0.03475688362430257 -0.00044861084623244626 0 0.034791749024203365 -0.00042877286418294201 0 0.03475688362430257 -0.00044861084623244626 0 0.034714820069815244 -0.0004125449095587851 0 0.034791749024203365 -0.00042877286418294201 0 0.034714820069815244 -0.0004125449095587851 0 0.034631192177328449 -0.00047442615728024272 0 0.034598797186294689 -0.0004654207540481808 0 0.034791749024203365 -0.00042877286418294201 0 0.034631192177328449 -0.00047442615728024272 0 0.034585466805090094 -9.7735930181159337e-05 0 0.034596005430538194 -0.00028937864707490361 0 0.034197477980059968 -0.00045893020014197919 0 0.034378584203588664 -0.00055667368590118572 0 0.034389192480539288 -0.00076951845230088182 0 0.034596005430538194 -0.00028937864707490361 0 0.034246020982881695 -0.00072677582971143522 0 0.034371716026827752 -0.00084750306346895263 0 0.034596005430538194 -0.00028937864707490361 0 0.034371716026827752 -0.00084750306346895263 0 0.034553121171363381 -0.00078969127467739533 0 0.033837834278026578 -0.00084135931290870661 0 0.034197477980059968 -0.00045893020014197919 0 0.034246020982881695 -0.00072677582971143522 0 0.034596005430538194 -0.00028937864707490361 0 0.034197477980059968 -0.00045893020014197919 0 0.034246020982881695 -0.00072677582971143522 0 0.033837834278026578 -0.00084135931290870661 0 0.034246020982881695 -0.00072677582971143522 0 0.034091347485667174 -0.0010318728347136557 0 0.033837834278026578 -0.00084135931290870661 0 0.034091347485667174 -0.0010318728347136557 0 0.03378857015382989 -0.0011983099719259352 0 0.034091347485667174 -0.0010318728347136557 0 0.03378857015382989 -0.0011983099719259352 0 0.033968963803894442 -0.001390386554770274 0 0.03378857015382989 -0.0011983099719259352 0 0.033968963803894442 -0.001390386554770274 0 0.033609155326269895 -0.0015424074744069462 0 0.033968963803894442 -0.001390386554770274 0 0.034270256457718209 -0.0012117358923829681 0 0.034104131459016786 -0.0016364764285137247 0 0.034270256457718209 -0.0012117358923829681 0 0.034470713248207899 -0.0013695908731067284 0 0.034104131459016786 -0.0016364764285137247 0 0.034091347485667174 -0.0010318728347136557 0 0.033968963803894442 -0.001390386554770274 0 0.034270256457718209 -0.0012117358923829681 0 0.034270256457718209 -0.0012117358923829681 0 0.034371716026827752 -0.00084750306346895263 0 0.034505661895279975 -0.0011109137477821023 0 0.034091347485667174 -0.0010318728347136557 0 0.034270256457718209 -0.0012117358923829681 0 0.034371716026827752 -0.00084750306346895263 0 0.034246020982881695 -0.00072677582971143522 0 0.034091347485667174 -0.0010318728347136557 0 0.034371716026827752 -0.00084750306346895263 0 0.034553121171363381 -0.00078969127467739533 0 0.034505661895279975 -0.0011109137477821023 0 0.034891597875553224 -0.0013410896475978542 0 0.034389192480539288 -0.00076951845230088182 0 0.034248282844465627 -0.0012278569491380319 0 0.034371716026827752 -0.00084750306346895263 0 0.034553121171363381 -0.00078969127467739533 0 0.034505661895279975 -0.0011109137477821023 0 0.034714820069815244 -0.0004125449095587851 0 0.034709856221631863 -0.00032559775636141041 0 0.034614375968470855 -0.00039156126344244458 0 0.03475688362430257 -0.00044861084623244626 0 0.034714820069815244 -0.0004125449095587851 0 0.034709856221631863 -0.00032559775636141041 0 0.034505661895279975 -0.0011109137477821023 0 0.034891597875553224 -0.0013410896475978542 0 0.034470713248207899 -0.0013695908731067284 0 0.034891597875553224 -0.0013410896475978542 0 0.034470713248207899 -0.0013695908731067284 0 0.034562641035954578 -0.0016741224648750847 0 0.034270256457718209 -0.0012117358923829681 0 0.034505661895279975 -0.0011109137477821023 0 0.034470713248207899 -0.0013695908731067284 0 0.034470713248207899 -0.0013695908731067284 0 0.034562641035954578 -0.0016741224648750847 0 0.034104131459016786 -0.0016364764285137247 0 0.034562641035954578 -0.0016741224648750847 0 0.033975003020359926 -0.0020087644848507239 0 0.034104131459016786 -0.0016364764285137247 0 0.034103663226341403 -0.0015099586764483488 0 0.034055809901420167 -0.0016001546502568723 0 0.033611757542900793 -0.0020451629894765681 0 0.033608451143396022 -0.0020073620814519016 0 0.033640681672013485 -0.0018966183576171023 0 0.034248282844465627 -0.0012278569491380319 0 0.034191196047517483 -0.0013507081266698447 0 0.034248282844465627 -0.0012278569491380319 0 0.034103663226341403 -0.0015099586764483488 0 0.033611757542900793 -0.0020451629894765681 0 0.033682413508224859 -0.0020814477719142718 0 0.033608451143396022 -0.0020073620814519016 0 0.033682413508224859 -0.0020814477719142718 0 0.033608451143396022 -0.0020073620814519016 0 0.033604286287821215 -0.0020444190426667755 0 0.033608451143396022 -0.0020073620814519016 0 0.033503326093317874 -0.0020647470040526406 0 0.033640681672013485 -0.0018966183576171023 0 0.033608451143396022 -0.0020073620814519016 0 0.033604286287821215 -0.0020444190426667755 0 0.033503326093317874 -0.0020647470040526406 0 0.033604286287821215 -0.0020444190426667755 0 0.033481681711116373 -0.0020419291834416976 0 0.033694193602263271 -0.0020196543092194786 0 0.033390166608760326 -0.0020271490229564434 0 0.033481681711116373 -0.0020419291834416976 0 0.033503326093317874 -0.0020647470040526406 0 0.033604286287821215 -0.0020444190426667755 0 0.033481681711116373 -0.0020419291834416976 0 0.033503326093317874 -0.0020647470040526406 0 0.033682413508224859 -0.0020814477719142718 0 0.033789617172586231 -0.0020199702595341011 0 0.033975003020359926 -0.0020087644848507239 0 0.033682413508224859 -0.0020814477719142718 0 0.033604286287821215 -0.0020444190426667755 0 0.033789617172586231 -0.0020199702595341011 0 0.033933130514246609 -0.0020546117231515283 0 0.033789617172586231 -0.0020199702595341011 0 0.033975003020359926 -0.0020087644848507239 0 0.033604286287821215 -0.0020444190426667755 0 0.033789617172586231 -0.0020199702595341011 0 0.033694193602263271 -0.0020196543092194786 0 0.033933130514246609 -0.0020546117231515283 0 0.033789617172586231 -0.0020199702595341011 0 0.033694193602263271 -0.0020196543092194786 0 0.032920774084711751 -0.0018753936744814836 0 0.033122837461652323 -0.0019659056580871295 0 0.033933130514246609 -0.0020546117231515283 0 0.033975003020359926 -0.0020087644848507239 0 0.03378883397788858 -0.0019470048289189515 0 0.033933130514246609 -0.0020546117231515283 0 0.03378883397788858 -0.0019470048289189515 0 0.033419420193507368 -0.0021223282638000887 0 0.0334879377107287 -0.0019207902453482783 0 0.03378883397788858 -0.0019470048289189515 0 0.033419420193507368 -0.0021223282638000887 0 0.0334879377107287 -0.0019207902453482783 0 0.03378883397788858 -0.0019470048289189515 0 0.033793215277941512 -0.001718546973518008 0 0.0334879377107287 -0.0019207902453482783 0 0.033609155326269895 -0.0015424074744069462 0 0.033793215277941512 -0.001718546973518008 0 0.033968963803894442 -0.001390386554770274 0 0.033609155326269895 -0.0015424074744069462 0 0.033793215277941512 -0.001718546973518008 0 0.033968963803894442 -0.001390386554770274 0 0.033793215277941512 -0.001718546973518008 0 0.034104131459016786 -0.0016364764285137247 0 0.033975003020359926 -0.0020087644848507239 0 0.03378883397788858 -0.0019470048289189515 0 0.034104131459016786 -0.0016364764285137247 0 0.03378883397788858 -0.0019470048289189515 0 0.033793215277941512 -0.001718546973518008 0 0.034104131459016786 -0.0016364764285137247 0 0.034558466631199228 -0.0018660580534662363 0 0.034619714150523458 -0.001569230066085133 0 0.034846867395502731 -0.0017311983632522379 0 0.034558466631199228 -0.0018660580534662363 0 0.034619714150523458 -0.001569230066085133 0 0.034393454626893839 -0.0017164266902969572 0 0.034619714150523458 -0.001569230066085133 0 0.034393454626893839 -0.0017164266902969572 0 0.034345460735148561 -0.0015065808701874954 0 0.034619714150523458 -0.001569230066085133 0 0.034846867395502731 -0.0017311983632522379 0 0.03486503152140108 -0.0014610127173897778 0 0.035047991828515319 -0.0015963227380380485 0 0.034846867395502731 -0.0017311983632522379 0 0.03486503152140108 -0.0014610127173897778 0 0.035047991828515319 -0.0015963227380380485 0 0.035066366628358589 -0.0013797951081678198 0 0.035223536192002282 -0.0015049243105625834 0 0.035047991828515319 -0.0015963227380380485 0 0.035066366628358589 -0.0013797951081678198 0 0.03486503152140108 -0.0014610127173897778 0 0.035047991828515319 -0.0015963227380380485 0 0.035052325605109153 -0.0018144592147534156 0 0.035202968998625558 -0.0016878543425097464 0 0.035047991828515319 -0.0015963227380380485 0 0.034846867395502731 -0.0017311983632522379 0 0.035052325605109153 -0.0018144592147534156 0 0.03163653855122453 -0.0019572839445204386 0 0.031805896885924015 -0.0018220938590486715 0 0.034866326582879061 -0.0021161412286083985 0 0.035052325605109153 -0.0018144592147534156 0 0.035265722161841262 -0.0019015559766170085 0 0.034846867395502731 -0.0017311983632522379 0 0.034866326582879061 -0.0021161412286083985 0 0.035052325605109153 -0.0018144592147534156 0 0.034558466631199228 -0.0018660580534662363 0 0.034866326582879061 -0.0021161412286083985 0 0.034271792067619954 -0.0021905239071271705 0 0.03163653855122453 -0.0019572839445204386 0 0.033284085732421441 -0.0020889926200772049 0 0.03347393781849365 -0.002041418743418795 0 0.033277637846329033 -0.0020499777446633042 0 0.033449723119609018 -0.0020800292887310423 0 0.034558466631199228 -0.0018660580534662363 0 0.034846867395502731 -0.0017311983632522379 0 0.034866326582879061 -0.0021161412286083985 0 0.03347393781849365 -0.002041418743418795 0 0.033449723119609018 -0.0020800292887310423 0 0.033503326093317874 -0.0020647470040526406 0 0.034558466631199228 -0.0018660580534662363 0 0.034271792067619954 -0.0021905239071271705 0 0.034288255261885073 -0.001906045893994667 0 0.034271792067619954 -0.0021905239071271705 0 0.03402301076591719 -0.0019947428520002658 0 0.034288255261885073 -0.001906045893994667 0 0.03402301076591719 -0.0019947428520002658 0 0.033503326093317874 -0.0020647470040526406 0 0.033823520618210763 -0.0019436593982745623 0 0.033390166608760326 -0.0020271490229564434 0 0.03347393781849365 -0.002041418743418795 0 0.033503326093317874 -0.0020647470040526406 0 0.034271792067619954 -0.0021905239071271705 0 0.03402301076591719 -0.0019947428520002658 0 0.033503326093317874 -0.0020647470040526406 0 0.033284085732421441 -0.0020889926200772049 0 0.03348210612217923 -0.0021007222761475863 0 0.033503326093317874 -0.0020647470040526406 0 0.033640681672013485 -0.0018966183576171023 0 0.033823520618210763 -0.0019436593982745623 0 0.033336560905044874 -0.0013880987752233672 0 0.033640681672013485 -0.0018966183576171023 0 0.033938436424863425 -0.0014659803101796504 0 0.033640681672013485 -0.0018966183576171023 0 0.033823520618210763 -0.0019436593982745623 0 0.034083968226983417 -0.0017828695845359046 0 0.033640681672013485 -0.0018966183576171023 0 0.034083968226983417 -0.0017828695845359046 0 0.033938436424863425 -0.0014659803101796504 0 0.034288255261885073 -0.001906045893994667 0 0.034393454626893839 -0.0017164266902969572 0 0.034083968226983417 -0.0017828695845359046 0 0.034558466631199228 -0.0018660580534662363 0 0.034288255261885073 -0.001906045893994667 0 0.034393454626893839 -0.0017164266902969572 0 0.03402301076591719 -0.0019947428520002658 0 0.034288255261885073 -0.001906045893994667 0 0.034083968226983417 -0.0017828695845359046 0 0.03402301076591719 -0.0019947428520002658 0 0.033823520618210763 -0.0019436593982745623 0 0.034083968226983417 -0.0017828695845359046 0 0.034083968226983417 -0.0017828695845359046 0 0.034345460735148561 -0.0015065808701874954 0 0.033938436424863425 -0.0014659803101796504 0 0.034393454626893839 -0.0017164266902969572 0 0.034083968226983417 -0.0017828695845359046 0 0.034345460735148561 -0.0015065808701874954 0 0.034345460735148561 -0.0015065808701874954 0 0.034249347094385797 -0.0012430162572769437 0 0.034666200816026962 -0.0012661133613198008 0 0.034249347094385797 -0.0012430162572769437 0 0.034529811352694048 -0.00096385968297730044 0 0.034666200816026962 -0.0012661133613198008 0 0.034345460735148561 -0.0015065808701874954 0 0.034249347094385797 -0.0012430162572769437 0 0.033938436424863425 -0.0014659803101796504 0 0.033336560905044874 -0.0013880987752233672 0 0.033938436424863425 -0.0014659803101796504 0 0.033869921204330126 -0.00094564908671870027 0 0.034249347094385797 -0.0012430162572769437 0 0.033938436424863425 -0.0014659803101796504 0 0.033869921204330126 -0.00094564908671870027 0 0.034248282844465627 -0.0012278569491380319 0 0.034353442210179087 -0.00093704031620095083 0 0.034714820069815244 -0.0004125449095587851 0 0.034614375968470855 -0.00039156126344244458 0 0.034631192177328449 -0.00047442615728024272 0 0.034249347094385797 -0.0012430162572769437 0 0.033869921204330126 -0.00094564908671870027 0 0.034529811352694048 -0.00096385968297730044 0 0.033869921204330126 -0.00094564908671870027 0 0.034529811352694048 -0.00096385968297730044 0 0.034512652580087143 -0.00055796255508894102 0 0.034353442210179087 -0.00093704031620095083 0 0.034420832497804574 -0.00082538693215103074 0 0.034529811352694048 -0.00096385968297730044 0 0.034728565112697521 -0.00079282816213918942 0 0.034512652580087143 -0.00055796255508894102 0 0.034529811352694048 -0.00096385968297730044 0 0.034666200816026962 -0.0012661133613198008 0 0.034881406156126393 -0.0010178880728076106 0 0.034728565112697521 -0.00079282816213918942 0 0.034881406156126393 -0.0010178880728076106 0 0.034878973453036692 -0.00064257863194734047 0 0.034529811352694048 -0.00096385968297730044 0 0.034728565112697521 -0.00079282816213918942 0 0.034881406156126393 -0.0010178880728076106 0 0.034666200816026962 -0.0012661133613198008 0 0.034923103212744055 -0.0012500606827714042 0 0.034881406156126393 -0.0010178880728076106 0 0.034666200816026962 -0.0012661133613198008 0 0.03486503152140108 -0.0014610127173897778 0 0.034923103212744055 -0.0012500606827714042 0 0.034619714150523458 -0.001569230066085133 0 0.034666200816026962 -0.0012661133613198008 0 0.03486503152140108 -0.0014610127173897778 0 0.034619714150523458 -0.001569230066085133 0 0.034345460735148561 -0.0015065808701874954 0 0.034666200816026962 -0.0012661133613198008 0 0.035066366628358589 -0.0013797951081678198 0 0.03486503152140108 -0.0014610127173897778 0 0.034923103212744055 -0.0012500606827714042 0 0.034923103212744055 -0.0012500606827714042 0 0.035111020730536714 -0.0011341930947782939 0 0.034881406156126393 -0.0010178880728076106 0 0.035066366628358589 -0.0013797951081678198 0 0.034923103212744055 -0.0012500606827714042 0 0.035111020730536714 -0.0011341930947782939 0 0.035111020730536714 -0.0011341930947782939 0 0.034881406156126393 -0.0010178880728076106 0 0.035169678622464347 -0.0008160289692648459 0 0.034881406156126393 -0.0010178880728076106 0 0.034878973453036692 -0.00064257863194734047 0 0.035169678622464347 -0.0008160289692648459 0 0.035073659097082953 -0.00057190431966160841 0 0.034878973453036692 -0.00064257863194734047 0 0.035169678622464347 -0.0008160289692648459 0 0.035073659097082953 -0.00057190431966160841 0 0.034878973453036692 -0.00064257863194734047 0 0.034870835490281631 -0.00045343200695581643 0 0.034728565112697521 -0.00079282816213918942 0 0.034710202510989475 -0.00051747045205508511 0 0.034878973453036692 -0.00064257863194734047 0 0.034728565112697521 -0.00079282816213918942 0 0.034710202510989475 -0.00051747045205508511 0 0.034512652580087143 -0.00055796255508894102 0 0.034710202510989475 -0.00051747045205508511 0 0.034878973453036692 -0.00064257863194734047 0 0.034870835490281631 -0.00045343200695581643 0 0.034710202510989475 -0.00051747045205508511 0 0.034870835490281631 -0.00045343200695581643 0 0.034797855821376927 -0.00037567036507856648 0 0.034870835490281631 -0.00045343200695581643 0 0.034797855821376927 -0.00037567036507856648 0 0.034937732858189872 -0.0002938535164306901 0 0.034870835490281631 -0.00045343200695581643 0 0.035032701675654067 -0.0004069115650848894 0 0.034937732858189872 -0.0002938535164306901 0 0.035032701675654067 -0.0004069115650848894 0 0.035045719475996669 -0.0002760232908815424 0 0.035276735095960556 -0.00049649345465440265 0 0.035032701675654067 -0.0004069115650848894 0 0.035045719475996669 -0.0002760232908815424 0 0.034937732858189872 -0.0002938535164306901 0 0.035073659097082953 -0.00057190431966160841 0 0.035032701675654067 -0.0004069115650848894 0 0.035276735095960556 -0.00049649345465440265 0 0.035073659097082953 -0.00057190431966160841 0 0.034870835490281631 -0.00045343200695581643 0 0.035032701675654067 -0.0004069115650848894 0 0.034614375968470855 -0.00039156126344244458 0 0.034631192177328449 -0.00047442615728024272 0 0.034512652580087143 -0.00055796255508894102 0 0.034631192177328449 -0.00047442615728024272 0 0.034512652580087143 -0.00055796255508894102 0 0.034624084264692663 -0.00045326739699743529 0 0.034710202510989475 -0.00051747045205508511 0 0.034512652580087143 -0.00055796255508894102 0 0.034624084264692663 -0.00045326739699743529 0 0.034710202510989475 -0.00051747045205508511 0 0.034797855821376927 -0.00037567036507856648 0 0.034624084264692663 -0.00045326739699743529 0 0.034797855821376927 -0.00037567036507856648 0 0.034624084264692663 -0.00045326739699743529 0 0.034771207401270016 -0.00027132654377539202 0 0.034598797186294689 -0.0004654207540481808 0 0.034631192177328449 -0.00047442615728024272 0 0.034624084264692663 -0.00045326739699743529 0 0.034969059271967903 -5.9066581887531282e-05 0 0.035006704416923926 -0.00019749928797148914 0 0.035034875740414653 -5.1741481698206399e-05 0 0.034598797186294689 -0.0004654207540481808 0 0.034624084264692663 -0.00045326739699743529 0 0.034636575417551614 -0.00023796338611113303 0 0.034822994083264031 -0.00026341712821794001 0 0.034882190090220311 -0.00015752205952950264 0 0.034624084264692663 -0.00045326739699743529 0 0.034636575417551614 -0.00023796338611113303 0 0.034771207401270016 -0.00027132654377539202 0 0.034882190090220311 -0.00015752205952950264 0 0.034999847663780705 -2.0846387406421862e-07 0 0.035034875740414653 -5.1741481698206399e-05 0 0.035000056758409413 -8.0952441345256642e-09 0 0.035000028975565971 -3.2985603991942567e-08 0 0.034636575417551614 -0.00023796338611113303 0 0.034771207401270016 -0.00027132654377539202 0 0.034999270529114619 3.5289029151463803e-09 0 0.034969059271967903 -5.9066581887531282e-05 0 0.035034875740414653 -5.1741481698206399e-05 0 0.035000028975565971 -3.2985603991942567e-08 0 0.03511340488347843 -0.00015151009073758096 0 0.035045719475996669 -0.0002760232908815424 0 0.035276735095960556 -0.00049649345465440265 0 0.034982577448993871 -0.00017836193766913473 0 0.035061436441480257 -0.0001677286981317508 0 0.035045719475996669 -0.0002760232908815424 0 0.035061436441480257 -0.0001677286981317508 0 0.035098191084995824 -0.00015694344798941902 0 0.034989990899808719 -8.4327496509231198e-05 0 0.034982577448993871 -0.00017836193766913473 0 0.035061436441480257 -0.0001677286981317508 0 0.034989990899808719 -8.4327496509231198e-05 0 0.035061436441480257 -0.0001677286981317508 0 0.03511340488347843 -0.00015151009073758096 0 0.035045719475996669 -0.0002760232908815424 0 0.035017046569324091 -0.00010168410399178741 0 0.035015511418515104 -0.00010145331232249293 0 0.034982577448993871 -0.00017836193766913473 0 0.035045719475996669 -0.0002760232908815424 0 0.034937732858189872 -0.0002938535164306901 0 0.034797855821376927 -0.00037567036507856648 0 0.034937732858189872 -0.0002938535164306901 0 0.034912488964481334 -0.00018636785651190239 0 0.034797855821376927 -0.00037567036507856648 0 0.034771207401270016 -0.00027132654377539202 0 0.034912488964481334 -0.00018636785651190239 0 0.034982577448993871 -0.00017836193766913473 0 0.034937732858189872 -0.0002938535164306901 0 0.034912488964481334 -0.00018636785651190239 0 0.034982577448993871 -0.00017836193766913473 0 0.034912488964481334 -0.00018636785651190239 0 0.034989990899808719 -8.4327496509231198e-05 0 0.034999270529114619 3.5289029151463803e-09 0 0.035000452595726969 -1.0528421982243154e-07 0 0.034989990899808719 -8.4327496509231198e-05 0 0.034771207401270016 -0.00027132654377539202 0 0.034999270529114619 3.5289029151463803e-09 0 0.034912488964481334 -0.00018636785651190239 0 0.034999270529114619 3.5289029151463803e-09 0 0.034912488964481334 -0.00018636785651190239 0 0.034989990899808719 -8.4327496509231198e-05 0 0.035098191084995824 -0.00015694344798941902 0 0.035000452595726969 -1.0528421982243154e-07 0 0.034989990899808719 -8.4327496509231198e-05 0 0.035015511418515104 -0.00010145331232249293 0 0.035000000240240407 -1.4356563904034674e-07 0 0.035000109160720889 -4.0081917335596684e-07 0 0.035000000247328952 -8.8602953571348248e-13 0 0.035000000026034317 -6.9945243047707866e-10 0 0.035000109160720889 -4.0081917335596684e-07 0 0.035000000026034317 -6.9945243047707866e-10 0 0.035000038959250877 -1.5810173731951287e-07 0 0.035015511418515104 -0.00010145331232249293 0 0.034993690004132487 -5.2193645870628593e-05 0 0.034914510774522289 -2.7396301633379606e-05 0 0.034956123026586176 -4.7912005946665738e-05 0 0.034930782352503673 -7.5807050904779823e-05 0 0.034914510774522289 -2.7396301633379606e-05 0 0.034956123026586176 -4.7912005946665738e-05 0 0.034962660778981539 -1.8038615283160785e-05 0 0.034956123026586176 -4.7912005946665738e-05 0 0.034962660778981539 -1.8038615283160785e-05 0 0.034985418550264907 -3.7387473287065714e-05 0 0.035000000026034317 -6.9945243047707866e-10 0 0.035000038959250877 -1.5810173731951287e-07 0 0.035000000486252965 1.6272648624852412e-09 0 0.034962660778981539 -1.8038615283160785e-05 0 0.034994301225809987 -1.3119702355144695e-05 0 0.034993505564683912 -2.5222589994499545e-05 0 0.034993690004132487 -5.2193645870628593e-05 0 0.03499943473562598 -2.8554007603580009e-05 0 0.035000038959250877 -1.5810173731951287e-07 0 0.035000000486252965 1.6272648624852412e-09 0 0.034999878808838987 2.3756024234831927e-07 0 0.035000000486252965 1.6272648624852412e-09 0 0.034999878808838987 2.3756024234831927e-07 0 0.034999997547231612 -5.0212715034650592e-09 0 0.034994301225809987 -1.3119702355144695e-05 0 0.034998485732259534 -1.7523145614068768e-05 0 0.034993505564683912 -2.5222589994499545e-05 0 0.034993505564683912 -2.5222589994499545e-05 0 0.034999768054947672 -2.8819939538023082e-05 0 0.034985418550264907 -3.7387473287065714e-05 0 0.035165625000579889 -0.00021155137372784786 0 0.03507735084551785 -0.00017629600036477716 0 0.034998485732259534 -1.7523145614068768e-05 0 0.034993505564683912 -2.5222589994499545e-05 0 0.034999768054947672 -2.8819939538023082e-05 0 0.034962660778981539 -1.8038615283160785e-05 0 0.034993505564683912 -2.5222589994499545e-05 0 0.034985418550264907 -3.7387473287065714e-05 0 0.034956123026586176 -4.7912005946665738e-05 0 0.034985418550264907 -3.7387473287065714e-05 0 0.03498759391721587 -8.6616869581081321e-05 0 0.035030118850195191 -4.4226818548495837e-05 0 0.034985418550264907 -3.7387473287065714e-05 0 0.03498759391721587 -8.6616869581081321e-05 0 0.035165625000579889 -0.00021155137372784786 0 0.035220654833623223 -0.00045793525943817903 0 0.035867520017891466 -0.00080223106022516354 0 0.035827647841103434 -0.0010892589858309341 0 0.035675104231375869 -0.00099205259257711541 0 0.035827647841103434 -0.0010892589858309341 0 0.035675104231375869 -0.00099205259257711541 0 0.035712288030217906 -0.0012417977696431467 0 0.034956123026586176 -4.7912005946665738e-05 0 0.03498759391721587 -8.6616869581081321e-05 0 0.034930782352503673 -7.5807050904779823e-05 0 0.035220654833623223 -0.00045793525943817903 0 0.035119791895301712 -0.00070653389322184248 0 0.03498759391721587 -8.6616869581081321e-05 0 0.034930782352503673 -7.5807050904779823e-05 0 0.03495000970835635 -0.00012915041394468077 0 0.035066335403599318 -0.00034673725550781918 0 0.035119791895301712 -0.00070653389322184248 0 0.035073659097082953 -0.00057190431966160841 0 0.035169678622464347 -0.0008160289692648459 0 0.035276735095960556 -0.00049649345465440265 0 0.035169678622464347 -0.0008160289692648459 0 0.035276735095960556 -0.00049649345465440265 0 0.035480918202194074 -0.0010154470015827394 0 0.035015511418515104 -0.00010145331232249293 0 0.035066335403599318 -0.00034673725550781918 0 0.034953262219120609 -6.2536562236515293e-06 0 0.034937385346553398 -1.4214346506849052e-05 0 0.034968962505395808 -2.8097764938231961e-06 0 0.034937385346553398 -1.4214346506849052e-05 0 0.034968962505395808 -2.8097764938231961e-06 0 0.034968890024535626 -1.1827180281503337e-05 0 0.034968962505395808 -2.8097764938231961e-06 0 0.034984147415956117 -3.8722222237884003e-06 0 0.034968890024535626 -1.1827180281503337e-05 0 0.0349999738451027 -8.1070005334564527e-09 0 0.034984147415956117 -3.8722222237884003e-06 0 0.034999979584372141 9.5018644387526783e-09 0 0.034968962505395808 -2.8097764938231961e-06 0 0.034984147415956117 -3.8722222237884003e-06 0 0.034999979584372141 9.5018644387526783e-09 0 0.0349999738451027 -8.1070005334564527e-09 0 0.034984147415956117 -3.8722222237884003e-06 0 0.034989553554785197 -7.6066364600049592e-06 0 0.034984147415956117 -3.8722222237884003e-06 0 0.034989553554785197 -7.6066364600049592e-06 0 0.034968890024535626 -1.1827180281503337e-05 0 0.0349999738451027 -8.1070005334564527e-09 0 0.034989553554785197 -7.6066364600049592e-06 0 0.034999957227220095 -1.3386889462206208e-08 0 0.034987106887546159 -9.9404476317975699e-06 0 0.034992306144045214 9.5283007294039666e-07 0 0.034968370663778336 3.8841767485001992e-06 0 0.034989553554785197 -7.6066364600049592e-06 0 0.034968890024535626 -1.1827180281503337e-05 0 0.034987106887546159 -9.9404476317975699e-06 0 0.034937385346553398 -1.4214346506849052e-05 0 0.034968890024535626 -1.1827180281503337e-05 0 0.034968370663778336 3.8841767485001992e-06 0 0.034968890024535626 -1.1827180281503337e-05 0 0.034987106887546159 -9.9404476317975699e-06 0 0.034968370663778336 3.8841767485001992e-06 0 0.034989553554785197 -7.6066364600049592e-06 0 0.034987106887546159 -9.9404476317975699e-06 0 0.034986432858993381 -9.0009308801572947e-06 0 0.034987106887546159 -9.9404476317975699e-06 0 0.034986432858993381 -9.0009308801572947e-06 0 0.034986937480301801 -1.2624179432021385e-05 0 0.034891481966291299 -0.00034525717472861213 0 0.034862411047319831 -0.00040867017508202383 0 0.035000013201587347 -5.1629207473899846e-09 0 0.035000326867153084 -1.6673780212432786e-06 0 0.034999997547231612 -5.0212715034650592e-09 0 0.034989553554785197 -7.6066364600049592e-06 0 0.034999957227220095 -1.3386889462206208e-08 0 0.034986432858993381 -9.0009308801572947e-06 0 0.035000160212206199 -1.9231198116493515e-07 0 0.035068457956802301 -9.0823115072558383e-05 0 0.035000013201587347 -5.1629207473899846e-09 0 0.035000326867153084 -1.6673780212432786e-06 0 0.035002753000805416 -1.244856327544196e-05 0 0.03499943473562598 -2.8554007603580009e-05 0 0.035003168939822159 -2.1332919593721513e-05 0 0.034998485732259534 -1.7523145614068768e-05 0 0.035000326867153084 -1.6673780212432786e-06 0 0.035002753000805416 -1.244856327544196e-05 0 0.034994301225809987 -1.3119702355144695e-05 0 0.034998485732259534 -1.7523145614068768e-05 0 0.035000326867153084 -1.6673780212432786e-06 0 0.034999878808838987 2.3756024234831927e-07 0 0.035000326867153084 -1.6673780212432786e-06 0 0.034999997547231612 -5.0212715034650592e-09 0 0.035165625000579889 -0.00021155137372784786 0 0.035068457956802301 -9.0823115072558383e-05 0 0.034984241973335321 -1.337848586517446e-05 0 0.034986432858993381 -9.0009308801572947e-06 0 0.034986937480301801 -1.2624179432021385e-05 0 0.034998485732259534 -1.7523145614068768e-05 0 0.034999768054947672 -2.8819939538023082e-05 0 0.035002753000805416 -1.244856327544196e-05 0 0.035165625000579889 -0.00021155137372784786 0 0.034862411047319831 -0.00040867017508202383 0 0.035867520017891466 -0.00080223106022516354 0 0.035994381495901881 -0.0010597138961908252 0 0.036097962469210577 -0.00083440206553666251 0 0.035867520017891466 -0.00080223106022516354 0 0.035827647841103434 -0.0010892589858309341 0 0.035994381495901881 -0.0010597138961908252 0 0.033741659703469637 -0.00047657150719584372 0 0.033993161263344035 3.9458111524620804e-05 0 0.034150091018166781 -0.00035118042680811021 0 0.033741659703469637 -0.00047657150719584372 0 0.034150091018166781 -0.00035118042680811021 0 0.034246481480380085 -0.00075330909508850019 0 0.034443004952949809 -0.00060576060710720576 0 0.034862411047319831 -0.00040867017508202383 0 0.033993161263344035 3.9458111524620804e-05 0 0.034369068039573535 1.0305651525810045e-05 0 0.034150091018166781 -0.00035118042680811021 0 0.034862411047319831 -0.00040867017508202383 0 0.034763112240913156 -0.00029586233086316188 0 0.034369068039573535 1.0305651525810045e-05 0 0.034150091018166781 -0.00035118042680811021 0 0.034498625841652565 -0.00049561018834893471 0 0.034150091018166781 -0.00035118042680811021 0 0.034498625841652565 -0.00049561018834893471 0 0.034246481480380085 -0.00075330909508850019 0 0.034498625841652565 -0.00049561018834893471 0 0.034672652953556912 -0.00032834233808502473 0 0.034667619216272871 -0.0004295415275824896 0 0.034498625841652565 -0.00049561018834893471 0 0.034597685672147015 -0.00072423364107960467 0 0.03466450678307112 -0.00052920756319304067 0 0.034498625841652565 -0.00049561018834893471 0 0.034667619216272871 -0.0004295415275824896 0 0.03466450678307112 -0.00052920756319304067 0 0.034498625841652565 -0.00049561018834893471 0 0.034867292274360279 -3.3580140672647942e-05 0 0.034977031635021243 -2.8760005795249425e-05 0 0.034763112240913156 -0.00029586233086316188 0 0.034776904200973922 -0.0002674306769936683 0 0.034369068039573535 1.0305651525810045e-05 0 0.034498625841652565 -0.00049561018834893471 0 0.034867292274360279 -3.3580140672647942e-05 0 0.034707831262744099 -0.00031515755455989203 0 0.034800209136281575 -0.00021085899967258722 0 0.034937385346553398 -1.4214346506849052e-05 0 0.034968370663778336 3.8841767485001992e-06 0 0.034867292274360279 -3.3580140672647942e-05 0 0.034953262219120609 -6.2536562236515293e-06 0 0.034867292274360279 -3.3580140672647942e-05 0 0.034977031635021243 -2.8760005795249425e-05 0 0.034953262219120609 -6.2536562236515293e-06 0 0.034937385346553398 -1.4214346506849052e-05 0 0.034867292274360279 -3.3580140672647942e-05 0 0.034498625841652565 -0.00049561018834893471 0 0.034597685672147015 -0.00072423364107960467 0 0.034246481480380085 -0.00075330909508850019 0 0.034564509692531213 -0.0010043730487228478 0 0.034597685672147015 -0.00072423364107960467 0 0.034246481480380085 -0.00075330909508850019 0 0.030993397605084943 -0.00082147220300180131 0 0.030552160189606842 -0.0012114770090434583 0 0.034564509692531213 -0.0010043730487228478 0 0.034246481480380085 -0.00075330909508850019 0 0.034157994289678535 -0.0011672040623814219 0 0.034246481480380085 -0.00075330909508850019 0 0.033867856504921252 -0.00093151006435974136 0 0.034157994289678535 -0.0011672040623814219 0 0.033867856504921252 -0.00093151006435974136 0 0.033693325415562747 -0.0013155268021065643 0 0.034157994289678535 -0.0011672040623814219 0 0.033741659703469637 -0.00047657150719584372 0 0.034246481480380085 -0.00075330909508850019 0 0.033867856504921252 -0.00093151006435974136 0 0.034443004952949809 -0.00060576060710720576 0 0.033666310884312267 -0.00083706685844401924 0 0.035827647841103434 -0.0010892589858309341 0 0.035994381495901881 -0.0010597138961908252 0 0.03589885462902296 -0.0013063048626153009 0 0.033741659703469637 -0.00047657150719584372 0 0.033867856504921252 -0.00093151006435974136 0 0.033481939904934296 -0.00094539509689875174 0 0.033867856504921252 -0.00093151006435974136 0 0.033693325415562747 -0.0013155268021065643 0 0.033481939904934296 -0.00094539509689875174 0 0.026594440428529518 -0.0018598466637797307 0 0.026979612332819855 -0.0018079668466643955 0 0.026743112194494618 -0.0015366339833640633 0 0.026594440428529518 -0.0018598466637797307 0 0.026324897388701127 -0.0015560437297812326 0 0.026743112194494618 -0.0015366339833640633 0 0.026594440428529518 -0.0018598466637797307 0 0.026324897388701127 -0.0015560437297812326 0 0.026121823486434471 -0.0015443920964905169 0 0.030658646646491657 -0.0014670547588477359 0 0.030552160189606842 -0.0012114770090434583 0 0.026121823486434471 -0.0015443920964905169 0 0.026160539257004675 -0.0015441224364233779 0 0.026285063515943084 -0.001271229670564994 0 0.026324897388701127 -0.0015560437297812326 0 0.026121823486434471 -0.0015443920964905169 0 0.026160539257004675 -0.0015441224364233779 0 0.026324897388701127 -0.0015560437297812326 0 0.026160539257004675 -0.0015441224364233779 0 0.026183640513107072 -0.0015575074282457313 0 0.026160539257004675 -0.0015441224364233779 0 0.026183640513107072 -0.0015575074282457313 0 0.026167812253518091 -0.0017049367812947448 0 0.026160539257004675 -0.0015441224364233779 0 0.026167812253518091 -0.0017049367812947448 0 0.0265016942999582 -0.0017514980619362452 0 0.026160539257004675 -0.0015441224364233779 0 0.026285063515943084 -0.001271229670564994 0 0.0265016942999582 -0.0017514980619362452 0 0.026352184268169689 -0.00052780803461196602 0 0.026285063515943084 -0.001271229670564994 0 0.027367395346715433 -0.00075675282597865924 0 0.026352184268169689 -0.00052780803461196602 0 0.026121823486434471 -0.0015443920964905169 0 0.026285063515943084 -0.001271229670564994 0 0.035505312976190688 -0.0012533202833194972 0 0.035571804528003022 -0.0013484744027100889 0 0.035446641359729872 -0.0013494825014826099 0 0.035505312976190688 -0.0012533202833194972 0 0.035446641359729872 -0.0013494825014826099 0 0.035409385610293262 -0.0012414251128801959 0 0.035505312976190688 -0.0012533202833194972 0 0.035409385610293262 -0.0012414251128801959 0 0.035400852752808513 -0.0011087195788050223 0 0.035505312976190688 -0.0012533202833194972 0 0.035571804528003022 -0.0013484744027100889 0 0.035586247930694676 -0.0012012166566053818 0 0.035571804528003022 -0.0013484744027100889 0 0.035457721469583002 -0.0014836373116058781 0 0.035572925277127139 -0.0015485461488352313 0 0.035571804528003022 -0.0013484744027100889 0 0.035446641359729872 -0.0013494825014826099 0 0.035457721469583002 -0.0014836373116058781 0 0.035446641359729872 -0.0013494825014826099 0 0.035350533757682344 -0.0014385193172283008 0 0.035457721469583002 -0.0014836373116058781 0 0.035350533757682344 -0.0014385193172283008 0 0.035234634704100168 -0.0013318302103707824 0 0.035346374733630524 -0.0013128082565415091 0 0.035446641359729872 -0.0013494825014826099 0 0.035350533757682344 -0.0014385193172283008 0 0.035346374733630524 -0.0013128082565415091 0 0.035066366628358589 -0.0013797951081678198 0 0.035234634704100168 -0.0013318302103707824 0 0.035223536192002282 -0.0015049243105625834 0 0.035350533757682344 -0.0014385193172283008 0 0.035234634704100168 -0.0013318302103707824 0 0.035223536192002282 -0.0015049243105625834 0 0.035066366628358589 -0.0013797951081678198 0 0.035111020730536714 -0.0011341930947782939 0 0.035234634704100168 -0.0013318302103707824 0 0.035111020730536714 -0.0011341930947782939 0 0.035234634704100168 -0.0013318302103707824 0 0.035287011972225453 -0.0011826722079544179 0 0.035446641359729872 -0.0013494825014826099 0 0.035346374733630524 -0.0013128082565415091 0 0.035409385610293262 -0.0012414251128801959 0 0.035234634704100168 -0.0013318302103707824 0 0.035346374733630524 -0.0013128082565415091 0 0.035287011972225453 -0.0011826722079544179 0 0.035346374733630524 -0.0013128082565415091 0 0.035287011972225453 -0.0011826722079544179 0 0.035409385610293262 -0.0012414251128801959 0 0.035400852752808513 -0.0011087195788050223 0 0.03527861757037111 -0.0010328556760662085 0 0.035480918202194074 -0.0010154470015827394 0 0.035169678622464347 -0.0008160289692648459 0 0.03527861757037111 -0.0010328556760662085 0 0.035480918202194074 -0.0010154470015827394 0 0.035287011972225453 -0.0011826722079544179 0 0.035409385610293262 -0.0012414251128801959 0 0.035400852752808513 -0.0011087195788050223 0 0.035111020730536714 -0.0011341930947782939 0 0.035169678622464347 -0.0008160289692648459 0 0.03527861757037111 -0.0010328556760662085 0 0.035287011972225453 -0.0011826722079544179 0 0.035400852752808513 -0.0011087195788050223 0 0.03527861757037111 -0.0010328556760662085 0 0.035111020730536714 -0.0011341930947782939 0 0.035287011972225453 -0.0011826722079544179 0 0.03527861757037111 -0.0010328556760662085 0 0.035675104231375869 -0.00099205259257711541 0 0.035475428058179388 -0.0011827946774324602 0 0.035586247930694676 -0.0012012166566053818 0 0.035505312976190688 -0.0012533202833194972 0 0.035475428058179388 -0.0011827946774324602 0 0.035586247930694676 -0.0012012166566053818 0 0.035505312976190688 -0.0012533202833194972 0 0.035400852752808513 -0.0011087195788050223 0 0.035468007598748852 -0.0010434465921633034 0 0.035153617786406986 -0.00077640407749159242 0 0.035119791895301712 -0.00070653389322184248 0 0.035121725483877535 -0.00071197091767063005 0 0.035119791895301712 -0.00070653389322184248 0 0.035675104231375869 -0.00099205259257711541 0 0.035586247930694676 -0.0012012166566053818 0 0.035712288030217906 -0.0012417977696431467 0 0.035571804528003022 -0.0013484744027100889 0 0.035586247930694676 -0.0012012166566053818 0 0.035712288030217906 -0.0012417977696431467 0 0.035827647841103434 -0.0010892589858309341 0 0.035712288030217906 -0.0012417977696431467 0 0.03589885462902296 -0.0013063048626153009 0 0.03589885462902296 -0.0013063048626153009 0 0.035766526856317975 -0.0013959289212387668 0 0.035788577313949403 -0.0016072807502163582 0 0.035712288030217906 -0.0012417977696431467 0 0.03589885462902296 -0.0013063048626153009 0 0.035766526856317975 -0.0013959289212387668 0 0.035571804528003022 -0.0013484744027100889 0 0.035712288030217906 -0.0012417977696431467 0 0.035667672695157977 -0.0014325531686923457 0 0.035712288030217906 -0.0012417977696431467 0 0.035766526856317975 -0.0013959289212387668 0 0.035667672695157977 -0.0014325531686923457 0 0.035571804528003022 -0.0013484744027100889 0 0.035667672695157977 -0.0014325531686923457 0 0.035572925277127139 -0.0015485461488352313 0 0.035766526856317975 -0.0013959289212387668 0 0.035667672695157977 -0.0014325531686923457 0 0.035788577313949403 -0.0016072807502163582 0 0.035667672695157977 -0.0014325531686923457 0 0.035788577313949403 -0.0016072807502163582 0 0.035572925277127139 -0.0015485461488352313 0 0.031907718644292926 -0.0014476647012746445 0 0.031773054064925511 -0.0016900659830873324 0 0.035788577313949403 -0.0016072807502163582 0 0.035560460413007582 -0.0017223573910194272 0 0.035572925277127139 -0.0015485461488352313 0 0.026594440428529518 -0.0018598466637797307 0 0.027195099830441122 -0.002012429000904275 0 0.026979612332819855 -0.0018079668466643955 0 0.033666310884312267 -0.00083706685844401924 0 0.031907718644292926 -0.0014476647012746445 0 0.030658646646491657 -0.0014670547588477359 0 0.031907718644292926 -0.0014476647012746445 0 0.033693325415562747 -0.0013155268021065643 0 0.033481939904934296 -0.00094539509689875174 0 0.03320997634195505 -0.0014438518836757089 0 0.031907718644292926 -0.0014476647012746445 0 0.031812500373568323 -0.0015319187160141743 0 0.026979612332819855 -0.0018079668466643955 0 0.027163658846219206 -0.0016977899646629419 0 0.026743112194494618 -0.0015366339833640633 0 0.026979612332819855 -0.0018079668466643955 0 0.027163658846219206 -0.0016977899646629419 0 0.027272136054081145 -0.0019529683066206371 0 0.027195099830441122 -0.002012429000904275 0 0.026979612332819855 -0.0018079668466643955 0 0.027272136054081145 -0.0019529683066206371 0 0.027196825527217239 -0.0020906618704620125 0 0.027272136054081145 -0.0019529683066206371 0 0.027853258448544846 -0.0020544937306649575 0 0.027545457599801652 -0.0018735831949450582 0 0.027272136054081145 -0.0019529683066206371 0 0.027853258448544846 -0.0020544937306649575 0 0.027163658846219206 -0.0016977899646629419 0 0.027545457599801652 -0.0018735831949450582 0 0.027272136054081145 -0.0019529683066206371 0 0.027163658846219206 -0.0016977899646629419 0 0.027545457599801652 -0.0018735831949450582 0 0.027438733302967932 -0.0016413495236900155 0 0.031773054064925511 -0.0016900659830873324 0 0.031805896885924015 -0.0018220938590486715 0 0.027545457599801652 -0.0018735831949450582 0 0.028370841467868665 -0.00161333991110325 0 0.027438733302967932 -0.0016413495236900155 0 0.027545457599801652 -0.0018735831949450582 0 0.027853258448544846 -0.0020544937306649575 0 0.028370841467868665 -0.00161333991110325 0 0.027853258448544846 -0.0020544937306649575 0 0.028370841467868665 -0.00161333991110325 0 0.028643565610218715 -0.0019271421989976386 0 0.035560460413007582 -0.0017223573910194272 0 0.035373206894615601 -0.0016402848229865332 0 0.035265722161841262 -0.0019015559766170085 0 0.035560460413007582 -0.0017223573910194272 0 0.035572925277127139 -0.0015485461488352313 0 0.035373206894615601 -0.0016402848229865332 0 0.035457721469583002 -0.0014836373116058781 0 0.035572925277127139 -0.0015485461488352313 0 0.035373206894615601 -0.0016402848229865332 0 0.035350533757682344 -0.0014385193172283008 0 0.035457721469583002 -0.0014836373116058781 0 0.035373206894615601 -0.0016402848229865332 0 0.035047991828515319 -0.0015963227380380485 0 0.035223536192002282 -0.0015049243105625834 0 0.035202968998625558 -0.0016878543425097464 0 0.035350533757682344 -0.0014385193172283008 0 0.035223536192002282 -0.0015049243105625834 0 0.035373206894615601 -0.0016402848229865332 0 0.035223536192002282 -0.0015049243105625834 0 0.035373206894615601 -0.0016402848229865332 0 0.035202968998625558 -0.0016878543425097464 0 0.035373206894615601 -0.0016402848229865332 0 0.035202968998625558 -0.0016878543425097464 0 0.035265722161841262 -0.0019015559766170085 0 0.035052325605109153 -0.0018144592147534156 0 0.035202968998625558 -0.0016878543425097464 0 0.035265722161841262 -0.0019015559766170085 0 0.03163653855122453 -0.0019572839445204386 0 0.028955300398477338 -0.001781486622249321 0 0.029568359830199332 -0.0017063382390562062 0 0.028370841467868665 -0.00161333991110325 0 0.028643565610218715 -0.0019271421989976386 0 0.02826426205875706 -0.0020275040929652256 0 0.028694467079685048 -0.0017868968810171807 0 0.028279953049382404 -0.0014488326951167853 0 0.029216517650763222 -0.0023221303562324935 0 0.02826426205875706 -0.0020275040929652256 0 0.028694467079685048 -0.0017868968810171807 0 0.028694467079685048 -0.0017868968810171807 0 0.028649278052902308 -0.0013902262166618365 0 0.028279953049382404 -0.0014488326951167853 0 0.028955300398477338 -0.001781486622249321 0 0.028223820315086086 -0.0017222487751281539 0 0.02826426205875706 -0.0020275040929652256 0 0.027863408497187242 -0.0015430324346837759 0 0.028279953049382404 -0.0014488326951167853 0 0.02826426205875706 -0.0020275040929652256 0 0.027863408497187242 -0.0015430324346837759 0 0.027438733302967932 -0.0016413495236900155 0 0.027859539845681215 -0.0010801749614745327 0 0.028279953049382404 -0.0014488326951167853 0 0.028371887368619848 -0.0009956185372309188 0 0.027863408497187242 -0.0015430324346837759 0 0.027859539845681215 -0.0010801749614745327 0 0.028279953049382404 -0.0014488326951167853 0 0.027863408497187242 -0.0015430324346837759 0 0.027859539845681215 -0.0010801749614745327 0 0.027495939345871915 -0.0013751559165009317 0 0.028922942605927149 -0.00077675578239217477 0 0.028649278052902308 -0.0013902262166618365 0 0.028371887368619848 -0.0009956185372309188 0 0.028649278052902308 -0.0013902262166618365 0 0.028279953049382404 -0.0014488326951167853 0 0.028371887368619848 -0.0009956185372309188 0 0.028922942605927149 -0.00077675578239217477 0 0.028371887368619848 -0.0009956185372309188 0 0.028110830465680862 -0.00043838751385623197 0 0.028922942605927149 -0.00077675578239217477 0 0.028916018894306662 0.0002319372240715467 0 0.028110830465680862 -0.00043838751385623197 0 0.027859539845681215 -0.0010801749614745327 0 0.028371887368619848 -0.0009956185372309188 0 0.028110830465680862 -0.00043838751385623197 0 0.027859539845681215 -0.0010801749614745327 0 0.028110830465680862 -0.00043838751385623197 0 0.027399548084461944 -0.0007191445312011986 0 0.026934603670134637 -0.00091702585497950768 0 0.02569764891441479 -0.0018835543762915992 0 0.025961696063378129 -0.00080335096819153225 0 0.027047758220182228 -0.00058035840795506296 0 0.026439879551447835 -0.0010709856357708596 0 0.027419884811250503 -0.00014176158929900354 0 0.027399548084461944 -0.0007191445312011986 0 0.02688185645099506 -0.00059289882951537947 0 0.028110830465680862 -0.00043838751385623197 0 0.027419884811250503 -0.00014176158929900354 0 0.027399548084461944 -0.0007191445312011986 0 0.027399548084461944 -0.0007191445312011986 0 0.026942015422569295 -0.00093958612586200123 0 0.027256546385064702 -0.0011177496777331159 0 0.027399548084461944 -0.0007191445312011986 0 0.026942015422569295 -0.00093958612586200123 0 0.02688185645099506 -0.00059289882951537947 0 0.027256546385064702 -0.0011177496777331159 0 0.027112508077285769 -0.0014362892556090483 0 0.026811286338121479 -0.0012338820342015103 0 0.026942015422569295 -0.00093958612586200123 0 0.027256546385064702 -0.0011177496777331159 0 0.026811286338121479 -0.0012338820342015103 0 0.027256546385064702 -0.0011177496777331159 0 0.027495939345871915 -0.0013751559165009317 0 0.027112508077285769 -0.0014362892556090483 0 0.027859539845681215 -0.0010801749614745327 0 0.027399548084461944 -0.0007191445312011986 0 0.027256546385064702 -0.0011177496777331159 0 0.027859539845681215 -0.0010801749614745327 0 0.027256546385064702 -0.0011177496777331159 0 0.027495939345871915 -0.0013751559165009317 0 0.027863408497187242 -0.0015430324346837759 0 0.027495939345871915 -0.0013751559165009317 0 0.027438733302967932 -0.0016413495236900155 0 0.027495939345871915 -0.0013751559165009317 0 0.027438733302967932 -0.0016413495236900155 0 0.027112508077285769 -0.0014362892556090483 0 0.027163658846219206 -0.0016977899646629419 0 0.027112508077285769 -0.0014362892556090483 0 0.026743112194494618 -0.0015366339833640633 0 0.027163658846219206 -0.0016977899646629419 0 0.027438733302967932 -0.0016413495236900155 0 0.027112508077285769 -0.0014362892556090483 0 0.027112508077285769 -0.0014362892556090483 0 0.026743112194494618 -0.0015366339833640633 0 0.026811286338121479 -0.0012338820342015103 0 0.026743112194494618 -0.0015366339833640633 0 0.026472687453866627 -0.0013526154439358776 0 0.026811286338121479 -0.0012338820342015103 0 0.026324897388701127 -0.0015560437297812326 0 0.026743112194494618 -0.0015366339833640633 0 0.026472687453866627 -0.0013526154439358776 0 0.026324897388701127 -0.0015560437297812326 0 0.026472687453866627 -0.0013526154439358776 0 0.026171329702578117 -0.0013862843410476248 0 0.026016460478473457 -0.0014028531006068476 0 0.025880449081744472 -0.0015492558651176418 0 0.026472687453866627 -0.0013526154439358776 0 0.026443364674729606 -0.0010212973625081203 0 0.026171329702578117 -0.0013862843410476248 0 0.026942015422569295 -0.00093958612586200123 0 0.026443364674729606 -0.0010212973625081203 0 0.026811286338121479 -0.0012338820342015103 0 0.026472687453866627 -0.0013526154439358776 0 0.026443364674729606 -0.0010212973625081203 0 0.026811286338121479 -0.0012338820342015103 0 0.026167812253518091 -0.0017049367812947448 0 0.025853021620863007 -0.0017212441740993218 0 0.025370855634852942 -0.0017028319459216807 0 0.026183640513107072 -0.0015575074282457313 0 0.026167812253518091 -0.0017049367812947448 0 0.026171329702578117 -0.0013862843410476248 0 0.025902087767926529 -0.0015821057457094938 0 0.025880449081744472 -0.0015492558651176418 0 0.026324897388701127 -0.0015560437297812326 0 0.026183640513107072 -0.0015575074282457313 0 0.026171329702578117 -0.0013862843410476248 0 0.025058045594274891 -0.0019692701029523181 0 0.025370855634852942 -0.0017028319459216807 0 0.025209255633738565 -0.0019424990925812008 0 0.025370855634852942 -0.0017028319459216807 0 0.025465821953962936 -0.0018545628771716581 0 0.025209255633738565 -0.0019424990925812008 0 0.025723023459568901 -0.0027595474883224491 0 0.025498562906629007 -0.0028780857325254963 0 0.025853021620863007 -0.0017212441740993218 0 0.025465821953962936 -0.0018545628771716581 0 0.025453922121909722 -0.001978580239035535 0 0.025853021620863007 -0.0017212441740993218 0 0.025370855634852942 -0.0017028319459216807 0 0.025465821953962936 -0.0018545628771716581 0 0.025465821953962936 -0.0018545628771716581 0 0.025453922121909722 -0.001978580239035535 0 0.025209255633738565 -0.0019424990925812008 0 0.025453922121909722 -0.001978580239035535 0 0.025209255633738565 -0.0019424990925812008 0 0.02511986487664207 -0.0020346651257241145 0 0.025209255633738565 -0.0019424990925812008 0 0.02511986487664207 -0.0020346651257241145 0 0.024982739193857132 -0.0018010868688635394 0 0.025453922121909722 -0.001978580239035535 0 0.02511986487664207 -0.0020346651257241145 0 0.025261037909204202 -0.0021747975925281464 0 0.025498562906629007 -0.0028780857325254963 0 0.02532154363278652 -0.0028015447692553261 0 0.025058045594274891 -0.0019692701029523181 0 0.02569764891441479 -0.0018835543762915992 0 0.024982739193857132 -0.0018010868688635394 0 0.026016460478473457 -0.0014028531006068476 0 0.026439879551447835 -0.0010709856357708596 0 0.026942015422569295 -0.00093958612586200123 0 0.026443364674729606 -0.0010212973625081203 0 0.02688185645099506 -0.00059289882951537947 0 0.025058045594274891 -0.0019692701029523181 0 0.025209255633738565 -0.0019424990925812008 0 0.024982739193857132 -0.0018010868688635394 0 0.02511986487664207 -0.0020346651257241145 0 0.024982739193857132 -0.0018010868688635394 0 0.024942260450191489 -0.0020903320445336327 0 0.02487235809621427 -0.001495570936932667 0 0.024879348995616335 -0.0013402598797433443 0 0.024982739193857132 -0.0018010868688635394 0 0.024684374282198752 -0.0022417010052474223 0 0.024942260450191489 -0.0020903320445336327 0 0.02569764891441479 -0.0018835543762915992 0 0.024982739193857132 -0.0018010868688635394 0 0.025961696063378129 -0.00080335096819153225 0 0.024982739193857132 -0.0018010868688635394 0 0.025144652622362103 -0.00035325023842283068 0 0.025961696063378129 -0.00080335096819153225 0 0.025144652622362103 -0.00035325023842283068 0 0.025961696063378129 -0.00080335096819153225 0 0.02599922420654752 0.00023813012002429584 0 0.024942260450191489 -0.0020903320445336327 0 0.024822907217927088 -0.0023448679681515486 0 0.024994964167887681 -0.0022420868607083773 0 0.024684374282198752 -0.0022417010052474223 0 0.024942260450191489 -0.0020903320445336327 0 0.024822907217927088 -0.0023448679681515486 0 0.024822907217927088 -0.0023448679681515486 0 0.024681924670508091 -0.0023792305993107677 0 0.024738013893992224 -0.0024480505800935129 0 0.024684374282198752 -0.0022417010052474223 0 0.024822907217927088 -0.0023448679681515486 0 0.024681924670508091 -0.0023792305993107677 0 0.025144652622362103 -0.00035325023842283068 0 0.025485511970950055 0.00093602323235491658 0 0.02599922420654752 0.00023813012002429584 0 0.024879348995616335 -0.0013402598797433443 0 0.024836271832792474 -0.0012896507188384567 0 0.024684374282198752 -0.0022417010052474223 0 0.024681924670508091 -0.0023792305993107677 0 0.024601869058123924 -0.0024432491466528771 0 0.024681924670508091 -0.0023792305993107677 0 0.024549047553047345 -0.0024184275768393978 0 0.024635942744832436 -0.0024362024150665251 0 0.024737540677164327 -0.0014262017309941914 0 0.024836271832792474 -0.0012896507188384567 0 0.025485511970950055 0.00093602323235491658 0 0.02630611501663702 0.00095711676493532259 0 0.02599922420654752 0.00023813012002429584 0 0.02511986487664207 -0.0020346651257241145 0 0.025261037909204202 -0.0021747975925281464 0 0.024994964167887681 -0.0022420868607083773 0 0.025261037909204202 -0.0021747975925281464 0 0.024994964167887681 -0.0022420868607083773 0 0.024903877746954635 -0.0024691354365149114 0 0.02511986487664207 -0.0020346651257241145 0 0.024942260450191489 -0.0020903320445336327 0 0.024994964167887681 -0.0022420868607083773 0 0.024903877746954635 -0.0024691354365149114 0 0.024937645174040575 -0.0026624861318640179 0 0.024846496981899842 -0.0024939038523311679 0 0.024822907217927088 -0.0023448679681515486 0 0.024903877746954635 -0.0024691354365149114 0 0.024738013893992224 -0.0024480505800935129 0 0.024822907217927088 -0.0023448679681515486 0 0.024994964167887681 -0.0022420868607083773 0 0.024903877746954635 -0.0024691354365149114 0 0.02532154363278652 -0.0028015447692553261 0 0.025250000117555006 -0.0027295835085779092 0 0.025261037909204202 -0.0021747975925281464 0 0.024903877746954635 -0.0024691354365149114 0 0.024937645174040575 -0.0026624861318640179 0 0.025022278613703288 -0.0033781426488724373 0 0.024937645174040575 -0.0026624861318640179 0 0.024502187546563831 -0.0029747411167576924 0 0.024937645174040575 -0.0026624861318640179 0 0.024838568977047469 -0.0023816492560266782 0 0.024502187546563831 -0.0029747411167576924 0 0.024937645174040575 -0.0026624861318640179 0 0.024838568977047469 -0.0023816492560266782 0 0.024846496981899842 -0.0024939038523311679 0 0.024838568977047469 -0.0023816492560266782 0 0.024846496981899842 -0.0024939038523311679 0 0.024797509734802027 -0.0024779608426716026 0 0.024903877746954635 -0.0024691354365149114 0 0.024846496981899842 -0.0024939038523311679 0 0.024738013893992224 -0.0024480505800935129 0 0.024846496981899842 -0.0024939038523311679 0 0.024738013893992224 -0.0024480505800935129 0 0.024656692512685919 -0.002500627228831253 0 0.024695067844426696 -0.00251174662548988 0 0.024797509734802027 -0.0024779608426716026 0 0.024845935596098906 -0.0026363212936965554 0 0.024846496981899842 -0.0024939038523311679 0 0.024695067844426696 -0.00251174662548988 0 0.024656692512685919 -0.002500627228831253 0 0.024695067844426696 -0.00251174662548988 0 0.024567300509326862 -0.0025496696087278121 0 0.024604236254072015 -0.0026529762355641186 0 0.024695067844426696 -0.00251174662548988 0 0.024656692512685919 -0.002500627228831253 0 0.024567300509326862 -0.0025496696087278121 0 0.024846496981899842 -0.0024939038523311679 0 0.024695067844426696 -0.00251174662548988 0 0.024797509734802027 -0.0024779608426716026 0 0.024838568977047469 -0.0023816492560266782 0 0.024225881069626528 -0.0019263091508964622 0 0.025149913201061865 -0.0010412010957817277 0 0.023750093436886052 -0.0022777314461891285 0 0.023361236074627346 -0.0026606727964682666 0 0.024838568977047469 -0.0023816492560266782 0 0.024797509734802027 -0.0024779608426716026 0 0.024845935596098906 -0.0026363212936965554 0 0.024224896580114782 -0.0016009480960583863 0 0.024112438381803068 -0.0020943785907327817 0 0.023827973617692389 -0.0019772847716091266 0 0.024836271832792474 -0.0012896507188384567 0 0.024457445197362506 -0.0021754008915454894 0 0.024569105035283777 -0.0025016571516680002 0 0.024549047553047345 -0.0024184275768393978 0 0.024397473398428595 -0.0025736537124771862 0 0.024569105035283777 -0.0025016571516680002 0 0.024549047553047345 -0.0024184275768393978 0 0.024635942744832436 -0.0024362024150665251 0 0.024569105035283777 -0.0025016571516680002 0 0.024635942744832436 -0.0024362024150665251 0 0.024738013893992224 -0.0024480505800935129 0 0.024569105035283777 -0.0025016571516680002 0 0.024738013893992224 -0.0024480505800935129 0 0.02451044301594962 -0.0026293028375597282 0 0.024681924670508091 -0.0023792305993107677 0 0.024635942744832436 -0.0024362024150665251 0 0.024738013893992224 -0.0024480505800935129 0 0.024738013893992224 -0.0024480505800935129 0 0.024656692512685919 -0.002500627228831253 0 0.024382905619057448 -0.0025301391037780493 0 0.024456554917830216 -0.0025229241739215436 0 0.024349581305940997 -0.0026312311760511957 0 0.024656692512685919 -0.002500627228831253 0 0.024567300509326862 -0.0025496696087278121 0 0.024382905619057448 -0.0025301391037780493 0 0.024567300509326862 -0.0025496696087278121 0 0.024382905619057448 -0.0025301391037780493 0 0.024471825312300358 -0.0026121545676197214 0 0.024569105035283777 -0.0025016571516680002 0 0.02451044301594962 -0.0026293028375597282 0 0.024397473398428595 -0.0025736537124771862 0 0.024112438381803068 -0.0020943785907327817 0 0.023827973617692389 -0.0019772847716091266 0 0.02381644431899077 -0.002303055943551209 0 0.023827973617692389 -0.0019772847716091266 0 0.02381644431899077 -0.002303055943551209 0 0.023474835844013168 -0.0023430119600016848 0 0.025485511970950055 0.00093602323235491658 0 0.026479073505291252 0.0016870900612380912 0 0.02630611501663702 0.00095711676493532259 0 0.024836271832792474 -0.0012896507188384567 0 0.02532080296923294 -0.0006593185543215188 0 0.026479073505291252 0.0016870900612380912 0 0.02630611501663702 0.00095711676493532259 0 0.026924958647835243 0.0012168475593974479 0 0.02630611501663702 0.00095711676493532259 0 0.026924958647835243 0.0012168475593974479 0 0.026600175935720127 0.00063811886161783363 0 0.026479073505291252 0.0016870900612380912 0 0.026924958647835243 0.0012168475593974479 0 0.02726285789326998 0.0016497409292664203 0 0.026924958647835243 0.0012168475593974479 0 0.027670571437678735 0.0012667123591007644 0 0.027400109817441107 0.00071625482753038898 0 0.026924958647835243 0.0012168475593974479 0 0.02726285789326998 0.0016497409292664203 0 0.027670571437678735 0.0012667123591007644 0 0.026924958647835243 0.0012168475593974479 0 0.026600175935720127 0.00063811886161783363 0 0.027400109817441107 0.00071625482753038898 0 0.02726285789326998 0.0016497409292664203 0 0.027886305628752647 0.0017741676983265555 0 0.027301867785553893 0.0022812358940356831 0 0.02532080296923294 -0.0006593185543215188 0 0.025622392681047598 -0.00051840815707457377 0 0.026479073505291252 0.0016870900612380912 0 0.02726285789326998 0.0016497409292664203 0 0.027301867785553893 0.0022812358940356831 0 0.027886305628752647 0.0017741676983265555 0 0.027301867785553893 0.0022812358940356831 0 0.027898751941680167 0.0022160917209649122 0 0.027886305628752647 0.0017741676983265555 0 0.028383056768033717 0.0019133044671149487 0 0.027898751941680167 0.0022160917209649122 0 0.02726285789326998 0.0016497409292664203 0 0.027886305628752647 0.0017741676983265555 0 0.027670571437678735 0.0012667123591007644 0 0.028579135016577505 0.001917738373930525 0 0.028383056768033717 0.0019133044671149487 0 0.028478401915017382 0.0022197661500541607 0 0.028579135016577505 0.001917738373930525 0 0.028383056768033717 0.0019133044671149487 0 0.028659738017694825 0.0017081887510063741 0 0.028761577639598034 0.0019069627389473062 0 0.028579135016577505 0.001917738373930525 0 0.028659738017694825 0.0017081887510063741 0 0.027886305628752647 0.0017741676983265555 0 0.028383056768033717 0.0019133044671149487 0 0.028374965065816819 0.001553361047165638 0 0.027886305628752647 0.0017741676983265555 0 0.028374965065816819 0.001553361047165638 0 0.02822917987596793 0.0012893531140430185 0 0.028383056768033717 0.0019133044671149487 0 0.028374965065816819 0.001553361047165638 0 0.028659738017694825 0.0017081887510063741 0 0.028374965065816819 0.001553361047165638 0 0.028659738017694825 0.0017081887510063741 0 0.028668949356543821 0.0010954869174743618 0 0.028374965065816819 0.001553361047165638 0 0.02822917987596793 0.0012893531140430185 0 0.028668949356543821 0.0010954869174743618 0 0.02822917987596793 0.0012893531140430185 0 0.028668949356543821 0.0010954869174743618 0 0.028221978114747932 0.0007804803917291713 0 0.027670571437678735 0.0012667123591007644 0 0.028221978114747932 0.0007804803917291713 0 0.027400109817441107 0.00071625482753038898 0 0.027886305628752647 0.0017741676983265555 0 0.02822917987596793 0.0012893531140430185 0 0.027670571437678735 0.0012667123591007644 0 0.02822917987596793 0.0012893531140430185 0 0.027670571437678735 0.0012667123591007644 0 0.028221978114747932 0.0007804803917291713 0 0.028221978114747932 0.0007804803917291713 0 0.027943409368689196 0.00026250827601670147 0 0.027400109817441107 0.00071625482753038898 0 0.028916018894306662 0.0002319372240715467 0 0.028221978114747932 0.0007804803917291713 0 0.027943409368689196 0.00026250827601670147 0 0.028916018894306662 0.0002319372240715467 0 0.028668949356543821 0.0010954869174743618 0 0.028221978114747932 0.0007804803917291713 0 0.028916018894306662 0.0002319372240715467 0 0.028110830465680862 -0.00043838751385623197 0 0.027943409368689196 0.00026250827601670147 0 0.028110830465680862 -0.00043838751385623197 0 0.027419884811250503 -0.00014176158929900354 0 0.027943409368689196 0.00026250827601670147 0 0.026934603670134637 -0.00091702585497950768 0 0.027943409368689196 0.00026250827601670147 0 0.02681809640334136 5.232266179209441e-05 0 0.027047758220182228 -0.00058035840795506296 0 0.027417628643815389 -0.00026834114318298745 0 0.026934603670134637 -0.00091702585497950768 0 0.02681809640334136 5.232266179209441e-05 0 0.025961696063378129 -0.00080335096819153225 0 0.02681809640334136 5.232266179209441e-05 0 0.025961696063378129 -0.00080335096819153225 0 0.02599922420654752 0.00023813012002429584 0 0.02681809640334136 5.232266179209441e-05 0 0.02599922420654752 0.00023813012002429584 0 0.026600175935720127 0.00063811886161783363 0 0.02630611501663702 0.00095711676493532259 0 0.02599922420654752 0.00023813012002429584 0 0.026600175935720127 0.00063811886161783363 0 0.02681809640334136 5.232266179209441e-05 0 0.026600175935720127 0.00063811886161783363 0 0.027400109817441107 0.00071625482753038898 0 0.027943409368689196 0.00026250827601670147 0 0.02681809640334136 5.232266179209441e-05 0 0.027400109817441107 0.00071625482753038898 0 0.020354266458870861 -0.0034530488183070977 0 0.020032368098735594 -0.0035213007243874331 0 0.020055050335532468 -0.0032179539429066902 0 0.020354266458870861 -0.0034530488183070977 0 0.020055050335532468 -0.0032179539429066902 0 0.020329542589179003 -0.0031900639658660286 0 0.020354266458870861 -0.0034530488183070977 0 0.020329542589179003 -0.0031900639658660286 0 0.020544692495880087 -0.003284254635113525 0 0.024268531408304459 -0.0032760255883738055 0 0.024214360340123104 -0.0034151285326763587 0 0.024390166016296004 -0.0033657329499272469 0 0.022386222585697901 -0.0033380090729636411 0 0.022092367275954445 -0.0033765469343347036 0 0.024214360340123104 -0.0034151285326763587 0 0.024066749774198079 -0.0034102184462214383 0 0.024139388157203304 -0.003516000244543703 0 0.024268531408304459 -0.0032760255883738055 0 0.024214360340123104 -0.0034151285326763587 0 0.024066749774198079 -0.0034102184462214383 0 0.019101802543495069 -0.0038355902387949979 0 0.01897395445571054 -0.0038070075367646339 0 0.018962937188281744 -0.0038049350428437734 0 0.020032368098735594 -0.0035213007243874331 0 0.019932456558736905 -0.0034341588136310892 0 0.019826939403210519 -0.0035715127364714275 0 0.022092367275954445 -0.0033765469343347036 0 0.021996004322730311 -0.0032835043126514135 0 0.020443639209692714 -0.0037751273660015512 0 0.021996004322730311 -0.0032835043126514135 0 0.019101802543495069 -0.0038355902387949979 0 0.018962937188281744 -0.0038049350428437734 0 0.018881778980309464 -0.0037625636651491515 0 0.019101802543495069 -0.0038355902387949979 0 0.019096859035865586 -0.0036328161674420334 0 0.018881778980309464 -0.0037625636651491515 0 0.020032368098735594 -0.0035213007243874331 0 0.019932456558736905 -0.0034341588136310892 0 0.020055050335532468 -0.0032179539429066902 0 0.019101802543495069 -0.0038355902387949979 0 0.019096859035865586 -0.0036328161674420334 0 0.019425657895621111 -0.0036239655686547386 0 0.020443639209692714 -0.0037751273660015512 0 0.020121128667434852 -0.0035318028098371332 0 0.019153317466910107 -0.0034204381709268543 0 0.019096859035865586 -0.0036328161674420334 0 0.019425657895621111 -0.0036239655686547386 0 0.019153317466910107 -0.0034204381709268543 0 0.019369984768842989 -0.0032494155486151016 0 0.019425657895621111 -0.0036239655686547386 0 0.019096859035865586 -0.0036328161674420334 0 0.018881778980309464 -0.0037625636651491515 0 0.018857035084414386 -0.0034363196414395028 0 0.019153317466910107 -0.0034204381709268543 0 0.019096859035865586 -0.0036328161674420334 0 0.018857035084414386 -0.0034363196414395028 0 0.019153317466910107 -0.0034204381709268543 0 0.019018572910668895 -0.0031440480146878976 0 0.018857035084414386 -0.0034363196414395028 0 0.019018572910668895 -0.0031440480146878976 0 0.019369984768842989 -0.0032494155486151016 0 0.01927685387236007 -0.0030304050825095464 0 0.019153317466910107 -0.0034204381709268543 0 0.019018572910668895 -0.0031440480146878976 0 0.019369984768842989 -0.0032494155486151016 0 0.019369984768842989 -0.0032494155486151016 0 0.019425657895621111 -0.0036239655686547386 0 0.019771566910260895 -0.0032758802932769111 0 0.019369984768842989 -0.0032494155486151016 0 0.019771566910260895 -0.0032758802932769111 0 0.019562871177526003 -0.0029149810879185371 0 0.020121128667434852 -0.0035318028098371332 0 0.020178049396681139 -0.0031675865163610468 0 0.020055050335532468 -0.0032179539429066902 0 0.020329542589179003 -0.0031900639658660286 0 0.020269193723879871 -0.002851371315106121 0 0.020329542589179003 -0.0031900639658660286 0 0.020269193723879871 -0.002851371315106121 0 0.020617311973311341 -0.0029191900625985877 0 0.020269193723879871 -0.002851371315106121 0 0.020617311973311341 -0.0029191900625985877 0 0.020561790544315221 -0.0025304204011282051 0 0.020617311973311341 -0.0029191900625985877 0 0.020977671493748132 -0.0026747477880466951 0 0.020561790544315221 -0.0025304204011282051 0 0.020617311973311341 -0.0029191900625985877 0 0.020977671493748132 -0.0026747477880466951 0 0.02107103570026285 -0.0029056072620792699 0 0.020977671493748132 -0.0026747477880466951 0 0.02107103570026285 -0.0029056072620792699 0 0.021479070121795899 -0.0027687521959972854 0 0.02107103570026285 -0.0029056072620792699 0 0.020544692495880087 -0.003284254635113525 0 0.020761467093052603 -0.0035679616319991632 0 0.02107103570026285 -0.0029056072620792699 0 0.022289110847059892 -0.0030859773588711721 0 0.020761467093052603 -0.0035679616319991632 0 0.020617311973311341 -0.0029191900625985877 0 0.02107103570026285 -0.0029056072620792699 0 0.020544692495880087 -0.003284254635113525 0 0.020329542589179003 -0.0031900639658660286 0 0.020617311973311341 -0.0029191900625985877 0 0.020544692495880087 -0.003284254635113525 0 0.021238614679682334 -0.0027057613770207337 0 0.021119799473618906 -0.0026892101748555506 0 0.021149751806156279 -0.0026999734117165025 0 0.022854888517451162 -0.0027885749900360525 0 0.023361236074627346 -0.0026606727964682666 0 0.020977671493748132 -0.0026747477880466951 0 0.021479070121795899 -0.0027687521959972854 0 0.021149751806156279 -0.0026999734117165025 0 0.021238614679682334 -0.0027057613770207337 0 0.021479070121795899 -0.0027687521959972854 0 0.021149751806156279 -0.0026999734117165025 0 0.02107103570026285 -0.0029056072620792699 0 0.021479070121795899 -0.0027687521959972854 0 0.022289110847059892 -0.0030859773588711721 0 0.02345001015825942 -0.0030237473400564897 0 0.022889327941880547 -0.0032083584138951748 0 0.024225881069626528 -0.0019263091508964622 0 0.022289110847059892 -0.0030859773588711721 0 0.023935263858095693 -0.00288418316669007 0 0.022289110847059892 -0.0030859773588711721 0 0.023935263858095693 -0.00288418316669007 0 0.020761467093052603 -0.0035679616319991632 0 0.021238614679682334 -0.0027057613770207337 0 0.021479070121795899 -0.0027687521959972854 0 0.022289110847059892 -0.0030859773588711721 0 0.022854888517451162 -0.0027885749900360525 0 0.022511027110862867 -0.0030535107937569232 0 0.024838568977047469 -0.0023816492560266782 0 0.023935263858095693 -0.00288418316669007 0 0.024502187546563831 -0.0029747411167576924 0 0.024838568977047469 -0.0023816492560266782 0 0.024225881069626528 -0.0019263091508964622 0 0.023935263858095693 -0.00288418316669007 0 0.023935263858095693 -0.00288418316669007 0 0.024502187546563831 -0.0029747411167576924 0 0.024291193847792159 -0.0030516156306750995 0 0.024502187546563831 -0.0029747411167576924 0 0.024291193847792159 -0.0030516156306750995 0 0.024558523775619356 -0.0031903923080268759 0 0.024291193847792159 -0.0030516156306750995 0 0.024558523775619356 -0.0031903923080268759 0 0.024443863277262563 -0.003187735066578057 0 0.023935263858095693 -0.00288418316669007 0 0.024291193847792159 -0.0030516156306750995 0 0.024447426992411411 -0.0031789089851557866 0 0.024628927271622674 -0.0033248716475736753 0 0.024558523775619356 -0.0031903923080268759 0 0.024443863277262563 -0.003187735066578057 0 0.024628927271622674 -0.0033248716475736753 0 0.024443863277262563 -0.003187735066578057 0 0.024542905083305214 -0.0033891391669193527 0 0.024628927271622674 -0.0033248716475736753 0 0.024558523775619356 -0.0031903923080268759 0 0.024967861904899635 -0.0034852608249575927 0 0.025022278613703288 -0.0033781426488724373 0 0.024502187546563831 -0.0029747411167576924 0 0.024558523775619356 -0.0031903923080268759 0 0.025022278613703288 -0.0033781426488724373 0 0.024558523775619356 -0.0031903923080268759 0 0.024967861904899635 -0.0034852608249575927 0 0.020354266458870861 -0.0034530488183070977 0 0.020544692495880087 -0.003284254635113525 0 0.020761467093052603 -0.0035679616319991632 0 0.022386222585697901 -0.0033380090729636411 0 0.022889327941880547 -0.0032083584138951748 0 0.024268531408304459 -0.0032760255883738055 0 0.024447426992411411 -0.0031789089851557866 0 0.024407593641615578 -0.0032515689758884467 0 0.024291193847792159 -0.0030516156306750995 0 0.024447426992411411 -0.0031789089851557866 0 0.024443863277262563 -0.003187735066578057 0 0.024447426992411411 -0.0031789089851557866 0 0.024443863277262563 -0.003187735066578057 0 0.024407593641615578 -0.0032515689758884467 0 0.024443863277262563 -0.003187735066578057 0 0.024416557469781858 -0.0033853027190504947 0 0.024542905083305214 -0.0033891391669193527 0 0.024443863277262563 -0.003187735066578057 0 0.024390166016296004 -0.0033657329499272469 0 0.024407593641615578 -0.0032515689758884467 0 0.024427906273875907 -0.00335487805551281 0 0.024373387597777102 -0.0034143443647444592 0 0.024268531408304459 -0.0032760255883738055 0 0.024390166016296004 -0.0033657329499272469 0 0.024407593641615578 -0.0032515689758884467 0 0.024416557469781858 -0.0033853027190504947 0 0.024575253520340897 -0.0036315245237888046 0 0.024323562498097476 -0.0037727810450965257 0 0.024373387597777102 -0.0034143443647444592 0 0.024252476452488798 -0.0035329989872320082 0 0.024542905083305214 -0.0033891391669193527 0 0.024575253520340897 -0.0036315245237888046 0 0.024732735198042897 -0.0035177639155669991 0 0.024416557469781858 -0.0033853027190504947 0 0.024542905083305214 -0.0033891391669193527 0 0.024575253520340897 -0.0036315245237888046 0 0.024575253520340897 -0.0036315245237888046 0 0.024985738978408688 -0.0038390209754169697 0 0.024510158817624764 -0.0039628688493676028 0 0.024575253520340897 -0.0036315245237888046 0 0.024510158817624764 -0.0039628688493676028 0 0.024323562498097476 -0.0037727810450965257 0 0.025426583860662055 -0.0037390120474470731 0 0.025022278613703288 -0.0033781426488724373 0 0.024967861904899635 -0.0034852608249575927 0 0.024628927271622674 -0.0033248716475736753 0 0.024967861904899635 -0.0034852608249575927 0 0.024732735198042897 -0.0035177639155669991 0 0.024628927271622674 -0.0033248716475736753 0 0.024542905083305214 -0.0033891391669193527 0 0.024732735198042897 -0.0035177639155669991 0 0.024575253520340897 -0.0036315245237888046 0 0.024732735198042897 -0.0035177639155669991 0 0.024985738978408688 -0.0038390209754169697 0 0.024967861904899635 -0.0034852608249575927 0 0.024732735198042897 -0.0035177639155669991 0 0.024985738978408688 -0.0038390209754169697 0 0.025426583860662055 -0.0037390120474470731 0 0.024967861904899635 -0.0034852608249575927 0 0.024985738978408688 -0.0038390209754169697 0 0.02576020879734546 -0.0045621608244385999 0 0.025426583860662055 -0.0037390120474470731 0 0.025536328638276103 -0.0041835140015275673 0 0.025426583860662055 -0.0037390120474470731 0 0.024985738978408688 -0.0038390209754169697 0 0.025536328638276103 -0.0041835140015275673 0 0.024985738978408688 -0.0038390209754169697 0 0.025536328638276103 -0.0041835140015275673 0 0.024851054878078496 -0.0043929613398693418 0 0.025536328638276103 -0.0041835140015275673 0 0.026116336076829994 -0.0043224015413983333 0 0.024851054878078496 -0.0043929613398693418 0 0.026960356106163038 -0.0041165583857644857 0 0.027586937889678528 -0.0040016718028982332 0 0.026116336076829994 -0.0043224015413983333 0 0.030276504175488047 -0.0043558218613665095 0 0.028187720972068026 -0.0030231153726453532 0 0.026116336076829994 -0.0043224015413983333 0 0.026644490944105183 -0.0030091706764013557 0 0.028187720972068026 -0.0030231153726453532 0 0.02576020879734546 -0.0045621608244385999 0 0.026116336076829994 -0.0043224015413983333 0 0.026644490944105183 -0.0030091706764013557 0 0.02576020879734546 -0.0045621608244385999 0 0.025536328638276103 -0.0041835140015275673 0 0.026116336076829994 -0.0043224015413983333 0 0.024510158817624764 -0.0039628688493676028 0 0.024384544265958256 -0.0041811478692304191 0 0.024247457230862256 -0.0039490751570532183 0 0.024510158817624764 -0.0039628688493676028 0 0.024247457230862256 -0.0039490751570532183 0 0.024323562498097476 -0.0037727810450965257 0 0.024985738978408688 -0.0038390209754169697 0 0.024510158817624764 -0.0039628688493676028 0 0.024851054878078496 -0.0043929613398693418 0 0.027586937889678528 -0.0040016718028982332 0 0.028505334717281422 -0.0036701140180562717 0 0.024510158817624764 -0.0039628688493676028 0 0.024851054878078496 -0.0043929613398693418 0 0.024384544265958256 -0.0041811478692304191 0 0.030276504175488047 -0.0043558218613665095 0 0.03319874891036053 -0.0036082645949602507 0 0.032752903104318325 -0.0026308358808446435 0 0.03319874891036053 -0.0036082645949602507 0 0.034618233513825994 -0.0028274408435742834 0 0.034228664967990124 -0.0025798243909683468 0 0.028505334717281422 -0.0036701140180562717 0 0.029093320536053253 -0.0031952934453277227 0 0.024384544265958256 -0.0041811478692304191 0 0.024149656753530375 -0.0040330991255235274 0 0.024247457230862256 -0.0039490751570532183 0 0.024149656753530375 -0.0040330991255235274 0 0.024114870941008493 -0.0038983461887890482 0 0.024247457230862256 -0.0039490751570532183 0 0.024114870941008493 -0.0038983461887890482 0 0.024247457230862256 -0.0039490751570532183 0 0.024101297772744609 -0.0037403572783728011 0 0.024247457230862256 -0.0039490751570532183 0 0.024323562498097476 -0.0037727810450965257 0 0.024101297772744609 -0.0037403572783728011 0 0.024323562498097476 -0.0037727810450965257 0 0.024101297772744609 -0.0037403572783728011 0 0.024244890124492654 -0.0035841474814987478 0 0.024130454793207124 -0.0036450521736706293 0 0.024252476452488798 -0.0035329989872320082 0 0.024138802867874731 -0.0036563970339838904 0 0.024139388157203304 -0.003516000244543703 0 0.024264776265564305 -0.0035182899512237547 0 0.024214360340123104 -0.0034151285326763587 0 0.024139388157203304 -0.003516000244543703 0 0.024264776265564305 -0.0035182899512237547 0 0.024416557469781858 -0.0033853027190504947 0 0.024323562498097476 -0.0037727810450965257 0 0.024244890124492654 -0.0035841474814987478 0 0.024214360340123104 -0.0034151285326763587 0 0.024390166016296004 -0.0033657329499272469 0 0.024264776265564305 -0.0035182899512237547 0 0.024015725253533942 -0.0035815919223245647 0 0.023913887666466623 -0.0036755941881375497 0 0.023876699278382523 -0.0035254011418596938 0 0.024066749774198079 -0.0034102184462214383 0 0.024015725253533942 -0.0035815919223245647 0 0.023876699278382523 -0.0035254011418596938 0 0.024066749774198079 -0.0034102184462214383 0 0.024139388157203304 -0.003516000244543703 0 0.024015725253533942 -0.0035815919223245647 0 0.024138802867874731 -0.0036563970339838904 0 0.024139388157203304 -0.003516000244543703 0 0.024015725253533942 -0.0035815919223245647 0 0.024138802867874731 -0.0036563970339838904 0 0.024015725253533942 -0.0035815919223245647 0 0.024009537212010705 -0.0037995054207339116 0 0.024130454793207124 -0.0036450521736706293 0 0.024069347045205483 -0.0036977987945619375 0 0.024015725253533942 -0.0035815919223245647 0 0.023913887666466623 -0.0036755941881375497 0 0.024009537212010705 -0.0037995054207339116 0 0.023913887666466623 -0.0036755941881375497 0 0.024009537212010705 -0.0037995054207339116 0 0.023890462596389082 -0.0037995741193641492 0 0.024009537212010705 -0.0037995054207339116 0 0.023968446702056549 -0.0038762249319197347 0 0.023890462596389082 -0.0037995741193641492 0 0.024009537212010705 -0.0037995054207339116 0 0.02404852652085886 -0.0039186801819782874 0 0.023968446702056549 -0.0038762249319197347 0 0.024114870941008493 -0.0038983461887890482 0 0.024009537212010705 -0.0037995054207339116 0 0.02404852652085886 -0.0039186801819782874 0 0.024114870941008493 -0.0038983461887890482 0 0.024101297772744609 -0.0037403572783728011 0 0.024009537212010705 -0.0037995054207339116 0 0.024149656753530375 -0.0040330991255235274 0 0.024114870941008493 -0.0038983461887890482 0 0.02404852652085886 -0.0039186801819782874 0 0.034618233513825994 -0.0028274408435742834 0 0.034722208097373149 -0.0025824342208647906 0 0.034683530378935318 -0.0027047098395361906 0 0.029093320536053253 -0.0031952934453277227 0 0.029272368824031489 -0.0025418115227243462 0 0.024149656753530375 -0.0040330991255235274 0 0.02404852652085886 -0.0039186801819782874 0 0.023991834433628824 -0.0039579683989820905 0 0.023968446702056549 -0.0038762249319197347 0 0.023991834433628824 -0.0039579683989820905 0 0.023905577431517368 -0.0038885729517972017 0 0.02404852652085886 -0.0039186801819782874 0 0.023968446702056549 -0.0038762249319197347 0 0.023991834433628824 -0.0039579683989820905 0 0.034722208097373149 -0.0025824342208647906 0 0.0347039832658603 -0.0026264008041381333 0 0.034625433500124175 -0.0026074811989533985 0 0.035235466105341479 -0.0019402244948228428 0 0.035473142987413366 -0.0012812935173090081 0 0.035128715759690343 -0.0014268901123913502 0 0.034559118842356157 -0.00200356840090998 0 0.034475662806686416 -0.0016315988382895634 0 0.0347039832658603 -0.0026264008041381333 0 0.034625433500124175 -0.0026074811989533985 0 0.034616694709682677 -0.0026467151674421543 0 0.0347039832658603 -0.0026264008041381333 0 0.034616290050962541 -0.0027143514096274759 0 0.034616694709682677 -0.0026467151674421543 0 0.034832397549246025 -0.0015072037965031396 0 0.034805980216100381 -0.0019455230844684437 0 0.034563804146158797 -0.0015402250773329357 0 0.034832397549246025 -0.0015072037965031396 0 0.034805980216100381 -0.0019455230844684437 0 0.035128715759690343 -0.0014268901123913502 0 0.035235466105341479 -0.0019402244948228428 0 0.034805980216100381 -0.0019455230844684437 0 0.035128715759690343 -0.0014268901123913502 0 0.034722208097373149 -0.0025824342208647906 0 0.0347039832658603 -0.0026264008041381333 0 0.034683530378935318 -0.0027047098395361906 0 0.034805980216100381 -0.0019455230844684437 0 0.034683530378935318 -0.0027047098395361906 0 0.034578447558191013 -0.0024514534283742611 0 0.034559118842356157 -0.00200356840090998 0 0.034533372969763713 -0.0021852586004127909 0 0.035235466105341479 -0.0019402244948228428 0 0.034805980216100381 -0.0019455230844684437 0 0.034683530378935318 -0.0027047098395361906 0 0.034618233513825994 -0.0028274408435742834 0 0.034683530378935318 -0.0027047098395361906 0 0.034578447558191013 -0.0024514534283742611 0 0.034618233513825994 -0.0028274408435742834 0 0.034228664967990124 -0.0025798243909683468 0 0.034578447558191013 -0.0024514534283742611 0 0.034228664967990124 -0.0025798243909683468 0 0.033878186882521116 -0.0021027965265835993 0 0.034495267479200967 -0.0020939562986548857 0 0.034228664967990124 -0.0025798243909683468 0 0.034578447558191013 -0.0024514534283742611 0 0.034495267479200967 -0.0020939562986548857 0 0.034805980216100381 -0.0019455230844684437 0 0.034578447558191013 -0.0024514534283742611 0 0.034495267479200967 -0.0020939562986548857 0 0.03319874891036053 -0.0036082645949602507 0 0.034228664967990124 -0.0025798243909683468 0 0.033878186882521116 -0.0021027965265835993 0 0.033878186882521116 -0.0021027965265835993 0 0.033670128506912207 -0.0014262861888884423 0 0.033174635818068544 -0.0018563068679698963 0 0.033878186882521116 -0.0021027965265835993 0 0.034095953838892294 -0.0015007515824340038 0 0.034266420268340723 -0.0018022212289195336 0 0.033878186882521116 -0.0021027965265835993 0 0.034095953838892294 -0.0015007515824340038 0 0.033670128506912207 -0.0014262861888884423 0 0.033878186882521116 -0.0021027965265835993 0 0.034495267479200967 -0.0020939562986548857 0 0.034266420268340723 -0.0018022212289195336 0 0.034495267479200967 -0.0020939562986548857 0 0.034266420268340723 -0.0018022212289195336 0 0.034563804146158797 -0.0015402250773329357 0 0.034805980216100381 -0.0019455230844684437 0 0.034495267479200967 -0.0020939562986548857 0 0.034563804146158797 -0.0015402250773329357 0 0.034095953838892294 -0.0015007515824340038 0 0.034266420268340723 -0.0018022212289195336 0 0.034563804146158797 -0.0015402250773329357 0 0.034563804146158797 -0.0015402250773329357 0 0.034410799232400917 -0.0010713659871332745 0 0.034831841867224794 -0.0011472911221343399 0 0.034095953838892294 -0.0015007515824340038 0 0.034563804146158797 -0.0015402250773329357 0 0.034410799232400917 -0.0010713659871332745 0 0.034410799232400917 -0.0010713659871332745 0 0.034665014250960295 -0.00092579988712107066 0 0.034831841867224794 -0.0011472911221343399 0 0.033670128506912207 -0.0014262861888884423 0 0.034055713685913397 -0.001094993780026494 0 0.033632415443591017 -0.0010361927239134687 0 0.034095953838892294 -0.0015007515824340038 0 0.034410799232400917 -0.0010713659871332745 0 0.034055713685913397 -0.001094993780026494 0 0.034095953838892294 -0.0015007515824340038 0 0.033670128506912207 -0.0014262861888884423 0 0.034055713685913397 -0.001094993780026494 0 0.034410799232400917 -0.0010713659871332745 0 0.034055713685913397 -0.001094993780026494 0 0.034139811544870474 -0.00074249293776579772 0 0.034055713685913397 -0.001094993780026494 0 0.033910839287820557 -0.00089164040968469315 0 0.034139811544870474 -0.00074249293776579772 0 0.033910839287820557 -0.00089164040968469315 0 0.033632415443591017 -0.0010361927239134687 0 0.033817887153760162 -0.00072542175529702985 0 0.034055713685913397 -0.001094993780026494 0 0.033910839287820557 -0.00089164040968469315 0 0.033632415443591017 -0.0010361927239134687 0 0.034139811544870474 -0.00074249293776579772 0 0.034032104710589844 -0.00048013283640490787 0 0.03448600592716896 -0.00043835387513402845 0 0.033910839287820557 -0.00089164040968469315 0 0.034139811544870474 -0.00074249293776579772 0 0.033817887153760162 -0.00072542175529702985 0 0.034139811544870474 -0.00074249293776579772 0 0.033817887153760162 -0.00072542175529702985 0 0.034032104710589844 -0.00048013283640490787 0 0.034139811544870474 -0.00074249293776579772 0 0.034548758533713565 -0.00073265216342035091 0 0.03448600592716896 -0.00043835387513402845 0 0.034410799232400917 -0.0010713659871332745 0 0.034665014250960295 -0.00092579988712107066 0 0.034548758533713565 -0.00073265216342035091 0 0.034665014250960295 -0.00092579988712107066 0 0.034548758533713565 -0.00073265216342035091 0 0.034861017140349691 -0.00077308167883403619 0 0.034410799232400917 -0.0010713659871332745 0 0.034139811544870474 -0.00074249293776579772 0 0.034548758533713565 -0.00073265216342035091 0 0.034548758533713565 -0.00073265216342035091 0 0.034861017140349691 -0.00077308167883403619 0 0.034722209799644702 -0.00053920850012473764 0 0.034665014250960295 -0.00092579988712107066 0 0.034861017140349691 -0.00077308167883403619 0 0.034831841867224794 -0.0011472911221343399 0 0.034861017140349691 -0.00077308167883403619 0 0.035167362546604609 -0.00069394390243577957 0 0.035134339456703752 -0.0010034595925777004 0 0.034861017140349691 -0.00077308167883403619 0 0.035134339456703752 -0.0010034595925777004 0 0.034831841867224794 -0.0011472911221343399 0 0.034861017140349691 -0.00077308167883403619 0 0.035167362546604609 -0.00069394390243577957 0 0.034966042719542442 -0.00048525965321884456 0 0.035167362546604609 -0.00069394390243577957 0 0.035367208538762421 -0.00088545594633855792 0 0.03538227958058722 -0.00065240697923764856 0 0.035167362546604609 -0.00069394390243577957 0 0.035367208538762421 -0.00088545594633855792 0 0.035134339456703752 -0.0010034595925777004 0 0.035367208538762421 -0.00088545594633855792 0 0.035134339456703752 -0.0010034595925777004 0 0.035473142987413366 -0.0012812935173090081 0 0.035134339456703752 -0.0010034595925777004 0 0.035473142987413366 -0.0012812935173090081 0 0.035128715759690343 -0.0014268901123913502 0 0.034832397549246025 -0.0015072037965031396 0 0.035128715759690343 -0.0014268901123913502 0 0.034831841867224794 -0.0011472911221343399 0 0.034832397549246025 -0.0015072037965031396 0 0.034563804146158797 -0.0015402250773329357 0 0.034831841867224794 -0.0011472911221343399 0 0.035134339456703752 -0.0010034595925777004 0 0.035128715759690343 -0.0014268901123913502 0 0.034831841867224794 -0.0011472911221343399 0 0.026285063515943084 -0.001271229670564994 0 0.027367395346715433 -0.00075675282597865924 0 0.0265016942999582 -0.0017514980619362452 0 0.027367395346715433 -0.00075675282597865924 0 0.0265016942999582 -0.0017514980619362452 0 0.027891592724973144 -0.0017933948897959442 0 0.0265016942999582 -0.0017514980619362452 0 0.026644490944105183 -0.0030091706764013557 0 0.027891592724973144 -0.0017933948897959442 0 0.026167812253518091 -0.0017049367812947448 0 0.025853021620863007 -0.0017212441740993218 0 0.0265016942999582 -0.0017514980619362452 0 0.02576020879734546 -0.0045621608244385999 0 0.0265016942999582 -0.0017514980619362452 0 0.026644490944105183 -0.0030091706764013557 0 0.025723023459568901 -0.0027595474883224491 0 0.02588013228216271 -0.0023599822314369439 0 0.026644490944105183 -0.0030091706764013557 0 0.027891592724973144 -0.0017933948897959442 0 0.028187720972068026 -0.0030231153726453532 0 0.030276504175488047 -0.0043558218613665095 0 0.028187720972068026 -0.0030231153726453532 0 0.029587683462127586 -0.0024212097590744683 0 0.027891592724973144 -0.0017933948897959442 0 0.028187720972068026 -0.0030231153726453532 0 0.029587683462127586 -0.0024212097590744683 0 0.027367395346715433 -0.00075675282597865924 0 0.029202798089388578 -0.0010560560015357072 0 0.028324019835440879 0.00085653547005179367 0 0.027367395346715433 -0.00075675282597865924 0 0.027891592724973144 -0.0017933948897959442 0 0.029202798089388578 -0.0010560560015357072 0 0.027891592724973144 -0.0017933948897959442 0 0.029587683462127586 -0.0024212097590744683 0 0.029202798089388578 -0.0010560560015357072 0 0.029202798089388578 -0.0010560560015357072 0 0.031736822595836101 -0.0019335194195418278 0 0.031327224477717214 -7.4006461587028334e-05 0 0.03249953459433972 -0.0011485606344590607 0 0.032552254035427275 -0.00077777895870272671 0 0.029587683462127586 -0.0024212097590744683 0 0.029202798089388578 -0.0010560560015357072 0 0.031736822595836101 -0.0019335194195418278 0 0.031736822595836101 -0.0019335194195418278 0 0.033040342738868349 -0.0013620482265438772 0 0.032549405039033724 -0.0012782347113213823 0 0.030276504175488047 -0.0043558218613665095 0 0.029587683462127586 -0.0024212097590744683 0 0.031736822595836101 -0.0019335194195418278 0 0.030276504175488047 -0.0043558218613665095 0 0.031736822595836101 -0.0019335194195418278 0 0.032752903104318325 -0.0026308358808446435 0 0.031736822595836101 -0.0019335194195418278 0 0.032752903104318325 -0.0026308358808446435 0 0.033174635818068544 -0.0018563068679698963 0 0.033878186882521116 -0.0021027965265835993 0 0.032752903104318325 -0.0026308358808446435 0 0.033174635818068544 -0.0018563068679698963 0 0.03319874891036053 -0.0036082645949602507 0 0.033878186882521116 -0.0021027965265835993 0 0.032752903104318325 -0.0026308358808446435 0 0.031736822595836101 -0.0019335194195418278 0 0.033174635818068544 -0.0018563068679698963 0 0.033040342738868349 -0.0013620482265438772 0 0.033670128506912207 -0.0014262861888884423 0 0.033174635818068544 -0.0018563068679698963 0 0.033040342738868349 -0.0013620482265438772 0 0.033670128506912207 -0.0014262861888884423 0 0.033040342738868349 -0.0013620482265438772 0 0.033632415443591017 -0.0010361927239134687 0 0.033040342738868349 -0.0013620482265438772 0 0.033199441176480382 -0.0010068484585350416 0 0.033632415443591017 -0.0010361927239134687 0 0.033040342738868349 -0.0013620482265438772 0 0.033199441176480382 -0.0010068484585350416 0 0.032549405039033724 -0.0012782347113213823 0 0.033199441176480382 -0.0010068484585350416 0 0.033501740705488087 -0.0006364412708851359 0 0.032930728551864172 -0.00068586794799611807 0 0.033199441176480382 -0.0010068484585350416 0 0.033543053739357696 -0.00080565277293819936 0 0.033501740705488087 -0.0006364412708851359 0 0.033199441176480382 -0.0010068484585350416 0 0.033543053739357696 -0.00080565277293819936 0 0.033632415443591017 -0.0010361927239134687 0 0.033543053739357696 -0.00080565277293819936 0 0.033632415443591017 -0.0010361927239134687 0 0.033817887153760162 -0.00072542175529702985 0 0.033771695567779231 -0.00056504233063125531 0 0.033501740705488087 -0.0006364412708851359 0 0.033971824506277531 -0.00036169907798695695 0 0.033543053739357696 -0.00080565277293819936 0 0.033817887153760162 -0.00072542175529702985 0 0.033771695567779231 -0.00056504233063125531 0 0.033817887153760162 -0.00072542175529702985 0 0.033771695567779231 -0.00056504233063125531 0 0.034032104710589844 -0.00048013283640490787 0 0.033543053739357696 -0.00080565277293819936 0 0.033771695567779231 -0.00056504233063125531 0 0.033501740705488087 -0.0006364412708851359 0 0.033501740705488087 -0.0006364412708851359 0 0.033503046089855777 -0.00063097174761862014 0 0.033971824506277531 -0.00036169907798695695 0 0.035113927753647134 -0.00077372593846244443 0 0.034952728704539485 -0.00066114977124798636 0 0.035093877562710506 -0.00048141294245781602 0 0.032726880840765499 -0.00023019776473728426 0 0.033831248436376846 -0.00046212151471547328 0 0.032782824838380749 -0.00023286425983779234 0 0.032726880840765499 -0.00023019776473728426 0 0.031177087783373438 0.0017358256879718874 0 0.031327224477717214 -7.4006461587028334e-05 0 0.028324019835440879 0.00085653547005179367 0 0.033199441176480382 -0.0010068484585350416 0 0.032930728551864172 -0.00068586794799611807 0 0.032549405039033724 -0.0012782347113213823 0 0.032726880840765499 -0.00023019776473728426 0 0.032552254035427275 -0.00077777895870272671 0 0.032726880840765499 -0.00023019776473728426 0 0.03185953480336632 -0.00041912686541911178 0 0.029202798089388578 -0.0010560560015357072 0 0.031327224477717214 -7.4006461587028334e-05 0 0.028324019835440879 0.00085653547005179367 0 0.034859841913684506 -0.00086287322658394996 0 0.034952728704539485 -0.00066114977124798636 0 0.034781811634062659 -0.00060892505551962673 0 0.035113927753647134 -0.00077372593846244443 0 0.034859841913684506 -0.00086287322658394996 0 0.034952728704539485 -0.00066114977124798636 0 0.034597685672147015 -0.00072423364107960467 0 0.034859841913684506 -0.00086287322658394996 0 0.034781811634062659 -0.00060892505551962673 0 0.034597685672147015 -0.00072423364107960467 0 0.03466450678307112 -0.00052920756319304067 0 0.034781811634062659 -0.00060892505551962673 0 0.034564509692531213 -0.0010043730487228478 0 0.034597685672147015 -0.00072423364107960467 0 0.034859841913684506 -0.00086287322658394996 0 0.026352184268169689 -0.00052780803461196602 0 0.027367395346715433 -0.00075675282597865924 0 0.028324019835440879 0.00085653547005179367 0 0.030993397605084943 -0.00082147220300180131 0 0.03185953480336632 -0.00041912686541911178 0 0.034672652953556912 -0.00032834233808502473 0 0.034792878567348015 -0.00031700950031064506 0 0.034730100277441674 -0.00036982049339687992 0 0.034792878567348015 -0.00031700950031064506 0 0.034730100277441674 -0.00036982049339687992 0 0.034769114073617394 -0.00043174098993859172 0 0.034792878567348015 -0.00031700950031064506 0 0.034769114073617394 -0.00043174098993859172 0 0.034900835529276329 -0.00034061306981567334 0 0.034672652953556912 -0.00032834233808502473 0 0.034730100277441674 -0.00036982049339687992 0 0.034667619216272871 -0.0004295415275824896 0 0.034730100277441674 -0.00036982049339687992 0 0.034667619216272871 -0.0004295415275824896 0 0.034769114073617394 -0.00043174098993859172 0 0.034667619216272871 -0.0004295415275824896 0 0.03466450678307112 -0.00052920756319304067 0 0.034769114073617394 -0.00043174098993859172 0 0.03466450678307112 -0.00052920756319304067 0 0.034781811634062659 -0.00060892505551962673 0 0.034769114073617394 -0.00043174098993859172 0 0.034781811634062659 -0.00060892505551962673 0 0.034769114073617394 -0.00043174098993859172 0 0.034900144791822144 -0.00050375137534121653 0 0.034952728704539485 -0.00066114977124798636 0 0.034900144791822144 -0.00050375137534121653 0 0.035093877562710506 -0.00048141294245781602 0 0.034900144791822144 -0.00050375137534121653 0 0.034900835529276329 -0.00034061306981567334 0 0.035093877562710506 -0.00048141294245781602 0 0.034952728704539485 -0.00066114977124798636 0 0.034781811634062659 -0.00060892505551962673 0 0.034900144791822144 -0.00050375137534121653 0 0.034769114073617394 -0.00043174098993859172 0 0.034900144791822144 -0.00050375137534121653 0 0.034900835529276329 -0.00034061306981567334 0 0.034900835529276329 -0.00034061306981567334 0 0.035093877562710506 -0.00048141294245781602 0 0.03505677187756253 -0.00020202447872702474 0 0.033971824506277531 -0.00036169907798695695 0 0.034485504515110364 -0.00013952914318206175 0 0.034498555982836555 -8.9574884996188454e-05 0 0.033831248436376846 -0.00046212151471547328 0 0.034500002013066938 -0.00028477565282463519 0 0.033771695567779231 -0.00056504233063125531 0 0.033971824506277531 -0.00036169907798695695 0 0.034032104710589844 -0.00048013283640490787 0 0.033971824506277531 -0.00036169907798695695 0 0.034032104710589844 -0.00048013283640490787 0 0.034390189949108529 -0.0002686832533830245 0 0.033971824506277531 -0.00036169907798695695 0 0.034485504515110364 -0.00013952914318206175 0 0.034390189949108529 -0.0002686832533830245 0 0.034485504515110364 -0.00013952914318206175 0 0.03474073341007184 -3.8095942722756054e-05 0 0.034498555982836555 -8.9574884996188454e-05 0 0.034485504515110364 -0.00013952914318206175 0 0.03474073341007184 -3.8095942722756054e-05 0 0.034763536308140552 -5.4441538724472851e-05 0 0.03474073341007184 -3.8095942722756054e-05 0 0.034999408365546707 -4.5820423867069474e-09 0 0.034999608213544794 -1.4152369814526281e-08 0 0.035000359552421513 -8.7716116197872151e-08 0 0.03505677187756253 -0.00020202447872702474 0 0.034999630240584001 8.1194775988416852e-08 0 0.03474073341007184 -3.8095942722756054e-05 0 0.034999408365546707 -4.5820423867069474e-09 0 0.034498555982836555 -8.9574884996188454e-05 0 0.034999066727109777 -4.0321577000972986e-07 0 0.034500002013066938 -0.00028477565282463519 0 0.034900835529276329 -0.00034061306981567334 0 0.03505677187756253 -0.00020202447872702474 0 0.034845510434601421 -0.00014508746832214459 0 0.034792878567348015 -0.00031700950031064506 0 0.034900835529276329 -0.00034061306981567334 0 0.034845510434601421 -0.00014508746832214459 0 0.034999892177959596 -8.8564787966596526e-08 0 0.034908173560453816 -9.4058851756030967e-05 0 0.03500000662636913 -4.8762829835618965e-09 0 0.034999979584372141 9.5018644387526783e-09 0 0.034993063425891001 -8.517917905311027e-07 0 0.03505677187756253 -0.00020202447872702474 0 0.034999630240584001 8.1194775988416852e-08 0 0.034845510434601421 -0.00014508746832214459 0 0.034968962505395808 -2.8097764938231961e-06 0 0.034999979584372141 9.5018644387526783e-09 0 0.034993063425891001 -8.517917905311027e-07 0 0.034800209136281575 -0.00021085899967258722 0 0.034908173560453816 -9.4058851756030967e-05 0 0.034672652953556912 -0.00032834233808502473 0 0.034792878567348015 -0.00031700950031064506 0 0.034845510434601421 -0.00014508746832214459 0 0.034953262219120609 -6.2536562236515293e-06 0 0.034968962505395808 -2.8097764938231961e-06 0 0.034993063425891001 -8.517917905311027e-07 0 0.034953262219120609 -6.2536562236515293e-06 0 0.034977031635021243 -2.8760005795249425e-05 0 0.034993063425891001 -8.517917905311027e-07 0 0.034992452508007144 -0.00024401508901761325 0 0.034799046281866822 -0.00035779503668155916 0 0.034728488141881883 -0.00020641918652696662 0 0.034992452508007144 -0.00024401508901761325 0 0.034728488141881883 -0.00020641918652696662 0 0.034955062674430257 -5.8258360776604341e-05 0 0.034992452508007144 -0.00024401508901761325 0 0.035198824401247386 -0.00042668813131492464 0 0.03520992920858021 -0.00010134460535323006 0 0.034992452508007144 -0.00024401508901761325 0 0.035198824401247386 -0.00042668813131492464 0 0.034966042719542442 -0.00048525965321884456 0 0.035167362546604609 -0.00069394390243577957 0 0.035198824401247386 -0.00042668813131492464 0 0.03538227958058722 -0.00065240697923764856 0 0.035167362546604609 -0.00069394390243577957 0 0.035198824401247386 -0.00042668813131492464 0 0.034966042719542442 -0.00048525965321884456 0 0.034992452508007144 -0.00024401508901761325 0 0.034966042719542442 -0.00048525965321884456 0 0.034799046281866822 -0.00035779503668155916 0 0.034966042719542442 -0.00048525965321884456 0 0.034799046281866822 -0.00035779503668155916 0 0.034722209799644702 -0.00053920850012473764 0 0.034861017140349691 -0.00077308167883403619 0 0.034966042719542442 -0.00048525965321884456 0 0.034722209799644702 -0.00053920850012473764 0 0.034799046281866822 -0.00035779503668155916 0 0.03448600592716896 -0.00043835387513402845 0 0.034728488141881883 -0.00020641918652696662 0 0.034548758533713565 -0.00073265216342035091 0 0.034722209799644702 -0.00053920850012473764 0 0.03448600592716896 -0.00043835387513402845 0 0.034799046281866822 -0.00035779503668155916 0 0.034722209799644702 -0.00053920850012473764 0 0.03448600592716896 -0.00043835387513402845 0 0.034032104710589844 -0.00048013283640490787 0 0.03448600592716896 -0.00043835387513402845 0 0.034390189949108529 -0.0002686832533830245 0 0.034485504515110364 -0.00013952914318206175 0 0.034390189949108529 -0.0002686832533830245 0 0.034763536308140552 -5.4441538724472851e-05 0 0.03448600592716896 -0.00043835387513402845 0 0.034390189949108529 -0.0002686832533830245 0 0.034728488141881883 -0.00020641918652696662 0 0.034390189949108529 -0.0002686832533830245 0 0.034728488141881883 -0.00020641918652696662 0 0.034763536308140552 -5.4441538724472851e-05 0 0.034728488141881883 -0.00020641918652696662 0 0.034763536308140552 -5.4441538724472851e-05 0 0.034955062674430257 -5.8258360776604341e-05 0 0.03474073341007184 -3.8095942722756054e-05 0 0.034763536308140552 -5.4441538724472851e-05 0 0.034999608213544794 -1.4152369814526281e-08 0 0.034763536308140552 -5.4441538724472851e-05 0 0.034999608213544794 -1.4152369814526281e-08 0 0.034999818987677442 -7.0742157288432406e-09 0 0.034763536308140552 -5.4441538724472851e-05 0 0.034999818987677442 -7.0742157288432406e-09 0 0.034955062674430257 -5.8258360776604341e-05 0 0.034999818987677442 -7.0742157288432406e-09 0 0.034955062674430257 -5.8258360776604341e-05 0 0.035000371242018713 8.1186844176651568e-08 0 0.034992452508007144 -0.00024401508901761325 0 0.034955062674430257 -5.8258360776604341e-05 0 0.03520992920858021 -0.00010134460535323006 0 0.034955062674430257 -5.8258360776604341e-05 0 0.035000371242018713 8.1186844176651568e-08 0 0.03520992920858021 -0.00010134460535323006 0 0.034999965307780323 8.6877989730439658e-09 0 0.034993670449518552 -9.7126876802792163e-06 0 0.034999981032033278 -1.6270452989051111e-08 0 0.034999965307780323 8.6877989730439658e-09 0 0.034993670449518552 -9.7126876802792163e-06 0 0.034976449801642301 -3.9292390695363298e-05 0 0.034999698325952094 -2.5908045497576948e-07 0 0.034827615592968604 -0.00022013724863054378 0 0.034993670449518552 -9.7126876802792163e-06 0 0.034981163297029369 -1.0327257712963748e-05 0 0.034979133819430415 -1.2685204537248498e-05 0 0.034993670449518552 -9.7126876802792163e-06 0 0.034999981032033278 -1.6270452989051111e-08 0 0.034981163297029369 -1.0327257712963748e-05 0 0.034999981032033278 -1.6270452989051111e-08 0 0.034981163297029369 -1.0327257712963748e-05 0 0.034988118803938595 -4.8474019772261225e-06 0 0.034981163297029369 -1.0327257712963748e-05 0 0.034970268826652828 -1.2742298383586825e-05 0 0.034988118803938595 -4.8474019772261225e-06 0 0.034981163297029369 -1.0327257712963748e-05 0 0.034972915392302746 -1.4425082054103102e-05 0 0.034979133819430415 -1.2685204537248498e-05 0 0.034981163297029369 -1.0327257712963748e-05 0 0.034972915392302746 -1.4425082054103102e-05 0 0.034966941715770042 -1.5561750173843969e-05 0 0.034972915392302746 -1.4425082054103102e-05 0 0.034966941715770042 -1.5561750173843969e-05 0 0.03496214422330067 -1.7816469952215655e-05 0 0.034981163297029369 -1.0327257712963748e-05 0 0.034966941715770042 -1.5561750173843969e-05 0 0.034970268826652828 -1.2742298383586825e-05 0 0.034704590015534227 -0.00011489865783314337 0 0.03465164080321697 -0.00018923696688942913 0 0.034993670449518552 -9.7126876802792163e-06 0 0.034976449801642301 -3.9292390695363298e-05 0 0.034979523052015168 -4.9362516879628107e-05 0 0.034993670449518552 -9.7126876802792163e-06 0 0.034979133819430415 -1.2685204537248498e-05 0 0.034968982368212206 -1.6423981518134142e-05 0 0.034972915392302746 -1.4425082054103102e-05 0 0.034979133819430415 -1.2685204537248498e-05 0 0.034968982368212206 -1.6423981518134142e-05 0 0.034972915392302746 -1.4425082054103102e-05 0 0.034968982368212206 -1.6423981518134142e-05 0 0.03496214422330067 -1.7816469952215655e-05 0 0.034968982368212206 -1.6423981518134142e-05 0 0.03496214422330067 -1.7816469952215655e-05 0 0.034958452811379062 -1.6454042489473269e-05 0 0.035198824401247386 -0.00042668813131492464 0 0.03520992920858021 -0.00010134460535323006 0 0.035484305033347791 -0.00045345527421131372 0 0.034827615592968604 -0.00022013724863054378 0 0.034485763385884702 -0.00053084982103653944 0 0.03465164080321697 -0.00018923696688942913 0 0.034485763385884702 -0.00053084982103653944 0 0.034976449801642301 -3.9292390695363298e-05 0 0.034979523052015168 -4.9362516879628107e-05 0 0.034963093774312948 -0.00010811923452039475 0 0.034966941715770042 -1.5561750173843969e-05 0 0.034940302790816745 -1.8825352423684023e-05 0 0.034970268826652828 -1.2742298383586825e-05 0 0.034966941715770042 -1.5561750173843969e-05 0 0.03496214422330067 -1.7816469952215655e-05 0 0.034940302790816745 -1.8825352423684023e-05 0 0.03496214422330067 -1.7816469952215655e-05 0 0.034958452811379062 -1.6454042489473269e-05 0 0.034940302790816745 -1.8825352423684023e-05 0 0.034678922802906915 -0.00025566296144316242 0 0.034184203054841482 -0.00087437796437481619 0 0.034940302790816745 -1.8825352423684023e-05 0 0.034869992155990022 -4.6011383111357861e-05 0 0.03490908956191676 -3.8288619442198615e-05 0 0.034958452811379062 -1.6454042489473269e-05 0 0.034940302790816745 -1.8825352423684023e-05 0 0.034952094793104974 -8.9831965165081803e-06 0 0.034485763385884702 -0.00053084982103653944 0 0.034176094095785738 -0.0010734152472393441 0 0.035198824401247386 -0.00042668813131492464 0 0.035484305033347791 -0.00045345527421131372 0 0.03538227958058722 -0.00065240697923764856 0 0.035484305033347791 -0.00045345527421131372 0 0.035633144938379623 -0.00083088462955488082 0 0.03538227958058722 -0.00065240697923764856 0 0.034485763385884702 -0.00053084982103653944 0 0.034184203054841482 -0.00087437796437481619 0 0.03493828010736006 -2.6442249278028353e-05 0 0.034930700678262393 -3.1571772480024425e-05 0 0.034921232808432782 -4.0255460120309726e-05 0 0.03493828010736006 -2.6442249278028353e-05 0 0.034923254806055425 -3.3809197668136004e-05 0 0.034921232808432782 -4.0255460120309726e-05 0 0.034923254806055425 -3.3809197668136004e-05 0 0.034940302790816745 -1.8825352423684023e-05 0 0.03490908956191676 -3.8288619442198615e-05 0 0.03493828010736006 -2.6442249278028353e-05 0 0.034923254806055425 -3.3809197668136004e-05 0 0.034940302790816745 -1.8825352423684023e-05 0 0.034940302790816745 -1.8825352423684023e-05 0 0.034963273061631037 -1.7091832816641668e-05 0 0.034970268826652828 -1.2742298383586825e-05 0 0.03493828010736006 -2.6442249278028353e-05 0 0.034940302790816745 -1.8825352423684023e-05 0 0.034963273061631037 -1.7091832816641668e-05 0 0.034943555246724337 -1.4956490612441009e-05 0 0.034935768890567355 -1.3052618381948468e-05 0 0.03493828010736006 -2.6442249278028353e-05 0 0.034963273061631037 -1.7091832816641668e-05 0 0.034934180450745221 -2.9380485003416707e-05 0 0.034963273061631037 -1.7091832816641668e-05 0 0.034987393272604701 -3.0641199478591587e-06 0 0.034988739723050589 -6.842829885885217e-06 0 0.034963273061631037 -1.7091832816641668e-05 0 0.034987393272604701 -3.0641199478591587e-06 0 0.034970268826652828 -1.2742298383586825e-05 0 0.034987393272604701 -3.0641199478591587e-06 0 0.034970268826652828 -1.2742298383586825e-05 0 0.034988118803938595 -4.8474019772261225e-06 0 0.034987393272604701 -3.0641199478591587e-06 0 0.034999980009083581 1.8096852388729148e-09 0 0.034988118803938595 -4.8474019772261225e-06 0 0.034999981032033278 -1.6270452989051111e-08 0 0.034999980009083581 1.8096852388729148e-09 0 0.034988118803938595 -4.8474019772261225e-06 0 0.034987393272604701 -3.0641199478591587e-06 0 0.034999980009083581 1.8096852388729148e-09 0 0.03499997287305881 -9.0743777982013375e-09 0 0.034987393272604701 -3.0641199478591587e-06 0 0.03499997287305881 -9.0743777982013375e-09 0 0.034992603897264558 -2.3103880731140316e-06 0 0.034999989502444713 -3.6861470608242043e-10 0 0.034992789649789115 9.9348532752630596e-07 0 0.03499997287305881 -9.0743777982013375e-09 0 0.034992603897264558 -2.3103880731140316e-06 0 0.034987292343167796 -5.9865919350921433e-06 0 0.034999998012552831 -1.2651355232857195e-09 0 0.035000005533284945 3.1465431686194269e-09 0 0.035000276696218149 7.6238723528835729e-07 0 0.034992603897264558 -2.3103880731140316e-06 0 0.034987292343167796 -5.9865919350921433e-06 0 0.034988053728757053 -2.308919961318425e-06 0 0.034992603897264558 -2.3103880731140316e-06 0 0.034988053728757053 -2.308919961318425e-06 0 0.034990243293739447 -2.9663527695317145e-06 0 0.034988053728757053 -2.308919961318425e-06 0 0.034985886573869987 9.0829703551900588e-07 0 0.034990243293739447 -2.9663527695317145e-06 0 0.034987393272604701 -3.0641199478591587e-06 0 0.034992603897264558 -2.3103880731140316e-06 0 0.034990243293739447 -2.9663527695317145e-06 0 0.034987393272604701 -3.0641199478591587e-06 0 0.034990243293739447 -2.9663527695317145e-06 0 0.034988739723050589 -6.842829885885217e-06 0 0.034999986384910878 -3.7657952521813941e-09 0 0.0349857447122617 4.1661163057434145e-06 0 0.034999645954718044 4.7924470518644587e-06 0 0.035000005533284945 3.1465431686194269e-09 0 0.035000276696218149 7.6238723528835729e-07 0 0.034999645954718044 4.7924470518644587e-06 0 0.034987292343167796 -5.9865919350921433e-06 0 0.034988053728757053 -2.308919961318425e-06 0 0.034975234312950895 -2.0213211551375931e-06 0 0.035000005533284945 3.1465431686194269e-09 0 0.034999986384910878 -3.7657952521813941e-09 0 0.034999645954718044 4.7924470518644587e-06 0 0.034992789649789115 9.9348532752630596e-07 0 0.034986451679673014 2.6373783753897634e-06 0 0.034988053728757053 -2.308919961318425e-06 0 0.034985886573869987 9.0829703551900588e-07 0 0.034975234312950895 -2.0213211551375931e-06 0 0.034985886573869987 9.0829703551900588e-07 0 0.034975234312950895 -2.0213211551375931e-06 0 0.034975618182529346 7.8290907575482823e-06 0 0.034986451679673014 2.6373783753897634e-06 0 0.034980543027926449 4.7264585192767244e-06 0 0.034975234312950895 -2.0213211551375931e-06 0 0.034966976696062572 9.053654809579612e-06 0 0.034963660661666514 9.7936728124760554e-06 0 0.0349857447122617 4.1661163057434145e-06 0 0.034999645954718044 4.7924470518644587e-06 0 0.034963660661666514 9.7936728124760554e-06 0 0.034975234312950895 -2.0213211551375931e-06 0 0.034966976696062572 9.053654809579612e-06 0 0.034975618182529346 7.8290907575482823e-06 0 0.034967979429703339 1.308558324259324e-05 0 0.034975618182529346 7.8290907575482823e-06 0 0.03497305746840184 1.5941227629032762e-05 0 0.034967979429703339 1.308558324259324e-05 0 0.034966976696062572 9.053654809579612e-06 0 0.034975618182529346 7.8290907575482823e-06 0 0.034985886573869987 9.0829703551900588e-07 0 0.034975618182529346 7.8290907575482823e-06 0 0.0349840150806855 7.7571607510185149e-06 0 0.034933193918431388 -3.5745897233017657e-05 0 0.034936109665128466 -3.3664638547930577e-05 0 0.034931933292202157 -3.233672412721141e-05 0 0.03472320201115886 5.3472813406050881e-05 0 0.034892710338606227 -4.8934586946511804e-07 0 0.034975618182529346 7.8290907575482823e-06 0 0.03497305746840184 1.5941227629032762e-05 0 0.0349840150806855 7.7571607510185149e-06 0 0.034665020627607596 -1.7170860896315238e-05 0 0.034721088240771532 -0.00010199368050752212 0 0.034844823860334939 -7.0627512848337812e-05 0 0.034866192679544286 -7.7713854648434437e-06 0 0.034811597032598708 -5.1361352235386514e-05 0 0.034884120710687534 -3.675297580413742e-05 0 0.03472320201115886 5.3472813406050881e-05 0 0.034761654416525865 3.0931093213498402e-05 0 0.034811597032598708 -5.1361352235386514e-05 0 0.034844823860334939 -7.0627512848337812e-05 0 0.034884120710687534 -3.675297580413742e-05 0 0.034788049687487763 5.6684441753498176e-05 0 0.03472320201115886 5.3472813406050881e-05 0 0.034985886573869987 9.0829703551900588e-07 0 0.034988739723050589 -6.842829885885217e-06 0 0.0349840150806855 7.7571607510185149e-06 0 0.034935768890567355 -1.3052618381948468e-05 0 0.034892710338606227 -4.8934586946511804e-07 0 0.034985886573869987 9.0829703551900588e-07 0 0.034990243293739447 -2.9663527695317145e-06 0 0.034988739723050589 -6.842829885885217e-06 0 0.034933193918431388 -3.5745897233017657e-05 0 0.034931933292202157 -3.233672412721141e-05 0 0.034930525374135699 -3.6859135444147611e-05 0 0.034931933292202157 -3.233672412721141e-05 0 0.034931012559919039 -3.2482523275859152e-05 0 0.034930525374135699 -3.6859135444147611e-05 0 0.034934180450745221 -2.9380485003416707e-05 0 0.034931933292202157 -3.233672412721141e-05 0 0.034931012559919039 -3.2482523275859152e-05 0 0.034934180450745221 -2.9380485003416707e-05 0 0.034931012559919039 -3.2482523275859152e-05 0 0.034930700678262393 -3.1571772480024425e-05 0 0.034931012559919039 -3.2482523275859152e-05 0 0.034930700678262393 -3.1571772480024425e-05 0 0.034925438514658388 -4.0257421602499302e-05 0 0.03493828010736006 -2.6442249278028353e-05 0 0.034934180450745221 -2.9380485003416707e-05 0 0.034930700678262393 -3.1571772480024425e-05 0 0.034930700678262393 -3.1571772480024425e-05 0 0.034925438514658388 -4.0257421602499302e-05 0 0.034921232808432782 -4.0255460120309726e-05 0 0.034925438514658388 -4.0257421602499302e-05 0 0.034916285986759651 -5.1028337230258204e-05 0 0.034919586181612609 -5.1838244943190114e-05 0 0.034925438514658388 -4.0257421602499302e-05 0 0.034916285986759651 -5.1028337230258204e-05 0 0.034921232808432782 -4.0255460120309726e-05 0 0.034925438514658388 -4.0257421602499302e-05 0 0.034924715780027774 -4.7818144325443464e-05 0 0.034919586181612609 -5.1838244943190114e-05 0 0.034931012559919039 -3.2482523275859152e-05 0 0.034925438514658388 -4.0257421602499302e-05 0 0.034930525374135699 -3.6859135444147611e-05 0 0.034930525374135699 -3.6859135444147611e-05 0 0.034924715780027774 -4.7818144325443464e-05 0 0.034933014406952394 -4.1891054736224582e-05 0 0.034933193918431388 -3.5745897233017657e-05 0 0.034930525374135699 -3.6859135444147611e-05 0 0.034933014406952394 -4.1891054736224582e-05 0 0.034925438514658388 -4.0257421602499302e-05 0 0.034930525374135699 -3.6859135444147611e-05 0 0.034924715780027774 -4.7818144325443464e-05 0 0.034613323709180625 -0.00016730415124211482 0 0.034575105191884982 -0.00017010657066456091 0 0.034592692542412699 -0.00017212111289620946 0 0.034924715780027774 -4.7818144325443464e-05 0 0.034920660002273944 -6.1031265895919092e-05 0 0.034933014406952394 -4.1891054736224582e-05 0 0.033338901154725521 7.9726070061528507e-05 0 0.034279418517848693 0.00013957088985089197 0 0.034924715780027774 -4.7818144325443464e-05 0 0.034920660002273944 -6.1031265895919092e-05 0 0.034917237106921864 -6.0813015336205933e-05 0 0.033338901154725521 7.9726070061528507e-05 0 0.033392928776216919 6.3501523876162571e-05 0 0.034920710441460626 -6.2874188326706695e-05 0 0.034917237106921864 -6.0813015336205933e-05 0 0.034911564250716995 -6.5447590588724205e-05 0 0.034917237106921864 -6.0813015336205933e-05 0 0.034914484064533964 -5.8189884887068447e-05 0 0.034919586181612609 -5.1838244943190114e-05 0 0.034917237106921864 -6.0813015336205933e-05 0 0.034914484064533964 -5.8189884887068447e-05 0 0.034911564250716995 -6.5447590588724205e-05 0 0.034914484064533964 -5.8189884887068447e-05 0 0.034916285986759651 -5.1028337230258204e-05 0 0.034907791571915536 -6.2859509644681982e-05 0 0.034914484064533964 -5.8189884887068447e-05 0 0.034911564250716995 -6.5447590588724205e-05 0 0.034907791571915536 -6.2859509644681982e-05 0 0.034914484064533964 -5.8189884887068447e-05 0 0.034916285986759651 -5.1028337230258204e-05 0 0.034919586181612609 -5.1838244943190114e-05 0 0.034924715780027774 -4.7818144325443464e-05 0 0.034917237106921864 -6.0813015336205933e-05 0 0.034919586181612609 -5.1838244943190114e-05 0 0.034665020627607596 -1.7170860896315238e-05 0 0.034721088240771532 -0.00010199368050752212 0 0.034647258586596799 -0.00014665902810674791 0 0.034745116300710317 -0.00017310491107686783 0 0.034721088240771532 -0.00010199368050752212 0 0.034844823860334939 -7.0627512848337812e-05 0 0.034745116300710317 -0.00017310491107686783 0 0.034721088240771532 -0.00010199368050752212 0 0.034647258586596799 -0.00014665902810674791 0 0.03472320201115886 5.3472813406050881e-05 0 0.034279418517848693 0.00013957088985089197 0 0.034933193918431388 -3.5745897233017657e-05 0 0.034936109665128466 -3.3664638547930577e-05 0 0.034933014406952394 -4.1891054736224582e-05 0 0.034665020627607596 -1.7170860896315238e-05 0 0.034647258586596799 -0.00014665902810674791 0 0.034575105191884982 -0.00017010657066456091 0 0.034647258586596799 -0.00014665902810674791 0 0.034575105191884982 -0.00017010657066456091 0 0.034568091235609485 -0.00020264402456095863 0 0.034575105191884982 -0.00017010657066456091 0 0.034592692542412699 -0.00017212111289620946 0 0.034568091235609485 -0.00020264402456095863 0 0.034592692542412699 -0.00017212111289620946 0 0.034568091235609485 -0.00020264402456095863 0 0.034602691145657651 -0.0001292609429132233 0 0.034745116300710317 -0.00017310491107686783 0 0.034647258586596799 -0.00014665902810674791 0 0.034568091235609485 -0.00020264402456095863 0 0.034356730725893445 -0.00040400237234983986 0 0.034568091235609485 -0.00020264402456095863 0 0.034355950680233296 -0.00016545647344636669 0 0.034525952757633635 -0.00022178346997034018 0 0.034546400030926828 -0.00020844250229639039 0 0.034334733458461775 -1.7427812916150804e-05 0 0.034477755784739238 4.6115853866612026e-06 0 0.034187535288135361 0.00013149347425300869 0 0.034568091235609485 -0.00020264402456095863 0 0.034355950680233296 -0.00016545647344636669 0 0.034484806943619752 -2.0422201769286109e-05 0 0.034355950680233296 -0.00016545647344636669 0 0.034334733458461775 -1.7427812916150804e-05 0 0.034484806943619752 -2.0422201769286109e-05 0 0.032805049191102026 0.00043639970852466095 0 0.032511536992687197 0.00042050041230823348 0 0.03261841836312511 0.00029778781755631875 0 0.032474556441862049 0.00034614076054354686 0 0.032391324410350787 0.00024921153113114926 0 0.032511536992687197 0.00042050041230823348 0 0.03137297728547931 0.00029831865199779771 0 0.032511536992687197 0.00042050041230823348 0 0.033130535916111627 0.00018244372088851695 0 0.034568091235609485 -0.00020264402456095863 0 0.034484806943619752 -2.0422201769286109e-05 0 0.034602691145657651 -0.0001292609429132233 0 0.030097801680747514 0.0016919959629115454 0 0.029343987253651872 0.0016043314413092789 0 0.029720243440844153 0.001134013422618176 0 0.032511536992687197 0.00042050041230823348 0 0.032475718646788228 0.00063686657358711079 0 0.030097801680747514 0.0016919959629115454 0 0.030699400156994829 0.0014087706366301004 0 0.030425822489424562 0.00097434183339812166 0 0.030097801680747514 0.0016919959629115454 0 0.030425822489424562 0.00097434183339812166 0 0.029720243440844153 0.001134013422618176 0 0.034920710441460626 -6.2874188326706695e-05 0 0.034911564250716995 -6.5447590588724205e-05 0 0.034901238518507439 -7.7096775462136733e-05 0 0.032329420002812824 0.00039951110008050364 0 0.032391324410350787 0.00024921153113114926 0 0.032157937053310402 0.00020325528603611239 0 0.033338901154725521 7.9726070061528507e-05 0 0.031566455867248724 -3.0285604502931695e-06 0 0.034920710441460626 -6.2874188326706695e-05 0 0.034893148641036389 -9.4635414875164257e-05 0 0.034901238518507439 -7.7096775462136733e-05 0 0.034911564250716995 -6.5447590588724205e-05 0 0.034901238518507439 -7.7096775462136733e-05 0 0.034907791571915536 -6.2859509644681982e-05 0 0.032329420002812824 0.00039951110008050364 0 0.032474556441862049 0.00034614076054354686 0 0.032391324410350787 0.00024921153113114926 0 0.033338901154725521 7.9726070061528507e-05 0 0.033130535916111627 0.00018244372088851695 0 0.034613323709180625 -0.00016730415124211482 0 0.034592692542412699 -0.00017212111289620946 0 0.034602691145657651 -0.0001292609429132233 0 0.029343987253651872 0.0016043314413092789 0 0.029062029296133829 0.0010179536317864665 0 0.029720243440844153 0.001134013422618176 0 0.029343987253651872 0.0016043314413092789 0 0.028584438478732096 0.0014839772136359477 0 0.029062029296133829 0.0010179536317864665 0 0.03137297728547931 0.00029831865199779771 0 0.031566455867248724 -3.0285604502931695e-06 0 0.030655199245249832 -0.00018442023571962283 0 0.030166884719747666 -0.00027369456679545302 0 0.030302744139739421 -0.00058680102071773977 0 0.031566455867248724 -3.0285604502931695e-06 0 0.031744869809986934 -0.00051075131103634473 0 0.031566455867248724 -3.0285604502931695e-06 0 0.029859411551475801 -0.00024135984561822303 0 0.034893148641036389 -9.4635414875164257e-05 0 0.034879964752530641 -8.4036328103093393e-05 0 0.034870850123020783 -0.00010246428981858805 0 0.034901238518507439 -7.7096775462136733e-05 0 0.034896495663871048 -6.9536684155093505e-05 0 0.034879964752530641 -8.4036328103093393e-05 0 0.034893148641036389 -9.4635414875164257e-05 0 0.034901238518507439 -7.7096775462136733e-05 0 0.034879964752530641 -8.4036328103093393e-05 0 0.034901238518507439 -7.7096775462136733e-05 0 0.034896495663871048 -6.9536684155093505e-05 0 0.034907791571915536 -6.2859509644681982e-05 0 0.034879964752530641 -8.4036328103093393e-05 0 0.03485942910360907 -7.7170062123396442e-05 0 0.034889575971681484 -6.5009440592321308e-05 0 0.034896495663871048 -6.9536684155093505e-05 0 0.034879964752530641 -8.4036328103093393e-05 0 0.034889575971681484 -6.5009440592321308e-05 0 0.031744869809986934 -0.00051075131103634473 0 0.030942451970508041 -0.0012362738671835233 0 0.034879964752530641 -8.4036328103093393e-05 0 0.034870850123020783 -0.00010246428981858805 0 0.034842705900788633 -0.00010902393782217883 0 0.030166884719747666 -0.00027369456679545302 0 0.029909000514387031 -0.00040072204082606942 0 0.029694297737111019 -0.0003660825668234649 0 0.03008589323311537 -0.00047322328886119266 0 0.030166884719747666 -0.00027369456679545302 0 0.030302744139739421 -0.00058680102071773977 0 0.03008589323311537 -0.00047322328886119266 0 0.030166884719747666 -0.00027369456679545302 0 0.029909000514387031 -0.00040072204082606942 0 0.029909000514387031 -0.00040072204082606942 0 0.029694297737111019 -0.0003660825668234649 0 0.029706629423420203 -0.00042086474104801843 0 0.029192635983754243 -0.0021301540143370138 0 0.029792873186841318 -0.0020864170026203247 0 0.029109582942349308 -0.0017581635246129833 0 0.029909000514387031 -0.00040072204082606942 0 0.029700495423033043 -0.00041618079849180365 0 0.029727882273173863 -0.00054283265757860283 0 0.034417960882114962 -0.0025270484222256065 0 0.034510657183767418 -0.0025946982787644793 0 0.034502383647788466 -0.002650840406657729 0 0.030942451970508041 -0.0012362738671835233 0 0.032541884391810272 -0.0018463027637098289 0 0.030352193356809568 -0.001093889376522785 0 0.030397574036762902 -0.0011074264964426436 0 0.030397574036762902 -0.0011074264964426436 0 0.029544643077594839 -0.0010685239310122975 0 0.034417960882114962 -0.0025270484222256065 0 0.034411502674047308 -0.0025065904199989691 0 0.0344785775140556 -0.002503163635250152 0 0.030942451970508041 -0.0012362738671835233 0 0.030397574036762902 -0.0011074264964426436 0 0.034417960882114962 -0.0025270484222256065 0 0.034492084436894235 -0.0025191619310393747 0 0.034518931970046553 -0.0025610655333684323 0 0.034417960882114962 -0.0025270484222256065 0 0.0344785775140556 -0.002503163635250152 0 0.034492084436894235 -0.0025191619310393747 0 0.030397574036762902 -0.0011074264964426436 0 0.029512247162488278 -0.001360397406618125 0 0.029512247162488278 -0.001360397406618125 0 0.02953483744220178 -0.0013787814958310881 0 0.034417960882114962 -0.0025270484222256065 0 0.034510657183767418 -0.0025946982787644793 0 0.034518931970046553 -0.0025610655333684323 0 0.034722208097373149 -0.0025824342208647906 0 0.034478880736293134 -0.0025003721779207179 0 0.034565544758698476 -0.0025610761421667634 0 0.029272368824031489 -0.0025418115227243462 0 0.029512247162488278 -0.001360397406618125 0 0.034722208097373149 -0.0025824342208647906 0 0.034565544758698476 -0.0025610761421667634 0 0.034625433500124175 -0.0026074811989533985 0 0.034492084436894235 -0.0025191619310393747 0 0.034565544758698476 -0.0025610761421667634 0 0.034518931970046553 -0.0025610655333684323 0 0.034478880736293134 -0.0025003721779207179 0 0.034492084436894235 -0.0025191619310393747 0 0.034565544758698476 -0.0025610761421667634 0 0.034565544758698476 -0.0025610761421667634 0 0.03454612601643104 -0.0025897421258575912 0 0.034518931970046553 -0.0025610655333684323 0 0.034510657183767418 -0.0025946982787644793 0 0.03454612601643104 -0.0025897421258575912 0 0.034518931970046553 -0.0025610655333684323 0 0.034510657183767418 -0.0025946982787644793 0 0.03453952055694412 -0.0026088709145563184 0 0.03453009183626389 -0.0026292142398336234 0 0.034510657183767418 -0.0025946982787644793 0 0.03454612601643104 -0.0025897421258575912 0 0.03453952055694412 -0.0026088709145563184 0 0.03454612601643104 -0.0025897421258575912 0 0.03453952055694412 -0.0026088709145563184 0 0.034570367725363892 -0.002621596426506949 0 0.03454612601643104 -0.0025897421258575912 0 0.034625433500124175 -0.0026074811989533985 0 0.034570367725363892 -0.002621596426506949 0 0.034565544758698476 -0.0025610761421667634 0 0.03454612601643104 -0.0025897421258575912 0 0.034625433500124175 -0.0026074811989533985 0 0.034549933081356968 -0.0026786143189141296 0 0.034517947322893323 -0.0026504800514466648 0 0.034546610170951023 -0.0027219010074415262 0 0.033773424341471715 -0.0022351762374822597 0 0.033668501022017641 -0.0019920403721264378 0 0.034625433500124175 -0.0026074811989533985 0 0.034616694709682677 -0.0026467151674421543 0 0.034570367725363892 -0.002621596426506949 0 0.034616694709682677 -0.0026467151674421543 0 0.03456080470586409 -0.0026501593939768572 0 0.034570367725363892 -0.002621596426506949 0 0.03456080470586409 -0.0026501593939768572 0 0.034570367725363892 -0.002621596426506949 0 0.03453009183626389 -0.0026292142398336234 0 0.03453952055694412 -0.0026088709145563184 0 0.034570367725363892 -0.002621596426506949 0 0.03453009183626389 -0.0026292142398336234 0 0.03456080470586409 -0.0026501593939768572 0 0.03453009183626389 -0.0026292142398336234 0 0.034517947322893323 -0.0026504800514466648 0 0.03456080470586409 -0.0026501593939768572 0 0.034549933081356968 -0.0026786143189141296 0 0.034517947322893323 -0.0026504800514466648 0 0.034549933081356968 -0.0026786143189141296 0 0.034579814648980536 -0.0026766768083899724 0 0.034569080791146435 -0.0027086186638403099 0 0.03456080470586409 -0.0026501593939768572 0 0.034549933081356968 -0.0026786143189141296 0 0.034579814648980536 -0.0026766768083899724 0 0.034616694709682677 -0.0026467151674421543 0 0.03456080470586409 -0.0026501593939768572 0 0.034579814648980536 -0.0026766768083899724 0 0.034616290050962541 -0.0027143514096274759 0 0.034616694709682677 -0.0026467151674421543 0 0.034579814648980536 -0.0026766768083899724 0 0.03279001066880801 -0.0013505885562500198 0 0.032774654441796211 -0.0012610837910789188 0 0.032869376702786127 -0.0014352062386924517 0 0.032664713273760568 -0.0010877071023910093 0 0.03279001066880801 -0.0013505885562500198 0 0.032774654441796211 -0.0012610837910789188 0 0.034517947322893323 -0.0026504800514466648 0 0.034502383647788466 -0.002650840406657729 0 0.034519186561839756 -0.002668566863276435 0 0.030942451970508041 -0.0012362738671835233 0 0.032851060120844489 -0.00094616474521645689 0 0.032541884391810272 -0.0018463027637098289 0 0.033668501022017641 -0.0019920403721264378 0 0.034879964752530641 -8.4036328103093393e-05 0 0.034842705900788633 -0.00010902393782217883 0 0.03485942910360907 -7.7170062123396442e-05 0 0.034510657183767418 -0.0025946982787644793 0 0.03453009183626389 -0.0026292142398336234 0 0.034502383647788466 -0.002650840406657729 0 0.03453009183626389 -0.0026292142398336234 0 0.034517947322893323 -0.0026504800514466648 0 0.034502383647788466 -0.002650840406657729 0 0.03279001066880801 -0.0013505885562500198 0 0.032869376702786127 -0.0014352062386924517 0 0.032896329052626391 -0.0016120587846215101 0 0.032851060120844489 -0.00094616474521645689 0 0.034184203054841482 -0.00087437796437481619 0 0.03485942910360907 -7.7170062123396442e-05 0 0.034888285174242639 -5.5539417555705308e-05 0 0.034889575971681484 -6.5009440592321308e-05 0 0.03485942910360907 -7.7170062123396442e-05 0 0.034888285174242639 -5.5539417555705308e-05 0 0.034869992155990022 -4.6011383111357861e-05 0 0.034616290050962541 -0.0027143514096274759 0 0.034551874386940774 -0.0027408187275760887 0 0.034547199138369636 -0.0027713846947327822 0 0.034475662806686416 -0.0016315988382895634 0 0.034176094095785738 -0.0010734152472393441 0 0.034616290050962541 -0.0027143514096274759 0 0.034579814648980536 -0.0026766768083899724 0 0.034569080791146435 -0.0027086186638403099 0 0.034616290050962541 -0.0027143514096274759 0 0.034569080791146435 -0.0027086186638403099 0 0.034551874386940774 -0.0027408187275760887 0 0.034549933081356968 -0.0026786143189141296 0 0.034569080791146435 -0.0027086186638403099 0 0.034546610170951023 -0.0027219010074415262 0 0.034544481338737595 -0.0027171563110586598 0 0.034551874386940774 -0.0027408187275760887 0 0.034547199138369636 -0.0027713846947327822 0 0.034569080791146435 -0.0027086186638403099 0 0.034546610170951023 -0.0027219010074415262 0 0.034551874386940774 -0.0027408187275760887 0 0.033668501022017641 -0.0019920403721264378 0 0.034176094095785738 -0.0010734152472393441 0 0.033668501022017641 -0.0019920403721264378 0 0.033699318339651785 -0.0020526155755890528 0 0.035367208538762421 -0.00088545594633855792 0 0.035473142987413366 -0.0012812935173090081 0 0.035633144938379623 -0.00083088462955488082 0 0.034368817165421901 -0.00065404348887103847 0 0.034381811612244434 -0.00082321092463304656 0 0.034397193476884531 -0.00080311644259823821 0 0.032869376702786127 -0.0014352062386924517 0 0.032911026104788181 -0.0015887421509744092 0 0.032896329052626391 -0.0016120587846215101 0 0.034176094095785738 -0.0010734152472393441 0 0.034184203054841482 -0.00087437796437481619 0 0.035367208538762421 -0.00088545594633855792 0 0.035633144938379623 -0.00083088462955488082 0 0.03538227958058722 -0.00065240697923764856 0 0.034888285174242639 -5.5539417555705308e-05 0 0.034869992155990022 -4.6011383111357861e-05 0 0.03490908956191676 -3.8288619442198615e-05 0 0.034888285174242639 -5.5539417555705308e-05 0 0.03490908956191676 -3.8288619442198615e-05 0 0.034907221882624337 -4.8408733972272969e-05 0 0.034923254806055425 -3.3809197668136004e-05 0 0.03490908956191676 -3.8288619442198615e-05 0 0.034907221882624337 -4.8408733972272969e-05 0 0.034923254806055425 -3.3809197668136004e-05 0 0.034907221882624337 -4.8408733972272969e-05 0 0.034921232808432782 -4.0255460120309726e-05 0 0.034916285986759651 -5.1028337230258204e-05 0 0.034921232808432782 -4.0255460120309726e-05 0 0.034906912774982465 -5.5612854219777638e-05 0 0.034907221882624337 -4.8408733972272969e-05 0 0.034921232808432782 -4.0255460120309726e-05 0 0.034906912774982465 -5.5612854219777638e-05 0 0.034916285986759651 -5.1028337230258204e-05 0 0.034906912774982465 -5.5612854219777638e-05 0 0.034907791571915536 -6.2859509644681982e-05 0 0.034896495663871048 -6.9536684155093505e-05 0 0.034906912774982465 -5.5612854219777638e-05 0 0.034907791571915536 -6.2859509644681982e-05 0 0.034896495663871048 -6.9536684155093505e-05 0 0.034906912774982465 -5.5612854219777638e-05 0 0.034889575971681484 -6.5009440592321308e-05 0 0.034888285174242639 -5.5539417555705308e-05 0 0.034907221882624337 -4.8408733972272969e-05 0 0.034889575971681484 -6.5009440592321308e-05 0 0.034907221882624337 -4.8408733972272969e-05 0 0.034906912774982465 -5.5612854219777638e-05 0 0.034889575971681484 -6.5009440592321308e-05 0 0.034998057649190124 -1.4595145817699057e-06 0 0.033904869731027999 -0.00022869052077863022 0 0.03139207594352196 -3.6247785041897978e-05 0 0.034998057649190124 -1.4595145817699057e-06 0 0.02923048324344615 1.3349900937919259e-06 0 0.03139207594352196 -3.6247785041897978e-05 0 0.033904869731027999 -0.00022869052077863022 0 0.032976397017147434 -0.00020910828783326794 0 0.03139207594352196 -3.6247785041897978e-05 0 0.031434445069537298 -0.00073265149353760506 0 0.030564607994027888 -0.00050559049102634869 0 0.034998057649190124 -1.4595145817699057e-06 0 0.033904869731027999 -0.00022869052077863022 0 0.03499530841625792 9.604689824085569e-07 0 0.033904869731027999 -0.00022869052077863022 0 0.033845752063044868 -0.00027918339010210374 0 0.033116098372206776 -0.00069450095619898601 0 0.033904869731027999 -0.00022869052077863022 0 0.03499530841625792 9.604689824085569e-07 0 0.033845752063044868 -0.00027918339010210374 0 0.034998723460175837 -4.6144559045401097e-07 0 0.034237189076572569 -0.00043095111213808267 0 0.03499530841625792 9.604689824085569e-07 0 0.033845752063044868 -0.00027918339010210374 0 0.032907859421723432 -0.00027708688827778256 0 0.033845752063044868 -0.00027918339010210374 0 0.033116098372206776 -0.00069450095619898601 0 0.032907859421723432 -0.00027708688827778256 0 0.033116098372206776 -0.00069450095619898601 0 0.032314043459227192 -0.00091975046039682222 0 0.032480392406862693 -0.00082840176476169471 0 0.031755673827155668 -0.0007851461662086494 0 0.031434445069537298 -0.00073265149353760506 0 0.033904869731027999 -0.00022869052077863022 0 0.033116098372206776 -0.00069450095619898601 0 0.032976397017147434 -0.00020910828783326794 0 0.031344919843631781 -0.0011375711545947192 0 0.032314043459227192 -0.00091975046039682222 0 0.031096621038574388 -0.00059475688970806622 0 0.033116098372206776 -0.00069450095619898601 0 0.031344919843631781 -0.0011375711545947192 0 0.032314043459227192 -0.00091975046039682222 0 0.032314043459227192 -0.00091975046039682222 0 0.031983287511235414 -0.0010391029638328925 0 0.032480392406862693 -0.00082840176476169471 0 0.032314043459227192 -0.00091975046039682222 0 0.031983287511235414 -0.0010391029638328925 0 0.0321410411421282 -0.00054166186856494786 0 0.031983287511235414 -0.0010391029638328925 0 0.031987923516645367 -0.00086513644418285192 0 0.032480392406862693 -0.00082840176476169471 0 0.033898379890935401 -0.00058407248881895584 0 0.033980806753072912 -0.00053001941491290369 0 0.031983287511235414 -0.0010391029638328925 0 0.031987923516645367 -0.00086513644418285192 0 0.031979120185071777 -0.00098636089959793774 0 0.034992346443468401 -6.5760828481145511e-05 0 0.03497932740517324 -3.961576710505973e-05 0 0.035004891726546195 -1.3683668493278688e-05 0 0.034992346443468401 -6.5760828481145511e-05 0 0.03497932740517324 -3.961576710505973e-05 0 0.034908816930084012 -8.9011268871783011e-05 0 0.033116098372206776 -0.00069450095619898601 0 0.032480392406862693 -0.00082840176476169471 0 0.032907859421723432 -0.00027708688827778256 0 0.031987923516645367 -0.00086513644418285192 0 0.032480392406862693 -0.00082840176476169471 0 0.032907859421723432 -0.00027708688827778256 0 0.033898379890935401 -0.00058407248881895584 0 0.034237189076572569 -0.00043095111213808267 0 0.035000008117047433 -9.9979899239701085e-10 0 0.035004891726546195 -1.3683668493278688e-05 0 0.03500000254116406 -6.2494700746563122e-09 0 0.03500000254116406 -6.2494700746563122e-09 0 0.034990783167635202 -1.1572006276025612e-05 0 0.034999956815392141 -3.0405770997479467e-09 0 0.035004891726546195 -1.3683668493278688e-05 0 0.03500000254116406 -6.2494700746563122e-09 0 0.034990783167635202 -1.1572006276025612e-05 0 0.03497932740517324 -3.961576710505973e-05 0 0.035004891726546195 -1.3683668493278688e-05 0 0.034990783167635202 -1.1572006276025612e-05 0 0.03497932740517324 -3.961576710505973e-05 0 0.034990783167635202 -1.1572006276025612e-05 0 0.034974428542976305 -2.1707581658541127e-05 0 0.034968787748382427 1.3145653852261453e-05 0 0.034973177508956878 8.3870186565787008e-06 0 0.034954063521627075 9.5835203155627652e-06 0 0.034968787748382427 1.3145653852261453e-05 0 0.034999945350893451 6.9389079396287406e-09 0 0.034984725963575956 4.7471595437436487e-06 0 0.034990783167635202 -1.1572006276025612e-05 0 0.034974428542976305 -2.1707581658541127e-05 0 0.034999956815392141 -3.0405770997479467e-09 0 0.034775536149421651 -4.6298632238717058e-05 0 0.034999549453695891 -4.9462150323580739e-08 0 0.034999986384910878 -3.7657952521813941e-09 0 0.034999945350893451 6.9389079396287406e-09 0 0.034984725963575956 4.7471595437436487e-06 0 0.034999986384910878 -3.7657952521813941e-09 0 0.0349857447122617 4.1661163057434145e-06 0 0.034984725963575956 4.7471595437436487e-06 0 0.0349857447122617 4.1661163057434145e-06 0 0.034973177508956878 8.3870186565787008e-06 0 0.034963660661666514 9.7936728124760554e-06 0 0.0349857447122617 4.1661163057434145e-06 0 0.034984725963575956 4.7471595437436487e-06 0 0.034973177508956878 8.3870186565787008e-06 0 0.034968787748382427 1.3145653852261453e-05 0 0.034984725963575956 4.7471595437436487e-06 0 0.034973177508956878 8.3870186565787008e-06 0 0.034973177508956878 8.3870186565787008e-06 0 0.034963660661666514 9.7936728124760554e-06 0 0.034954063521627075 9.5835203155627652e-06 0 0.034952755738602848 1.2955679372599651e-05 0 0.034963660661666514 9.7936728124760554e-06 0 0.034954063521627075 9.5835203155627652e-06 0 0.034966976696062572 9.053654809579612e-06 0 0.034952755738602848 1.2955679372599651e-05 0 0.034963660661666514 9.7936728124760554e-06 0 0.034967979429703339 1.308558324259324e-05 0 0.034966976696062572 9.053654809579612e-06 0 0.034952755738602848 1.2955679372599651e-05 0 0.034788049687487763 5.6684441753498176e-05 0 0.03480886892669012 5.734691390055166e-05 0 0.034866192679544286 -7.7713854648434437e-06 0 0.034926526563470922 -1.1399555291191705e-05 0 0.034884120710687534 -3.675297580413742e-05 0 0.034866192679544286 -7.7713854648434437e-06 0 0.034952755738602848 1.2955679372599651e-05 0 0.034926526563470922 -1.1399555291191705e-05 0 0.034952755738602848 1.2955679372599651e-05 0 0.034926526563470922 -1.1399555291191705e-05 0 0.034954063521627075 9.5835203155627652e-06 0 0.03497932740517324 -3.961576710505973e-05 0 0.034974428542976305 -2.1707581658541127e-05 0 0.034965904601798464 -5.1530208624060623e-05 0 0.034775536149421651 -4.6298632238717058e-05 0 0.034460118470073978 -0.00016477908024620876 0 0.034968787748382427 1.3145653852261453e-05 0 0.034954063521627075 9.5835203155627652e-06 0 0.034964338890855165 -1.7405198935022522e-05 0 0.034580479222764804 -8.3934973370731415e-05 0 0.034460118470073978 -0.00016477908024620876 0 0.034926526563470922 -1.1399555291191705e-05 0 0.034954063521627075 9.5835203155627652e-06 0 0.034964338890855165 -1.7405198935022522e-05 0 0.034992346443468401 -6.5760828481145511e-05 0 0.034908816930084012 -8.9011268871783011e-05 0 0.034909927949122954 -0.00019017520564845516 0 0.034460118470073978 -0.00016477908024620876 0 0.033980806753072912 -0.00053001941491290369 0 0.033999168557397312 -0.00073384309303607903 0 0.03416855159899513 -0.00057226583210999589 0 0.03398569235589486 -0.00052872327539182625 0 0.034460118470073978 -0.00016477908024620876 0 0.034487635899255707 -0.00022365978821093993 0 0.034926526563470922 -1.1399555291191705e-05 0 0.034911409000715841 -6.7992270196982961e-05 0 0.034884120710687534 -3.675297580413742e-05 0 0.034926526563470922 -1.1399555291191705e-05 0 0.034964338890855165 -1.7405198935022522e-05 0 0.034911409000715841 -6.7992270196982961e-05 0 0.034911409000715841 -6.7992270196982961e-05 0 0.034844823860334939 -7.0627512848337812e-05 0 0.034884120710687534 -3.675297580413742e-05 0 0.034170018100145159 -0.00043586863380835466 0 0.03398569235589486 -0.00052872327539182625 0 0.034177472194899187 -0.00023623584311445724 0 0.034356730725893445 -0.00040400237234983986 0 0.03416855159899513 -0.00057226583210999589 0 0.034170018100145159 -0.00043586863380835466 0 0.034745116300710317 -0.00017310491107686783 0 0.034911409000715841 -6.7992270196982961e-05 0 0.034844823860334939 -7.0627512848337812e-05 0 0.034525952757633635 -0.00022178346997034018 0 0.034487635899255707 -0.00022365978821093993 0 0.03416855159899513 -0.00057226583210999589 0 0.034170018100145159 -0.00043586863380835466 0 0.03398569235589486 -0.00052872327539182625 0 0.033980806753072912 -0.00053001941491290369 0 0.034071891092384968 -0.00039817199563642905 0 0.033980806753072912 -0.00053001941491290369 0 0.033211879369735867 -0.00013251398926421247 0 0.033931921406480159 -0.00058211084412665816 0 0.033909273204018507 -0.00016260748537844016 0 0.034177472194899187 -0.00023623584311445724 0 0.034356730725893445 -0.00040400237234983986 0 0.034170018100145159 -0.00043586863380835466 0 0.034177472194899187 -0.00023623584311445724 0 0.034356730725893445 -0.00040400237234983986 0 0.034355950680233296 -0.00016545647344636669 0 0.034177472194899187 -0.00023623584311445724 0 0.034355950680233296 -0.00016545647344636669 0 0.034334733458461775 -1.7427812916150804e-05 0 0.034159948204245352 -5.2467928679862053e-05 0 0.033909273204018507 -0.00016260748537844016 0 0.034177472194899187 -0.00023623584311445724 0 0.034159948204245352 -5.2467928679862053e-05 0 0.034355950680233296 -0.00016545647344636669 0 0.034177472194899187 -0.00023623584311445724 0 0.034159948204245352 -5.2467928679862053e-05 0 0.034334733458461775 -1.7427812916150804e-05 0 0.034159948204245352 -5.2467928679862053e-05 0 0.034187535288135361 0.00013149347425300869 0 0.034159948204245352 -5.2467928679862053e-05 0 0.034187535288135361 0.00013149347425300869 0 0.033879249059476042 0.00025358861911411258 0 0.032475718646788228 0.00063686657358711079 0 0.032658212885388213 0.00072214541352449394 0 0.030699400156994829 0.0014087706366301004 0 0.031250163015472177 0.0010250110062248708 0 0.031042363782346566 0.00087291163865831068 0 0.032658212885388213 0.00072214541352449394 0 0.032614830753941761 0.00073532051053292976 0 0.031271998749514834 0.00095457282123085382 0 0.031265939355413525 0.00091823550288087571 0 0.031403202039318595 0.00079197611074673601 0 0.032658212885388213 0.00072214541352449394 0 0.032653246276934243 0.00072538481700453275 0 0.033909273204018507 -0.00016260748537844016 0 0.034159948204245352 -5.2467928679862053e-05 0 0.033879249059476042 0.00025358861911411258 0 0.033211879369735867 -0.00013251398926421247 0 0.032658212885388213 0.00072214541352449394 0 0.031924493439136802 -0.00032312517313986253 0 0.031252606308991265 0.00040782158313431161 0 0.03116302086431777 -0.00027842685892355833 0 0.031924493439136802 -0.00032312517313986253 0 0.031606286879825696 0.00069787327787727577 0 0.031252606308991265 0.00040782158313431161 0 0.031252606308991265 0.00040782158313431161 0 0.030971605680103476 0.00081459896168896157 0 0.031200464019812583 0.00076360618779157993 0 0.031252606308991265 0.00040782158313431161 0 0.031403202039318595 0.00079197611074673601 0 0.031200464019812583 0.00076360618779157993 0 0.031606286879825696 0.00069787327787727577 0 0.031252606308991265 0.00040782158313431161 0 0.031403202039318595 0.00079197611074673601 0 0.031252606308991265 0.00040782158313431161 0 0.030704161055979763 0.00026347059486390826 0 0.030971605680103476 0.00081459896168896157 0 0.031252606308991265 0.00040782158313431161 0 0.03116302086431777 -0.00027842685892355833 0 0.030704161055979763 0.00026347059486390826 0 0.03116302086431777 -0.00027842685892355833 0 0.031643395615673246 -0.00077309773057959664 0 0.030789566704854061 -0.00097261363343151253 0 0.031979120185071777 -0.00098636089959793774 0 0.031924493439136802 -0.00032312517313986253 0 0.031643395615673246 -0.00077309773057959664 0 0.031924493439136802 -0.00032312517313986253 0 0.03116302086431777 -0.00027842685892355833 0 0.031643395615673246 -0.00077309773057959664 0 0.031983287511235414 -0.0010391029638328925 0 0.031979120185071777 -0.00098636089959793774 0 0.031643395615673246 -0.00077309773057959664 0 0.031314246004536909 -0.00086071921195659195 0 0.031008294342024213 -0.00071930788786875354 0 0.031983287511235414 -0.0010391029638328925 0 0.031643395615673246 -0.00077309773057959664 0 0.030789566704854061 -0.00097261363343151253 0 0.032314043459227192 -0.00091975046039682222 0 0.0321410411421282 -0.00054166186856494786 0 0.031096621038574388 -0.00059475688970806622 0 0.0321410411421282 -0.00054166186856494786 0 0.031096621038574388 -0.00059475688970806622 0 0.03038449523870666 0.00011969618451646379 0 0.031008294342024213 -0.00071930788786875354 0 0.030242539167795762 -0.00037216505527340568 0 0.030789566704854061 -0.00097261363343151253 0 0.029725104756272939 -0.00064070381097122817 0 0.030465690663754676 -0.00030078906736122238 0 0.03116302086431777 -0.00027842685892355833 0 0.030789566704854061 -0.00097261363343151253 0 0.030465690663754676 -0.00030078906736122238 0 0.03116302086431777 -0.00027842685892355833 0 0.030465690663754676 -0.00030078906736122238 0 0.030704161055979763 0.00026347059486390826 0 0.030465690663754676 -0.00030078906736122238 0 0.030704161055979763 0.00026347059486390826 0 0.029839063900436828 0.00019779545120259348 0 0.030704161055979763 0.00026347059486390826 0 0.030269696156857841 0.00073321125010334201 0 0.030971605680103476 0.00081459896168896157 0 0.030704161055979763 0.00026347059486390826 0 0.029839063900436828 0.00019779545120259348 0 0.030269696156857841 0.00073321125010334201 0 0.029839063900436828 0.00019779545120259348 0 0.029046299726965288 0.0011659783322146905 0 0.030269696156857841 0.00073321125010334201 0 0.029725104756272939 -0.00064070381097122817 0 0.030465690663754676 -0.00030078906736122238 0 0.029839063900436828 0.00019779545120259348 0 0.030242539167795762 -0.00037216505527340568 0 0.029707442127664182 -0.00013412395803694019 0 0.029725104756272939 -0.00064070381097122817 0 0.029839063900436828 0.00019779545120259348 0 0.028499859798643713 -0.00010340296399373448 0 0.029839063900436828 0.00019779545120259348 0 0.028499859798643713 -0.00010340296399373448 0 0.029046299726965288 0.0011659783322146905 0 0.026326156981339475 3.0120980136935478e-06 0 0.028499859798643713 -0.00010340296399373448 0 0.029046299726965288 0.0011659783322146905 0 0.026326156981339475 3.0120980136935478e-06 0 0.027774572890406555 -6.6485039255035438e-07 0 0.028499859798643713 -0.00010340296399373448 0 0.027774572890406555 -6.6485039255035438e-07 0 0.028499859798643713 -0.00010340296399373448 0 0.029221478146507791 -1.2220506697186833e-06 0 0.03038449523870666 0.00011969618451646379 0 0.029221478146507791 -1.2220506697186833e-06 0 0.03001734807593847 -0.00062275903925704604 0 0.03038449523870666 0.00011969618451646379 0 0.028499859798643713 -0.00010340296399373448 0 0.029221478146507791 -1.2220506697186833e-06 0 0.031096621038574388 -0.00059475688970806622 0 0.03038449523870666 0.00011969618451646379 0 0.03001734807593847 -0.00062275903925704604 0 0.031344919843631781 -0.0011375711545947192 0 0.031096621038574388 -0.00059475688970806622 0 0.03001734807593847 -0.00062275903925704604 0 0.029226573956613239 -3.3369819591174451e-07 0 0.030564607994027888 -0.00050559049102634869 0 0.022550315942897074 -3.0641174851240654e-07 0 0.022194906819545817 -8.9300861069295797e-05 0 0.021236510441750928 -0.00026461574325156956 0 0.022194906819545817 -8.9300861069295797e-05 0 0.021054305967462359 -0.00030499437767712802 0 0.021236510441750928 -0.00026461574325156956 0 0.022550315942897074 -3.0641174851240654e-07 0 0.022194906819545817 -8.9300861069295797e-05 0 0.024436754362839649 -7.2281922328954079e-07 0 0.026318828153706689 3.1545436494379206e-06 0 0.024436754362839649 -7.2281922328954079e-07 0 0.022974639808072666 0.0008323316256928227 0 0.026321883135152574 6.8223997091829854e-07 0 0.025911686293411264 0.0003483920482967461 0 0.022194906819545817 -8.9300861069295797e-05 0 0.024436754362839649 -7.2281922328954079e-07 0 0.022974639808072666 0.0008323316256928227 0 0.022194906819545817 -8.9300861069295797e-05 0 0.022974639808072666 0.0008323316256928227 0 0.021140865125682338 0.00063422968053539924 0 0.025911686293411264 0.0003483920482967461 0 0.025756464750484105 0.00050257089095543327 0 0.029046299726965288 0.0011659783322146905 0 0.030269696156857841 0.00073321125010334201 0 0.030379302091645643 0.0012628930112991003 0 0.030269696156857841 0.00073321125010334201 0 0.030379302091645643 0.0012628930112991003 0 0.030971605680103476 0.00081459896168896157 0 0.021140865125682338 0.00063422968053539924 0 0.020969276194912703 -1.1691787724248259e-05 0 0.020289622513640485 0.00023521173653397913 0 0.022194906819545817 -8.9300861069295797e-05 0 0.021140865125682338 0.00063422968053539924 0 0.020969276194912703 -1.1691787724248259e-05 0 0.022194906819545817 -8.9300861069295797e-05 0 0.020969276194912703 -1.1691787724248259e-05 0 0.021054305967462359 -0.00030499437767712802 0 0.020969276194912703 -1.1691787724248259e-05 0 0.021054305967462359 -0.00030499437767712802 0 0.020439176909893785 -0.00024766557923211892 0 0.021054305967462359 -0.00030499437767712802 0 0.020439176909893785 -0.00024766557923211892 0 0.020416565193519601 -0.00043554668862443605 0 0.020439176909893785 -0.00024766557923211892 0 0.020082361207359657 -0.0002306564415929595 0 0.020104393444609958 -0.00043079872158731814 0 0.020082361207359657 -0.0002306564415929595 0 0.020289622513640485 0.00023521173653397913 0 0.019955894067692208 1.3764863826214885e-05 0 0.025599156739318406 0.00039699172556856846 0 0.025329789929298914 0.00013915672569333768 0 0.020969276194912703 -1.1691787724248259e-05 0 0.020439176909893785 -0.00024766557923211892 0 0.020289622513640485 0.00023521173653397913 0 0.020439176909893785 -0.00024766557923211892 0 0.020082361207359657 -0.0002306564415929595 0 0.020289622513640485 0.00023521173653397913 0 0.030379302091645643 0.0012628930112991003 0 0.031128413423881295 0.00096621337925679594 0 0.030971605680103476 0.00081459896168896157 0 0.025756464750484105 0.00050257089095543327 0 0.025599156739318406 0.00039699172556856846 0 0.030971605680103476 0.00081459896168896157 0 0.031200464019812583 0.00076360618779157993 0 0.031222265112673984 0.00082507214218157428 0 0.03127742951363905 0.00083464254656408134 0 0.031200464019812583 0.00076360618779157993 0 0.031222265112673984 0.00082507214218157428 0 0.031403202039318595 0.00079197611074673601 0 0.03127742951363905 0.00083464254656408134 0 0.031200464019812583 0.00076360618779157993 0 0.031265939355413525 0.00091823550288087571 0 0.031403202039318595 0.00079197611074673601 0 0.03127742951363905 0.00083464254656408134 0 0.03127742951363905 0.00083464254656408134 0 0.031222265112673984 0.00082507214218157428 0 0.03120429281496848 0.00085409996857658166 0 0.031128413423881295 0.00096621337925679594 0 0.031222265112673984 0.00082507214218157428 0 0.031073536186391235 0.00068128414780110219 0 0.031128413423881295 0.00096621337925679594 0 0.030971605680103476 0.00081459896168896157 0 0.031222265112673984 0.00082507214218157428 0 0.031128413423881295 0.00096621337925679594 0 0.031073536186391235 0.00068128414780110219 0 0.031017879411602011 0.00034616689169842454 0 0.031073536186391235 0.00068128414780110219 0 0.030820150472434641 0.00064340207681289866 0 0.031017879411602011 0.00034616689169842454 0 0.031073536186391235 0.00068128414780110219 0 0.031042363782346566 0.00087291163865831068 0 0.030820150472434641 0.00064340207681289866 0 0.031222265112673984 0.00082507214218157428 0 0.031042363782346566 0.00087291163865831068 0 0.03120429281496848 0.00085409996857658166 0 0.031222265112673984 0.00082507214218157428 0 0.031073536186391235 0.00068128414780110219 0 0.031042363782346566 0.00087291163865831068 0 0.031265939355413525 0.00091823550288087571 0 0.031042363782346566 0.00087291163865831068 0 0.03120429281496848 0.00085409996857658166 0 0.031250163015472177 0.0010250110062248708 0 0.031265939355413525 0.00091823550288087571 0 0.031042363782346566 0.00087291163865831068 0 0.031265939355413525 0.00091823550288087571 0 0.03127742951363905 0.00083464254656408134 0 0.03120429281496848 0.00085409996857658166 0 0.030699400156994829 0.0014087706366301004 0 0.031042363782346566 0.00087291163865831068 0 0.030425822489424562 0.00097434183339812166 0 0.031042363782346566 0.00087291163865831068 0 0.030820150472434641 0.00064340207681289866 0 0.030425822489424562 0.00097434183339812166 0 0.030820150472434641 0.00064340207681289866 0 0.031017879411602011 0.00034616689169842454 0 0.030401017660351755 0.00038920122769896395 0 0.030820150472434641 0.00064340207681289866 0 0.030425822489424562 0.00097434183339812166 0 0.030401017660351755 0.00038920122769896395 0 0.025329789929298914 0.00013915672569333768 0 0.024903248595654317 -0.00019119232304119887 0 0.031017879411602011 0.00034616689169842454 0 0.030401017660351755 0.00038920122769896395 0 0.030354046876551837 -0.00016552013377119833 0 0.020082361207359657 -0.0002306564415929595 0 0.019955894067692208 1.3764863826214885e-05 0 0.019910599732398507 -0.00040942059742842473 0 0.019955894067692208 1.3764863826214885e-05 0 0.019910599732398507 -0.00040942059742842473 0 0.019592892798807857 -0.00010416403991612543 0 0.019910599732398507 -0.00040942059742842473 0 0.019592892798807857 -0.00010416403991612543 0 0.019565750230069279 -0.00045217671367297731 0 0.019910599732398507 -0.00040942059742842473 0 0.019645207073008961 -0.00080203990489377671 0 0.019565750230069279 -0.00045217671367297731 0 0.020082361207359657 -0.0002306564415929595 0 0.019910599732398507 -0.00040942059742842473 0 0.020104393444609958 -0.00043079872158731814 0 0.019910599732398507 -0.00040942059742842473 0 0.019981334294692066 -0.0004206428485619639 0 0.020104393444609958 -0.00043079872158731814 0 0.019981334294692066 -0.0004206428485619639 0 0.020003245686652318 -0.00037019247101009327 0 0.020016540100604423 -0.00041791904646673475 0 0.019981334294692066 -0.0004206428485619639 0 0.020029332419308654 -0.00040926636928180537 0 0.020016505431384876 -0.00037840653155525594 0 0.019910599732398507 -0.00040942059742842473 0 0.019981334294692066 -0.0004206428485619639 0 0.020029332419308654 -0.00040926636928180537 0 0.017735525389521851 0.00022559861126787516 0 0.016949406364412528 -0.00011307821710578968 0 0.020029332419308654 -0.00040926636928180537 0 0.020048107936870896 -0.00035503145224058532 0 0.020016505431384876 -0.00037840653155525594 0 0.020048107936870896 -0.00035503145224058532 0 0.020016505431384876 -0.00037840653155525594 0 0.020027603262414612 -0.00033188637299459321 0 0.020048107936870896 -0.00035503145224058532 0 0.020027603262414612 -0.00033188637299459321 0 0.020058380198314477 -0.00029977459878604201 0 0.020027603262414612 -0.00033188637299459321 0 0.020058380198314477 -0.00029977459878604201 0 0.020028926087765062 -0.00025098707003527574 0 0.020058380198314477 -0.00029977459878604201 0 0.020028926087765062 -0.00025098707003527574 0 0.0200817491507429 -0.00021480251023038889 0 0.019988768837094228 -0.00019388897107723671 0 0.020003406806616587 -0.00029990011891865435 0 0.019954483963848951 -0.00023272895964529091 0 0.020028926087765062 -0.00025098707003527574 0 0.019988768837094228 -0.00019388897107723671 0 0.020005853663682755 -0.00014742954968936889 0 0.020028926087765062 -0.00025098707003527574 0 0.019988768837094228 -0.00019388897107723671 0 0.020003406806616587 -0.00029990011891865435 0 0.020027603262414612 -0.00033188637299459321 0 0.020028926087765062 -0.00025098707003527574 0 0.020003406806616587 -0.00029990011891865435 0 0.020003406806616587 -0.00029990011891865435 0 0.020003245686652318 -0.00037019247101009327 0 0.019993323182588254 -0.00035893745349081883 0 0.020027603262414612 -0.00033188637299459321 0 0.020003406806616587 -0.00029990011891865435 0 0.020003245686652318 -0.00037019247101009327 0 0.019981334294692066 -0.0004206428485619639 0 0.020016505431384876 -0.00037840653155525594 0 0.020003245686652318 -0.00037019247101009327 0 0.020016505431384876 -0.00037840653155525594 0 0.020027603262414612 -0.00033188637299459321 0 0.020003245686652318 -0.00037019247101009327 0 0.020003245686652318 -0.00037019247101009327 0 0.019993323182588254 -0.00035893745349081883 0 0.020016540100604423 -0.00041791904646673475 0 0.019993323182588254 -0.00035893745349081883 0 0.019954483963848951 -0.00023272895964529091 0 0.019965556393885666 -0.00042109985248618969 0 0.019993323182588254 -0.00035893745349081883 0 0.019965556393885666 -0.00042109985248618969 0 0.020016540100604423 -0.00041791904646673475 0 0.020003406806616587 -0.00029990011891865435 0 0.019993323182588254 -0.00035893745349081883 0 0.019954483963848951 -0.00023272895964529091 0 0.019988768837094228 -0.00019388897107723671 0 0.019954483963848951 -0.00023272895964529091 0 0.019956785187667258 -0.00012459851827624914 0 0.019954483963848951 -0.00023272895964529091 0 0.019785954072647684 -0.00023238378170451255 0 0.019883071524680163 -7.8424897947986739e-05 0 0.019954483963848951 -0.00023272895964529091 0 0.019785954072647684 -0.00023238378170451255 0 0.019965556393885666 -0.00042109985248618969 0 0.019785954072647684 -0.00023238378170451255 0 0.019965556393885666 -0.00042109985248618969 0 0.019678326598516822 -0.00041799699774888271 0 0.019965556393885666 -0.00042109985248618969 0 0.020104393444609958 -0.00043079872158731814 0 0.020050290766704303 -0.00046756111798091027 0 0.020104393444609958 -0.00043079872158731814 0 0.020416565193519601 -0.00043554668862443605 0 0.020050290766704303 -0.00046756111798091027 0 0.019981334294692066 -0.0004206428485619639 0 0.020016540100604423 -0.00041791904646673475 0 0.020104393444609958 -0.00043079872158731814 0 0.019965556393885666 -0.00042109985248618969 0 0.020016540100604423 -0.00041791904646673475 0 0.020104393444609958 -0.00043079872158731814 0 0.020439176909893785 -0.00024766557923211892 0 0.020104393444609958 -0.00043079872158731814 0 0.020416565193519601 -0.00043554668862443605 0 0.021054305967462359 -0.00030499437767712802 0 0.020416565193519601 -0.00043554668862443605 0 0.020084836168282307 -0.00045386642868687396 0 0.020416565193519601 -0.00043554668862443605 0 0.020084836168282307 -0.00045386642868687396 0 0.020050290766704303 -0.00046756111798091027 0 0.019965556393885666 -0.00042109985248618969 0 0.020050290766704303 -0.00046756111798091027 0 0.019678326598516822 -0.00041799699774888271 0 0.020084836168282307 -0.00045386642868687396 0 0.020050290766704303 -0.00046756111798091027 0 0.019678326598516822 -0.00041799699774888271 0 0.019785954072647684 -0.00023238378170451255 0 0.019678326598516822 -0.00041799699774888271 0 0.019270082656946238 -5.0331328590659283e-05 0 0.019678326598516822 -0.00041799699774888271 0 0.018979874200699225 -0.00032316725542110475 0 0.019270082656946238 -5.0331328590659283e-05 0 0.020084836168282307 -0.00045386642868687396 0 0.019678326598516822 -0.00041799699774888271 0 0.018979874200699225 -0.00032316725542110475 0 0.020084836168282307 -0.00045386642868687396 0 0.018979874200699225 -0.00032316725542110475 0 0.019251849602289556 -0.0003074032871183201 0 0.018979874200699225 -0.00032316725542110475 0 0.019251849602289556 -0.0003074032871183201 0 0.018008004970699359 -0.00014992824341253109 0 0.018979874200699225 -0.00032316725542110475 0 0.018008004970699359 -0.00014992824341253109 0 0.017759224389638593 8.4855082260526349e-06 0 0.018008004970699359 -0.00014992824341253109 0 0.01877915357110517 -4.9674655627534865e-07 0 0.016892988315931678 7.656049524929306e-08 0 0.019251849602289556 -0.0003074032871183201 0 0.018008004970699359 -0.00014992824341253109 0 0.01877915357110517 -4.9674655627534865e-07 0 0.019251849602289556 -0.0003074032871183201 0 0.01877915357110517 -4.9674655627534865e-07 0 0.020664630425002297 -6.2043791922435164e-07 0 0.020084836168282307 -0.00045386642868687396 0 0.019251849602289556 -0.0003074032871183201 0 0.020664630425002297 -6.2043791922435164e-07 0 0.020084836168282307 -0.00045386642868687396 0 0.020664630425002297 -6.2043791922435164e-07 0 0.021236510441750928 -0.00026461574325156956 0 0.021054305967462359 -0.00030499437767712802 0 0.020084836168282307 -0.00045386642868687396 0 0.021236510441750928 -0.00026461574325156956 0 0.022550315942897074 -3.0641174851240654e-07 0 0.020664630425002297 -6.2043791922435164e-07 0 0.021236510441750928 -0.00026461574325156956 0 0.027379313329550539 0.00013346120890324591 0 0.027868793109532494 0.00016450265433828518 0 0.027273804174978312 0.00081329710951826603 0 0.027379313329550539 0.00013346120890324591 0 0.02731516900899544 4.9480928780969877e-06 0 0.027237324507327715 0.00048913024623543227 0 0.024274884879917386 -0.0013519012008083109 0 0.02736803518238971 -0.0011833446782263646 0 0.024274884879917386 -0.0013519012008083109 0 0.02481449796200191 -0.0011481726614861131 0 0.027379313329550539 0.00013346120890324591 0 0.02731516900899544 4.9480928780969877e-06 0 0.027616702132731732 7.82465046907395e-05 0 0.027167937053665749 -6.6767751046700031e-05 0 0.027616702132731732 7.82465046907395e-05 0 0.027599608950531769 -0.00031252606240906352 0 0.02833645519153212 1.5808737970587571e-05 0 0.028299255377434152 0.00039825622430926245 0 0.028681688354535471 0.00031682613726991178 0 0.027868793109532494 0.00016450265433828518 0 0.027616702132731732 7.82465046907395e-05 0 0.027925936456224473 -0.00025579442907348968 0 0.027379313329550539 0.00013346120890324591 0 0.027868793109532494 0.00016450265433828518 0 0.027616702132731732 7.82465046907395e-05 0 0.027599608950531769 -0.00031252606240906352 0 0.027925936456224473 -0.00025579442907348968 0 0.027976539755001917 -0.00055471911935612824 0 0.027925936456224473 -0.00025579442907348968 0 0.027976539755001917 -0.00055471911935612824 0 0.028765019671542772 -0.00070635945571131281 0 0.027868793109532494 0.00016450265433828518 0 0.027925936456224473 -0.00025579442907348968 0 0.028765019671542772 -0.00070635945571131281 0 0.027616702132731732 7.82465046907395e-05 0 0.027599608950531769 -0.00031252606240906352 0 0.027925936456224473 -0.00025579442907348968 0 0.027976539755001917 -0.00055471911935612824 0 0.027304751983577569 -0.00077812771573673896 0 0.027938266939013752 -0.0009354222885174095 0 0.027599608950531769 -0.00031252606240906352 0 0.027976539755001917 -0.00055471911935612824 0 0.027304751983577569 -0.00077812771573673896 0 0.019089043293794364 -0.0036897211632189847 0 0.019046770525610258 -0.0037432726233999985 0 0.019084717190005228 -0.00375103181214238 0 0.027167937053665749 -6.6767751046700031e-05 0 0.027599608950531769 -0.00031252606240906352 0 0.027304751983577569 -0.00077812771573673896 0 0.024274884879917386 -0.0013519012008083109 0 0.022706723627695605 -0.002125505746207438 0 0.024274884879917386 -0.0013519012008083109 0 0.022477671553551147 -0.0026236556241290192 0 0.019089043293794364 -0.0036897211632189847 0 0.019046770525610258 -0.0037432726233999985 0 0.019009992429799571 -0.0037341089068655331 0 0.019046770525610258 -0.0037432726233999985 0 0.019009992429799571 -0.0037341089068655331 0 0.01901118450880122 -0.0037745323478305063 0 0.019009992429799571 -0.0037341089068655331 0 0.018981330414152613 -0.0037845614766481928 0 0.01901118450880122 -0.0037745323478305063 0 0.022477671553551147 -0.0026236556241290192 0 0.021996004322730311 -0.0032835043126514135 0 0.019009992429799571 -0.0037341089068655331 0 0.01897395445571054 -0.0038070075367646339 0 0.018981330414152613 -0.0037845614766481928 0 0.02437253364212175 -0.0029762854906260324 0 0.023159853624587001 -0.0034109779837088574 0 0.024209661330069885 -0.0022163737744694506 0 0.021996004322730311 -0.0032835043126514135 0 0.024315684300792603 -0.0026420266774774825 0 0.023913887666466623 -0.0036755941881375497 0 0.02380362095167661 -0.003668986877471813 0 0.023890462596389082 -0.0037995741193641492 0 0.023913887666466623 -0.0036755941881375497 0 0.023876699278382523 -0.0035254011418596938 0 0.02380362095167661 -0.003668986877471813 0 0.025572009442688511 -0.0025422392314744424 0 0.02437253364212175 -0.0029762854906260324 0 0.024209661330069885 -0.0022163737744694506 0 0.024315684300792603 -0.0026420266774774825 0 0.02736803518238971 -0.0011833446782263646 0 0.025572009442688511 -0.0025422392314744424 0 0.024209661330069885 -0.0022163737744694506 0 0.025250077691330499 -0.001033730668771757 0 0.02380362095167661 -0.003668986877471813 0 0.023811071203388146 -0.0037864551923466536 0 0.023746143560494568 -0.0037828031312915505 0 0.023811071203388146 -0.0037864551923466536 0 0.023770285027168579 -0.0038604956548501873 0 0.023746143560494568 -0.0037828031312915505 0 0.028744287528517726 -0.0010370779613484648 0 0.02736803518238971 -0.0011833446782263646 0 0.02380362095167661 -0.003668986877471813 0 0.023811071203388146 -0.0037864551923466536 0 0.023890462596389082 -0.0037995741193641492 0 0.023811071203388146 -0.0037864551923466536 0 0.023890462596389082 -0.0037995741193641492 0 0.023838270380487199 -0.0038679452079125481 0 0.023991834433628824 -0.0039579683989820905 0 0.023839317866370998 -0.0039352488575401931 0 0.023905577431517368 -0.0038885729517972017 0 0.023968446702056549 -0.0038762249319197347 0 0.023890462596389082 -0.0037995741193641492 0 0.023905577431517368 -0.0038885729517972017 0 0.023890462596389082 -0.0037995741193641492 0 0.023905577431517368 -0.0038885729517972017 0 0.023838270380487199 -0.0038679452079125481 0 0.023839317866370998 -0.0039352488575401931 0 0.023905577431517368 -0.0038885729517972017 0 0.023838270380487199 -0.0038679452079125481 0 0.028196545261080626 -0.0013891342769595388 0 0.028073540282668764 -0.0012456416671296916 0 0.027920273069291526 -0.00018359713343394258 0 0.029158688876071575 -0.0009615751991537871 0 0.029139131808627736 -0.00093964588173684328 0 0.0291894963706501 -0.0010802802955463106 0 0.028744287528517726 -0.0010370779613484648 0 0.028687199695154108 -0.00095713883779554828 0 0.023811071203388146 -0.0037864551923466536 0 0.023770285027168579 -0.0038604956548501873 0 0.023838270380487199 -0.0038679452079125481 0 0.023839317866370998 -0.0039352488575401931 0 0.023770285027168579 -0.0038604956548501873 0 0.023838270380487199 -0.0038679452079125481 0 0.028744287528517726 -0.0010370779613484648 0 0.029544643077594839 -0.0010685239310122975 0 0.029792873186841318 -0.0020864170026203247 0 0.028964774767427787 -0.0011085789980242798 0 0.029109582942349308 -0.0017581635246129833 0 0.029512247162488278 -0.001360397406618125 0 0.028744287528517726 -0.0010370779613484648 0 0.028687199695154108 -0.00095713883779554828 0 0.029544643077594839 -0.0010685239310122975 0 0.029909000514387031 -0.00040072204082606942 0 0.029727882273173863 -0.00054283265757860283 0 0.029967189275168418 -0.00063227841659878878 0 0.027841591416992585 0.00063312123814084098 0 0.028341723208748882 0.00062673590364407581 0 0.028202455354372106 0.0010544377234435371 0 0.029807329610023508 -0.00080267719812771379 0 0.029727882273173863 -0.00054283265757860283 0 0.029967189275168418 -0.00063227841659878878 0 0.03008589323311537 -0.00047322328886119266 0 0.029909000514387031 -0.00040072204082606942 0 0.029967189275168418 -0.00063227841659878878 0 0.03008589323311537 -0.00047322328886119266 0 0.029967189275168418 -0.00063227841659878878 0 0.030302744139739421 -0.00058680102071773977 0 0.029967189275168418 -0.00063227841659878878 0 0.02995410750753286 -0.00097870440763505586 0 0.030302744139739421 -0.00058680102071773977 0 0.028364223599629045 -0.00059601871646607714 0 0.029859411551475801 -0.00024135984561822303 0 0.029807329610023508 -0.00080267719812771379 0 0.029967189275168418 -0.00063227841659878878 0 0.02995410750753286 -0.00097870440763505586 0 0.028687199695154108 -0.00095713883779554828 0 0.028364223599629045 -0.00059601871646607714 0 0.028687199695154108 -0.00095713883779554828 0 0.027894099571598319 -0.00083026736199844542 0 0.027697307868831358 -0.00030615253003360849 0 0.027894099571598319 -0.00083026736199844542 0 0.027379313329550539 0.00013346120890324591 0 0.02726856063131762 0.00052351798096165482 0 0.027237324507327715 0.00048913024623543227 0 0.028073540282668764 -0.0012456416671296916 0 0.027779622258048191 -0.00034677663209862293 0 0.027920273069291526 -0.00018359713343394258 0 0.028165061933354 -0.00017580452775093117 0 0.028364223599629045 -0.00059601871646607714 0 0.028329613060391997 -0.00099353734463514362 0 0.028033031432910322 -7.4256013136107736e-05 0 0.027788164445044061 -0.00035739421143722843 0 0.027379313329550539 0.00013346120890324591 0 0.02719563906939617 0.00072242044808116591 0 0.027273804174978312 0.00081329710951826603 0 0.027894099571598319 -0.00083026736199844542 0 0.028364223599629045 -0.00059601871646607714 0 0.027894099571598319 -0.00083026736199844542 0 0.02736803518238971 -0.0011833446782263646 0 0.028341723208748882 0.00062673590364407581 0 0.028642460985962293 0.00085008271382692254 0 0.028681688354535471 0.00031682613726991178 0 0.027841591416992585 0.00063312123814084098 0 0.028299255377434152 0.00039825622430926245 0 0.028341723208748882 0.00062673590364407581 0 0.02833645519153212 1.5808737970587571e-05 0 0.027841591416992585 0.00063312123814084098 0 0.028299255377434152 0.00039825622430926245 0 0.028299255377434152 0.00039825622430926245 0 0.028341723208748882 0.00062673590364407581 0 0.028681688354535471 0.00031682613726991178 0 0.028584438478732096 0.0014839772136359477 0 0.028202455354372106 0.0010544377234435371 0 0.028642460985962293 0.00085008271382692254 0 0.028341723208748882 0.00062673590364407581 0 0.028202455354372106 0.0010544377234435371 0 0.028642460985962293 0.00085008271382692254 0 0.028584438478732096 0.0014839772136359477 0 0.028642460985962293 0.00085008271382692254 0 0.029062029296133829 0.0010179536317864665 0 0.028642460985962293 0.00085008271382692254 0 0.029062029296133829 0.0010179536317864665 0 0.028978504179040868 0.00061193040950579256 0 0.029062029296133829 0.0010179536317864665 0 0.029459561991019585 0.00064628883048466505 0 0.028978504179040868 0.00061193040950579256 0 0.029062029296133829 0.0010179536317864665 0 0.029459561991019585 0.00064628883048466505 0 0.029720243440844153 0.001134013422618176 0 0.029459561991019585 0.00064628883048466505 0 0.029745072280324841 0.00014556481342429929 0 0.029154205509645734 0.00019164699248939439 0 0.029459561991019585 0.00064628883048466505 0 0.028978504179040868 0.00061193040950579256 0 0.029154205509645734 0.00019164699248939439 0 0.028681688354535471 0.00031682613726991178 0 0.028978504179040868 0.00061193040950579256 0 0.029154205509645734 0.00019164699248939439 0 0.028642460985962293 0.00085008271382692254 0 0.028681688354535471 0.00031682613726991178 0 0.028978504179040868 0.00061193040950579256 0 0.030425822489424562 0.00097434183339812166 0 0.029720243440844153 0.001134013422618176 0 0.029976900954176919 0.00068879917642522407 0 0.029459561991019585 0.00064628883048466505 0 0.029720243440844153 0.001134013422618176 0 0.029976900954176919 0.00068879917642522407 0 0.029459561991019585 0.00064628883048466505 0 0.029976900954176919 0.00068879917642522407 0 0.029745072280324841 0.00014556481342429929 0 0.029976900954176919 0.00068879917642522407 0 0.030401017660351755 0.00038920122769896395 0 0.029745072280324841 0.00014556481342429929 0 0.030425822489424562 0.00097434183339812166 0 0.029976900954176919 0.00068879917642522407 0 0.030401017660351755 0.00038920122769896395 0 0.030401017660351755 0.00038920122769896395 0 0.029745072280324841 0.00014556481342429929 0 0.030354046876551837 -0.00016552013377119833 0 0.019112440155905845 -0.00035670817714245263 0 0.019592892798807857 -0.00010416403991612543 0 0.019318801557271528 -0.0004068125793517152 0 0.024356769395808015 -0.00059098808312371589 0 0.024903248595654317 -0.00019119232304119887 0 0.029745072280324841 0.00014556481342429929 0 0.029585782934810675 -0.00058042673685417662 0 0.030354046876551837 -0.00016552013377119833 0 0.019592892798807857 -0.00010416403991612543 0 0.019565750230069279 -0.00045217671367297731 0 0.019318801557271528 -0.0004068125793517152 0 0.028681688354535471 0.00031682613726991178 0 0.028819616345843371 -0.00010082169694613071 0 0.029154205509645734 0.00019164699248939439 0 0.02833645519153212 1.5808737970587571e-05 0 0.028681688354535471 0.00031682613726991178 0 0.028819616345843371 -0.00010082169694613071 0 0.029745072280324841 0.00014556481342429929 0 0.029154205509645734 0.00019164699248939439 0 0.029215347644468197 -0.00022679409940754101 0 0.028819616345843371 -0.00010082169694613071 0 0.029154205509645734 0.00019164699248939439 0 0.029215347644468197 -0.00022679409940754101 0 0.029585782934810675 -0.00058042673685417662 0 0.029215347644468197 -0.00022679409940754101 0 0.028765019671542772 -0.00070635945571131281 0 0.029745072280324841 0.00014556481342429929 0 0.029585782934810675 -0.00058042673685417662 0 0.029215347644468197 -0.00022679409940754101 0 0.028819616345843371 -0.00010082169694613071 0 0.029215347644468197 -0.00022679409940754101 0 0.028765019671542772 -0.00070635945571131281 0 0.028165061933354 -0.00017580452775093117 0 0.028416049492953989 -0.00042318833288123583 0 0.027976539755001917 -0.00055471911935612824 0 0.028765019671542772 -0.00070635945571131281 0 0.028332700795513869 -0.00080916382460054779 0 0.02833645519153212 1.5808737970587571e-05 0 0.028819616345843371 -0.00010082169694613071 0 0.028765019671542772 -0.00070635945571131281 0 0.028765019671542772 -0.00070635945571131281 0 0.028649403220851584 -0.0010405933695145553 0 0.028332700795513869 -0.00080916382460054779 0 0.028649403220851584 -0.0010405933695145553 0 0.028332700795513869 -0.00080916382460054779 0 0.027938266939013752 -0.0009354222885174095 0 0.019112440155905845 -0.00035670817714245263 0 0.019190796932726167 -0.00048160118737561119 0 0.019088339434316183 -0.00044101290884823084 0 0.019190796932726167 -0.00048160118737561119 0 0.019190602084478297 -0.00044108555410949383 0 0.019088339434316183 -0.00044101290884823084 0 0.029585782934810675 -0.00058042673685417662 0 0.028765019671542772 -0.00070635945571131281 0 0.028649403220851584 -0.0010405933695145553 0 0.019059328876085618 -0.001706029725031994 0 0.019035608482350905 -0.0014181998997708075 0 0.024356769395808015 -0.00059098808312371589 0 0.023562841413773322 -0.0011691245418151306 0 0.017743747705215751 -0.00066530728325276929 0 0.018408072593541991 -0.00085603366245247815 0 0.019088339434316183 -0.00044101290884823084 0 0.018408072593541991 -0.00085603366245247815 0 0.01882513675770801 -0.00078513878044845652 0 0.019088339434316183 -0.00044101290884823084 0 0.018408072593541991 -0.00085603366245247815 0 0.01882513675770801 -0.00078513878044845652 0 0.018849963703520559 -0.0011492183372205818 0 0.01882513675770801 -0.00078513878044845652 0 0.018849963703520559 -0.0011492183372205818 0 0.019059029036900314 -0.00063794787455977479 0 0.018408072593541991 -0.00085603366245247815 0 0.018849963703520559 -0.0011492183372205818 0 0.018531043756889333 -0.0015882915437756934 0 0.018408072593541991 -0.00085603366245247815 0 0.017942906401867673 -0.0011967216702244738 0 0.018531043756889333 -0.0015882915437756934 0 0.017942906401867673 -0.0011967216702244738 0 0.017516216808659342 -0.0010579855048718811 0 0.017272643599773426 -0.0015205908980182199 0 0.017743747705215751 -0.00066530728325276929 0 0.017516216808659342 -0.0010579855048718811 0 0.017900423205319722 -0.00094452986434266162 0 0.018408072593541991 -0.00085603366245247815 0 0.017942906401867673 -0.0011967216702244738 0 0.017900423205319722 -0.00094452986434266162 0 0.017743747705215751 -0.00066530728325276929 0 0.018408072593541991 -0.00085603366245247815 0 0.017900423205319722 -0.00094452986434266162 0 0.017942906401867673 -0.0011967216702244738 0 0.017516216808659342 -0.0010579855048718811 0 0.017900423205319722 -0.00094452986434266162 0 0.019565750230069279 -0.00045217671367297731 0 0.019349764620825327 -0.00055698003266524897 0 0.019318801557271528 -0.0004068125793517152 0 0.019565750230069279 -0.00045217671367297731 0 0.019349764620825327 -0.00055698003266524897 0 0.01947102121878113 -0.00066419045365890682 0 0.019226484746813401 -0.0005409179906921889 0 0.019318801557271528 -0.0004068125793517152 0 0.019088339434316183 -0.00044101290884823084 0 0.019226484746813401 -0.0005409179906921889 0 0.019059029036900314 -0.00063794787455977479 0 0.019259033914208259 -0.00070386861042383416 0 0.019349764620825327 -0.00055698003266524897 0 0.019226484746813401 -0.0005409179906921889 0 0.019318801557271528 -0.0004068125793517152 0 0.019349764620825327 -0.00055698003266524897 0 0.019226484746813401 -0.0005409179906921889 0 0.019259033914208259 -0.00070386861042383416 0 0.019112440155905845 -0.00035670817714245263 0 0.019318801557271528 -0.0004068125793517152 0 0.019088339434316183 -0.00044101290884823084 0 0.019226484746813401 -0.0005409179906921889 0 0.019088339434316183 -0.00044101290884823084 0 0.019059029036900314 -0.00063794787455977479 0 0.01882513675770801 -0.00078513878044845652 0 0.019088339434316183 -0.00044101290884823084 0 0.019059029036900314 -0.00063794787455977479 0 0.019059029036900314 -0.00063794787455977479 0 0.019259033914208259 -0.00070386861042383416 0 0.019247033768700073 -0.00093089997839906707 0 0.018849963703520559 -0.0011492183372205818 0 0.019059029036900314 -0.00063794787455977479 0 0.019534025615907547 -0.0015063634178929543 0 0.018849963703520559 -0.0011492183372205818 0 0.019534025615907547 -0.0015063634178929543 0 0.018531043756889333 -0.0015882915437756934 0 0.015051889328589325 -0.0021369163400704952 0 0.014033329475281908 -0.0018063787208313458 0 0.019259033914208259 -0.00070386861042383416 0 0.019324693691614742 -0.0008287696727132958 0 0.019247033768700073 -0.00093089997839906707 0 0.01425797800980832 -0.0016206600262482407 0 0.014033329475281908 -0.0018063787208313458 0 0.019645207073008961 -0.00080203990489377671 0 0.019565750230069279 -0.00045217671367297731 0 0.01947102121878113 -0.00066419045365890682 0 0.019645207073008961 -0.00080203990489377671 0 0.019324693691614742 -0.0008287696727132958 0 0.019351497786803121 -0.0011741711857736793 0 0.0193496595700101 -0.00069509630377001877 0 0.019324693691614742 -0.0008287696727132958 0 0.01947102121878113 -0.00066419045365890682 0 0.019349764620825327 -0.00055698003266524897 0 0.0193496595700101 -0.00069509630377001877 0 0.01947102121878113 -0.00066419045365890682 0 0.019349764620825327 -0.00055698003266524897 0 0.019259033914208259 -0.00070386861042383416 0 0.0193496595700101 -0.00069509630377001877 0 0.019259033914208259 -0.00070386861042383416 0 0.0193496595700101 -0.00069509630377001877 0 0.019324693691614742 -0.0008287696727132958 0 0.019645207073008961 -0.00080203990489377671 0 0.019324693691614742 -0.0008287696727132958 0 0.01947102121878113 -0.00066419045365890682 0 0.016949406364412528 -0.00011307821710578968 0 0.013722098318456265 -0.001996994231229995 0 0.020029332419308654 -0.00040926636928180537 0 0.020048107936870896 -0.00035503145224058532 0 0.020107437555458334 -0.00034083433160675029 0 0.019324693691614742 -0.0008287696727132958 0 0.019351497786803121 -0.0011741711857736793 0 0.019223606968702005 -0.00094618846773973501 0 0.020048107936870896 -0.00035503145224058532 0 0.020058380198314477 -0.00029977459878604201 0 0.020107437555458334 -0.00034083433160675029 0 0.013722098318456265 -0.001996994231229995 0 0.014033329475281908 -0.0018063787208313458 0 0.014033329475281908 -0.0018063787208313458 0 0.013463386197268045 -0.0026295879923097934 0 0.0091361931871356203 -0.0032868531582544444 0 0.0090120061304063293 -0.0030565401639462229 0 0.0086833138524118354 -0.0034965969664023802 0 0.019534025615907547 -0.0015063634178929543 0 0.018531043756889333 -0.0015882915437756934 0 0.018750911553063482 -0.002520763667043627 0 0.013722098318456265 -0.001996994231229995 0 0.010462477113794895 -0.0042776125670627285 0 0.0091361931871356203 -0.0032868531582544444 0 0.0087839642854212648 -0.0036575444121414243 0 0.0086833138524118354 -0.0034965969664023802 0 0.0070242360045553141 -0.0057756227161698398 0 0.0077148989641494838 -0.0048376012499313252 0 0.0070330635473702836 -0.0045432622577054656 0 0.020058380198314477 -0.00029977459878604201 0 0.020107437555458334 -0.00034083433160675029 0 0.0200817491507429 -0.00021480251023038889 0 0.0070242360045553141 -0.0057756227161698398 0 0.0070330635473702836 -0.0045432622577054656 0 0.006350864237672115 -0.0047417900358004191 0 0.013722098318456265 -0.001996994231229995 0 0.013424065713686715 -0.002167795375093695 0 0.017942906401867673 -0.0011967216702244738 0 0.01773580144180853 -0.0022632450373051612 0 0.018531043756889333 -0.0015882915437756934 0 0.017942906401867673 -0.0011967216702244738 0 0.01773580144180853 -0.0022632450373051612 0 0.017272643599773426 -0.0015205908980182199 0 0.01773580144180853 -0.0022632450373051612 0 0.018531043756889333 -0.0015882915437756934 0 0.018750911553063482 -0.002520763667043627 0 0.013463386197268045 -0.0026295879923097934 0 0.012914501105077122 -0.0030108148847010456 0 0.01773580144180853 -0.0022632450373051612 0 0.018750911553063482 -0.002520763667043627 0 0.017969072725966553 -0.0035181073887848064 0 0.0087839642854212648 -0.0036575444121414243 0 0.0086833138524118354 -0.0034965969664023802 0 0.0085559165765715078 -0.0038013302603253627 0 0.01773580144180853 -0.0022632450373051612 0 0.016970125402066494 -0.0033282923856133707 0 0.017969072725966553 -0.0035181073887848064 0 0.017874818360812839 -0.0027555552077194088 0 0.015692388857739749 -0.0031559933173198099 0 0.018082369724461173 -0.0031896054379701492 0 0.017875142975215749 -0.0034813991771846307 0 0.017743979036278515 -0.0030275593200670644 0 0.01773580144180853 -0.0022632450373051612 0 0.016731873976453635 -0.0021406848226855719 0 0.016970125402066494 -0.0033282923856133707 0 0.018082369724461173 -0.0031896054379701492 0 0.018214493861424551 -0.0034140427448531587 0 0.017875142975215749 -0.0034813991771846307 0 0.018082369724461173 -0.0031896054379701492 0 0.018214493861424551 -0.0034140427448531587 0 0.018320308742049259 -0.003145007734462045 0 0.018214493861424551 -0.0034140427448531587 0 0.018174380182473387 -0.0036696704877586541 0 0.017875142975215749 -0.0034813991771846307 0 0.018174380182473387 -0.0036696704877586541 0 0.017875142975215749 -0.0034813991771846307 0 0.01799819050826991 -0.0039594301002706866 0 0.018214493861424551 -0.0034140427448531587 0 0.018174380182473387 -0.0036696704877586541 0 0.018397621897840017 -0.0035728735189462534 0 0.01773580144180853 -0.0022632450373051612 0 0.016731873976453635 -0.0021406848226855719 0 0.017272643599773426 -0.0015205908980182199 0 0.016731873976453635 -0.0021406848226855719 0 0.017272643599773426 -0.0015205908980182199 0 0.016482578712071715 -0.00094562751570573028 0 0.017874818360812839 -0.0027555552077194088 0 0.020400947330086808 -0.0024873784682182365 0 0.019059328876085618 -0.001706029725031994 0 0.020400947330086808 -0.0024873784682182365 0 0.017516216808659342 -0.0010579855048718811 0 0.017272643599773426 -0.0015205908980182199 0 0.016482578712071715 -0.00094562751570573028 0 0.017743747705215751 -0.00066530728325276929 0 0.017516216808659342 -0.0010579855048718811 0 0.016482578712071715 -0.00094562751570573028 0 0.019190602084478297 -0.00044108555410949383 0 0.019429411111655932 -0.00045130236615235182 0 0.01943424104183018 -0.00047325178505862439 0 0.018174380182473387 -0.0036696704877586541 0 0.018236144910796392 -0.0039157004922178674 0 0.01799819050826991 -0.0039594301002706866 0 0.018174380182473387 -0.0036696704877586541 0 0.018236144910796392 -0.0039157004922178674 0 0.018402959817431924 -0.0038848491227540419 0 0.02003021017740899 -0.0028695093195701547 0 0.020968615062859661 -0.0026440172215990696 0 0.019046106653062153 -0.0038187089415847794 0 0.019092088114172297 -0.0038015913278425149 0 0.019049190154595226 -0.0037794718647338752 0 0.020219828069122387 -0.0032113438084336058 0 0.021146906395999084 -0.0030212663386274502 0 0.021103629469390529 -0.002825102150454702 0 0.02003021017740899 -0.0028695093195701547 0 0.020400947330086808 -0.0024873784682182365 0 0.020400947330086808 -0.0024873784682182365 0 0.020968615062859661 -0.0026440172215990696 0 0.020968615062859661 -0.0026440172215990696 0 0.022706723627695605 -0.002125505746207438 0 0.019092088114172297 -0.0038015913278425149 0 0.019049190154595226 -0.0037794718647338752 0 0.019084717190005228 -0.00375103181214238 0 0.027437030871682845 -0.0015490698124403684 0 0.027304751983577569 -0.00077812771573673896 0 0.027938266939013752 -0.0009354222885174095 0 0.019046770525610258 -0.0037432726233999985 0 0.019049190154595226 -0.0037794718647338752 0 0.019084717190005228 -0.00375103181214238 0 0.028649403220851584 -0.0010405933695145553 0 0.027437030871682845 -0.0015490698124403684 0 0.027938266939013752 -0.0009354222885174095 0 0.019190796932726167 -0.00048160118737561119 0 0.019190602084478297 -0.00044108555410949383 0 0.01943424104183018 -0.00047325178505862439 0 0.023562841413773322 -0.0011691245418151306 0 0.020968615062859661 -0.0026440172215990696 0 0.027976539755001917 -0.00055471911935612824 0 0.028332700795513869 -0.00080916382460054779 0 0.027938266939013752 -0.0009354222885174095 0 0.018965005995623375 -0.0037890334397116649 0 0.018962937188281744 -0.0038049350428437734 0 0.018981330414152613 -0.0037845614766481928 0 0.01897395445571054 -0.0038070075367646339 0 0.018962937188281744 -0.0038049350428437734 0 0.018981330414152613 -0.0037845614766481928 0 0.018965005995623375 -0.0037890334397116649 0 0.018981330414152613 -0.0037845614766481928 0 0.01901118450880122 -0.0037745323478305063 0 0.019046770525610258 -0.0037432726233999985 0 0.019049190154595226 -0.0037794718647338752 0 0.01901118450880122 -0.0037745323478305063 0 0.019046106653062153 -0.0038187089415847794 0 0.019049190154595226 -0.0037794718647338752 0 0.019015112588803597 -0.0037947852469160919 0 0.019049190154595226 -0.0037794718647338752 0 0.01901118450880122 -0.0037745323478305063 0 0.019015112588803597 -0.0037947852469160919 0 0.018965005995623375 -0.0037890334397116649 0 0.01901118450880122 -0.0037745323478305063 0 0.019015112588803597 -0.0037947852469160919 0 0.018965005995623375 -0.0037890334397116649 0 0.019015112588803597 -0.0037947852469160919 0 0.019006077370781176 -0.0038217021963010312 0 0.02003021017740899 -0.0028695093195701547 0 0.019562204756412703 -0.0030561565745391667 0 0.019046106653062153 -0.0038187089415847794 0 0.019015112588803597 -0.0037947852469160919 0 0.019006077370781176 -0.0038217021963010312 0 0.019562204756412703 -0.0030561565745391667 0 0.019193893706662055 -0.0032188746579091994 0 0.018965005995623375 -0.0037890334397116649 0 0.019006077370781176 -0.0038217021963010312 0 0.018881778980309464 -0.0037625636651491515 0 0.018965005995623375 -0.0037890334397116649 0 0.018962937188281744 -0.0038049350428437734 0 0.018881778980309464 -0.0037625636651491515 0 0.018402959817431924 -0.0038848491227540419 0 0.018881778980309464 -0.0037625636651491515 0 0.018668508756868252 -0.003537826556916862 0 0.018881778980309464 -0.0037625636651491515 0 0.018668508756868252 -0.003537826556916862 0 0.018857035084414386 -0.0034363196414395028 0 0.018668508756868252 -0.003537826556916862 0 0.018857035084414386 -0.0034363196414395028 0 0.018544073866516037 -0.003370820961200846 0 0.018214493861424551 -0.0034140427448531587 0 0.018397621897840017 -0.0035728735189462534 0 0.018544073866516037 -0.003370820961200846 0 0.018402959817431924 -0.0038848491227540419 0 0.018668508756868252 -0.003537826556916862 0 0.018397621897840017 -0.0035728735189462534 0 0.018174380182473387 -0.0036696704877586541 0 0.018402959817431924 -0.0038848491227540419 0 0.018397621897840017 -0.0035728735189462534 0 0.018668508756868252 -0.003537826556916862 0 0.018397621897840017 -0.0035728735189462534 0 0.018544073866516037 -0.003370820961200846 0 0.018214493861424551 -0.0034140427448531587 0 0.018544073866516037 -0.003370820961200846 0 0.018320308742049259 -0.003145007734462045 0 0.018544073866516037 -0.003370820961200846 0 0.018320308742049259 -0.003145007734462045 0 0.01865574809133216 -0.0030729539660616688 0 0.019018572910668895 -0.0031440480146878976 0 0.018857035084414386 -0.0034363196414395028 0 0.01865574809133216 -0.0030729539660616688 0 0.018857035084414386 -0.0034363196414395028 0 0.018544073866516037 -0.003370820961200846 0 0.01865574809133216 -0.0030729539660616688 0 0.019018572910668895 -0.0031440480146878976 0 0.01865574809133216 -0.0030729539660616688 0 0.018850803338308447 -0.0028278001842287305 0 0.01865574809133216 -0.0030729539660616688 0 0.018571362953695582 -0.002684882058561152 0 0.018850803338308447 -0.0028278001842287305 0 0.01865574809133216 -0.0030729539660616688 0 0.018324624056300528 -0.0028875493765881336 0 0.018571362953695582 -0.002684882058561152 0 0.018320308742049259 -0.003145007734462045 0 0.01865574809133216 -0.0030729539660616688 0 0.018324624056300528 -0.0028875493765881336 0 0.018320308742049259 -0.003145007734462045 0 0.018324624056300528 -0.0028875493765881336 0 0.018107342127420472 -0.0029548614343389325 0 0.018251438680901184 -0.002616710237683778 0 0.018541664931247287 -0.002430341264118075 0 0.017946177250320782 -0.0023704247263939392 0 0.018324624056300528 -0.0028875493765881336 0 0.018251438680901184 -0.002616710237683778 0 0.018571362953695582 -0.002684882058561152 0 0.018251438680901184 -0.002616710237683778 0 0.018571362953695582 -0.002684882058561152 0 0.018541664931247287 -0.002430341264118075 0 0.018571362953695582 -0.002684882058561152 0 0.018767604135838913 -0.0026109470360953318 0 0.018850803338308447 -0.0028278001842287305 0 0.018571362953695582 -0.002684882058561152 0 0.018767604135838913 -0.0026109470360953318 0 0.018541664931247287 -0.002430341264118075 0 0.017617671422329048 -0.0019025020580688595 0 0.016582383151215345 -0.0026822705908380981 0 0.016716587364772904 -0.00085716290794026818 0 0.017055871440002351 -0.0024738297266128765 0 0.017762218858220262 -0.0024570693623837563 0 0.018767604135838913 -0.0026109470360953318 0 0.018541664931247287 -0.002430341264118075 0 0.018921771129636639 -0.0024632290040052631 0 0.017617671422329048 -0.0019025020580688595 0 0.016582383151215345 -0.0026822705908380981 0 0.018486045679316943 -0.0023759622492720354 0 0.016582383151215345 -0.0026822705908380981 0 0.018486045679316943 -0.0023759622492720354 0 0.018921771129636639 -0.0024632290040052631 0 0.017617671422329048 -0.0019025020580688595 0 0.016716587364772904 -0.00085716290794026818 0 0.018949710007617495 -0.001847718775016517 0 0.014983543459957154 -0.0037140645449607115 0 0.016901959975809948 -0.0036178695602141707 0 0.017055871440002351 -0.0024738297266128765 0 0.015391653187903026 -0.0024939463820976737 0 0.016582383151215345 -0.0026822705908380981 0 0.014854356791303714 -0.0019546211087617411 0 0.014196203962213067 -0.0027873464741344444 0 0.016582383151215345 -0.0026822705908380981 0 0.014854356791303714 -0.0019546211087617411 0 0.01519822093015398 -0.0011711018082550362 0 0.016582383151215345 -0.0026822705908380981 0 0.01519822093015398 -0.0011711018082550362 0 0.016716587364772904 -0.00085716290794026818 0 0.014983543459957154 -0.0037140645449607115 0 0.011181665367967492 -0.003018369220479 0 0.01489069076483948 -0.0069916190784209339 0 0.014177455228819294 -0.0066544095185538587 0 0.014789430281339557 -0.0065426269570538903 0 0.01519822093015398 -0.0011711018082550362 0 0.016716587364772904 -0.00085716290794026818 0 0.014438956447941931 0.00015275285908237737 0 0.01489069076483948 -0.0069916190784209339 0 0.015598344568142856 -0.0073081676846944192 0 0.015356089102240995 -0.006812411282612024 0 0.01489069076483948 -0.0069916190784209339 0 0.015087560888058212 -0.0066311835184305924 0 0.014789430281339557 -0.0065426269570538903 0 0.01489069076483948 -0.0069916190784209339 0 0.015087560888058212 -0.0066311835184305924 0 0.015356089102240995 -0.006812411282612024 0 0.015087560888058212 -0.0066311835184305924 0 0.015356089102240995 -0.006812411282612024 0 0.01534693505502943 -0.0065383395537041119 0 0.0063660351099852084 -0.00070425478565547012 0 0.0068512447140406628 -0.00093722208090478226 0 0.0065303822771065187 -0.0010872481298052899 0 0.0063660351099852084 -0.00070425478565547012 0 0.0065303822771065187 -0.0010872481298052899 0 0.0062411287980533321 -0.0011234519758239125 0 0.0063660351099852084 -0.00070425478565547012 0 0.0068512447140406628 -0.00093722208090478226 0 0.0068746848270787369 -0.00044220004209443743 0 0.0068512447140406628 -0.00093722208090478226 0 0.0068746848270787369 -0.00044220004209443743 0 0.0072082668698983873 -0.00068574044600960512 0 0.0068512447140406628 -0.00093722208090478226 0 0.006764714418909485 -0.0013084777174201651 0 0.0073745562645343727 -0.0014038738727605196 0 0.0068512447140406628 -0.00093722208090478226 0 0.006764714418909485 -0.0013084777174201651 0 0.0065303822771065187 -0.0010872481298052899 0 0.006764714418909485 -0.0013084777174201651 0 0.0065303822771065187 -0.0010872481298052899 0 0.0064443161786167241 -0.0014085423579326226 0 0.0065303822771065187 -0.0010872481298052899 0 0.0062611156510795551 -0.0012610721124331006 0 0.0062411287980533321 -0.0011234519758239125 0 0.0064443161786167241 -0.0014085423579326226 0 0.0062611156510795551 -0.0012610721124331006 0 0.0061955299439009478 -0.0014436677495004099 0 0.0065303822771065187 -0.0010872481298052899 0 0.0064443161786167241 -0.0014085423579326226 0 0.0062611156510795551 -0.0012610721124331006 0 0.011326402294188975 -0.0023740925862833894 0 0.010730338770252599 -0.002719412349515228 0 0.0063660351099852084 -0.00070425478565547012 0 0.0062411287980533321 -0.0011234519758239125 0 0.0058182447746361072 -0.001441188813167219 0 0.0062611156510795551 -0.0012610721124331006 0 0.0062411287980533321 -0.0011234519758239125 0 0.0058182447746361072 -0.001441188813167219 0 0.0062611156510795551 -0.0012610721124331006 0 0.0058182447746361072 -0.001441188813167219 0 0.0061955299439009478 -0.0014436677495004099 0 0.011181665367967492 -0.003018369220479 0 0.011631299280229424 -0.0024842046097628342 0 0.014438956447941931 0.00015275285908237737 0 0.014428842107330529 -0.00077946297419123189 0 0.013689249812622876 -0.00085721287066894958 0 0.014374088804091958 5.423354804622729e-05 0 0.013689249812622876 -0.00085721287066894958 0 0.014155121660114952 0.00015824209843056847 0 0.011181665367967492 -0.003018369220479 0 0.010730338770252599 -0.002719412349515228 0 0.01519822093015398 -0.0011711018082550362 0 0.014438956447941931 0.00015275285908237737 0 0.014428842107330529 -0.00077946297419123189 0 0.014390725456802152 -0.0012405202713053952 0 0.013689249812622876 -0.00085721287066894958 0 0.013906892384709662 -0.0016890757734866234 0 0.014428842107330529 -0.00077946297419123189 0 0.014390725456802152 -0.0012405202713053952 0 0.013689249812622876 -0.00085721287066894958 0 0.01519822093015398 -0.0011711018082550362 0 0.014428842107330529 -0.00077946297419123189 0 0.014390725456802152 -0.0012405202713053952 0 0.013052750961319715 -0.0013168408760732273 0 0.013689249812622876 -0.00085721287066894958 0 0.014155121660114952 0.00015824209843056847 0 0.013052750961319715 -0.0013168408760732273 0 0.013689249812622876 -0.00085721287066894958 0 0.013906892384709662 -0.0016890757734866234 0 0.013052750961319715 -0.0013168408760732273 0 0.013906892384709662 -0.0016890757734866234 0 0.013470342255984667 -0.0019978907268005108 0 0.013906892384709662 -0.0016890757734866234 0 0.013470342255984667 -0.0019978907268005108 0 0.014196203962213067 -0.0027873464741344444 0 0.013052750961319715 -0.0013168408760732273 0 0.013470342255984667 -0.0019978907268005108 0 0.01303391916821094 -0.0023415424542955888 0 0.014854356791303714 -0.0019546211087617411 0 0.013906892384709662 -0.0016890757734866234 0 0.014196203962213067 -0.0027873464741344444 0 0.014854356791303714 -0.0019546211087617411 0 0.014390725456802152 -0.0012405202713053952 0 0.013906892384709662 -0.0016890757734866234 0 0.014854356791303714 -0.0019546211087617411 0 0.01519822093015398 -0.0011711018082550362 0 0.014390725456802152 -0.0012405202713053952 0 0.013470342255984667 -0.0019978907268005108 0 0.014196203962213067 -0.0027873464741344444 0 0.01303391916821094 -0.0023415424542955888 0 0.015391653187903026 -0.0024939463820976737 0 0.012327414837422224 -0.0025259530298684602 0 0.014196203962213067 -0.0027873464741344444 0 0.01303391916821094 -0.0023415424542955888 0 0.01188148661990193 -0.0028705982840413679 0 0.013052750961319715 -0.0013168408760732273 0 0.01303391916821094 -0.0023415424542955888 0 0.01188148661990193 -0.0028705982840413679 0 0.011326402294188975 -0.0023740925862833894 0 0.012327414837422224 -0.0025259530298684602 0 0.0068746848270787369 -0.00044220004209443743 0 0.0070667611934652156 3.6348553822223357e-05 0 0.0072082668698983873 -0.00068574044600960512 0 0.0063660351099852084 -0.00070425478565547012 0 0.0068746848270787369 -0.00044220004209443743 0 0.0069463119911885619 3.2066052876624785e-05 0 0.0068746848270787369 -0.00044220004209443743 0 0.0069463119911885619 3.2066052876624785e-05 0 0.0070667611934652156 3.6348553822223357e-05 0 0.012327414837422224 -0.0025259530298684602 0 0.011827968392942711 -0.0024570598132066424 0 0.011312912014163214 -0.0045255416997118441 0 0.014255938055187569 -0.0043952259786673763 0 0.013593302310621702 -0.0015205508343161915 0 0.012423778413118803 -0.002669958775030496 0 0.015692388857739749 -0.0031559933173198099 0 0.01715592584492211 -0.0023760910289964778 0 0.017086490264530331 -0.00246367876377681 0 0.017750316439781436 -0.0027353889048124256 0 0.012423778413118803 -0.002669958775030496 0 0.015791616362487975 -0.0034081829236699899 0 0.017602338445075558 -0.0025583242741759452 0 0.017983873556081907 -0.002720088863315236 0 0.017743979036278515 -0.0030275593200670644 0 0.011827968392942711 -0.0024570598132066424 0 0.012423778413118803 -0.002669958775030496 0 0.012327414837422224 -0.0025259530298684602 0 0.012423778413118803 -0.002669958775030496 0 0.016649747289076901 -0.0035594669196340094 0 0.015791616362487975 -0.0034081829236699899 0 0.018251438680901184 -0.002616710237683778 0 0.017946177250320782 -0.0023704247263939392 0 0.017750316439781436 -0.0027353889048124256 0 0.018324624056300528 -0.0028875493765881336 0 0.018251438680901184 -0.002616710237683778 0 0.017750316439781436 -0.0027353889048124256 0 0.017946177250320782 -0.0023704247263939392 0 0.01715592584492211 -0.0023760910289964778 0 0.017750316439781436 -0.0027353889048124256 0 0.018324624056300528 -0.0028875493765881336 0 0.017983873556081907 -0.002720088863315236 0 0.018107342127420472 -0.0029548614343389325 0 0.018082369724461173 -0.0031896054379701492 0 0.018107342127420472 -0.0029548614343389325 0 0.017743979036278515 -0.0030275593200670644 0 0.017983873556081907 -0.002720088863315236 0 0.018107342127420472 -0.0029548614343389325 0 0.017743979036278515 -0.0030275593200670644 0 0.018082369724461173 -0.0031896054379701492 0 0.018320308742049259 -0.003145007734462045 0 0.018107342127420472 -0.0029548614343389325 0 0.017199665017549468 -0.0044987970140409729 0 0.016970125402066494 -0.0033282923856133707 0 0.017969072725966553 -0.0035181073887848064 0 0.010462477113794895 -0.0042776125670627285 0 0.0098592515781684761 -0.0044698305383412953 0 0.0087839642854212648 -0.0036575444121414243 0 0.0085559165765715078 -0.0038013302603253627 0 0.0084803489592333321 -0.0037720597248468344 0 0.0085559165765715078 -0.0038013302603253627 0 0.0084803489592333321 -0.0037720597248468344 0 0.0087044279750822864 -0.0035108474983197259 0 0.0084803489592333321 -0.0037720597248468344 0 0.0080373513033389059 -0.0033949786453083349 0 0.0077973138955188875 -0.0037003616871428132 0 0.0084803489592333321 -0.0037720597248468344 0 0.0080373513033389059 -0.0033949786453083349 0 0.0083580669002317406 -0.0033444062988296996 0 0.0080373513033389059 -0.0033949786453083349 0 0.0083580669002317406 -0.0033444062988296996 0 0.007940178088627764 -0.0030557185377385618 0 0.0083580669002317406 -0.0033444062988296996 0 0.0087044279750822864 -0.0035108474983197259 0 0.0087186112081172329 -0.0032952141943174422 0 0.0084803489592333321 -0.0037720597248468344 0 0.0083580669002317406 -0.0033444062988296996 0 0.0087044279750822864 -0.0035108474983197259 0 0.0090760740987849003 -0.0033993625502362636 0 0.0085559165765715078 -0.0038013302603253627 0 0.0087044279750822864 -0.0035108474983197259 0 0.012423778413118803 -0.002669958775030496 0 0.012914501105077122 -0.0030108148847010456 0 0.0087044279750822864 -0.0035108474983197259 0 0.0089517314083863327 -0.0033249636737683747 0 0.0087186112081172329 -0.0032952141943174422 0 0.0090760740987849003 -0.0033993625502362636 0 0.0087044279750822864 -0.0035108474983197259 0 0.0089517314083863327 -0.0033249636737683747 0 0.012423778413118803 -0.002669958775030496 0 0.011233075291294243 -0.0024802585879296238 0 0.0065777960838003819 -0.0041480823903632478 0 0.0070330635473702836 -0.0045432622577054656 0 0.006350864237672115 -0.0047417900358004191 0 0.0065777960838003819 -0.0041480823903632478 0 0.0070330635473702836 -0.0045432622577054656 0 0.007179058661371353 -0.0038627528259621157 0 0.0077148989641494838 -0.0048376012499313252 0 0.0084803489592333321 -0.0037720597248468344 0 0.0076327154071155218 -0.0041447287102479493 0 0.0070330635473702836 -0.0045432622577054656 0 0.0076327154071155218 -0.0041447287102479493 0 0.007179058661371353 -0.0038627528259621157 0 0.0077148989641494838 -0.0048376012499313252 0 0.0070330635473702836 -0.0045432622577054656 0 0.0076327154071155218 -0.0041447287102479493 0 0.0084803489592333321 -0.0037720597248468344 0 0.0076327154071155218 -0.0041447287102479493 0 0.0077973138955188875 -0.0037003616871428132 0 0.0080373513033389059 -0.0033949786453083349 0 0.0075388910203039216 -0.0033440749134621577 0 0.007940178088627764 -0.0030557185377385618 0 0.0080373513033389059 -0.0033949786453083349 0 0.0077973138955188875 -0.0037003616871428132 0 0.0075388910203039216 -0.0033440749134621577 0 0.0075388910203039216 -0.0033440749134621577 0 0.0069642717890798277 -0.0034889738087848384 0 0.0070837447394246971 -0.0031151626543000038 0 0.0075388910203039216 -0.0033440749134621577 0 0.007179058661371353 -0.0038627528259621157 0 0.0069642717890798277 -0.0034889738087848384 0 0.0077973138955188875 -0.0037003616871428132 0 0.0075388910203039216 -0.0033440749134621577 0 0.007179058661371353 -0.0038627528259621157 0 0.0076327154071155218 -0.0041447287102479493 0 0.0077973138955188875 -0.0037003616871428132 0 0.007179058661371353 -0.0038627528259621157 0 0.007179058661371353 -0.0038627528259621157 0 0.0069642717890798277 -0.0034889738087848384 0 0.0065735183383832654 -0.0036804724293331087 0 0.0069642717890798277 -0.0034889738087848384 0 0.0065735183383832654 -0.0036804724293331087 0 0.0064976908112708062 -0.0031566215363337505 0 0.0065735183383832654 -0.0036804724293331087 0 0.0064976908112708062 -0.0031566215363337505 0 0.0060374336130373666 -0.003432480625950216 0 0.0065777960838003819 -0.0041480823903632478 0 0.0065735183383832654 -0.0036804724293331087 0 0.0063369132998116239 -0.0038442866064948545 0 0.0065777960838003819 -0.0041480823903632478 0 0.007179058661371353 -0.0038627528259621157 0 0.0065735183383832654 -0.0036804724293331087 0 0.0064976908112708062 -0.0031566215363337505 0 0.0067965943199194169 -0.0026293095996082656 0 0.0061882106658763935 -0.0025789776790722356 0 0.0069642717890798277 -0.0034889738087848384 0 0.0064976908112708062 -0.0031566215363337505 0 0.0070837447394246971 -0.0031151626543000038 0 0.0070837447394246971 -0.0031151626543000038 0 0.0067965943199194169 -0.0026293095996082656 0 0.0074948483303415641 -0.0028456703884267931 0 0.0064976908112708062 -0.0031566215363337505 0 0.0070837447394246971 -0.0031151626543000038 0 0.0067965943199194169 -0.0026293095996082656 0 0.0053261524565598991 -0.0015636559503485372 0 0.0063657579458871703 -0.0019421141544329488 0 0.0074948483303415641 -0.0028456703884267931 0 0.0072883698932653257 -0.002204997234213182 0 0.0083124051385383754 -0.0026789858649734414 0 0.0067965943199194169 -0.0026293095996082656 0 0.0074948483303415641 -0.0028456703884267931 0 0.0072883698932653257 -0.002204997234213182 0 0.0075388910203039216 -0.0033440749134621577 0 0.0070837447394246971 -0.0031151626543000038 0 0.0074948483303415641 -0.0028456703884267931 0 0.0074948483303415641 -0.0028456703884267931 0 0.007940178088627764 -0.0030557185377385618 0 0.0083124051385383754 -0.0026789858649734414 0 0.0075388910203039216 -0.0033440749134621577 0 0.0074948483303415641 -0.0028456703884267931 0 0.007940178088627764 -0.0030557185377385618 0 0.0016473595341616903 -0.0009179504745517261 0 0.0023328819388610416 -0.0007543969222216305 0 0.0012734574093357343 -0.00029517374073699873 0 0.0016473595341616903 -0.0009179504745517261 0 0.0020182294768274875 -0.0014269656076244057 0 0.0011967833257657333 -0.0014598887185212901 0 0.0016473595341616903 -0.0009179504745517261 0 0.0020182294768274875 -0.0014269656076244057 0 0.0023328819388610416 -0.0007543969222216305 0 0.0067965943199194169 -0.0026293095996082656 0 0.0061882106658763935 -0.0025789776790722356 0 0.0061632545188229811 -0.0017411692362262229 0 0.0020182294768274875 -0.0014269656076244057 0 0.0023328819388610416 -0.0007543969222216305 0 0.0034207246301180853 -0.0010864015567041061 0 0.0053261524565598991 -0.0015636559503485372 0 0.0050605335695744699 -0.001484041255346765 0 0.0067965943199194169 -0.0026293095996082656 0 0.0072883698932653257 -0.002204997234213182 0 0.0061632545188229811 -0.0017411692362262229 0 0.011233075291294243 -0.0024802585879296238 0 0.0063657579458871703 -0.0019421141544329488 0 0.0081556503182523294 -0.0013067148210521449 0 0.0083896935142717469 -0.0014155973101241523 0 0.0081354605360641312 -0.0014740952839858411 0 0.0090513191448546651 -0.0033038542455514652 0 0.0087186112081172329 -0.0032952141943174422 0 0.0082321269334033106 -0.0028349481480619354 0 0.011827968392942711 -0.0024570598132066424 0 0.0088282951037050687 -0.0018023222072053072 0 0.0081102325527771333 -0.0013097550615769368 0 0.0081556503182523294 -0.0013067148210521449 0 0.0081354605360641312 -0.0014740952839858411 0 0.011827968392942711 -0.0024570598132066424 0 0.011233075291294243 -0.0024802585879296238 0 0.011167860441097585 -0.0023967035775689974 0 0.010881947260282651 -0.0011525543427844977 0 0.013389451452028267 -0.0022970481883610445 0 0.011233075291294243 -0.0024802585879296238 0 0.010946535553112433 -0.002515068435102177 0 0.0083580669002317406 -0.0033444062988296996 0 0.0087186112081172329 -0.0032952141943174422 0 0.0082321269334033106 -0.0028349481480619354 0 0.0083580669002317406 -0.0033444062988296996 0 0.007940178088627764 -0.0030557185377385618 0 0.0082321269334033106 -0.0028349481480619354 0 0.006456646362026074 -0.0019483719385192215 0 0.0063657579458871703 -0.0019421141544329488 0 0.0016473595341616903 -0.0009179504745517261 0 0.0012734574093357343 -0.00029517374073699873 0 0.0011967833257657333 -0.0014598887185212901 0 0.0063657579458871703 -0.0019421141544329488 0 0.0061810399837704767 -0.0018876165587487295 0 0.0012734574093357343 -0.00029517374073699873 0 0.0011967833257657333 -0.0014598887185212901 0 5.1315150509766291e-05 -0.0015121756307368746 0 0.0083896935142717469 -0.0014155973101241523 0 0.0081354605360641312 -0.0014740952839858411 0 0.0081641149478684245 -0.0016408253734420727 0 0.0088282951037050687 -0.0018023222072053072 0 0.0061810399837704767 -0.0018876165587487295 0 0.0068512447140406628 -0.00093722208090478226 0 0.0072082668698983873 -0.00068574044600960512 0 0.0073745562645343727 -0.0014038738727605196 0 5.1315150509766291e-05 -0.0015121756307368746 0 0.00078511212068257074 -0.002103721545306234 0 0.00043762366754952569 -0.0029438294218275319 0 0.00041293892569090951 -0.0027752978267161872 0 0.00031580509215251885 -0.0030270297336278396 0 0.00043762366754952569 -0.0029438294218275319 0 0.0061810399837704767 -0.0018876165587487295 0 0.0052590830595914328 -0.0018473868332496062 0 0.0011967833257657333 -0.0014598887185212901 0 5.1315150509766291e-05 -0.0015121756307368746 0 0.00078511212068257074 -0.002103721545306234 0 0.0013511395195419356 -0.0024468251065017329 0 0.00078511212068257074 -0.002103721545306234 0 0.00043762366754952569 -0.0029438294218275319 0 0.0020182294768274875 -0.0014269656076244057 0 0.0011967833257657333 -0.0014598887185212901 0 0.0013511395195419356 -0.0024468251065017329 0 0.0011967833257657333 -0.0014598887185212901 0 0.0013511395195419356 -0.0024468251065017329 0 0.00078511212068257074 -0.002103721545306234 0 0.0013511395195419356 -0.0024468251065017329 0 0.001377340829250734 -0.003294354068408088 0 0.0006126156129033026 -0.003378694021944463 0 0.0013511395195419356 -0.0024468251065017329 0 0.00043762366754952569 -0.0029438294218275319 0 0.0006126156129033026 -0.003378694021944463 0 0.00043762366754952569 -0.0029438294218275319 0 0.0006126156129033026 -0.003378694021944463 0 0.00027316473019831832 -0.0033416378894503933 0 0.00031580509215251885 -0.0030270297336278396 0 0.00043762366754952569 -0.0029438294218275319 0 0.00027316473019831832 -0.0033416378894503933 0 0.0020182294768274875 -0.0014269656076244057 0 0.0023431474205011828 -0.002045821747110725 0 0.0034207246301180853 -0.0010864015567041061 0 0.0023431474205011828 -0.002045821747110725 0 0.0029884880398306753 -0.0023526748745416408 0 0.0034207246301180853 -0.0010864015567041061 0 0.0029884880398306753 -0.0023526748745416408 0 0.0034207246301180853 -0.0010864015567041061 0 0.003739617777481277 -0.002116612214953567 0 0.0020182294768274875 -0.0014269656076244057 0 0.0013511395195419356 -0.0024468251065017329 0 0.0023431474205011828 -0.002045821747110725 0 0.0013511395195419356 -0.0024468251065017329 0 0.0023431474205011828 -0.002045821747110725 0 0.0021139527621503382 -0.0028345987945705906 0 0.0013511395195419356 -0.0024468251065017329 0 0.0021139527621503382 -0.0028345987945705906 0 0.001377340829250734 -0.003294354068408088 0 0.0023431474205011828 -0.002045821747110725 0 0.0021139527621503382 -0.0028345987945705906 0 0.0029884880398306753 -0.0023526748745416408 0 0.0021139527621503382 -0.0028345987945705906 0 0.0029148896276160372 -0.0031100937638709998 0 0.0029884880398306753 -0.0023526748745416408 0 0.0029148896276160372 -0.0031100937638709998 0 0.0029884880398306753 -0.0023526748745416408 0 0.003531140701391038 -0.0027453038216634371 0 0.002873710887890625 -0.0037542384983209206 0 0.0020921038328685446 -0.003876058667590482 0 0.0031933764226312728 -0.0043606056738975107 0 0.0021139527621503382 -0.0028345987945705906 0 0.0029148896276160372 -0.0031100937638709998 0 0.0020921038328685446 -0.003876058667590482 0 0.002873710887890625 -0.0037542384983209206 0 0.0031933764226312728 -0.0043606056738975107 0 0.0037244764965732378 -0.0035171040365642621 0 0.0029148896276160372 -0.0031100937638709998 0 0.002873710887890625 -0.0037542384983209206 0 0.0037244764965732378 -0.0035171040365642621 0 0.0029148896276160372 -0.0031100937638709998 0 0.002873710887890625 -0.0037542384983209206 0 0.0020921038328685446 -0.003876058667590482 0 0.001377340829250734 -0.003294354068408088 0 0.0020921038328685446 -0.003876058667590482 0 0.00089329801935362986 -0.0038598688832711444 0 0.0021139527621503382 -0.0028345987945705906 0 0.001377340829250734 -0.003294354068408088 0 0.0020921038328685446 -0.003876058667590482 0 0.0014414780225675526 -0.0042640462107603368 0 0.0025316687083139998 -0.0047833846616761365 0 0.0017106183636070075 -0.004984899602361214 0 0.0020921038328685446 -0.003876058667590482 0 0.0014414780225675526 -0.0042640462107603368 0 0.00089329801935362986 -0.0038598688832711444 0 0.0020921038328685446 -0.003876058667590482 0 0.0014414780225675526 -0.0042640462107603368 0 0.0025316687083139998 -0.0047833846616761365 0 0.0014414780225675526 -0.0042640462107603368 0 0.00060476256006871082 -0.0043385040339798528 0 0.0017106183636070075 -0.004984899602361214 0 0.0020921038328685446 -0.003876058667590482 0 0.0025316687083139998 -0.0047833846616761365 0 0.0031933764226312728 -0.0043606056738975107 0 0.0025316687083139998 -0.0047833846616761365 0 0.0031933764226312728 -0.0043606056738975107 0 0.0038959118759249122 -0.0049300309932507804 0 0.00029423537629243239 -0.0036911538048588731 0 0.0006126156129033026 -0.003378694021944463 0 0.00027316473019831832 -0.0033416378894503933 0 0.00042280821690265886 -0.0037816416706854487 0 0.00029423537629243239 -0.0036911538048588731 0 0.00023596771067877092 -0.0039398500841207173 0 0.00042280821690265886 -0.0037816416706854487 0 0.00029423537629243239 -0.0036911538048588731 0 0.0006126156129033026 -0.003378694021944463 0 0.001377340829250734 -0.003294354068408088 0 0.0006126156129033026 -0.003378694021944463 0 0.00089329801935362986 -0.0038598688832711444 0 0.00042280821690265886 -0.0037816416706854487 0 0.0006126156129033026 -0.003378694021944463 0 0.00089329801935362986 -0.0038598688832711444 0 0.00042280821690265886 -0.0037816416706854487 0 0.00089329801935362986 -0.0038598688832711444 0 0.00029157379138955284 -0.0041329593803133714 0 0.00089329801935362986 -0.0038598688832711444 0 0.00060476256006871082 -0.0043385040339798528 0 0.00029157379138955284 -0.0041329593803133714 0 0.0014414780225675526 -0.0042640462107603368 0 0.00089329801935362986 -0.0038598688832711444 0 0.00060476256006871082 -0.0043385040339798528 0 0.00060476256006871082 -0.0043385040339798528 0 0.00029157379138955284 -0.0041329593803133714 0 0.0001777413197606064 -0.0042123900093172075 0 0.00042280821690265886 -0.0037816416706854487 0 0.00029157379138955284 -0.0041329593803133714 0 0.00023596771067877092 -0.0039398500841207173 0 0.00029157379138955284 -0.0041329593803133714 0 0.00016871476451596276 -0.0040849565106577737 0 8.3204787168740291e-05 -0.0041165240473450609 0 0.00029157379138955284 -0.0041329593803133714 0 0.00023596771067877092 -0.0039398500841207173 0 0.00016871476451596276 -0.0040849565106577737 0 0.00016871476451596276 -0.0040849565106577737 0 0.00020665719635346055 -0.0040304243919827782 0 0.00020170432623466114 -0.0040571977829718248 0 0.00020665719635346055 -0.0040304243919827782 0 0.00030176213566906633 -0.0040955269982562706 0 0.00020170432623466114 -0.0040571977829718248 0 0.00023596771067877092 -0.0039398500841207173 0 0.00016871476451596276 -0.0040849565106577737 0 0.00020665719635346055 -0.0040304243919827782 0 0.00023596771067877092 -0.0039398500841207173 0 0.00020665719635346055 -0.0040304243919827782 0 0.00020539719740602657 -0.0037736354704379399 0 0.00029423537629243239 -0.0036911538048588731 0 0.00023596771067877092 -0.0039398500841207173 0 0.00020539719740602657 -0.0037736354704379399 0 0.00020539719740602657 -0.0037736354704379399 0 0.00016016615338391632 -0.003618645685751013 0 0.00018891977980519143 -0.0039039348739673524 0 0.00020665719635346055 -0.0040304243919827782 0 0.00020539719740602657 -0.0037736354704379399 0 0.00018891977980519143 -0.0039039348739673524 0 0.00020539719740602657 -0.0037736354704379399 0 0.00016016615338391632 -0.003618645685751013 0 0.00027316473019831832 -0.0033416378894503933 0 0.00029423537629243239 -0.0036911538048588731 0 0.00020539719740602657 -0.0037736354704379399 0 0.00027316473019831832 -0.0033416378894503933 0 0.00016016615338391632 -0.003618645685751013 0 6.5943752663315491e-05 -0.003824935343338145 0 0.00018891977980519143 -0.0039039348739673524 0 6.5943752663315491e-05 -0.003824935343338145 0 0.00018891977980519143 -0.0039039348739673524 0 0.00026459236423556393 -0.0040483950233793599 0 0.00020665719635346055 -0.0040304243919827782 0 0.00018891977980519143 -0.0039039348739673524 0 0.00026459236423556393 -0.0040483950233793599 0 0.00020665719635346055 -0.0040304243919827782 0 0.00026459236423556393 -0.0040483950233793599 0 0.00030176213566906633 -0.0040955269982562706 0 0.00026459236423556393 -0.0040483950233793599 0 0.00045687767149069834 -0.0041621216100633796 0 0.00030176213566906633 -0.0040955269982562706 0 6.5943752663315491e-05 -0.003824935343338145 0 0.00026459236423556393 -0.0040483950233793599 0 0.00044982741525591443 -0.0041954236657602015 0 0.00041327950231534168 -0.0064556691128521537 0 0.00080175044616363029 -0.0055660459174798095 0 0.0010663636655169977 -0.0058211602486795567 0 0.00026459236423556393 -0.0040483950233793599 0 0.00044982741525591443 -0.0041954236657602015 0 0.00045687767149069834 -0.0041621216100633796 0 0.00080175044616363029 -0.0055660459174798095 0 0.0010663636655169977 -0.0058211602486795567 0 0.0019521298076289862 -0.0050634522379966436 0 0.0044964142672274292 -0.0038352226039218033 0 0.0039252634268834184 -0.0039505552841773471 0 0.0036989027767020096 -0.004325091460797386 0 0.0028952783528152018 -0.004389528222442058 0 0.0029260051615797433 -0.0044419705232205311 0 0.0044964142672274292 -0.0038352226039218033 0 0.0039252634268834184 -0.0039505552841773471 0 0.0041977989005654798 -0.0035422517984148925 0 0.0039252634268834184 -0.0039505552841773471 0 0.0037803835196835926 -0.0035401165181277597 0 0.0041977989005654798 -0.0035422517984148925 0 0.0096030229031663621 -0.0042598280667000988 0 0.0099841516173030751 -0.0040878990239997387 0 0.0037803835196835926 -0.0035401165181277597 0 0.0043973114723956808 -0.0031558188596585786 0 0.0046497191603156428 -0.0024817915942516255 0 0.015300319742527668 -0.0052013615084952457 0 0.014748208681215506 -0.0059386238482609923 0 0.015280692326077774 -0.0057615265077134914 0 0.0037803835196835926 -0.0035401165181277597 0 0.0041977989005654798 -0.0035422517984148925 0 0.0043973114723956808 -0.0031558188596585786 0 0.0044964142672274292 -0.0038352226039218033 0 0.0041977989005654798 -0.0035422517984148925 0 0.0043973114723956808 -0.0031558188596585786 0 0.0053501310098512771 -0.0031539907609166077 0 0.0044964142672274292 -0.0038352226039218033 0 0.0043973114723956808 -0.0031558188596585786 0 0.0053501310098512771 -0.0031539907609166077 0 0.0043973114723956808 -0.0031558188596585786 0 0.0047506315025779367 -0.0028588529159918733 0 0.0032209634078979505 -0.0038542809178100418 0 0.002028896990759285 -0.0046877298128920816 0 0.0032209634078979505 -0.0038542809178100418 0 0.0028952783528152018 -0.004389528222442058 0 0.0053501310098512771 -0.0031539907609166077 0 0.0050279859514842989 -0.0026523530568333714 0 0.0054632856295124483 -0.0024691173241831363 0 0.0053501310098512771 -0.0031539907609166077 0 0.0050279859514842989 -0.0026523530568333714 0 0.0047506315025779367 -0.0028588529159918733 0 0.0050279859514842989 -0.0026523530568333714 0 0.0047506315025779367 -0.0028588529159918733 0 0.0046497191603156428 -0.0024817915942516255 0 0.0043973114723956808 -0.0031558188596585786 0 0.0047506315025779367 -0.0028588529159918733 0 0.0046497191603156428 -0.0024817915942516255 0 0.0050279859514842989 -0.0026523530568333714 0 0.0046497191603156428 -0.0024817915942516255 0 0.0050080659361566885 -0.0022921256198391977 0 0.0050279859514842989 -0.0026523530568333714 0 0.0050080659361566885 -0.0022921256198391977 0 0.0054632856295124483 -0.0024691173241831363 0 0.0050080659361566885 -0.0022921256198391977 0 0.0054016088896170896 -0.0022180099512035369 0 0.0054632856295124483 -0.0024691173241831363 0 0.014748208681215506 -0.0059386238482609923 0 0.015280692326077774 -0.0057615265077134914 0 0.01503322201844827 -0.0060769689338228934 0 0.014748208681215506 -0.0059386238482609923 0 0.01503322201844827 -0.0060769689338228934 0 0.014772055669029449 -0.0062768540096658221 0 0.015280692326077774 -0.0057615265077134914 0 0.01503322201844827 -0.0060769689338228934 0 0.015300810059542378 -0.0060802707889338631 0 0.015091844894649467 -0.0062992929275445227 0 0.015476952662198637 -0.0062916324925702443 0 0.01534693505502943 -0.0065383395537041119 0 0.015300810059542378 -0.0060802707889338631 0 0.015091844894649467 -0.0062992929275445227 0 0.015476952662198637 -0.0062916324925702443 0 0.01503322201844827 -0.0060769689338228934 0 0.015300810059542378 -0.0060802707889338631 0 0.015091844894649467 -0.0062992929275445227 0 0.01503322201844827 -0.0060769689338228934 0 0.015091844894649467 -0.0062992929275445227 0 0.014772055669029449 -0.0062768540096658221 0 0.015091844894649467 -0.0062992929275445227 0 0.014772055669029449 -0.0062768540096658221 0 0.014789430281339557 -0.0065426269570538903 0 0.015091844894649467 -0.0062992929275445227 0 0.015087560888058212 -0.0066311835184305924 0 0.014789430281339557 -0.0065426269570538903 0 0.015091844894649467 -0.0062992929275445227 0 0.015087560888058212 -0.0066311835184305924 0 0.01534693505502943 -0.0065383395537041119 0 0.014177455228819294 -0.0066544095185538587 0 0.014772055669029449 -0.0062768540096658221 0 0.014789430281339557 -0.0065426269570538903 0 0.011181665367967492 -0.003018369220479 0 0.0099841516173030751 -0.0040878990239997387 0 0.014177455228819294 -0.0066544095185538587 0 0.014748208681215506 -0.0059386238482609923 0 0.014772055669029449 -0.0062768540096658221 0 0.0050080659361566885 -0.0022921256198391977 0 0.0057146523978883002 -0.0014189915912183053 0 0.0055113325335104102 -0.0019759255123811656 0 0.0057707589423724769 -0.0011909757650110941 0 0.0046497191603156428 -0.0024817915942516255 0 0.0050080659361566885 -0.0022921256198391977 0 0.0091777986564143457 -0.0033290346013243721 0 0.010730338770252599 -0.002719412349515228 0 0.0050080659361566885 -0.0022921256198391977 0 0.0054016088896170896 -0.0022180099512035369 0 0.0055113325335104102 -0.0019759255123811656 0 0.0057146523978883002 -0.0014189915912183053 0 0.0057826895686660176 -0.001757253635538926 0 0.0055113325335104102 -0.0019759255123811656 0 0.0057707589423724769 -0.0011909757650110941 0 0.0050080659361566885 -0.0022921256198391977 0 0.0059088504377296921 -0.0012541770077904642 0 0.0057146523978883002 -0.0014189915912183053 0 0.0057826895686660176 -0.001757253635538926 0 0.0059380184235048915 -0.001646414096415162 0 0.0056281465745794436 -0.0021341132434144509 0 0.0061262731255232288 -0.0018726334180819133 0 0.0054632856295124483 -0.0024691173241831363 0 0.0057826895686660176 -0.001757253635538926 0 0.0055113325335104102 -0.0019759255123811656 0 0.0057803411619609052 -0.0019524123463674175 0 0.0055113325335104102 -0.0019759255123811656 0 0.0057803411619609052 -0.0019524123463674175 0 0.0056281465745794436 -0.0021341132434144509 0 0.0054016088896170896 -0.0022180099512035369 0 0.0055113325335104102 -0.0019759255123811656 0 0.0056281465745794436 -0.0021341132434144509 0 0.0057803411619609052 -0.0019524123463674175 0 0.0056281465745794436 -0.0021341132434144509 0 0.0061262731255232288 -0.0018726334180819133 0 0.0057803411619609052 -0.0019524123463674175 0 0.0059147086118318797 -0.0018418033643125956 0 0.0061262731255232288 -0.0018726334180819133 0 0.0057826895686660176 -0.001757253635538926 0 0.0057803411619609052 -0.0019524123463674175 0 0.0059147086118318797 -0.0018418033643125956 0 0.0059147086118318797 -0.0018418033643125956 0 0.0061262731255232288 -0.0018726334180819133 0 0.0059906028586114634 -0.0017423513411717276 0 0.0058182447746361072 -0.001441188813167219 0 0.0061955299439009478 -0.0014436677495004099 0 0.0062702883016067116 -0.0016631464381911909 0 0.0057146523978883002 -0.0014189915912183053 0 0.0059380184235048915 -0.001646414096415162 0 0.0062702883016067116 -0.0016631464381911909 0 0.0059906028586114634 -0.0017423513411717276 0 0.0059380184235048915 -0.001646414096415162 0 0.0062702883016067116 -0.0016631464381911909 0 0.0061262731255232288 -0.0018726334180819133 0 0.0059906028586114634 -0.0017423513411717276 0 0.0062702883016067116 -0.0016631464381911909 0 0.010730338770252599 -0.002719412349515228 0 0.0099581571849157551 -0.0024113134272322825 0 0.0057826895686660176 -0.001757253635538926 0 0.0059906028586114634 -0.0017423513411717276 0 0.0059380184235048915 -0.001646414096415162 0 0.0057826895686660176 -0.001757253635538926 0 0.0059147086118318797 -0.0018418033643125956 0 0.0059906028586114634 -0.0017423513411717276 0 0.0073745562645343727 -0.0014038738727605196 0 0.0066592664317954887 -0.0017103809807421501 0 0.0064163832948018118 -0.002386952738627727 0 0.0064443161786167241 -0.0014085423579326226 0 0.0061955299439009478 -0.0014436677495004099 0 0.0062702883016067116 -0.0016631464381911909 0 0.006764714418909485 -0.0013084777174201651 0 0.0064443161786167241 -0.0014085423579326226 0 0.0066592664317954887 -0.0017103809807421501 0 0.00041293892569090951 -0.0027752978267161872 0 0.00031580509215251885 -0.0030270297336278396 0 0.00011869632712982414 -0.0031687428684668562 0 0.0064443161786167241 -0.0014085423579326226 0 0.0066592664317954887 -0.0017103809807421501 0 0.0062702883016067116 -0.0016631464381911909 0 0.0061810399837704767 -0.0018876165587487295 0 0.0041300999077424922 -0.0031021862593429775 0 0.0061262731255232288 -0.0018726334180819133 0 0.0062702883016067116 -0.0016631464381911909 0 0.0063678263277510104 -0.0019048239027173387 0 0.0066592664317954887 -0.0017103809807421501 0 0.0062702883016067116 -0.0016631464381911909 0 0.0063678263277510104 -0.0019048239027173387 0 0.006764714418909485 -0.0013084777174201651 0 0.0073745562645343727 -0.0014038738727605196 0 0.0066592664317954887 -0.0017103809807421501 0 0.0066592664317954887 -0.0017103809807421501 0 0.0063678263277510104 -0.0019048239027173387 0 0.0064163832948018118 -0.002386952738627727 0 0.0061262731255232288 -0.0018726334180819133 0 0.0063678263277510104 -0.0019048239027173387 0 0.0064163832948018118 -0.002386952738627727 0 0.00031580509215251885 -0.0030270297336278396 0 0.00011869632712982414 -0.0031687428684668562 0 0.00027316473019831832 -0.0033416378894503933 0 0.00016016615338391632 -0.003618645685751013 0 0.00011869632712982414 -0.0031687428684668562 0 0.00027316473019831832 -0.0033416378894503933 0 0.0052703338828299908 -0.0034916927418133796 0 0.0061262731255232288 -0.0018726334180819133 0 0.0064163832948018118 -0.002386952738627727 0 0.0032209634078979505 -0.0038542809178100418 0 0.0041300999077424922 -0.0031021862593429775 0 0.00016016615338391632 -0.003618645685751013 0 6.5943752663315491e-05 -0.003824935343338145 0 0.00011869632712982414 -0.0031687428684668562 0 0.0032209634078979505 -0.0038542809178100418 0 0.0044858167327452595 -0.0024084752304223017 0 0.0053501310098512771 -0.0031539907609166077 0 0.0061262731255232288 -0.0018726334180819133 0 0.0054632856295124483 -0.0024691173241831363 0 0.0054016088896170896 -0.0022180099512035369 0 0.0056281465745794436 -0.0021341132434144509 0 0.0054632856295124483 -0.0024691173241831363 0 0.015007243156952258 1.0023264883252127e-06 0 0.01442986116793527 -8.8715332324486079e-05 0 0.013120875547709621 -1.2571452231699811e-06 0 0.013750246812022488 -0.00017317023060332116 0 0.01442986116793527 -8.8715332324486079e-05 0 0.013120875547709621 -1.2571452231699811e-06 0 0.013750246812022488 -0.00017317023060332116 0 0.013668799144517334 -0.00011035006201840334 0 0.012944038374459687 -0.0004477329617418931 0 0.013750246812022488 -0.00017317023060332116 0 0.013668799144517334 -0.00011035006201840334 0 0.01442986116793527 -8.8715332324486079e-05 0 0.014169013964665612 0.00038314664607591261 0 0.01442986116793527 -8.8715332324486079e-05 0 0.015784490045624211 0.00058985214529141473 0 0.013668799144517334 -0.00011035006201840334 0 0.014169013964665612 0.00038314664607591261 0 0.01442986116793527 -8.8715332324486079e-05 0 0.015007243156952258 1.0023264883252127e-06 0 0.01442986116793527 -8.8715332324486079e-05 0 0.015784490045624211 0.00058985214529141473 0 0.015007243156952258 1.0023264883252127e-06 0 0.016762848638424283 0.00016758667937277199 0 0.016892988315931678 7.656049524929306e-08 0 0.015007243156952258 1.0023264883252127e-06 0 0.016762848638424283 0.00016758667937277199 0 0.015784490045624211 0.00058985214529141473 0 0.018008004970699359 -0.00014992824341253109 0 0.016762848638424283 0.00016758667937277199 0 0.016892988315931678 7.656049524929306e-08 0 0.018008004970699359 -0.00014992824341253109 0 0.016762848638424283 0.00016758667937277199 0 0.017759224389638593 8.4855082260526349e-06 0 0.017759224389638593 8.4855082260526349e-06 0 0.015784490045624211 0.00058985214529141473 0 0.018754101492249178 0.00084094440744127846 0 0.014169013964665612 0.00038314664607591261 0 0.015784490045624211 0.00058985214529141473 0 0.013175171487622371 0.0011101515654181654 0 0.016762848638424283 0.00016758667937277199 0 0.017759224389638593 8.4855082260526349e-06 0 0.015784490045624211 0.00058985214529141473 0 0.015855433467165954 0.0003459835509663406 0 0.015798160531081958 0.00026078152628885285 0 0.014169013964665612 0.00038314664607591261 0 0.013175171487622371 0.0011101515654181654 0 0.012302070993848122 0.00057678096434296046 0 0.018979874200699225 -0.00032316725542110475 0 0.017759224389638593 8.4855082260526349e-06 0 0.018673564685638976 5.5273922228383935e-05 0 0.018754101492249178 0.00084094440744127846 0 0.018673564685638976 5.5273922228383935e-05 0 0.019270082656946238 -5.0331328590659283e-05 0 0.018979874200699225 -0.00032316725542110475 0 0.018673564685638976 5.5273922228383935e-05 0 0.019270082656946238 -5.0331328590659283e-05 0 0.017759224389638593 8.4855082260526349e-06 0 0.018754101492249178 0.00084094440744127846 0 0.018673564685638976 5.5273922228383935e-05 0 0.019270082656946238 -5.0331328590659283e-05 0 0.019668174283689343 0.00041982231577214848 0 0.019726441619297524 2.3117491620802535e-05 0 0.019785954072647684 -0.00023238378170451255 0 0.019270082656946238 -5.0331328590659283e-05 0 0.019726441619297524 2.3117491620802535e-05 0 0.015798160531081958 0.00026078152628885285 0 0.015609676609543179 -0.00011823029817134606 0 0.012302070993848122 0.00057678096434296046 0 0.011321462691182041 0.00015137883416747159 0 0.011615981378210957 0.001123907913462118 0 0.013175171487622371 0.0011101515654181654 0 0.012302070993848122 0.00057678096434296046 0 0.011615981378210957 0.001123907913462118 0 0.018754101492249178 0.00084094440744127846 0 0.019270082656946238 -5.0331328590659283e-05 0 0.019668174283689343 0.00041982231577214848 0 0.01215433461747736 -0.00039016390446535332 0 0.012302070993848122 0.00057678096434296046 0 0.011321462691182041 0.00015137883416747159 0 0.013199135980525476 7.5422938760237999e-05 0 0.012550146228954969 -0.00023060276840244126 0 0.014169013964665612 0.00038314664607591261 0 0.01215433461747736 -0.00039016390446535332 0 0.012302070993848122 0.00057678096434296046 0 0.013668799144517334 -0.00011035006201840334 0 0.014169013964665612 0.00038314664607591261 0 0.012272741423684223 -5.9649412887186468e-05 0 0.013668799144517334 -0.00011035006201840334 0 0.012272741423684223 -5.9649412887186468e-05 0 0.012944038374459687 -0.0004477329617418931 0 0.012272741423684223 -5.9649412887186468e-05 0 0.012123601355752241 -0.00038871778558941504 0 0.012230822463343852 -0.00040270784999252301 0 0.012272741423684223 -5.9649412887186468e-05 0 0.012415039388778224 -0.00043205694707640325 0 0.012230822463343852 -0.00040270784999252301 0 0.012272741423684223 -5.9649412887186468e-05 0 0.012944038374459687 -0.0004477329617418931 0 0.012415039388778224 -0.00043205694707640325 0 0.01215433461747736 -0.00039016390446535332 0 0.010576705344428712 -0.001123673632600862 0 0.011106613717388169 -0.00032519022962557647 0 0.012550146228954969 -0.00023060276840244126 0 0.012585692874994423 -0.00027409649319054557 0 0.012272741423684223 -5.9649412887186468e-05 0 0.012014247594726534 -0.00032513367128357931 0 0.012123601355752241 -0.00038871778558941504 0 0.010576705344428712 -0.001123673632600862 0 0.010393258634862051 5.4527246085473059e-05 0 0.011106613717388169 -0.00032519022962557647 0 0.012007574069926695 -0.00087722207197275521 0 0.012598862613844415 -0.0014317091976191537 0 0.012585692874994423 -0.00027409649319054557 0 0.01426537642164873 -0.00030989661827635848 0 0.019446177755852691 0.0006504755868436561 0 0.019548692858509284 0.00070228599358186877 0 0.019562629730833572 0.00026737478347159643 0 0.019548692858509284 0.00070228599358186877 0 0.019562629730833572 0.00026737478347159643 0 0.019844668911095046 0.00029702316849107417 0 0.012585692874994423 -0.00027409649319054557 0 0.012007574069926695 -0.00087722207197275521 0 0.019562629730833572 0.00026737478347159643 0 0.019805045624348403 8.7783071195600044e-05 0 0.019844668911095046 0.00029702316849107417 0 0.010393258634862051 5.4527246085473059e-05 0 0.011106613717388169 -0.00032519022962557647 0 0.011321462691182041 0.00015137883416747159 0 0.010393258634862051 5.4527246085473059e-05 0 0.011321462691182041 0.00015137883416747159 0 0.010874678162273031 0.000584857770182722 0 0.01215433461747736 -0.00039016390446535332 0 0.011106613717388169 -0.00032519022962557647 0 0.011321462691182041 0.00015137883416747159 0 0.011321462691182041 0.00015137883416747159 0 0.010874678162273031 0.000584857770182722 0 0.011615981378210957 0.001123907913462118 0 0.019668174283689343 0.00041982231577214848 0 0.019842882707978127 9.8938077924177684e-05 0 0.019973123322244823 8.4454892804927442e-05 0 0.015609676609543179 -0.00011823029817134606 0 0.015780096750638486 -0.00098147282057315299 0 0.010874678162273031 0.000584857770182722 0 0.011615981378210957 0.001123907913462118 0 0.010227332940844767 0.0012265917316906143 0 0.019668174283689343 0.00041982231577214848 0 0.019726441619297524 2.3117491620802535e-05 0 0.019842882707978127 9.8938077924177684e-05 0 0.019726441619297524 2.3117491620802535e-05 0 0.019842882707978127 9.8938077924177684e-05 0 0.019883071524680163 -7.8424897947986739e-05 0 0.019785954072647684 -0.00023238378170451255 0 0.019726441619297524 2.3117491620802535e-05 0 0.019883071524680163 -7.8424897947986739e-05 0 0.019954483963848951 -0.00023272895964529091 0 0.019883071524680163 -7.8424897947986739e-05 0 0.019956785187667258 -0.00012459851827624914 0 0.019883071524680163 -7.8424897947986739e-05 0 0.019956785187667258 -0.00012459851827624914 0 0.019957502700489786 -1.8199944875730747e-05 0 0.019842882707978127 9.8938077924177684e-05 0 0.019957502700489786 -1.8199944875730747e-05 0 0.019973123322244823 8.4454892804927442e-05 0 0.019842882707978127 9.8938077924177684e-05 0 0.019883071524680163 -7.8424897947986739e-05 0 0.019957502700489786 -1.8199944875730747e-05 0 0.019956785187667258 -0.00012459851827624914 0 0.019957502700489786 -1.8199944875730747e-05 0 0.01995328480322206 -0.00011037478630742958 0 0.01426537642164873 -0.00030989661827635848 0 0.015780096750638486 -0.00098147282057315299 0 0.019957502700489786 -1.8199944875730747e-05 0 0.019959221133486447 -7.5062154129507396e-05 0 0.019877383165399297 -6.2612375607797418e-05 0 0.019679085655274948 -6.5899681674468582e-05 0 0.019805045624348403 8.7783071195600044e-05 0 0.019877383165399297 -6.2612375607797418e-05 0 0.015780096750638486 -0.00098147282057315299 0 0.016250801486280827 -0.00098957170957483256 0 0.019562629730833572 0.00026737478347159643 0 0.019679085655274948 -6.5899681674468582e-05 0 0.019805045624348403 8.7783071195600044e-05 0 0.010393258634862051 5.4527246085473059e-05 0 0.010874678162273031 0.000584857770182722 0 0.010227332940844767 0.0012265917316906143 0 0.015839059590409838 -0.00095221008125265661 0 0.015780096750638486 -0.00098147282057315299 0 0.019805045624348403 8.7783071195600044e-05 0 0.020033176098691794 -4.1602427615123296e-05 0 0.019844668911095046 0.00029702316849107417 0 0.019805045624348403 8.7783071195600044e-05 0 0.019877383165399297 -6.2612375607797418e-05 0 0.020033176098691794 -4.1602427615123296e-05 0 0.013032992781021064 -0.0018735943839900601 0 0.012598862613844415 -0.0014317091976191537 0 0.019877383165399297 -6.2612375607797418e-05 0 0.020005853663682755 -0.00014742954968936889 0 0.01995328480322206 -0.00011037478630742958 0 0.019957502700489786 -1.8199944875730747e-05 0 0.019877383165399297 -6.2612375607797418e-05 0 0.01995328480322206 -0.00011037478630742958 0 0.019877383165399297 -6.2612375607797418e-05 0 0.020005853663682755 -0.00014742954968936889 0 0.020033176098691794 -4.1602427615123296e-05 0 0.019988768837094228 -0.00019388897107723671 0 0.019956785187667258 -0.00012459851827624914 0 0.01995328480322206 -0.00011037478630742958 0 0.019988768837094228 -0.00019388897107723671 0 0.020005853663682755 -0.00014742954968936889 0 0.01995328480322206 -0.00011037478630742958 0 0.013424065713686715 -0.002167795375093695 0 0.013032992781021064 -0.0018735943839900601 0 0.020005853663682755 -0.00014742954968936889 0 0.0200817491507429 -0.00021480251023038889 0 0.020033176098691794 -4.1602427615123296e-05 0 0.006350864237672115 -0.0047417900358004191 0 0.0061355211314583751 -0.0040789521479590056 0 0.0059096856704639027 -0.0038452089531434228 0 0.020028926087765062 -0.00025098707003527574 0 0.020005853663682755 -0.00014742954968936889 0 0.0200817491507429 -0.00021480251023038889 0 0.0065777960838003819 -0.0041480823903632478 0 0.006350864237672115 -0.0047417900358004191 0 0.0061355211314583751 -0.0040789521479590056 0 0.0061355211314583751 -0.0040789521479590056 0 0.0063369132998116239 -0.0038442866064948545 0 0.0060374336130373666 -0.003432480625950216 0 0.0061355211314583751 -0.0040789521479590056 0 0.0060374336130373666 -0.003432480625950216 0 0.0051593883974481274 -0.0028074927776685957 0 0.0061355211314583751 -0.0040789521479590056 0 0.0059096856704639027 -0.0038452089531434228 0 0.0058829265909564618 -0.0030609806934184724 0 0.0065777960838003819 -0.0041480823903632478 0 0.0061355211314583751 -0.0040789521479590056 0 0.0063369132998116239 -0.0038442866064948545 0 0.0071670785916827465 -0.0027181658754066593 0 0.0074457391388720057 -0.0020636103986637175 0 0.0065735183383832654 -0.0036804724293331087 0 0.0063369132998116239 -0.0038442866064948545 0 0.0060374336130373666 -0.003432480625950216 0 0.0064976908112708062 -0.0031566215363337505 0 0.0060374336130373666 -0.003432480625950216 0 0.0058887055506341062 -0.0028775744819338699 0 0.0064976908112708062 -0.0031566215363337505 0 0.0058887055506341062 -0.0028775744819338699 0 0.0061882106658763935 -0.0025789776790722356 0 0.0058887055506341062 -0.0028775744819338699 0 0.0061882106658763935 -0.0025789776790722356 0 0.005540456978442917 -0.0024032778960284039 0 0.0058887055506341062 -0.0028775744819338699 0 0.0051593883974481274 -0.0028074927776685957 0 0.005540456978442917 -0.0024032778960284039 0 0.0060374336130373666 -0.003432480625950216 0 0.0058887055506341062 -0.0028775744819338699 0 0.0051593883974481274 -0.0028074927776685957 0 0.0059096856704639027 -0.0038452089531434228 0 0.0056649042931887364 -0.00303002763000887 0 0.0058829265909564618 -0.0030609806934184724 0 0.0074457391388720057 -0.0020636103986637175 0 0.009280811865491059 -0.0012509310345209079 0 0.0051593883974481274 -0.0028074927776685957 0 0.0047431865927131979 -0.0018851471692739 0 0.005540456978442917 -0.0024032778960284039 0 0.0053551903076652242 -0.002387540830184701 0 0.0058829265909564618 -0.0030609806934184724 0 0.0055891970840697075 -0.0022691113924032036 0 0.0047431865927131979 -0.0018851471692739 0 0.0053783340416271403 -0.0019217464847744827 0 0.005540456978442917 -0.0024032778960284039 0 0.0051593883974481274 -0.0028074927776685957 0 0.0047431865927131979 -0.0018851471692739 0 0.0043846095712870344 -0.0014412541718250879 0 0.0053551903076652242 -0.002387540830184701 0 0.0056649042931887364 -0.00303002763000887 0 0.0058829265909564618 -0.0030609806934184724 0 0.0047431865927131979 -0.0018851471692739 0 0.0050007985306870098 -0.0017593535163053699 0 0.0053783340416271403 -0.0019217464847744827 0 0.0047431865927131979 -0.0018851471692739 0 0.0050007985306870098 -0.0017593535163053699 0 0.0047317754098899333 -0.0015098851885671238 0 0.0050007985306870098 -0.0017593535163053699 0 0.0053783340416271403 -0.0019217464847744827 0 0.0048345738701821902 -0.0015038068098647134 0 0.0053783340416271403 -0.0019217464847744827 0 0.0061632545188229811 -0.0017411692362262229 0 0.0048345738701821902 -0.0015038068098647134 0 0.0061882106658763935 -0.0025789776790722356 0 0.0061632545188229811 -0.0017411692362262229 0 0.005540456978442917 -0.0024032778960284039 0 0.0053783340416271403 -0.0019217464847744827 0 0.0061632545188229811 -0.0017411692362262229 0 0.005540456978442917 -0.0024032778960284039 0 0.0034207246301180853 -0.0010864015567041061 0 0.0042390222336968139 -0.0018108935074387194 0 0.003739617777481277 -0.002116612214953567 0 0.0050605335695744699 -0.001484041255346765 0 0.0050294500522166429 -0.0014846843790650203 0 0.0034207246301180853 -0.0010864015567041061 0 0.0042390222336968139 -0.0018108935074387194 0 0.0048345738701821902 -0.0015038068098647134 0 0.0042390222336968139 -0.0018108935074387194 0 0.0048071959925590447 -0.0016803992366449577 0 0.004300896811148933 -0.0026328812891002087 0 0.0042390222336968139 -0.0018108935074387194 0 0.003739617777481277 -0.002116612214953567 0 0.004300896811148933 -0.0026328812891002087 0 0.0042390222336968139 -0.0018108935074387194 0 0.0048345738701821902 -0.0015038068098647134 0 0.0048071959925590447 -0.0016803992366449577 0 0.0051884332509878053 -0.0014889075758274524 0 0.0048071959925590447 -0.0016803992366449577 0 0.0052592531955462547 -0.0030131974854865681 0 0.0050007985306870098 -0.0017593535163053699 0 0.0048345738701821902 -0.0015038068098647134 0 0.0047317754098899333 -0.0015098851885671238 0 0.0048345738701821902 -0.0015038068098647134 0 0.0047317754098899333 -0.0015098851885671238 0 0.0048071959925590447 -0.0016803992366449577 0 0.0082568919908055389 -0.0012486602897936242 0 0.0080280126834730015 -0.0013388810367955504 0 0.0081057160199182153 -0.001272550483662076 0 0.0082568919908055389 -0.0012486602897936242 0 0.0047431865927131979 -0.0018851471692739 0 0.0043846095712870344 -0.0014412541718250879 0 0.0046473653422400571 -0.0013076905175069533 0 0.009280811865491059 -0.0012509310345209079 0 0.0082568919908055389 -0.0012486602897936242 0 0.0048071959925590447 -0.0016803992366449577 0 0.0052592531955462547 -0.0030131974854865681 0 0.004300896811148933 -0.0026328812891002087 0 0.0082568919908055389 -0.0012486602897936242 0 0.0074476920713080104 -0.0016672839798708844 0 0.0052592531955462547 -0.0030131974854865681 0 0.004300896811148933 -0.0026328812891002087 0 0.0045973634548547634 -0.0036729047698696102 0 0.003739617777481277 -0.002116612214953567 0 0.004300896811148933 -0.0026328812891002087 0 0.003531140701391038 -0.0027453038216634371 0 0.0029884880398306753 -0.0023526748745416408 0 0.003739617777481277 -0.002116612214953567 0 0.003531140701391038 -0.0027453038216634371 0 0.0029148896276160372 -0.0031100937638709998 0 0.003531140701391038 -0.0027453038216634371 0 0.0037244764965732378 -0.0035171040365642621 0 0.004300896811148933 -0.0026328812891002087 0 0.003531140701391038 -0.0027453038216634371 0 0.0037244764965732378 -0.0035171040365642621 0 0.004300896811148933 -0.0026328812891002087 0 0.0037244764965732378 -0.0035171040365642621 0 0.0045973634548547634 -0.0036729047698696102 0 0.0037244764965732378 -0.0035171040365642621 0 0.0039615603165380313 -0.0042348920633394687 0 0.0045973634548547634 -0.0036729047698696102 0 0.0031933764226312728 -0.0043606056738975107 0 0.0037244764965732378 -0.0035171040365642621 0 0.0039615603165380313 -0.0042348920633394687 0 0.0031933764226312728 -0.0043606056738975107 0 0.0039615603165380313 -0.0042348920633394687 0 0.0038959118759249122 -0.0049300309932507804 0 0.0039615603165380313 -0.0042348920633394687 0 0.0038959118759249122 -0.0049300309932507804 0 0.004653769645592643 -0.0043504196893625171 0 0.0047233876673308632 -0.0049060000418901092 0 0.004653769645592643 -0.0043504196893625171 0 0.0053935796116372208 -0.0044443749966791351 0 0.0047233876673308632 -0.0049060000418901092 0 0.0053935796116372208 -0.0044443749966791351 0 0.0054709325035488818 -0.0049842844369764336 0 0.0038959118759249122 -0.0049300309932507804 0 0.0047233876673308632 -0.0049060000418901092 0 0.004653769645592643 -0.0043504196893625171 0 0.0039615603165380313 -0.0042348920633394687 0 0.004653769645592643 -0.0043504196893625171 0 0.0045973634548547634 -0.0036729047698696102 0 0.004653769645592643 -0.0043504196893625171 0 0.0045973634548547634 -0.0036729047698696102 0 0.005406271747279463 -0.0044585291651605798 0 0.005843625047662864 -0.0020894070261745666 0 0.0060210877861176636 -0.0019638520791079223 0 0.0052592531955462547 -0.0030131974854865681 0 0.0045973634548547634 -0.0036729047698696102 0 0.005406271747279463 -0.0044585291651605798 0 0.0074476920713080104 -0.0016672839798708844 0 0.0060210877861176636 -0.0019638520791079223 0 0.011932042426215291 -0.00020572313290818949 0 0.011962150909073451 -0.00021283543062525359 0 0.01196415543057512 -0.00022880965307781975 0 0.011932042426215291 -0.00020572313290818949 0 0.01196415543057512 -0.00022880965307781975 0 0.011934311360018861 -0.0002665165186199732 0 0.011962150909073451 -0.00021283543062525359 0 0.011988229990372369 -0.0002122314263005691 0 0.01196415543057512 -0.00022880965307781975 0 0.011988229990372369 -0.0002122314263005691 0 0.011942508724188243 -0.00023621532495923854 0 0.011977124343827418 -0.00021411771118489184 0 0.011962150909073451 -0.00021283543062525359 0 0.011988229990372369 -0.0002122314263005691 0 0.011977124343827418 -0.00021411771118489184 0 0.011988229990372369 -0.0002122314263005691 0 0.01196415543057512 -0.00022880965307781975 0 0.012037530141060203 -0.00020953562158514675 0 0.01196415543057512 -0.00022880965307781975 0 0.011934311360018861 -0.0002665165186199732 0 0.012001916488312402 -0.00027102734434894613 0 0.01196415543057512 -0.00022880965307781975 0 0.012001916488312402 -0.00027102734434894613 0 0.012037530141060203 -0.00020953562158514675 0 0.0060210877861176636 -0.0019638520791079223 0 0.0068223007388805131 -0.0010734263221146168 0 0.00095080881155774585 0.002149389920682396 0 0.00012420777915874082 0.0015919903876112052 0 0.00060576575547583616 0.0010517647627151191 0 0.0068223007388805131 -0.0010734263221146168 0 0.0049337589054689454 -0.00164747499706898 0 0.0053943322302605458 -0.0011300266203158845 0 0.0052514141811721452 -0.0011053173501102281 0 0.005377481951157153 -0.0010217756394060545 0 0.0060210877861176636 -0.0019638520791079223 0 0.0049337589054689454 -0.00164747499706898 0 0.012001916488312402 -0.00027102734434894613 0 0.012037530141060203 -0.00020953562158514675 0 0.012045425678182443 -0.00014226781039027641 0 0.0068223007388805131 -0.0010734263221146168 0 0.0073566707614756378 -6.2256748608265528e-05 0 0.00095080881155774585 0.002149389920682396 0 0.0030559494190146412 0.0018893745485387377 0 0.002062814721841414 0.0009075930455547189 0 0.0068223007388805131 -0.0010734263221146168 0 0.0096167520104899346 0.0001979336682469696 0 0.012544236789909582 0.00022182054822813529 0 0.012045425678182443 -0.00014226781039027641 0 0.011911978920290014 0.00037165287911593623 0 0.011988229990372369 -0.0002122314263005691 0 0.012037530141060203 -0.00020953562158514675 0 0.011942508724188243 -0.00023621532495923854 0 0.01215764061184552 -0.00037210765112525082 0 0.012174266529609384 -0.0004111041533577477 0 0.012037530141060203 -0.00020953562158514675 0 0.012099039192857135 -0.00025171462627275327 0 0.012045425678182443 -0.00014226781039027641 0 0.012037530141060203 -0.00020953562158514675 0 0.012099039192857135 -0.00025171462627275327 0 0.012159200414471175 -0.00030478737066264749 0 0.012099039192857135 -0.00025171462627275327 0 0.012119994556933234 -0.00031923642388431537 0 0.012099076869762707 -0.00037465715892641465 0 0.012141505323029114 -0.00040722931820512355 0 0.012159200414471175 -0.00030478737066264749 0 0.012160672532481581 -0.00044827859557330241 0 0.012099039192857135 -0.00025171462627275327 0 0.012119994556933234 -0.00031923642388431537 0 0.012159200414471175 -0.00030478737066264749 0 0.012174266529609384 -0.0004111041533577477 0 0.012229411332960606 -0.00054315170636109957 0 0.012129915119668485 -0.00036784630003434065 0 0.012141196591903681 -0.0004210700528719424 0 0.012099076869762707 -0.00037465715892641465 0 0.012119994556933234 -0.00031923642388431537 0 0.012129915119668485 -0.00036784630003434065 0 0.012099076869762707 -0.00037465715892641465 0 0.012129915119668485 -0.00036784630003434065 0 0.012141505323029114 -0.00040722931820512355 0 0.012141196591903681 -0.0004210700528719424 0 0.012129915119668485 -0.00036784630003434065 0 0.012141505323029114 -0.00040722931820512355 0 0.012159200414471175 -0.00030478737066264749 0 0.012119994556933234 -0.00031923642388431537 0 0.012129915119668485 -0.00036784630003434065 0 0.012159200414471175 -0.00030478737066264749 0 0.011977124343827418 -0.00021411771118489184 0 0.011947027725938322 -0.00020667594437888295 0 0.011932289842023023 -0.0001999573574959892 0 0.011912245986726149 -0.00020428809745891922 0 0.011932042426215291 -0.00020572313290818949 0 0.011932289842023023 -0.0001999573574959892 0 0.011942508724188243 -0.00023621532495923854 0 0.011977124343827418 -0.00021411771118489184 0 0.012079269872867315 -0.00038735082619743215 0 0.010148639586576495 -0.0010741560531737063 0 0.0099498546089479452 -0.0011326947460708627 0 0.011942508724188243 -0.00023621532495923854 0 0.012079269872867315 -0.00038735082619743215 0 0.011950597496013658 -0.00047411995123157149 0 0.011962150909073451 -0.00021283543062525359 0 0.011977124343827418 -0.00021411771118489184 0 0.011947027725938322 -0.00020667594437888295 0 0.011932042426215291 -0.00020572313290818949 0 0.011962150909073451 -0.00021283543062525359 0 0.011947027725938322 -0.00020667594437888295 0 0.011932042426215291 -0.00020572313290818949 0 0.011947027725938322 -0.00020667594437888295 0 0.011932289842023023 -0.0001999573574959892 0 0.012079269872867315 -0.00038735082619743215 0 0.011950597496013658 -0.00047411995123157149 0 0.012072395887856814 -0.00054286113500938828 0 0.009280811865491059 -0.0012509310345209079 0 0.0099498546089479452 -0.0011326947460708627 0 0.011912881951800677 -0.00020471159442313032 0 0.011912245986726149 -0.00020428809745891922 0 0.011932289842023023 -0.0001999573574959892 0 0.012196853943573558 -0.00062335321377068637 0 0.012079269872867315 -0.00038735082619743215 0 0.012072395887856814 -0.00054286113500938828 0 0.012007574069926695 -0.00087722207197275521 0 0.009280811865491059 -0.0012509310345209079 0 0.012065288588858941 -0.00069019267952921193 0 0.012196853943573558 -0.00062335321377068637 0 0.012072395887856814 -0.00054286113500938828 0 0.012007574069926695 -0.00087722207197275521 0 0.012229411332960606 -0.00054315170636109957 0 0.012585692874994423 -0.00027409649319054557 0 0.012229411332960606 -0.00054315170636109957 0 0.012065288588858941 -0.00069019267952921193 0 0.011950597496013658 -0.00047411995123157149 0 0.012072395887856814 -0.00054286113500938828 0 0.012213220922835765 -0.0014316613577023212 0 0.012611274129049532 -0.0012308245794786026 0 0.012030287948233902 -0.00028685319596731361 0 0.012014247594726534 -0.00032513367128357931 0 0.012101983468075929 -0.00041975151176279463 0 0.012123601355752241 -0.00038871778558941504 0 0.012123601355752241 -0.00038871778558941504 0 0.012141196591903681 -0.0004210700528719424 0 0.012230822463343852 -0.00040270784999252301 0 0.012123601355752241 -0.00038871778558941504 0 0.012141196591903681 -0.0004210700528719424 0 0.012128111514528103 -0.00041521492337281252 0 0.012141505323029114 -0.00040722931820512355 0 0.012141196591903681 -0.0004210700528719424 0 0.012128111514528103 -0.00041521492337281252 0 0.012101983468075929 -0.00041975151176279463 0 0.012123601355752241 -0.00038871778558941504 0 0.012128111514528103 -0.00041521492337281252 0 0.012141505323029114 -0.00040722931820512355 0 0.012101983468075929 -0.00041975151176279463 0 0.012128111514528103 -0.00041521492337281252 0 0.012224579867658202 -0.00053554075087022758 0 0.012229411332960606 -0.00054315170636109957 0 0.012211808443760352 -0.00043417708068444545 0 0.012133948108349751 -0.00043996868269267176 0 0.012099076869762707 -0.00037465715892641465 0 0.012141196591903681 -0.0004210700528719424 0 0.012211808443760352 -0.00043417708068444545 0 0.012230822463343852 -0.00040270784999252301 0 0.012141196591903681 -0.0004210700528719424 0 0.012211808443760352 -0.00043417708068444545 0 0.012099076869762707 -0.00037465715892641465 0 0.012415039388778224 -0.00043205694707640325 0 0.012211808443760352 -0.00043417708068444545 0 0.012230822463343852 -0.00040270784999252301 0 0.012415039388778224 -0.00043205694707640325 0 0.012211808443760352 -0.00043417708068444545 0 0.012133948108349751 -0.00043996868269267176 0 0.012944038374459687 -0.0004477329617418931 0 0.012415039388778224 -0.00043205694707640325 0 0.012133948108349751 -0.00043996868269267176 0 0.012944038374459687 -0.0004477329617418931 0 0.012133948108349751 -0.00043996868269267176 0 0.011511061871958703 -0.0004338076659176862 0 0.012133948108349751 -0.00043996868269267176 0 0.011933527490631835 -0.00026962726845703176 0 0.011511780217428332 -0.00020814641557043097 0 0.012133948108349751 -0.00043996868269267176 0 0.012099076869762707 -0.00037465715892641465 0 0.011933527490631835 -0.00026962726845703176 0 0.012099039192857135 -0.00025171462627275327 0 0.012099076869762707 -0.00037465715892641465 0 0.011933527490631835 -0.00026962726845703176 0 0.012099039192857135 -0.00025171462627275327 0 0.011933527490631835 -0.00026962726845703176 0 0.012045425678182443 -0.00014226781039027641 0 0.011933527490631835 -0.00026962726845703176 0 0.012045425678182443 -0.00014226781039027641 0 0.011668553218379903 1.2467113293637061e-05 0 0.012045425678182443 -0.00014226781039027641 0 0.011911978920290014 0.00037165287911593623 0 0.011668553218379903 1.2467113293637061e-05 0 0.0073566707614756378 -6.2256748608265528e-05 0 0.0079670534774059273 0.00017548247628470579 0 0.011911978920290014 0.00037165287911593623 0 0.011668553218379903 1.2467113293637061e-05 0 0.010879583696534093 0.0004613348533306765 0 0.011511780217428332 -0.00020814641557043097 0 0.011668553218379903 1.2467113293637061e-05 0 0.010879583696534093 0.0004613348533306765 0 0.011933527490631835 -0.00026962726845703176 0 0.011511780217428332 -0.00020814641557043097 0 0.011668553218379903 1.2467113293637061e-05 0 0.011511780217428332 -0.00020814641557043097 0 0.010898638221976377 -0.00015869668571751443 0 0.010879583696534093 0.0004613348533306765 0 0.0098319175106015427 -9.8452404228345876e-07 0 0.010898638221976377 -0.00015869668571751443 0 0.010879583696534093 0.0004613348533306765 0 0.0098319175106015427 -9.8452404228345876e-07 0 0.0084337875517228409 2.5393933616781995e-06 0 0.010879583696534093 0.0004613348533306765 0 0.0098319175106015427 -9.8452404228345876e-07 0 0.010898638221976377 -0.00015869668571751443 0 0.011233380688714692 -5.4183609775273152e-07 0 0.011236300193764979 -4.2399953114624768e-07 0 0.011988410613590789 -0.00033274377009355987 0 0.010898638221976377 -0.00015869668571751443 0 0.011233380688714692 -5.4183609775273152e-07 0 0.011511061871958703 -0.0004338076659176862 0 0.012133948108349751 -0.00043996868269267176 0 0.011511780217428332 -0.00020814641557043097 0 0.011511061871958703 -0.0004338076659176862 0 0.011511780217428332 -0.00020814641557043097 0 0.010898638221976377 -0.00015869668571751443 0 0.011511061871958703 -0.0004338076659176862 0 0.012167717806045137 -0.0003550848320500025 0 0.011988410613590789 -0.00033274377009355987 0 0.013750246812022488 -0.00017317023060332116 0 0.012944038374459687 -0.0004477329617418931 0 0.013432881187709064 -0.00013132761012965975 0 0.011237348643685906 1.2876616471646218e-06 0 0.013432881187709064 -0.00013132761012965975 0 0.013120875547709621 -1.2571452231699811e-06 0 0.013750246812022488 -0.00017317023060332116 0 0.013432881187709064 -0.00013132761012965975 0 0.013120875547709621 -1.2571452231699811e-06 0 0.0047156407576448012 -0.00035958951111194617 0 0.0048391244352361858 -1.1531847239899066e-06 0 0.0052949485310745037 -0.00012546631793690672 0 0.0047156407576448012 -0.00035958951111194617 0 0.004501611792245409 -0.00020900325169641659 0 0.0052949485310745037 -0.00012546631793690672 0 0.0047156407576448012 -0.00035958951111194617 0 0.0043272899335735351 -0.00039765169932559093 0 0.0044420410678914241 -0.0006432916109981794 0 0.0047156407576448012 -0.00035958951111194617 0 0.0048391244352361858 -1.1531847239899066e-06 0 0.0043272899335735351 -0.00039765169932559093 0 0.0035979956426337211 -0.00048241064540723521 0 0.004501611792245409 -0.00020900325169641659 0 0.0027048714834934772 1.8209138490470934e-05 0 0.0020201011129202563 -0.0010817431349335132 0 0.0044703227877591813 -0.0011978788788390171 0 0.0043815423400938329 -0.00089563443656731471 0 0.0047156407576448012 -0.00035958951111194617 0 0.0044420410678914241 -0.0006432916109981794 0 0.0043547105289346568 -0.00052425412637915371 0 0.0044420410678914241 -0.0006432916109981794 0 0.004292205080281275 -0.00070874960191649944 0 0.0043815423400938329 -0.00089563443656731471 0 0.0044420410678914241 -0.0006432916109981794 0 0.004292205080281275 -0.00070874960191649944 0 0.0043547105289346568 -0.00052425412637915371 0 0.004292205080281275 -0.00070874960191649944 0 0.0038156152845954519 -0.0007120270137335583 0 0.0043815423400938329 -0.00089563443656731471 0 0.004292205080281275 -0.00070874960191649944 0 0.0038156152845954519 -0.0007120270137335583 0 0.0043547105289346568 -0.00052425412637915371 0 0.0038156152845954519 -0.0007120270137335583 0 0.0035979956426337211 -0.00048241064540723521 0 0.0043547105289346568 -0.00052425412637915371 0 0.0035979956426337211 -0.00048241064540723521 0 0.0043547105289346568 -0.00052425412637915371 0 0.004501611792245409 -0.00020900325169641659 0 0.0047156407576448012 -0.00035958951111194617 0 0.0043547105289346568 -0.00052425412637915371 0 0.004501611792245409 -0.00020900325169641659 0 0.0056357241393838377 -0.00053992650773174047 0 0.0037472618030566277 -0.00094378938628002468 0 0.0061540987401850012 -0.00095187362731292133 0 0.004509274011537381 -0.00086114099205068936 0 0.0041554648331929948 -0.0018243584209424253 0 0.004501611792245409 -0.00020900325169641659 0 0.0052949485310745037 -0.00012546631793690672 0 0.0051380719018163847 0.0005817156770265969 0 0.004501611792245409 -0.00020900325169641659 0 0.0051380719018163847 0.0005817156770265969 0 0.0027048714834934772 1.8209138490470934e-05 0 0.0063526759093173553 1.3946203196657841e-08 0 0.0052949485310745037 -0.00012546631793690672 0 0.0051380719018163847 0.0005817156770265969 0 0.0048391244352361858 -1.1531847239899066e-06 0 0.0063526759093173553 1.3946203196657841e-08 0 0.0052949485310745037 -0.00012546631793690672 0 0.0078679526231903666 -2.2962542472033549e-06 0 0.0066115155111111492 0.00011119561930856662 0 0.0061540987401850012 -0.00095187362731292133 0 0.0063526759093173553 1.3946203196657841e-08 0 0.0078625881426251151 1.4945999709805782e-06 0 0.0051380719018163847 0.0005817156770265969 0 0.0078618624312482201 1.7736252524690269e-08 0 0.0056357241393838377 -0.00053992650773174047 0 0.0078679526231903666 -2.2962542472033549e-06 0 0.0084262830584911855 3.1585910837822189e-06 0 0.0066115155111111492 0.00011119561930856662 0 0.0084262830584911855 3.1585910837822189e-06 0 0.0066115155111111492 0.00011119561930856662 0 0.005500765482208147 0.001474196365700702 0 0.0084293824257219221 4.0865021442032949e-07 0 0.0079670534774059273 0.00017548247628470579 0 0.0066115155111111492 0.00011119561930856662 0 0.005500765482208147 0.001474196365700702 0 0.0044850914526421782 0.0001188055243091621 0 0.0061540987401850012 -0.00095187362731292133 0 0.004509274011537381 -0.00086114099205068936 0 0.0044850914526421782 0.0001188055243091621 0 0.0066115155111111492 0.00011119561930856662 0 0.0061540987401850012 -0.00095187362731292133 0 0.0044850914526421782 0.0001188055243091621 0 0.004509274011537381 -0.00086114099205068936 0 0.0044850914526421782 0.0001188055243091621 0 0.0033180043113728631 -0.00076672593126050437 0 0.0030559494190146412 0.0018893745485387377 0 0.005500765482208147 0.001474196365700702 0 0.0044850914526421782 0.0001188055243091621 0 0.0030559494190146412 0.0018893745485387377 0 0.0027109799647844104 0.00016514185017487115 0 0.002062814721841414 0.0009075930455547189 0 0.0030559494190146412 0.0018893745485387377 0 0.0044850914526421782 0.0001188055243091621 0 0.0027109799647844104 0.00016514185017487115 0 0.0044850914526421782 0.0001188055243091621 0 0.0027109799647844104 0.00016514185017487115 0 0.0033180043113728631 -0.00076672593126050437 0 0.0027109799647844104 0.00016514185017487115 0 0.0023086875073117597 -0.00087802381238769132 0 0.0018300685096003233 -0.00038842057540629298 0 0.0027109799647844104 0.00016514185017487115 0 0.0033180043113728631 -0.00076672593126050437 0 0.0023086875073117597 -0.00087802381238769132 0 0.0033180043113728631 -0.00076672593126050437 0 0.0023086875073117597 -0.00087802381238769132 0 0.0028114443566343524 -0.0015447353445109835 0 0.0033180043113728631 -0.00076672593126050437 0 0.0028114443566343524 -0.0015447353445109835 0 0.0041554648331929948 -0.0018243584209424253 0 0.0023086875073117597 -0.00087802381238769132 0 0.0028114443566343524 -0.0015447353445109835 0 0.0018629780494882583 -0.0016796791850994298 0 0.004509274011537381 -0.00086114099205068936 0 0.0033180043113728631 -0.00076672593126050437 0 0.0041554648331929948 -0.0018243584209424253 0 0.0020201011129202563 -0.0010817431349335132 0 0.001734492578496275 -0.0012278081603589602 0 0.0013083928339637256 -0.0010152032595925086 0 0.0018898195700355138 -0.00014446828116126812 0 0.0020011030357801013 -1.9039697684715036e-05 0 0.0038156152845954519 -0.0007120270137335583 0 0.0020201011129202563 -0.0010817431349335132 0 0.0043815423400938329 -0.00089563443656731471 0 0.0027048714834934772 1.8209138490470934e-05 0 0.0020201011129202563 -0.0010817431349335132 0 0.001734492578496275 -0.0012278081603589602 0 0.0035979956426337211 -0.00048241064540723521 0 0.0027048714834934772 1.8209138490470934e-05 0 0.0020201011129202563 -0.0010817431349335132 0 0.0038156152845954519 -0.0007120270137335583 0 0.0035979956426337211 -0.00048241064540723521 0 0.0020201011129202563 -0.0010817431349335132 0 0.0037472618030566277 -0.00094378938628002468 0 0.0020796365375433164 -0.0012423110823997551 0 0.0028114443566343524 -0.0015447353445109835 0 0.0041554648331929948 -0.0018243584209424253 0 0.0024648478810523978 -0.0024953462526579101 0 0.0028114443566343524 -0.0015447353445109835 0 0.0024648478810523978 -0.0024953462526579101 0 0.0018629780494882583 -0.0016796791850994298 0 0.0013750561527861352 -0.002320021686762464 0 0.00084462739161735479 -0.0017541112073545971 0 0.0018629780494882583 -0.0016796791850994298 0 0.0024648478810523978 -0.0024953462526579101 0 0.0013750561527861352 -0.002320021686762464 0 0.0018629780494882583 -0.0016796791850994298 0 0.00084462739161735479 -0.0017541112073545971 0 -0.00029597368430338229 -0.0017264070689229918 0 0.00061232579282160127 -0.0024857703548522951 0 0.0013750561527861352 -0.002320021686762464 0 0.00084462739161735479 -0.0017541112073545971 0 0.00061232579282160127 -0.0024857703548522951 0 0.00084462739161735479 -0.0017541112073545971 0 0.00023687937926340687 -0.0010159589991125717 0 -0.00029597368430338229 -0.0017264070689229918 0 0.00084462739161735479 -0.0017541112073545971 0 0.00023687937926340687 -0.0010159589991125717 0 0.0012589247594034074 -0.00098235004968174429 0 0.00023687937926340687 -0.0010159589991125717 0 0.00070409757973814908 -0.00064757174407240753 0 0.00035450796519056836 -0.00031697792597909762 0 0.00023687937926340687 -0.0010159589991125717 0 0.0012589247594034074 -0.00098235004968174429 0 0.00070409757973814908 -0.00064757174407240753 0 0.0012589247594034074 -0.00098235004968174429 0 0.0012127622866119681 -0.00041132168156058794 0 0.00070409757973814908 -0.00064757174407240753 0 0.00084462739161735479 -0.0017541112073545971 0 0.0012589247594034074 -0.00098235004968174429 0 0.0018629780494882583 -0.0016796791850994298 0 0.0023086875073117597 -0.00087802381238769132 0 0.0012589247594034074 -0.00098235004968174429 0 0.0018629780494882583 -0.0016796791850994298 0 0.0023086875073117597 -0.00087802381238769132 0 0.0012589247594034074 -0.00098235004968174429 0 0.0018300685096003233 -0.00038842057540629298 0 0.0018300685096003233 -0.00038842057540629298 0 0.0012127622866119681 -0.00041132168156058794 0 0.0016719420543153517 0.00016740732212899425 0 0.0012589247594034074 -0.00098235004968174429 0 0.0018300685096003233 -0.00038842057540629298 0 0.0012127622866119681 -0.00041132168156058794 0 0.0016719420543153517 0.00016740732212899425 0 0.0013261498324714338 0.00057143705464200484 0 0.00094224370095589386 5.6598560009119273e-05 0 0.0012127622866119681 -0.00041132168156058794 0 0.0016719420543153517 0.00016740732212899425 0 0.00094224370095589386 5.6598560009119273e-05 0 0.0027109799647844104 0.00016514185017487115 0 0.0018300685096003233 -0.00038842057540629298 0 0.0016719420543153517 0.00016740732212899425 0 0.0016719420543153517 0.00016740732212899425 0 0.002062814721841414 0.0009075930455547189 0 0.0013261498324714338 0.00057143705464200484 0 0.00095080881155774585 0.002149389920682396 0 0.002062814721841414 0.0009075930455547189 0 0.0011342124627302724 0.0011023414449391846 0 0.0027109799647844104 0.00016514185017487115 0 0.0016719420543153517 0.00016740732212899425 0 0.002062814721841414 0.0009075930455547189 0 0.002062814721841414 0.0009075930455547189 0 0.0013261498324714338 0.00057143705464200484 0 0.0011342124627302724 0.0011023414449391846 0 0.0013261498324714338 0.00057143705464200484 0 0.0011342124627302724 0.0011023414449391846 0 0.00083238206704997245 0.00063561620283652924 0 0.00012420777915874082 0.0015919903876112052 0 0.00060576575547583616 0.0010517647627151191 0 0.0002742771612086344 0.00042844593942427335 0 0.0049337589054689454 -0.00164747499706898 0 0.0032279315247233428 -0.0008350439260994269 0 0.00095080881155774585 0.002149389920682396 0 0.0011342124627302724 0.0011023414449391846 0 0.00060576575547583616 0.0010517647627151191 0 0.00060576575547583616 0.0010517647627151191 0 0.00083238206704997245 0.00063561620283652924 0 0.0002742771612086344 0.00042844593942427335 0 0.0011342124627302724 0.0011023414449391846 0 0.00060576575547583616 0.0010517647627151191 0 0.00083238206704997245 0.00063561620283652924 0 0.0013261498324714338 0.00057143705464200484 0 0.00083238206704997245 0.00063561620283652924 0 0.00094224370095589386 5.6598560009119273e-05 0 0.00083238206704997245 0.00063561620283652924 0 0.0002742771612086344 0.00042844593942427335 0 0.00061432806156169544 0.00020108515244405363 0 0.0002742771612086344 0.00042844593942427335 0 0.00061432806156169544 0.00020108515244405363 0 0.00035450796519056836 -0.00031697792597909762 0 0.0032279315247233428 -0.0008350439260994269 0 0.0030992113661710823 -0.00069868788723627102 0 0.00022572078104123863 0.00012356320329061103 0 0.00035450796519056836 -0.00031697792597909762 0 -0.00019862424806136095 -0.00017112775689970863 0 0.00083238206704997245 0.00063561620283652924 0 0.00061432806156169544 0.00020108515244405363 0 0.00094224370095589386 5.6598560009119273e-05 0 0.00061432806156169544 0.00020108515244405363 0 0.00094224370095589386 5.6598560009119273e-05 0 0.00035450796519056836 -0.00031697792597909762 0 0.00094224370095589386 5.6598560009119273e-05 0 0.00070409757973814908 -0.00064757174407240753 0 0.00035450796519056836 -0.00031697792597909762 0 0.0012127622866119681 -0.00041132168156058794 0 0.00094224370095589386 5.6598560009119273e-05 0 0.00070409757973814908 -0.00064757174407240753 0 0.00023687937926340687 -0.0010159589991125717 0 0.00035450796519056836 -0.00031697792597909762 0 -0.0004329017372270353 -0.0005722383041333346 0 -0.0004329017372270353 -0.0005722383041333346 0 -0.00019862424806136095 -0.00017112775689970863 0 -0.00088499010818203711 3.8751808114725767e-05 0 0.00035450796519056836 -0.00031697792597909762 0 -0.0004329017372270353 -0.0005722383041333346 0 -0.00019862424806136095 -0.00017112775689970863 0 0.00022572078104123863 0.00012356320329061103 0 -0.00019862424806136095 -0.00017112775689970863 0 -0.00088499010818203711 3.8751808114725767e-05 0 0.0049337589054689454 -0.00164747499706898 0 0.0018662617191724984 -0.0017911204985534132 0 0.0032279315247233428 -0.0008350439260994269 0 0.0018662617191724984 -0.0017911204985534132 0 0.0040304291774830858 -0.0013358063554824362 0 0.0041075128796906292 -0.0019110767120371493 0 0.0032454037910114863 -0.0018422296184881098 0 0.0047233876673308632 -0.0049060000418901092 0 0.0054709325035488818 -0.0049842844369764336 0 0.0041860428954251065 -0.0058318056761216637 0 0.0038959118759249122 -0.0049300309932507804 0 0.0041860428954251065 -0.0058318056761216637 0 0.0025533547288154649 -0.0057085706890029004 0 0.0018662617191724984 -0.0017911204985534132 0 0.00071510394912790922 -0.0025947529519514054 0 0.0038959118759249122 -0.0049300309932507804 0 0.0047233876673308632 -0.0049060000418901092 0 0.0041860428954251065 -0.0058318056761216637 0 0.0018662617191724984 -0.0017911204985534132 0 0.00032164063021955356 -0.0019536571832300537 0 -0.00088499010818203711 3.8751808114725767e-05 0 -0.0011074828231982092 -0.00087397920970627566 0 -0.0015842721767551197 -0.00080449457220457799 0 -0.0004329017372270353 -0.0005722383041333346 0 -0.00088499010818203711 3.8751808114725767e-05 0 -0.0011074828231982092 -0.00087397920970627566 0 -0.0011074828231982092 -0.00087397920970627566 0 -0.00059541408941852169 -0.0011139455340252213 0 -0.0011625940613050737 -0.0014171113223296733 0 -0.0011074828231982092 -0.00087397920970627566 0 -0.0011625940613050737 -0.0014171113223296733 0 -0.001471954019504184 -0.0012647966934337008 0 -0.0004329017372270353 -0.0005722383041333346 0 -0.0011074828231982092 -0.00087397920970627566 0 -0.00059541408941852169 -0.0011139455340252213 0 0.00023687937926340687 -0.0010159589991125717 0 -0.00059541408941852169 -0.0011139455340252213 0 -0.00029597368430338229 -0.0017264070689229918 0 0.00023687937926340687 -0.0010159589991125717 0 -0.0004329017372270353 -0.0005722383041333346 0 -0.00059541408941852169 -0.0011139455340252213 0 -0.00029597368430338229 -0.0017264070689229918 0 -0.0011625940613050737 -0.0014171113223296733 0 -0.0013740465675482435 -0.0017671056510710284 0 -0.00059541408941852169 -0.0011139455340252213 0 -0.00029597368430338229 -0.0017264070689229918 0 -0.0011625940613050737 -0.0014171113223296733 0 -0.0011625940613050737 -0.0014171113223296733 0 -0.001494192597072039 -0.0015301894782821942 0 -0.0013740465675482435 -0.0017671056510710284 0 -0.0011625940613050737 -0.0014171113223296733 0 -0.001494192597072039 -0.0015301894782821942 0 -0.001471954019504184 -0.0012647966934337008 0 -0.001494192597072039 -0.0015301894782821942 0 -0.0016741985166016478 -0.0012798096590540577 0 -0.001696622819104948 -0.001247770228076616 0 -0.001494192597072039 -0.0015301894782821942 0 -0.0013740465675482435 -0.0017671056510710284 0 -0.0016741985166016478 -0.0012798096590540577 0 -0.0013740465675482435 -0.0017671056510710284 0 -0.0018030330350791181 -0.0012511584553001401 0 -0.0020127171048386328 -0.0013397241828715196 0 -0.00029597368430338229 -0.0017264070689229918 0 -0.0013740465675482435 -0.0017671056510710284 0 -0.00012370093127765352 -0.0027245184948618047 0 -0.00050502876297622346 -0.0014747900840505468 0 -0.00031675911686605596 -0.0014516593819503775 0 -0.0018030330350791181 -0.0012511584553001401 0 -0.0020118307268918068 -0.001056071765841608 0 -0.0020127171048386328 -0.0013397241828715196 0 -0.0013740465675482435 -0.0017671056510710284 0 -0.0018030330350791181 -0.0012511584553001401 0 -0.0016741985166016478 -0.0012798096590540577 0 -0.0018030330350791181 -0.0012511584553001401 0 -0.001969954416844691 -0.0010145422687148262 0 -0.0016741985166016478 -0.0012798096590540577 0 -0.0018030330350791181 -0.0012511584553001401 0 -0.001969954416844691 -0.0010145422687148262 0 -0.0020118307268918068 -0.001056071765841608 0 -0.001969954416844691 -0.0010145422687148262 0 -0.0016741985166016478 -0.0012798096590540577 0 -0.0019281595423001059 -0.0010180292113126414 0 -0.0016741985166016478 -0.0012798096590540577 0 -0.0019281595423001059 -0.0010180292113126414 0 -0.001696622819104948 -0.001247770228076616 0 -0.0019281595423001059 -0.0010180292113126414 0 -0.002181487875584219 -0.00086947932293508301 0 -0.001878249897135819 -0.00092979681662025166 0 -0.0021714988312633117 -0.00064732500321104463 0 -0.002181487875584219 -0.00086947932293508301 0 -0.001878249897135819 -0.00092979681662025166 0 -0.001969954416844691 -0.0010145422687148262 0 -0.002181487875584219 -0.00086947932293508301 0 -0.0020745233029663794 -0.0008795635099983686 0 -0.001969954416844691 -0.0010145422687148262 0 -0.0019281595423001059 -0.0010180292113126414 0 -0.002181487875584219 -0.00086947932293508301 0 -0.002181487875584219 -0.00086947932293508301 0 -0.0020745233029663794 -0.0008795635099983686 0 -0.0020603131575573355 -0.00089268659261906641 0 -0.0025332523114522062 -0.000629012327727225 0 -0.002181487875584219 -0.00086947932293508301 0 -0.0027856053337624695 -0.00075202777975646171 0 -0.0022504026230045497 -0.0007517926371538241 0 -0.002310779689057837 -0.00071889473846239104 0 -0.002310779689057837 -0.00071889473846239104 0 -0.0022741598124981586 -0.00062708209591903253 0 -0.0020745233029663794 -0.0008795635099983686 0 -0.0020603131575573355 -0.00089268659261906641 0 -0.0019446422332637114 -0.00071816172968474984 0 -0.0020603131575573355 -0.00089268659261906641 0 -0.0019446422332637114 -0.00071816172968474984 0 -0.0017581861505665828 -0.00071717473446814635 0 -0.0020745233029663794 -0.0008795635099983686 0 -0.0019446422332637114 -0.00071816172968474984 0 -0.0020239686839336048 -0.00078073267745646638 0 -0.0020239686839336048 -0.00078073267745646638 0 -0.0020648512869460246 -0.000843900845315082 0 -0.00184993701732524 -0.00044662944605014109 0 -0.0020239686839336048 -0.00078073267745646638 0 -0.0021065808210880442 -0.00096599349301297241 0 -0.0020648512869460246 -0.000843900845315082 0 -0.001969954416844691 -0.0010145422687148262 0 -0.0020745233029663794 -0.0008795635099983686 0 -0.0020118307268918068 -0.001056071765841608 0 -0.0020745233029663794 -0.0008795635099983686 0 -0.0020239686839336048 -0.00078073267745646638 0 -0.0021065808210880442 -0.00096599349301297241 0 -0.0020745233029663794 -0.0008795635099983686 0 -0.0020118307268918068 -0.001056071765841608 0 -0.0021065808210880442 -0.00096599349301297241 0 -0.00031675911686605596 -0.0014516593819503775 0 0.00024811396381993597 -0.0013440364353451814 0 -0.0021065808210880442 -0.00096599349301297241 0 -0.0020127171048386328 -0.0013397241828715196 0 -0.0021818541326794278 -0.001017240904144177 0 -0.00012370093127765352 -0.0027245184948618047 0 0.00061232579282160127 -0.0024857703548522951 0 0.0010453952221074663 -0.0032189260727428963 0 0.0001592845831444737 -0.0013802091600679136 0 0.00024811396381993597 -0.0013440364353451814 0 -0.0020118307268918068 -0.001056071765841608 0 -0.0021065808210880442 -0.00096599349301297241 0 -0.0020127171048386328 -0.0013397241828715196 0 -0.00029597368430338229 -0.0017264070689229918 0 -0.00012370093127765352 -0.0027245184948618047 0 0.00061232579282160127 -0.0024857703548522951 0 0.00024811396381993597 -0.0013440364353451814 0 -0.00012986184021824518 -0.00085436383227613247 0 0.0020796365375433164 -0.0012423110823997551 0 0.00024811396381993597 -0.0013440364353451814 0 0.0024648478810523978 -0.0024953462526579101 0 0.0013750561527861352 -0.002320021686762464 0 0.0010453952221074663 -0.0032189260727428963 0 0.0013750561527861352 -0.002320021686762464 0 0.00061232579282160127 -0.0024857703548522951 0 0.0010453952221074663 -0.0032189260727428963 0 0.001734492578496275 -0.0012278081603589602 0 0.0024357752381522655 -0.00068318938143611474 0 0.0016681392023789356 -0.00040201842278012121 0 0.001734492578496275 -0.0012278081603589602 0 0.0013083928339637256 -0.0010152032595925086 0 0.0016681392023789356 -0.00040201842278012121 0 0.0013083928339637256 -0.0010152032595925086 0 0.00033823496663864839 -0.00065647050304298187 0 0.0016681392023789356 -0.00040201842278012121 0 0.0020201011129202563 -0.0010817431349335132 0 0.0013083928339637256 -0.0010152032595925086 0 -0.00023087043510231045 -0.0013353286217976656 0 0.0013083928339637256 -0.0010152032595925086 0 0.00033823496663864839 -0.00065647050304298187 0 0.0001313114771902382 -0.00093039272224489133 0 -0.00012986184021824518 -0.00085436383227613247 0 -0.00044321010528153098 -0.00065746131319550179 0 0.00033823496663864839 -0.00065647050304298187 0 0.0016681392023789356 -0.00040201842278012121 0 -0.0010248995760349586 -0.00014365569877280543 0 -0.00184993701732524 -0.00044662944605014109 0 -0.0016950405001615904 -0.00053967005088076945 0 -0.0010248995760349586 -0.00014365569877280543 0 -0.0019446422332637114 -0.00071816172968474984 0 -0.0020239686839336048 -0.00078073267745646638 0 -0.00184993701732524 -0.00044662944605014109 0 -0.0019446422332637114 -0.00071816172968474984 0 -0.00184993701732524 -0.00044662944605014109 0 -0.0016950405001615904 -0.00053967005088076945 0 -0.0019446422332637114 -0.00071816172968474984 0 -0.0017581861505665828 -0.00071717473446814635 0 -0.0016950405001615904 -0.00053967005088076945 0 -0.0029334538834879195 -0.00055809210307843755 0 -0.0027856053337624695 -0.00075202777975646171 0 -0.0028783344751248659 -0.00044664137797788294 0 -0.0028783344751248659 -0.00044664137797788294 0 -0.0019241099639111265 -0.00033019674935061064 0 -0.0023530260834826191 -0.00044632824668052389 0 -0.0026717517584560263 -0.00050610949757447785 0 -0.0028783344751248659 -0.00044664137797788294 0 -0.0023530260834826191 -0.00044632824668052389 0 -0.0029334538834879195 -0.00055809210307843755 0 -0.0026717517584560263 -0.00050610949757447785 0 -0.0028783344751248659 -0.00044664137797788294 0 -0.0022741598124981586 -0.00062708209591903253 0 -0.0021677553303900581 -0.00056446025119057976 0 -0.0017581861505665828 -0.00071717473446814635 0 -0.0016950405001615904 -0.00053967005088076945 0 -0.0015776686828629578 -0.00035574290671907367 0 -0.0017581861505665828 -0.00071717473446814635 0 -0.0015776686828629578 -0.00035574290671907367 0 -0.0019241099639111265 -0.00033019674935061064 0 -0.0019241099639111265 -0.00033019674935061064 0 -0.0020999805539796846 -0.000393442528629346 0 -0.0012414264984608983 -9.8514739533721193e-05 0 -4.9394122353313762e-05 -0.00023455056759555948 0 0.00082878722378501406 -4.937065345965902e-05 0 -0.0015776686828629578 -0.00035574290671907367 0 -0.0019241099639111265 -0.00033019674935061064 0 -0.0012414264984608983 -9.8514739533721193e-05 0 -0.0019241099639111265 -0.00033019674935061064 0 -0.0023530260834826191 -0.00044632824668052389 0 -0.0020999805539796846 -0.000393442528629346 0 -0.0025106222985695867 -0.00043267001471957665 0 -0.0023530260834826191 -0.00044632824668052389 0 -0.0020999805539796846 -0.000393442528629346 0 -0.0026717517584560263 -0.00050610949757447785 0 -0.0025106222985695867 -0.00043267001471957665 0 -0.0023530260834826191 -0.00044632824668052389 0 -0.002785347117287586 -0.00036094875191773753 0 -0.0025106222985695867 -0.00043267001471957665 0 -0.0020999805539796846 -0.000393442528629346 0 -0.00070210131645844897 -0.0004098724108269787 0 -4.9394122353313762e-05 -0.00023455056759555948 0 -0.00080410323920229536 5.1782369835741766e-07 0 0.0011186984422938888 -6.3283123062060322e-05 0 0.0012622268753403577 -8.8942169851669777e-07 0 0.0012622268753403577 -8.8942169851669777e-07 0 0.0016580645568334469 -0.00013745792485967559 0 0.0033244984047593302 1.1162058498681221e-06 0 0.0011186984422938888 -6.3283123062060322e-05 0 0.0016580645568334469 -0.00013745792485967559 0 0.0019495085053998602 -0.00020368146079665405 0 0.0011186984422938888 -6.3283123062060322e-05 0 0.0012622268753403577 -8.8942169851669777e-07 0 0.0016580645568334469 -0.00013745792485967559 0 0.0016580645568334469 -0.00013745792485967559 0 0.0019495085053998602 -0.00020368146079665405 0 0.0033244984047593302 1.1162058498681221e-06 0 -0.0016950405001615904 -0.00053967005088076945 0 -0.0015776686828629578 -0.00035574290671907367 0 -0.0010248995760349586 -0.00014365569877280543 0 -0.0015776686828629578 -0.00035574290671907367 0 -0.0010248995760349586 -0.00014365569877280543 0 -0.0012414264984608983 -9.8514739533721193e-05 0 0.00033823496663864839 -0.00065647050304298187 0 -0.0010248995760349586 -0.00014365569877280543 0 -0.00046102761492851645 -0.00061911903130023596 0 -0.0012414264984608983 -9.8514739533721193e-05 0 -0.00046102761492851645 -0.00061911903130023596 0 -0.00042452477301500738 -0.00082366041802425837 0 -0.0010248995760349586 -0.00014365569877280543 0 -0.0012414264984608983 -9.8514739533721193e-05 0 -0.00046102761492851645 -0.00061911903130023596 0 0.0013083928339637256 -0.0010152032595925086 0 0.0001313114771902382 -0.00093039272224489133 0 -0.00023087043510231045 -0.0013353286217976656 0 -0.0012414264984608983 -9.8514739533721193e-05 0 -0.00042452477301500738 -0.00082366041802425837 0 -0.00023087043510231045 -0.0013353286217976656 0 0.00082878722378501406 -4.937065345965902e-05 0 0.0020011030357801013 -1.9039697684715036e-05 0 0.00033823496663864839 -0.00065647050304298187 0 -0.00046102761492851645 -0.00061911903130023596 0 0.0001313114771902382 -0.00093039272224489133 0 -0.00042452477301500738 -0.00082366041802425837 0 0.0001313114771902382 -0.00093039272224489133 0 -0.00023087043510231045 -0.0013353286217976656 0 -0.00046102761492851645 -0.00061911903130023596 0 -0.00042452477301500738 -0.00082366041802425837 0 0.0001313114771902382 -0.00093039272224489133 0 0.0020011030357801013 -1.9039697684715036e-05 0 0.0020140639318472395 -3.5233673692476615e-05 0 0.0043272899335735351 -0.00039765169932559093 0 0.0044420410678914241 -0.0006432916109981794 0 0.0045138890758445235 -0.00065496710373404491 0 0.0044420410678914241 -0.0006432916109981794 0 0.0045138890758445235 -0.00065496710373404491 0 0.0043815423400938329 -0.00089563443656731471 0 0.0048391244352361858 -1.1531847239899066e-06 0 0.0043272899335735351 -0.00039765169932559093 0 0.0033298872686568668 2.1146164725301277e-07 0 0.0020011030357801013 -1.9039697684715036e-05 0 0.0033262244970556345 -5.382867727230975e-07 0 0.0019495085053998602 -0.00020368146079665405 0 0.0018142514141985912 0.00090236678969710961 0 0.0033244984047593302 1.1162058498681221e-06 0 0.0043272899335735351 -0.00039765169932559093 0 0.0045138890758445235 -0.00065496710373404491 0 0.0033298872686568668 2.1146164725301277e-07 0 0.00015715858422885761 -0.0033815665163645036 0 -0.00022873140451841557 -0.0026054051645629413 0 0.00032032225351721905 -0.0028500281836642497 0 0.00015715858422885761 -0.0033815665163645036 0 0.00073031427546872653 -0.0033903064332045023 0 0.00049279083358116276 -0.0038047877068484916 0 0.00015715858422885761 -0.0033815665163645036 0 0.00032032225351721905 -0.0028500281836642497 0 0.00073031427546872653 -0.0033903064332045023 0 0.00015715858422885761 -0.0033815665163645036 0 -0.00024239236295083941 -0.0032233002092639336 0 -0.00022873140451841557 -0.0026054051645629413 0 0.00015715858422885761 -0.0033815665163645036 0 -0.00024239236295083941 -0.0032233002092639336 0 -5.6575607198201007e-05 -0.0036915160180091555 0 -0.00022873140451841557 -0.0026054051645629413 0 0.00032032225351721905 -0.0028500281836642497 0 0.00014510007847309177 -0.002164582759462237 0 0.00032032225351721905 -0.0028500281836642497 0 0.00086948362682637433 -0.0024050501959078192 0 0.00014510007847309177 -0.002164582759462237 0 0.00086948362682637433 -0.0024050501959078192 0 0.00079079056803124279 -0.0029428662795087739 0 0.0012916000759821485 -0.0031254502800650997 0 0.00032032225351721905 -0.0028500281836642497 0 0.00086948362682637433 -0.0024050501959078192 0 0.00079079056803124279 -0.0029428662795087739 0 0.00086948362682637433 -0.0024050501959078192 0 0.0015528592695609599 -0.0026628489669194262 0 0.0012916000759821485 -0.0031254502800650997 0 0.0015528592695609599 -0.0026628489669194262 0 0.001812782536948544 -0.0022631134527917153 0 0.0021554950534951938 -0.0026930486011110359 0 0.00086948362682637433 -0.0024050501959078192 0 0.0015528592695609599 -0.0026628489669194262 0 0.0013361799672004368 -0.0022201157467416121 0 0.0015528592695609599 -0.0026628489669194262 0 0.001812782536948544 -0.0022631134527917153 0 0.0013361799672004368 -0.0022201157467416121 0 0.0015528592695609599 -0.0026628489669194262 0 0.0019774289373130105 -0.0031561246704982652 0 0.0012916000759821485 -0.0031254502800650997 0 0.0015528592695609599 -0.0026628489669194262 0 0.0019774289373130105 -0.0031561246704982652 0 0.0021554950534951938 -0.0026930486011110359 0 0.0019774289373130105 -0.0031561246704982652 0 0.0012916000759821485 -0.0031254502800650997 0 0.0019175769395905875 -0.0036094893729527585 0 0.0012916000759821485 -0.0031254502800650997 0 0.0019175769395905875 -0.0036094893729527585 0 0.0013611784496505332 -0.0037149246525570419 0 0.00032032225351721905 -0.0028500281836642497 0 0.00079079056803124279 -0.0029428662795087739 0 0.00073031427546872653 -0.0033903064332045023 0 0.00079079056803124279 -0.0029428662795087739 0 0.0012916000759821485 -0.0031254502800650997 0 0.00073031427546872653 -0.0033903064332045023 0 0.0012916000759821485 -0.0031254502800650997 0 0.00073031427546872653 -0.0033903064332045023 0 0.0013611784496505332 -0.0037149246525570419 0 0.00073031427546872653 -0.0033903064332045023 0 0.00087736239482464685 -0.003883377037470037 0 0.00049279083358116276 -0.0038047877068484916 0 0.00073031427546872653 -0.0033903064332045023 0 0.00087736239482464685 -0.003883377037470037 0 0.0013611784496505332 -0.0037149246525570419 0 0.00087736239482464685 -0.003883377037470037 0 0.0012927403696885338 -0.0043442534313563024 0 0.00065934165634597532 -0.0041102686490084002 0 0.00087736239482464685 -0.003883377037470037 0 0.00065934165634597532 -0.0041102686490084002 0 0.00049279083358116276 -0.0038047877068484916 0 0.0019175769395905875 -0.0036094893729527585 0 0.0018944686289287999 -0.003972422332023647 0 0.0013611784496505332 -0.0037149246525570419 0 0.00087736239482464685 -0.003883377037470037 0 0.0013611784496505332 -0.0037149246525570419 0 0.0012927403696885338 -0.0043442534313563024 0 0.0018944686289287999 -0.003972422332023647 0 0.0013611784496505332 -0.0037149246525570419 0 0.0012927403696885338 -0.0043442534313563024 0 0.0018944686289287999 -0.003972422332023647 0 0.0012927403696885338 -0.0043442534313563024 0 0.0021515318769448418 -0.0043803867478909939 0 0.00080175044616363029 -0.0055660459174798095 0 0.0012927403696885338 -0.0043442534313563024 0 0.0019521298076289862 -0.0050634522379966436 0 0.0012927403696885338 -0.0043442534313563024 0 0.0019521298076289862 -0.0050634522379966436 0 0.0021515318769448418 -0.0043803867478909939 0 0.002028896990759285 -0.0046877298128920816 0 0.0018671048935840671 -0.0046239983281345445 0 0.00044982741525591443 -0.0041954236657602015 0 0.0012927403696885338 -0.0043442534313563024 0 0.00069944785737710829 -0.0042171518349719515 0 0.0012927403696885338 -0.0043442534313563024 0 0.00065934165634597532 -0.0041102686490084002 0 0.00069944785737710829 -0.0042171518349719515 0 0.00065934165634597532 -0.0041102686490084002 0 0.00069944785737710829 -0.0042171518349719515 0 0.00045687767149069834 -0.0041621216100633796 0 0.00044982741525591443 -0.0041954236657602015 0 0.00069944785737710829 -0.0042171518349719515 0 0.00045687767149069834 -0.0041621216100633796 0 0.00045687767149069834 -0.0041621216100633796 0 0.00030176213566906633 -0.0040955269982562706 0 0.00037336491271288655 -0.0040349320328882448 0 0.00030176213566906633 -0.0040955269982562706 0 0.00037336491271288655 -0.0040349320328882448 0 0.00020170432623466114 -0.0040571977829718248 0 0.00037336491271288655 -0.0040349320328882448 0 0.00018794232844072747 -0.0038562934645906201 0 0.00020170432623466114 -0.0040571977829718248 0 0.00065934165634597532 -0.0041102686490084002 0 0.00045687767149069834 -0.0041621216100633796 0 0.00037336491271288655 -0.0040349320328882448 0 0.00065934165634597532 -0.0041102686490084002 0 0.00037336491271288655 -0.0040349320328882448 0 0.00049279083358116276 -0.0038047877068484916 0 0.00015715858422885761 -0.0033815665163645036 0 0.00049279083358116276 -0.0038047877068484916 0 0.00018794232844072747 -0.0038562934645906201 0 0.00037336491271288655 -0.0040349320328882448 0 0.00049279083358116276 -0.0038047877068484916 0 0.00018794232844072747 -0.0038562934645906201 0 0.00015715858422885761 -0.0033815665163645036 0 -5.6575607198201007e-05 -0.0036915160180091555 0 0.00018794232844072747 -0.0038562934645906201 0 -5.6575607198201007e-05 -0.0036915160180091555 0 0.00018794232844072747 -0.0038562934645906201 0 7.2906507091400076e-05 -0.0039862621778678116 0 0.00018794232844072747 -0.0038562934645906201 0 7.2906507091400076e-05 -0.0039862621778678116 0 0.00020170432623466114 -0.0040571977829718248 0 0.00016871476451596276 -0.0040849565106577737 0 7.2906507091400076e-05 -0.0039862621778678116 0 0.00020170432623466114 -0.0040571977829718248 0 0.00016871476451596276 -0.0040849565106577737 0 7.2906507091400076e-05 -0.0039862621778678116 0 8.3204787168740291e-05 -0.0041165240473450609 0 7.2906507091400076e-05 -0.0039862621778678116 0 8.3204787168740291e-05 -0.0041165240473450609 0 -8.3741103697199926e-05 -0.0038876732538669005 0 8.3204787168740291e-05 -0.0041165240473450609 0 -0.00020714163252498425 -0.0039284262009316694 0 -8.3741103697199926e-05 -0.0038876732538669005 0 8.3204787168740291e-05 -0.0041165240473450609 0 -9.4965091470156285e-06 -0.0040992740227665577 0 -0.00020714163252498425 -0.0039284262009316694 0 8.3204787168740291e-05 -0.0041165240473450609 0 0.0001777413197606064 -0.0042123900093172075 0 -9.4965091470156285e-06 -0.0040992740227665577 0 0.00029157379138955284 -0.0041329593803133714 0 8.3204787168740291e-05 -0.0041165240473450609 0 0.0001777413197606064 -0.0042123900093172075 0 0.00060476256006871082 -0.0043385040339798528 0 0.0001777413197606064 -0.0042123900093172075 0 -0.00014825619143093879 -0.0041198407468648187 0 0.0001777413197606064 -0.0042123900093172075 0 -0.00014825619143093879 -0.0041198407468648187 0 -0.00013130014122349147 -0.0041180818450507091 0 0.0001777413197606064 -0.0042123900093172075 0 -9.4965091470156285e-06 -0.0040992740227665577 0 -0.00013130014122349147 -0.0041180818450507091 0 0.00027792038960081311 -0.0034133636703445078 0 0.00024788806252905082 -0.0031148165983241782 0 0.00060476256006871082 -0.0043385040339798528 0 0.00069126554642249844 -0.0055567758588464956 0 0.0017106183636070075 -0.004984899602361214 0 0.00024788806252905082 -0.0031148165983241782 0 0.00024507586711487674 -0.0031168916379781184 0 -9.4965091470156285e-06 -0.0040992740227665577 0 -0.00013130014122349147 -0.0041180818450507091 0 -0.00020714163252498425 -0.0039284262009316694 0 -0.00023351742425632856 -0.0041059314767399515 0 -0.00013130014122349147 -0.0041180818450507091 0 -0.00020714163252498425 -0.0039284262009316694 0 0.00024788806252905082 -0.0031148165983241782 0 -0.00060434363309536511 -0.0021906640558016621 0 -0.00023351742425632856 -0.0041059314767399515 0 -0.00020714163252498425 -0.0039284262009316694 0 -0.00089946753498326801 -0.0034187553065135527 0 -0.00020714163252498425 -0.0039284262009316694 0 -0.00038152975385526318 -0.0035589500510085407 0 -0.00089946753498326801 -0.0034187553065135527 0 -0.0019011855536636951 -0.00061786331181156188 0 -0.0017398984800294564 -0.00078260644213026755 0 -0.0018967075295934176 -0.0009481945549698038 0 -0.00024239236295083941 -0.0032233002092639336 0 -5.6575607198201007e-05 -0.0036915160180091555 0 -0.00038152975385526318 -0.0035589500510085407 0 -5.6575607198201007e-05 -0.0036915160180091555 0 7.2906507091400076e-05 -0.0039862621778678116 0 -8.3741103697199926e-05 -0.0038876732538669005 0 -5.6575607198201007e-05 -0.0036915160180091555 0 -0.00038152975385526318 -0.0035589500510085407 0 -8.3741103697199926e-05 -0.0038876732538669005 0 -0.00020714163252498425 -0.0039284262009316694 0 -0.00038152975385526318 -0.0035589500510085407 0 -8.3741103697199926e-05 -0.0038876732538669005 0 0.0025316687083139998 -0.0047833846616761365 0 0.0038959118759249122 -0.0049300309932507804 0 0.0025533547288154649 -0.0057085706890029004 0 0.00069126554642249844 -0.0055567758588464956 0 0.0025533547288154649 -0.0057085706890029004 0 0.0017106183636070075 -0.004984899602361214 0 0.00024788806252905082 -0.0031148165983241782 0 0.00071510394912790922 -0.0025947529519514054 0 -0.0019011855536636951 -0.00061786331181156188 0 -0.0015908868402986873 -0.00063448290463594841 0 -0.0017398984800294564 -0.00078260644213026755 0 0.0025316687083139998 -0.0047833846616761365 0 0.0025533547288154649 -0.0057085706890029004 0 0.0017106183636070075 -0.004984899602361214 0 -0.0012806047901716428 -0.00065861895994723957 0 -0.0015908868402986873 -0.00063448290463594841 0 -0.0015842721767551197 -0.00080449457220457799 0 -0.0015908868402986873 -0.00063448290463594841 0 -0.0017398984800294564 -0.00078260644213026755 0 -0.0015842721767551197 -0.00080449457220457799 0 -0.0011074828231982092 -0.00087397920970627566 0 -0.0015842721767551197 -0.00080449457220457799 0 -0.001471954019504184 -0.0012647966934337008 0 -0.0015842721767551197 -0.00080449457220457799 0 -0.0016942715212434293 -0.0011097320826992374 0 -0.001471954019504184 -0.0012647966934337008 0 -0.0017398984800294564 -0.00078260644213026755 0 -0.0015842721767551197 -0.00080449457220457799 0 -0.0016942715212434293 -0.0011097320826992374 0 -0.0016942715212434293 -0.0011097320826992374 0 -0.0018967075295934176 -0.0009481945549698038 0 -0.0017842813888905593 -0.0012841802672228402 0 -0.0017398984800294564 -0.00078260644213026755 0 -0.0016942715212434293 -0.0011097320826992374 0 -0.0018967075295934176 -0.0009481945549698038 0 -0.0016942715212434293 -0.0011097320826992374 0 -0.0017842813888905593 -0.0012841802672228402 0 -0.0016257151102611383 -0.0014080766745207436 0 -0.0016942715212434293 -0.0011097320826992374 0 -0.001471954019504184 -0.0012647966934337008 0 -0.0016257151102611383 -0.0014080766745207436 0 -0.001494192597072039 -0.0015301894782821942 0 -0.001471954019504184 -0.0012647966934337008 0 -0.0016257151102611383 -0.0014080766745207436 0 -0.00024239236295083941 -0.0032233002092639336 0 -0.00038152975385526318 -0.0035589500510085407 0 -0.00067400347780539134 -0.0029041346539113045 0 -0.00089946753498326801 -0.0034187553065135527 0 -0.0013408163372520489 -0.0025281753912179739 0 -0.00067400347780539134 -0.0029041346539113045 0 -0.00060434363309536511 -0.0021906640558016621 0 -0.0010595845092989532 -0.00178187407987798 0 -0.00038152975385526318 -0.0035589500510085407 0 -0.00089946753498326801 -0.0034187553065135527 0 -0.00067400347780539134 -0.0029041346539113045 0 -0.0013408163372520489 -0.0025281753912179739 0 -0.00067400347780539134 -0.0029041346539113045 0 -0.00091698574394269384 -0.0019439603199026324 0 -0.00022873140451841557 -0.0026054051645629413 0 -0.00067400347780539134 -0.0029041346539113045 0 -0.00091698574394269384 -0.0019439603199026324 0 -0.00024239236295083941 -0.0032233002092639336 0 -0.00022873140451841557 -0.0026054051645629413 0 -0.00067400347780539134 -0.0029041346539113045 0 -0.0010595845092989532 -0.00178187407987798 0 -0.0012771460725157979 -0.0014554158479120889 0 -0.0013408163372520489 -0.0025281753912179739 0 -0.00091698574394269384 -0.0019439603199026324 0 -0.0015532523963179212 -0.0016204963722055536 0 -0.00091698574394269384 -0.0019439603199026324 0 -0.0012577458950013074 -0.0012848532661075725 0 -0.0015532523963179212 -0.0016204963722055536 0 -0.0012577458950013074 -0.0012848532661075725 0 -0.0015532523963179212 -0.0016204963722055536 0 -0.0015810901005657949 -0.0009775235844624113 0 -0.0012771460725157979 -0.0014554158479120889 0 -0.0013427970611926945 -0.001269869931692831 0 -0.00091698574394269384 -0.0019439603199026324 0 -0.0012577458950013074 -0.0012848532661075725 0 -0.00088987754514156391 -0.0012846017962992815 0 -0.00091698574394269384 -0.0019439603199026324 0 -0.00088987754514156391 -0.0012846017962992815 0 -0.00043129402341920005 -0.0017235390238650263 0 -0.001494192597072039 -0.0015301894782821942 0 -0.0016257151102611383 -0.0014080766745207436 0 -0.001696622819104948 -0.001247770228076616 0 -0.0017842813888905593 -0.0012841802672228402 0 -0.001602176469881288 -0.0013257898349296983 0 -0.0016257151102611383 -0.0014080766745207436 0 -0.001602176469881288 -0.0013257898349296983 0 -0.0016729099081120541 -0.0011929284676873461 0 -0.0015810901005657949 -0.0009775235844624113 0 -0.001602176469881288 -0.0013257898349296983 0 -0.0016257151102611383 -0.0014080766745207436 0 -0.0016729099081120541 -0.0011929284676873461 0 -0.0016257151102611383 -0.0014080766745207436 0 -0.0016729099081120541 -0.0011929284676873461 0 -0.001696622819104948 -0.001247770228076616 0 -0.0019281595423001059 -0.0010180292113126414 0 -0.001696622819104948 -0.001247770228076616 0 -0.001878249897135819 -0.00092979681662025166 0 -0.0016729099081120541 -0.0011929284676873461 0 -0.001696622819104948 -0.001247770228076616 0 -0.001878249897135819 -0.00092979681662025166 0 -0.0016729099081120541 -0.0011929284676873461 0 -0.001878249897135819 -0.00092979681662025166 0 -0.0015810901005657949 -0.0009775235844624113 0 -0.0019338502874804181 -0.00060506977327301676 0 -0.001878249897135819 -0.00092979681662025166 0 -0.0015810901005657949 -0.0009775235844624113 0 -0.001471355697283246 -0.00054567804769319517 0 -0.0019338502874804181 -0.00060506977327301676 0 -0.0015810901005657949 -0.0009775235844624113 0 -0.0019338502874804181 -0.00060506977327301676 0 -0.0021714988312633117 -0.00064732500321104463 0 -0.001878249897135819 -0.00092979681662025166 0 -0.00088987754514156391 -0.0012846017962992815 0 -0.0011811240519643599 -0.00087015263946406136 0 -0.00061130792968484631 -0.00095408449834109594 0 -0.0012577458950013074 -0.0012848532661075725 0 -0.00088987754514156391 -0.0012846017962992815 0 -0.0011811240519643599 -0.00087015263946406136 0 -0.0011811240519643599 -0.00087015263946406136 0 -0.0008938004240986756 -0.00052516305102418546 0 -0.00061130792968484631 -0.00095408449834109594 0 -0.0012577458950013074 -0.0012848532661075725 0 -0.0011811240519643599 -0.00087015263946406136 0 -0.0015810901005657949 -0.0009775235844624113 0 -0.001471355697283246 -0.00054567804769319517 0 -0.0011811240519643599 -0.00087015263946406136 0 -0.0015810901005657949 -0.0009775235844624113 0 -0.001471355697283246 -0.00054567804769319517 0 -0.0011811240519643599 -0.00087015263946406136 0 -0.0008938004240986756 -0.00052516305102418546 0 -0.00091723937516662133 -0.00031260869826213884 0 -0.0008938004240986756 -0.00052516305102418546 0 -0.00073859071836708306 -0.00026200139616117487 0 -0.0008938004240986756 -0.00052516305102418546 0 -0.00073859071836708306 -0.00026200139616117487 0 -0.00048596992788192277 -0.00045636936240253456 0 -0.00073859071836708306 -0.00026200139616117487 0 -0.00050210228556904208 -4.8506825834532973e-05 0 -0.00048596992788192277 -0.00045636936240253456 0 -0.00075002274363875803 -0.00014170727270233148 0 -0.00073859071836708306 -0.00026200139616117487 0 -0.00050210228556904208 -4.8506825834532973e-05 0 -0.00050210228556904208 -4.8506825834532973e-05 0 -0.00048596992788192277 -0.00045636936240253456 0 -0.00014345525109188517 -0.00029233176199004344 0 -0.00048596992788192277 -0.00045636936240253456 0 -0.0001465072650892473 -0.00082868386342809452 0 -0.00061130792968484631 -0.00095408449834109594 0 -0.00048596992788192277 -0.00045636936240253456 0 -0.0001465072650892473 -0.00082868386342809452 0 -0.00014345525109188517 -0.00029233176199004344 0 -0.0008938004240986756 -0.00052516305102418546 0 -0.00048596992788192277 -0.00045636936240253456 0 -0.00061130792968484631 -0.00095408449834109594 0 -0.00088987754514156391 -0.0012846017962992815 0 -0.00061130792968484631 -0.00095408449834109594 0 -0.00043129402341920005 -0.0017235390238650263 0 -0.00061130792968484631 -0.00095408449834109594 0 -4.4876032811510082e-05 -0.0014377495592187252 0 -0.00043129402341920005 -0.0017235390238650263 0 -0.0001465072650892473 -0.00082868386342809452 0 -0.00061130792968484631 -0.00095408449834109594 0 -4.4876032811510082e-05 -0.0014377495592187252 0 -0.0001465072650892473 -0.00082868386342809452 0 -4.4876032811510082e-05 -0.0014377495592187252 0 0.00027454433581773733 -0.0011946508218895059 0 -4.4876032811510082e-05 -0.0014377495592187252 0 0.0005019460326434941 -0.001814277782780589 0 0.00027454433581773733 -0.0011946508218895059 0 -4.4876032811510082e-05 -0.0014377495592187252 0 0.00014510007847309177 -0.002164582759462237 0 0.0005019460326434941 -0.001814277782780589 0 -4.4876032811510082e-05 -0.0014377495592187252 0 0.00014510007847309177 -0.002164582759462237 0 -0.00043129402341920005 -0.0017235390238650263 0 -0.00022873140451841557 -0.0026054051645629413 0 0.00014510007847309177 -0.002164582759462237 0 -0.00043129402341920005 -0.0017235390238650263 0 -0.00022873140451841557 -0.0026054051645629413 0 -0.00091698574394269384 -0.0019439603199026324 0 -0.00043129402341920005 -0.0017235390238650263 0 0.0015016783322080172 -0.0018634102177055661 0 0.0012072394029624439 -0.0014160912531715386 0 0.0017297306843882994 -0.0014420329492672683 0 0.0015016783322080172 -0.0018634102177055661 0 0.0010081829156117932 -0.0018665106305456574 0 0.0012072394029624439 -0.0014160912531715386 0 0.0015016783322080172 -0.0018634102177055661 0 0.0017297306843882994 -0.0014420329492672683 0 0.0020735625613051947 -0.001810405519622508 0 0.0015016783322080172 -0.0018634102177055661 0 0.001812782536948544 -0.0022631134527917153 0 0.0020735625613051947 -0.001810405519622508 0 0.0015016783322080172 -0.0018634102177055661 0 0.0013361799672004368 -0.0022201157467416121 0 0.0010081829156117932 -0.0018665106305456574 0 0.0015016783322080172 -0.0018634102177055661 0 0.001812782536948544 -0.0022631134527917153 0 0.0013361799672004368 -0.0022201157467416121 0 0.00086948362682637433 -0.0024050501959078192 0 0.0013361799672004368 -0.0022201157467416121 0 0.0010081829156117932 -0.0018665106305456574 0 0.00086948362682637433 -0.0024050501959078192 0 0.00014510007847309177 -0.002164582759462237 0 0.0005019460326434941 -0.001814277782780589 0 0.00086948362682637433 -0.0024050501959078192 0 0.0005019460326434941 -0.001814277782780589 0 0.0010081829156117932 -0.0018665106305456574 0 0.0010081829156117932 -0.0018665106305456574 0 0.00070267906067053652 -0.0014483378057605766 0 0.0012072394029624439 -0.0014160912531715386 0 0.0005019460326434941 -0.001814277782780589 0 0.0010081829156117932 -0.0018665106305456574 0 0.00070267906067053652 -0.0014483378057605766 0 0.00070267906067053652 -0.0014483378057605766 0 0.00095441283466720392 -0.00079482619296661111 0 0.0012072394029624439 -0.0014160912531715386 0 0.0005019460326434941 -0.001814277782780589 0 0.00070267906067053652 -0.0014483378057605766 0 0.00027454433581773733 -0.0011946508218895059 0 0.00070267906067053652 -0.0014483378057605766 0 0.00027454433581773733 -0.0011946508218895059 0 0.0003507667358375392 -0.00075236682986665226 0 -0.0001465072650892473 -0.00082868386342809452 0 0.00027454433581773733 -0.0011946508218895059 0 0.0003507667358375392 -0.00075236682986665226 0 0.00070267906067053652 -0.0014483378057605766 0 0.00095441283466720392 -0.00079482619296661111 0 0.0003507667358375392 -0.00075236682986665226 0 0.0014029109504986449 -0.0010333899055199813 0 0.00095441283466720392 -0.00079482619296661111 0 0.0012072394029624439 -0.0014160912531715386 0 0.0014029109504986449 -0.0010333899055199813 0 0.00095441283466720392 -0.00079482619296661111 0 0.0018045884920345411 -0.00061323273259888272 0 0.0014029109504986449 -0.0010333899055199813 0 0.0012072394029624439 -0.0014160912531715386 0 0.0017297306843882994 -0.0014420329492672683 0 0.0017297306843882994 -0.0014420329492672683 0 0.0018045884920345411 -0.00061323273259888272 0 0.002314107468682072 -0.0012435154297814411 0 0.0014029109504986449 -0.0010333899055199813 0 0.0017297306843882994 -0.0014420329492672683 0 0.0018045884920345411 -0.00061323273259888272 0 0.00095441283466720392 -0.00079482619296661111 0 0.0010803862516420657 -0.00015184303545331016 0 0.00037683189337541048 -0.00022276724250901644 0 0.00095441283466720392 -0.00079482619296661111 0 0.0018045884920345411 -0.00061323273259888272 0 0.0010803862516420657 -0.00015184303545331016 0 0.0018045884920345411 -0.00061323273259888272 0 0.0010803862516420657 -0.00015184303545331016 0 0.001721588217524681 0.0003107884853663761 0 -0.0001465072650892473 -0.00082868386342809452 0 0.0003507667358375392 -0.00075236682986665226 0 -0.00014345525109188517 -0.00029233176199004344 0 0.00095441283466720392 -0.00079482619296661111 0 0.0003507667358375392 -0.00075236682986665226 0 0.00037683189337541048 -0.00022276724250901644 0 0.00037683189337541048 -0.00022276724250901644 0 -0.00014345525109188517 -0.00029233176199004344 0 -0.00014688683594975499 0.00023314028534730973 0 0.0003507667358375392 -0.00075236682986665226 0 0.00037683189337541048 -0.00022276724250901644 0 -0.00014345525109188517 -0.00029233176199004344 0 0.00055486893916237648 0.0020313527185851542 0 -0.00014688683594975499 0.00023314028534730973 0 0.00075542971723311357 0.00087391086913745242 0 -0.00050210228556904208 -4.8506825834532973e-05 0 -0.00014345525109188517 -0.00029233176199004344 0 -0.00014688683594975499 0.00023314028534730973 0 0.00037683189337541048 -0.00022276724250901644 0 -0.00014688683594975499 0.00023314028534730973 0 0.00075542971723311357 0.00087391086913745242 0 -0.00076970659357094402 4.5188532665496524e-05 0 -0.00050210228556904208 -4.8506825834532973e-05 0 -0.00014688683594975499 0.00023314028534730973 0 0.001721588217524681 0.0003107884853663761 0 0.00075542971723311357 0.00087391086913745242 0 0.001812506867111457 0.0011330584993316576 0 0.0010803862516420657 -0.00015184303545331016 0 0.00037683189337541048 -0.00022276724250901644 0 0.00075542971723311357 0.00087391086913745242 0 0.0010803862516420657 -0.00015184303545331016 0 0.001721588217524681 0.0003107884853663761 0 0.00075542971723311357 0.00087391086913745242 0 0.0014508202967447228 0.0016284898000479249 0 0.00075542971723311357 0.00087391086913745242 0 0.001812506867111457 0.0011330584993316576 0 0.0014508202967447228 0.0016284898000479249 0 0.0019701636201092652 0.0018678400130288993 0 0.001812506867111457 0.0011330584993316576 0 0.001812506867111457 0.0011330584993316576 0 0.0024051146113903883 0.0014578322983288033 0 0.0025385780073876874 0.00078534226114564305 0 0.0019701636201092652 0.0018678400130288993 0 0.001812506867111457 0.0011330584993316576 0 0.0024051146113903883 0.0014578322983288033 0 0.001721588217524681 0.0003107884853663761 0 0.001812506867111457 0.0011330584993316576 0 0.0025385780073876874 0.00078534226114564305 0 0.0025385780073876874 0.00078534226114564305 0 0.0035927995085610004 0.00099654634057958803 0 0.0029893090379452107 0.00021001466426856229 0 0.0024051146113903883 0.0014578322983288033 0 0.0025385780073876874 0.00078534226114564305 0 0.0031184085121502051 0.0016139284859660724 0 0.004170517081120287 0.0019161654852059972 0 0.0035927995085610004 0.00099654634057958803 0 0.0049556157979146068 0.0011761037624450606 0 0.004170517081120287 0.0019161654852059972 0 0.0031184085121502051 0.0016139284859660724 0 0.0035927995085610004 0.00099654634057958803 0 0.0035927995085610004 0.00099654634057958803 0 0.0040021957752804389 0.0002483767141051586 0 0.0049556157979146068 0.0011761037624450606 0 0.0025385780073876874 0.00078534226114564305 0 0.0031184085121502051 0.0016139284859660724 0 0.0035927995085610004 0.00099654634057958803 0 0.0035927995085610004 0.00099654634057958803 0 0.0040021957752804389 0.0002483767141051586 0 0.0029893090379452107 0.00021001466426856229 0 0.0040021957752804389 0.0002483767141051586 0 0.0033855094752378331 -0.0002859584654917916 0 0.0038378293188201353 -0.00075322944242177782 0 0.0040021957752804389 0.0002483767141051586 0 0.0033855094752378331 -0.0002859584654917916 0 0.0029893090379452107 0.00021001466426856229 0 0.0033855094752378331 -0.0002859584654917916 0 0.0029893090379452107 0.00021001466426856229 0 0.0025942512772054406 -0.00059365727972689197 0 0.002304360830235727 3.8837521704656029e-06 0 0.0029893090379452107 0.00021001466426856229 0 0.0025942512772054406 -0.00059365727972689197 0 0.0018045884920345411 -0.00061323273259888272 0 0.002304360830235727 3.8837521704656029e-06 0 0.0025942512772054406 -0.00059365727972689197 0 0.0018045884920345411 -0.00061323273259888272 0 0.001721588217524681 0.0003107884853663761 0 0.002304360830235727 3.8837521704656029e-06 0 0.001721588217524681 0.0003107884853663761 0 0.0025385780073876874 0.00078534226114564305 0 0.002304360830235727 3.8837521704656029e-06 0 0.0025385780073876874 0.00078534226114564305 0 0.002304360830235727 3.8837521704656029e-06 0 0.0029893090379452107 0.00021001466426856229 0 0.0063358399135204305 0.0023144991478370276 0 0.0062561989436785443 0.0012748217626638077 0 0.0049556157979146068 0.0011761037624450606 0 0.0062561989436785443 0.0012748217626638077 0 0.0049556157979146068 0.0011761037624450606 0 0.0056068772552935638 0.00061357176925472983 0 0.0040021957752804389 0.0002483767141051586 0 0.0049556157979146068 0.0011761037624450606 0 0.005002652754863883 -0.00013387705276957074 0 0.0049556157979146068 0.0011761037624450606 0 0.005002652754863883 -0.00013387705276957074 0 0.0056068772552935638 0.00061357176925472983 0 0.0040021957752804389 0.0002483767141051586 0 0.005002652754863883 -0.00013387705276957074 0 0.0038378293188201353 -0.00075322944242177782 0 0.005002652754863883 -0.00013387705276957074 0 0.0056068772552935638 0.00061357176925472983 0 0.0062333387613941124 0.00013920311614937567 0 0.0062561989436785443 0.0012748217626638077 0 0.0056068772552935638 0.00061357176925472983 0 0.0062333387613941124 0.00013920311614937567 0 0.0062561989436785443 0.0012748217626638077 0 0.0062333387613941124 0.00013920311614937567 0 0.0071978410255795506 0.00097435919294794522 0 0.0062333387613941124 0.00013920311614937567 0 0.0058551817869547289 -0.0010322039370831372 0 0.0074650122115657025 -0.00025472022663028491 0 0.005002652754863883 -0.00013387705276957074 0 0.0062333387613941124 0.00013920311614937567 0 0.0058551817869547289 -0.0010322039370831372 0 0.0058551817869547289 -0.0010322039370831372 0 0.0044968575312531586 -0.0011024217485233461 0 0.0048624111825916342 -0.0019208103640818929 0 0.005002652754863883 -0.00013387705276957074 0 0.0058551817869547289 -0.0010322039370831372 0 0.0044968575312531586 -0.0011024217485233461 0 0.005002652754863883 -0.00013387705276957074 0 0.0044968575312531586 -0.0011024217485233461 0 0.0038378293188201353 -0.00075322944242177782 0 0.0044968575312531586 -0.0011024217485233461 0 0.0048624111825916342 -0.0019208103640818929 0 0.004051850472891882 -0.0017699363824071042 0 0.0041678183832062586 -0.0023219558583135388 0 0.0048624111825916342 -0.0019208103640818929 0 0.004051850472891882 -0.0017699363824071042 0 0.0041678183832062586 -0.0023219558583135388 0 0.0048624111825916342 -0.0019208103640818929 0 0.005087619799607368 -0.0026683957750268761 0 0.0048624111825916342 -0.0019208103640818929 0 0.0058025973974578284 -0.0019705222779606174 0 0.005087619799607368 -0.0026683957750268761 0 0.0058551817869547289 -0.0010322039370831372 0 0.0058025973974578284 -0.0019705222779606174 0 0.0072257370151695794 -0.001686913818761016 0 0.0058551817869547289 -0.0010322039370831372 0 0.0048624111825916342 -0.0019208103640818929 0 0.0058025973974578284 -0.0019705222779606174 0 0.002947163853408599 -0.0010744810439592661 0 0.002314107468682072 -0.0012435154297814411 0 0.0027290619227083256 -0.0017661055003076493 0 0.002947163853408599 -0.0010744810439592661 0 0.0034023158706924278 -0.0013669600543272601 0 0.0027290619227083256 -0.0017661055003076493 0 0.0018045884920345411 -0.00061323273259888272 0 0.002314107468682072 -0.0012435154297814411 0 0.0025942512772054406 -0.00059365727972689197 0 0.002947163853408599 -0.0010744810439592661 0 0.002314107468682072 -0.0012435154297814411 0 0.0025942512772054406 -0.00059365727972689197 0 0.0033855094752378331 -0.0002859584654917916 0 0.002947163853408599 -0.0010744810439592661 0 0.0025942512772054406 -0.00059365727972689197 0 0.0033855094752378331 -0.0002859584654917916 0 0.002947163853408599 -0.0010744810439592661 0 0.0038378293188201353 -0.00075322944242177782 0 0.0044968575312531586 -0.0011024217485233461 0 0.0038378293188201353 -0.00075322944242177782 0 0.0034023158706924278 -0.0013669600543272601 0 0.002947163853408599 -0.0010744810439592661 0 0.0038378293188201353 -0.00075322944242177782 0 0.0034023158706924278 -0.0013669600543272601 0 0.0034023158706924278 -0.0013669600543272601 0 0.003361345737723208 -0.0021151540225016895 0 0.0027290619227083256 -0.0017661055003076493 0 0.0034023158706924278 -0.0013669600543272601 0 0.004051850472891882 -0.0017699363824071042 0 0.003361345737723208 -0.0021151540225016895 0 0.0044968575312531586 -0.0011024217485233461 0 0.0034023158706924278 -0.0013669600543272601 0 0.004051850472891882 -0.0017699363824071042 0 0.0041678183832062586 -0.0023219558583135388 0 0.003361345737723208 -0.0021151540225016895 0 0.0036679999812676157 -0.0025084831936309283 0 0.0041678183832062586 -0.0023219558583135388 0 0.004051850472891882 -0.0017699363824071042 0 0.003361345737723208 -0.0021151540225016895 0 0.003361345737723208 -0.0021151540225016895 0 0.0028626568555141767 -0.0023023370039538214 0 0.0027290619227083256 -0.0017661055003076493 0 0.0028626568555141767 -0.0023023370039538214 0 0.0027290619227083256 -0.0017661055003076493 0 0.0023704702888135806 -0.0022517188757300122 0 0.0017297306843882994 -0.0014420329492672683 0 0.002314107468682072 -0.0012435154297814411 0 0.0020735625613051947 -0.001810405519622508 0 0.002314107468682072 -0.0012435154297814411 0 0.0027290619227083256 -0.0017661055003076493 0 0.0020735625613051947 -0.001810405519622508 0 0.001812782536948544 -0.0022631134527917153 0 0.0020735625613051947 -0.001810405519622508 0 0.0023704702888135806 -0.0022517188757300122 0 0.0027290619227083256 -0.0017661055003076493 0 0.0020735625613051947 -0.001810405519622508 0 0.0023704702888135806 -0.0022517188757300122 0 0.001812782536948544 -0.0022631134527917153 0 0.0023704702888135806 -0.0022517188757300122 0 0.0021554950534951938 -0.0026930486011110359 0 0.0023704702888135806 -0.0022517188757300122 0 0.0021554950534951938 -0.0026930486011110359 0 0.0027143069591583631 -0.0027057403080448066 0 0.0028626568555141767 -0.0023023370039538214 0 0.0023704702888135806 -0.0022517188757300122 0 0.0027143069591583631 -0.0027057403080448066 0 0.0028626568555141767 -0.0023023370039538214 0 0.0027143069591583631 -0.0027057403080448066 0 0.0032215445624015678 -0.0025785466544826106 0 0.0027143069591583631 -0.0027057403080448066 0 0.0025362390653485656 -0.0030984077191013788 0 0.0031724574946329167 -0.0030972989832241983 0 0.0019774289373130105 -0.0031561246704982652 0 0.0021554950534951938 -0.0026930486011110359 0 0.0025362390653485656 -0.0030984077191013788 0 0.0021554950534951938 -0.0026930486011110359 0 0.0027143069591583631 -0.0027057403080448066 0 0.0025362390653485656 -0.0030984077191013788 0 0.0019774289373130105 -0.0031561246704982652 0 0.0019175769395905875 -0.0036094893729527585 0 0.0024255823675731246 -0.0034735916518653862 0 0.0019774289373130105 -0.0031561246704982652 0 0.0025362390653485656 -0.0030984077191013788 0 0.0024255823675731246 -0.0034735916518653862 0 0.0025362390653485656 -0.0030984077191013788 0 0.0024255823675731246 -0.0034735916518653862 0 0.002889172173303747 -0.0034107944347183403 0 0.0025362390653485656 -0.0030984077191013788 0 0.002889172173303747 -0.0034107944347183403 0 0.0031724574946329167 -0.0030972989832241983 0 0.0024255823675731246 -0.0034735916518653862 0 0.0028211249663910175 -0.0037178482591582653 0 0.0024213890178273211 -0.003833789828783794 0 0.0024255823675731246 -0.0034735916518653862 0 0.002889172173303747 -0.0034107944347183403 0 0.0028211249663910175 -0.0037178482591582653 0 0.002889172173303747 -0.0034107944347183403 0 0.0028211249663910175 -0.0037178482591582653 0 0.003206807082828183 -0.0038026817401071058 0 0.0028211249663910175 -0.0037178482591582653 0 0.003206807082828183 -0.0038026817401071058 0 0.0028510299320148717 -0.0040265579638881542 0 0.0028211249663910175 -0.0037178482591582653 0 0.0024213890178273211 -0.003833789828783794 0 0.0028510299320148717 -0.0040265579638881542 0 0.0019175769395905875 -0.0036094893729527585 0 0.0024255823675731246 -0.0034735916518653862 0 0.0024213890178273211 -0.003833789828783794 0 0.0036589661045096033 -0.0036793936709663957 0 0.0036962189553259041 -0.0039679103592475274 0 0.003206807082828183 -0.0038026817401071058 0 0.0036589661045096033 -0.0036793936709663957 0 0.0036962189553259041 -0.0039679103592475274 0 0.0040626394676242664 -0.003749660237655889 0 0.0036962189553259041 -0.0039679103592475274 0 0.0040626394676242664 -0.003749660237655889 0 0.0040541981574365865 -0.0039924422281264098 0 0.0036962189553259041 -0.0039679103592475274 0 0.0040541981574365865 -0.0039924422281264098 0 0.0038769048504937688 -0.0041985323517746255 0 0.0036962189553259041 -0.0039679103592475274 0 0.003206807082828183 -0.0038026817401071058 0 0.0031927204028534264 -0.0042828465127885814 0 0.0036589661045096033 -0.0036793936709663957 0 0.003206807082828183 -0.0038026817401071058 0 0.0034154677034253056 -0.0034585788121132529 0 0.002889172173303747 -0.0034107944347183403 0 0.0034154677034253056 -0.0034585788121132529 0 0.0031724574946329167 -0.0030972989832241983 0 0.002889172173303747 -0.0034107944347183403 0 0.003206807082828183 -0.0038026817401071058 0 0.0034154677034253056 -0.0034585788121132529 0 0.0034154677034253056 -0.0034585788121132529 0 0.0036174773111059696 -0.0031921804117948619 0 0.0031724574946329167 -0.0030972989832241983 0 0.0034154677034253056 -0.0034585788121132529 0 0.0039396474240054324 -0.003408995218279792 0 0.0036174773111059696 -0.0031921804117948619 0 0.0036589661045096033 -0.0036793936709663957 0 0.0034154677034253056 -0.0034585788121132529 0 0.0039396474240054324 -0.003408995218279792 0 0.0036589661045096033 -0.0036793936709663957 0 0.0039396474240054324 -0.003408995218279792 0 0.0040626394676242664 -0.003749660237655889 0 0.0039396474240054324 -0.003408995218279792 0 0.0036174773111059696 -0.0031921804117948619 0 0.004136555929297115 -0.0029806313235927104 0 0.0035945915217331565 -0.0028727016118090367 0 0.0036679999812676157 -0.0025084831936309283 0 0.004136555929297115 -0.0029806313235927104 0 0.0036174773111059696 -0.0031921804117948619 0 0.0035945915217331565 -0.0028727016118090367 0 0.004136555929297115 -0.0029806313235927104 0 0.0027143069591583631 -0.0027057403080448066 0 0.0031724574946329167 -0.0030972989832241983 0 0.0032215445624015678 -0.0025785466544826106 0 0.0035945915217331565 -0.0028727016118090367 0 0.0031724574946329167 -0.0030972989832241983 0 0.0032215445624015678 -0.0025785466544826106 0 0.0036174773111059696 -0.0031921804117948619 0 0.0035945915217331565 -0.0028727016118090367 0 0.0031724574946329167 -0.0030972989832241983 0 0.003361345737723208 -0.0021151540225016895 0 0.0028626568555141767 -0.0023023370039538214 0 0.0032215445624015678 -0.0025785466544826106 0 0.003361345737723208 -0.0021151540225016895 0 0.0032215445624015678 -0.0025785466544826106 0 0.0036679999812676157 -0.0025084831936309283 0 0.0035945915217331565 -0.0028727016118090367 0 0.0032215445624015678 -0.0025785466544826106 0 0.0036679999812676157 -0.0025084831936309283 0 0.0041678183832062586 -0.0023219558583135388 0 0.0036679999812676157 -0.0025084831936309283 0 0.004136555929297115 -0.0029806313235927104 0 0.0041678183832062586 -0.0023219558583135388 0 0.005087619799607368 -0.0026683957750268761 0 0.004136555929297115 -0.0029806313235927104 0 0.005087619799607368 -0.0026683957750268761 0 0.004136555929297115 -0.0029806313235927104 0 0.004768140021256714 -0.0033352909959066981 0 0.005087619799607368 -0.0026683957750268761 0 0.0057695257110465473 -0.0035366150662722961 0 0.004768140021256714 -0.0033352909959066981 0 0.0058025973974578284 -0.0019705222779606174 0 0.005087619799607368 -0.0026683957750268761 0 0.0062027499216745557 -0.002584214357032483 0 0.005087619799607368 -0.0026683957750268761 0 0.0062027499216745557 -0.002584214357032483 0 0.0057695257110465473 -0.0035366150662722961 0 0.0057695257110465473 -0.0035366150662722961 0 0.0058285237930461396 -0.0044723920389622036 0 0.007297199129035873 -0.0043681442987362684 0 0.0057695257110465473 -0.0035366150662722961 0 0.0046679515499325613 -0.0039048676614720636 0 0.0058285237930461396 -0.0044723920389622036 0 0.0046679515499325613 -0.0039048676614720636 0 0.0042649131688948811 -0.0044828245651058578 0 0.0058285237930461396 -0.0044723920389622036 0 0.0039396474240054324 -0.003408995218279792 0 0.004136555929297115 -0.0029806313235927104 0 0.004336967328761045 -0.0035387476112535596 0 0.004336967328761045 -0.0035387476112535596 0 0.004768140021256714 -0.0033352909959066981 0 0.0046679515499325613 -0.0039048676614720636 0 0.004136555929297115 -0.0029806313235927104 0 0.004336967328761045 -0.0035387476112535596 0 0.004768140021256714 -0.0033352909959066981 0 0.0039396474240054324 -0.003408995218279792 0 0.004336967328761045 -0.0035387476112535596 0 0.0040626394676242664 -0.003749660237655889 0 0.0057695257110465473 -0.0035366150662722961 0 0.004768140021256714 -0.0033352909959066981 0 0.0046679515499325613 -0.0039048676614720636 0 0.004336967328761045 -0.0035387476112535596 0 0.0046679515499325613 -0.0039048676614720636 0 0.0040626394676242664 -0.003749660237655889 0 0.0046679515499325613 -0.0039048676614720636 0 0.0040626394676242664 -0.003749660237655889 0 0.0040541981574365865 -0.0039924422281264098 0 0.0046679515499325613 -0.0039048676614720636 0 0.0040541981574365865 -0.0039924422281264098 0 0.004299730038310301 -0.0041224899273966022 0 0.0046679515499325613 -0.0039048676614720636 0 0.004299730038310301 -0.0041224899273966022 0 0.0042649131688948811 -0.0044828245651058578 0 0.0040541981574365865 -0.0039924422281264098 0 0.0041878184830573852 -0.0042616502317647303 0 0.0038769048504937688 -0.0041985323517746255 0 0.0040541981574365865 -0.0039924422281264098 0 0.004299730038310301 -0.0041224899273966022 0 0.0041878184830573852 -0.0042616502317647303 0 0.0041878184830573852 -0.0042616502317647303 0 0.0042649131688948811 -0.0044828245651058578 0 0.0038769048504937688 -0.0041985323517746255 0 0.004299730038310301 -0.0041224899273966022 0 0.0041878184830573852 -0.0042616502317647303 0 0.0042649131688948811 -0.0044828245651058578 0 0.0095813456027658735 -0.0033329496781732792 0 0.011378369599536049 -0.0040602854998659397 0 0.01649367085914703 -0.0035063599054469272 0 0.016965231497670076 -0.0038364079652786821 0 0.017347832147266654 -0.0034035995540068666 0 0.01649367085914703 -0.0035063599054469272 0 0.016624829728456719 -0.0039533878758354433 0 0.016367755515592497 -0.0041739816554354067 0 0.01649367085914703 -0.0035063599054469272 0 0.016965231497670076 -0.0038364079652786821 0 0.016624829728456719 -0.0039533878758354433 0 0.017347832147266654 -0.0034035995540068666 0 0.017475571225822772 -0.0041194401110372274 0 0.018000503049310841 -0.0039296714234566127 0 0.016965231497670076 -0.0038364079652786821 0 0.017347832147266654 -0.0034035995540068666 0 0.017475571225822772 -0.0041194401110372274 0 0.017475571225822772 -0.0041194401110372274 0 0.017318332605681098 -0.0045287909165723185 0 0.016813734331127751 -0.0042990736843663601 0 0.016965231497670076 -0.0038364079652786821 0 0.017475571225822772 -0.0041194401110372274 0 0.016813734331127751 -0.0042990736843663601 0 0.017475571225822772 -0.0041194401110372274 0 0.017318332605681098 -0.0045287909165723185 0 0.01794027146548105 -0.0045242431722356518 0 0.016624829728456719 -0.0039533878758354433 0 0.016813734331127751 -0.0042990736843663601 0 0.016367755515592497 -0.0041739816554354067 0 0.016965231497670076 -0.0038364079652786821 0 0.016624829728456719 -0.0039533878758354433 0 0.016813734331127751 -0.0042990736843663601 0 0.016813734331127751 -0.0042990736843663601 0 0.016367755515592497 -0.0041739816554354067 0 0.016307866885123593 -0.0047097806523257344 0 0.016367755515592497 -0.0041739816554354067 0 0.01587335373056516 -0.0043933726632552237 0 0.016307866885123593 -0.0047097806523257344 0 0.01649367085914703 -0.0035063599054469272 0 0.016367755515592497 -0.0041739816554354067 0 0.01587335373056516 -0.0043933726632552237 0 0.0036989027767020096 -0.004325091460797386 0 0.0031214368884921306 -0.0043396878616311771 0 0.0030746239435330493 -0.0043888404885474618 0 0.0039252634268834184 -0.0039505552841773471 0 0.0036989027767020096 -0.004325091460797386 0 0.0031214368884921306 -0.0043396878616311771 0 0.0019521298076289862 -0.0050634522379966436 0 0.0030746239435330493 -0.0043888404885474618 0 0.0021515318769448418 -0.0043803867478909939 0 0.0029260051615797433 -0.0044419705232205311 0 0.0030122038458338979 -0.0043758110282363406 0 0.0018944686289287999 -0.003972422332023647 0 0.0021515318769448418 -0.0043803867478909939 0 0.0025151316911308564 -0.0041282535044024531 0 0.0030746239435330493 -0.0043888404885474618 0 0.0021515318769448418 -0.0043803867478909939 0 0.0025151316911308564 -0.0041282535044024531 0 0.0018944686289287999 -0.003972422332023647 0 0.0025151316911308564 -0.0041282535044024531 0 0.0024213890178273211 -0.003833789828783794 0 0.0019175769395905875 -0.0036094893729527585 0 0.0018944686289287999 -0.003972422332023647 0 0.0024213890178273211 -0.003833789828783794 0 0.0030746239435330493 -0.0043888404885474618 0 0.0025151316911308564 -0.0041282535044024531 0 0.0028510299320148717 -0.0040265579638881542 0 0.0025151316911308564 -0.0041282535044024531 0 0.0024213890178273211 -0.003833789828783794 0 0.0028510299320148717 -0.0040265579638881542 0 0.0030746239435330493 -0.0043888404885474618 0 0.0028510299320148717 -0.0040265579638881542 0 0.0031927204028534264 -0.0042828465127885814 0 0.003206807082828183 -0.0038026817401071058 0 0.0028510299320148717 -0.0040265579638881542 0 0.0031927204028534264 -0.0042828465127885814 0 0.0095813456027658735 -0.0033329496781732792 0 0.0094907608106411991 -0.0040567343947831387 0 0.0033390323965906033 -0.0043084957452357844 0 0.0031214368884921306 -0.0043396878616311771 0 0.0030746239435330493 -0.0043888404885474618 0 0.0033390323965906033 -0.0043084957452357844 0 0.0030746239435330493 -0.0043888404885474618 0 0.0031927204028534264 -0.0042828465127885814 0 0.0036962189553259041 -0.0039679103592475274 0 0.0031927204028534264 -0.0042828465127885814 0 0.0038769048504937688 -0.0041985323517746255 0 0.0042649131688948811 -0.0044828245651058578 0 0.0031927204028534264 -0.0042828465127885814 0 0.0038769048504937688 -0.0041985323517746255 0 0.0095813456027658735 -0.0033329496781732792 0 0.0080162663152459658 -0.0035070462590614492 0 0.016998768056631145 -0.0050246358063561637 0 0.01784235007730671 -0.0053806358395408187 0 0.016377037675091188 -0.0058062436779920913 0 0.016998768056631145 -0.0050246358063561637 0 0.01784235007730671 -0.0053806358395408187 0 0.017665076588571103 -0.0045151109080600214 0 0.01784235007730671 -0.0053806358395408187 0 0.016377037675091188 -0.0058062436779920913 0 0.017679347615692346 -0.0064018789038535386 0 0.016377037675091188 -0.0058062436779920913 0 0.015494166332090008 -0.0058202493606380693 0 0.014909477938032082 -0.0067657980922691272 0 0.015494166332090008 -0.0058202493606380693 0 0.014809395965908813 -0.0058860463596421336 0 0.014909477938032082 -0.0067657980922691272 0 0.014809395965908813 -0.0058860463596421336 0 0.015878177933868746 -0.0048312627267169585 0 0.014587593139889376 -0.004662328911790913 0 0.015494166332090008 -0.0058202493606380693 0 0.014809395965908813 -0.0058860463596421336 0 0.015878177933868746 -0.0048312627267169585 0 0.016377037675091188 -0.0058062436779920913 0 0.015494166332090008 -0.0058202493606380693 0 0.015878177933868746 -0.0048312627267169585 0 0.016998768056631145 -0.0050246358063561637 0 0.016377037675091188 -0.0058062436779920913 0 0.015878177933868746 -0.0048312627267169585 0 0.015878177933868746 -0.0048312627267169585 0 0.017188499186386468 -0.0042135496250173855 0 0.016454150503897532 -0.0032245087272552643 0 0.015878177933868746 -0.0048312627267169585 0 0.015306397089271399 -0.0037998020553387346 0 0.016454150503897532 -0.0032245087272552643 0 0.015878177933868746 -0.0048312627267169585 0 0.015306397089271399 -0.0037998020553387346 0 0.014587593139889376 -0.004662328911790913 0 0.017735963978663349 -0.0035979150343885906 0 0.017188499186386468 -0.0042135496250173855 0 0.016454150503897532 -0.0032245087272552643 0 0.017735963978663349 -0.0035979150343885906 0 0.017188499186386468 -0.0042135496250173855 0 0.017885798527421688 -0.0039517709906545751 0 0.016998768056631145 -0.0050246358063561637 0 0.017188499186386468 -0.0042135496250173855 0 0.017665076588571103 -0.0045151109080600214 0 0.016998768056631145 -0.0050246358063561637 0 0.015878177933868746 -0.0048312627267169585 0 0.017188499186386468 -0.0042135496250173855 0 0.01784235007730671 -0.0053806358395408187 0 0.017665076588571103 -0.0045151109080600214 0 0.018234402804458719 -0.004038625726542483 0 0.017188499186386468 -0.0042135496250173855 0 0.017665076588571103 -0.0045151109080600214 0 0.017885798527421688 -0.0039517709906545751 0 0.017665076588571103 -0.0045151109080600214 0 0.018234402804458719 -0.004038625726542483 0 0.017885798527421688 -0.0039517709906545751 0 0.018234402804458719 -0.004038625726542483 0 0.017885798527421688 -0.0039517709906545751 0 0.018287537253465335 -0.0034282686954785774 0 0.017735963978663349 -0.0035979150343885906 0 0.017885798527421688 -0.0039517709906545751 0 0.018287537253465335 -0.0034282686954785774 0 0.017735963978663349 -0.0035979150343885906 0 0.018287537253465335 -0.0034282686954785774 0 0.01812027967576274 -0.0029479067412956561 0 0.018210239903269886 -0.0045643589544330232 0 0.018496528251891086 -0.0041270881523071054 0 0.018533138340256845 -0.003485889564637884 0 0.018720515351623425 -0.0036292461750608443 0 0.018755766639057009 -0.0030229516731376652 0 0.01784235007730671 -0.0053806358395408187 0 0.018411332435289533 -0.0045021895359345721 0 0.018419202892311647 -0.0045812310324841662 0 0.01784235007730671 -0.0053806358395408187 0 0.018720515351623425 -0.0036292461750608443 0 0.019422753776010979 -0.0032508011069962263 0 0.01784235007730671 -0.0053806358395408187 0 0.018234402804458719 -0.004038625726542483 0 0.018720515351623425 -0.0036292461750608443 0 0.018234402804458719 -0.004038625726542483 0 0.018533138340256845 -0.003485889564637884 0 0.018720515351623425 -0.0036292461750608443 0 0.018234402804458719 -0.004038625726542483 0 0.018287537253465335 -0.0034282686954785774 0 0.018533138340256845 -0.003485889564637884 0 0.018720515351623425 -0.0036292461750608443 0 0.019422753776010979 -0.0032508011069962263 0 0.019058968577200592 -0.003137772195577961 0 0.017475571225822772 -0.0041194401110372274 0 0.01794027146548105 -0.0045242431722356518 0 0.017989695694745875 -0.0042748647793500018 0 0.018419202892311647 -0.0045812310324841662 0 0.01794027146548105 -0.0045242431722356518 0 0.017989695694745875 -0.0042748647793500018 0 0.018411332435289533 -0.0045021895359345721 0 0.018419202892311647 -0.0045812310324841662 0 0.01794027146548105 -0.0045242431722356518 0 0.018419202892311647 -0.0045812310324841662 0 0.017989695694745875 -0.0042748647793500018 0 0.018000503049310841 -0.0039296714234566127 0 0.017475571225822772 -0.0041194401110372274 0 0.017989695694745875 -0.0042748647793500018 0 0.018000503049310841 -0.0039296714234566127 0 0.017347832147266654 -0.0034035995540068666 0 0.018000503049310841 -0.0039296714234566127 0 0.018275888619322559 -0.0032800317084076664 0 0.014144627566055872 -0.0049203544906344931 0 0.012691271534136069 -0.0048759929500608581 0 0.011378369599536049 -0.0040602854998659397 0 0.012691271534136069 -0.0048759929500608581 0 0.018419202892311647 -0.0045812310324841662 0 0.018000503049310841 -0.0039296714234566127 0 0.018275888619322559 -0.0032800317084076664 0 0.01784235007730671 -0.0053806358395408187 0 0.018833225302947013 -0.0059654207119587818 0 0.017679347615692346 -0.0064018789038535386 0 0.01784235007730671 -0.0053806358395408187 0 0.018419202892311647 -0.0045812310324841662 0 0.018833225302947013 -0.0059654207119587818 0 0.01069332231702682 -0.0059863509543840107 0 0.0085126085648322917 -0.0081057244586470682 0 0.011500147694191293 -0.0078603212837838644 0 0.01069332231702682 -0.0059863509543840107 0 0.0085126085648322917 -0.0081057244586470682 0 0.0082808124158218113 -0.0052516582691531262 0 0.012691271534136069 -0.0048759929500608581 0 0.013800197116597348 -0.0055933776365052271 0 0.0057695257110465473 -0.0035366150662722961 0 0.007297199129035873 -0.0043681442987362684 0 0.0071892967009517996 -0.0029870778179385072 0 0.012691271534136069 -0.0048759929500608581 0 0.010546976466329204 -0.0037536815436820022 0 0.0062027499216745557 -0.002584214357032483 0 0.0071892967009517996 -0.0029870778179385072 0 0.0072257370151695794 -0.001686913818761016 0 0.0062027499216745557 -0.002584214357032483 0 0.0057695257110465473 -0.0035366150662722961 0 0.0071892967009517996 -0.0029870778179385072 0 0.01069332231702682 -0.0059863509543840107 0 0.0082808124158218113 -0.0052516582691531262 0 0.0096371270216680949 -0.0041644537713740248 0 0.0082808124158218113 -0.0052516582691531262 0 0.0096371270216680949 -0.0041644537713740248 0 0.0079661915227095849 -0.0026431167397441089 0 0.01069332231702682 -0.0059863509543840107 0 0.0096371270216680949 -0.0041644537713740248 0 0.011143872202021695 -0.0043296147383907954 0 0.011143872202021695 -0.0043296147383907954 0 0.012788867764360929 -0.0048767054286195004 0 0.01227176841568511 -0.005606067022753498 0 0.011143872202021695 -0.0043296147383907954 0 0.012788867764360929 -0.0048767054286195004 0 0.011644938880801757 -0.0033543079976855856 0 0.012788867764360929 -0.0048767054286195004 0 0.01227176841568511 -0.005606067022753498 0 0.01353974034086656 -0.0061726400822227964 0 0.01069332231702682 -0.0059863509543840107 0 0.011143872202021695 -0.0043296147383907954 0 0.01227176841568511 -0.005606067022753498 0 0.016377037675091188 -0.0058062436779920913 0 0.017679347615692346 -0.0064018789038535386 0 0.014909477938032082 -0.0067657980922691272 0 0.01069332231702682 -0.0059863509543840107 0 0.01262728427987965 -0.0066066863249936497 0 0.011500147694191293 -0.0078603212837838644 0 0.013800197116597348 -0.0055933776365052271 0 0.0141242953120081 -0.0057894715312521057 0 0.01069332231702682 -0.0059863509543840107 0 0.01227176841568511 -0.005606067022753498 0 0.01262728427987965 -0.0066066863249936497 0 0.01262728427987965 -0.0066066863249936497 0 0.011500147694191293 -0.0078603212837838644 0 0.014909477938032082 -0.0067657980922691272 0 0.01227176841568511 -0.005606067022753498 0 0.01262728427987965 -0.0066066863249936497 0 0.01353974034086656 -0.0061726400822227964 0 0.014809395965908813 -0.0058860463596421336 0 0.014909477938032082 -0.0067657980922691272 0 0.014913927285236057 -0.0067240567156529665 0 0.01262728427987965 -0.0066066863249936497 0 0.014909477938032082 -0.0067657980922691272 0 0.01353974034086656 -0.0061726400822227964 0 0.014909477938032082 -0.0067657980922691272 0 0.01353974034086656 -0.0061726400822227964 0 0.014913927285236057 -0.0067240567156529665 0 0.0015590797148047463 0.00094068579955306527 0 0.0012285610532792673 0.0021067802101884794 0 0.00060480500127825878 0.0026681396553535903 0 0.0084710849331325871 -0.0018077677818471556 0 0.0068172987896753974 -0.00034780200905612166 0 0.012788867764360929 -0.0048767054286195004 0 0.014913927285236057 -0.0067240567156529665 0 0.012977523113251796 -0.0033479137087027524 0 0.0015590797148047463 0.00094068579955306527 0 0.0015641390423913265 0.0019055464190339722 0 0.0012285610532792673 0.0021067802101884794 0 0.012788867764360929 -0.0048767054286195004 0 0.01353974034086656 -0.0061726400822227964 0 0.014913927285236057 -0.0067240567156529665 0 0.0015641390423913265 0.0019055464190339722 0 0.0012285610532792673 0.0021067802101884794 0 0.0012209830665573242 0.0029486261436048257 0 0.0012209830665573242 0.0029486261436048257 0 0.00060480500127825878 0.0026681396553535903 0 -0.00013541135495376646 0.004804418189943341 0 -8.9953912536613301e-05 0.0038049944337932348 0 0.00025169012815741962 0.0043099432578710475 0 0.0010889637117610302 0.0037602465165082186 0 0.0012285610532792673 0.0021067802101884794 0 0.0012209830665573242 0.0029486261436048257 0 0.00060480500127825878 0.0026681396553535903 0 0.012788867764360929 -0.0048767054286195004 0 0.012977523113251796 -0.0033479137087027524 0 0.011644938880801757 -0.0033543079976855856 0 0.011143872202021695 -0.0043296147383907954 0 0.011644938880801757 -0.0033543079976855856 0 0.010172563946360052 -0.0027094002809605515 0 0.011261107240192691 -0.0020576347312716327 0 0.010172563946360052 -0.0027094002809605515 0 0.010250633416868403 -0.0016300793624708762 0 0.011644938880801757 -0.0033543079976855856 0 0.011261107240192691 -0.0020576347312716327 0 0.010172563946360052 -0.0027094002809605515 0 0.012977523113251796 -0.0033479137087027524 0 0.011644938880801757 -0.0033543079976855856 0 0.011261107240192691 -0.0020576347312716327 0 0.012977523113251796 -0.0033479137087027524 0 0.011261107240192691 -0.0020576347312716327 0 0.0105706191391253 -0.00053366730967194698 0 0.00060480500127825878 0.0026681396553535903 0 -0.00013541135495376646 0.004804418189943341 0 -0.00029880630407483111 0.0048957728952424085 0 -8.9953912536613301e-05 0.0038049944337932348 0 -0.00013541135495376646 0.004804418189943341 0 -5.9270386221048321e-05 0.0046211346144336696 0 0.00082264256730702064 0.0031399788578629481 0 0.00029667581877089553 0.0037939243280741301 0 0.0068172987896753974 -0.00034780200905612166 0 0.0050180222200608459 0.0014384327051142811 0 0.011261107240192691 -0.0020576347312716327 0 0.010518081733729968 -0.001289370328176832 0 0.0105706191391253 -0.00053366730967194698 0 0.011261107240192691 -0.0020576347312716327 0 0.010518081733729968 -0.001289370328176832 0 0.010250633416868403 -0.0016300793624708762 0 0.010518081733729968 -0.001289370328176832 0 0.0105706191391253 -0.00053366730967194698 0 0.010010472026400204 -0.00094898080015360102 0 -0.00013541135495376646 0.004804418189943341 0 -9.2828436731465621e-05 0.0048586695812808407 0 -0.00015940738137317463 0.0049127465375900358 0 -0.00013541135495376646 0.004804418189943341 0 -0.00029880630407483111 0.0048957728952424085 0 -0.00015940738137317463 0.0049127465375900358 0 -0.00013541135495376646 0.004804418189943341 0 -9.2828436731465621e-05 0.0048586695812808407 0 -5.9270386221048321e-05 0.0046211346144336696 0 -9.2828436731465621e-05 0.0048586695812808407 0 -5.9270386221048321e-05 0.0046211346144336696 0 -1.4173025953965298e-05 0.0049014649305826781 0 -8.9953912536613301e-05 0.0038049944337932348 0 -5.9270386221048321e-05 0.0046211346144336696 0 1.7125637464077312e-05 0.0045653716119328346 0 -5.9270386221048321e-05 0.0046211346144336696 0 1.7125637464077312e-05 0.0045653716119328346 0 -1.4173025953965298e-05 0.0049014649305826781 0 0.00015789257459171579 0.0050073833601421312 0 1.7125637464077312e-05 0.0045653716119328346 0 -1.4173025953965298e-05 0.0049014649305826781 0 0.00015789257459171579 0.0050073833601421312 0 0.00025169012815741962 0.0043099432578710475 0 1.7125637464077312e-05 0.0045653716119328346 0 -8.9953912536613301e-05 0.0038049944337932348 0 0.00025169012815741962 0.0043099432578710475 0 1.7125637464077312e-05 0.0045653716119328346 0 0.010546976466329204 -0.0037536815436820022 0 0.0094490878182908432 -0.0022825504648174453 0 0.0058025973974578284 -0.0019705222779606174 0 0.0062027499216745557 -0.002584214357032483 0 0.0072257370151695794 -0.001686913818761016 0 0.0096371270216680949 -0.0041644537713740248 0 0.0079661915227095849 -0.0026431167397441089 0 0.010172563946360052 -0.0027094002809605515 0 0.0079661915227095849 -0.0026431167397441089 0 0.010172563946360052 -0.0027094002809605515 0 0.0090466384264172705 -0.0013724895066134139 0 0.0096371270216680949 -0.0041644537713740248 0 0.011143872202021695 -0.0043296147383907954 0 0.010172563946360052 -0.0027094002809605515 0 0.010250633416868403 -0.0016300793624708762 0 0.010010472026400204 -0.00094898080015360102 0 0.0090466384264172705 -0.0013724895066134139 0 0.010172563946360052 -0.0027094002809605515 0 0.010250633416868403 -0.0016300793624708762 0 0.0090466384264172705 -0.0013724895066134139 0 0.010518081733729968 -0.001289370328176832 0 0.010250633416868403 -0.0016300793624708762 0 0.010010472026400204 -0.00094898080015360102 0 0.0105706191391253 -0.00053366730967194698 0 0.0098903758151109682 -0.00055198979453899093 0 0.009279566290322401 2.3008151040086326e-05 0 0.010010472026400204 -0.00094898080015360102 0 0.0094464667897293398 -0.00063732181957627007 0 0.0090466384264172705 -0.0013724895066134139 0 0.0105706191391253 -0.00053366730967194698 0 0.010010472026400204 -0.00094898080015360102 0 0.0098903758151109682 -0.00055198979453899093 0 0.010010472026400204 -0.00094898080015360102 0 0.0098903758151109682 -0.00055198979453899093 0 0.0094464667897293398 -0.00063732181957627007 0 0.0098903758151109682 -0.00055198979453899093 0 0.0094464667897293398 -0.00063732181957627007 0 0.009279566290322401 2.3008151040086326e-05 0 0.0085689908656928406 -0.00039059477325285776 0 0.0090466384264172705 -0.0013724895066134139 0 0.0074650122115657025 -0.00025472022663028491 0 0.0094464667897293398 -0.00063732181957627007 0 0.0085689908656928406 -0.00039059477325285776 0 0.0090466384264172705 -0.0013724895066134139 0 0.0079661915227095849 -0.0026431167397441089 0 0.0090466384264172705 -0.0013724895066134139 0 0.0074650122115657025 -0.00025472022663028491 0 0.0058551817869547289 -0.0010322039370831372 0 0.0072257370151695794 -0.001686913818761016 0 0.0074650122115657025 -0.00025472022663028491 0 0.0094490878182908432 -0.0022825504648174453 0 0.009097071950229239 -0.0014723713934087473 0 0.0062333387613941124 0.00013920311614937567 0 0.0071978410255795506 0.00097435919294794522 0 0.0074650122115657025 -0.00025472022663028491 0 0.0085689908656928406 -0.00039059477325285776 0 0.0074650122115657025 -0.00025472022663028491 0 0.0079512242686475519 0.00055137637146199074 0 0.0071978410255795506 0.00097435919294794522 0 0.0079512242686475519 0.00055137637146199074 0 0.0082630350448862581 0.001345255292884794 0 0.0071978410255795506 0.00097435919294794522 0 0.0074650122115657025 -0.00025472022663028491 0 0.0079512242686475519 0.00055137637146199074 0 -0.00029880630407483111 0.0048957728952424085 0 9.1150374816439801e-05 0.0049871863908137444 0 -0.00010756066815142074 0.00495117938034614 0 0.0105706191391253 -0.00053366730967194698 0 0.009279566290322401 2.3008151040086326e-05 0 0.0084879082505221106 0.0016510129106098528 0 0.0085939344990493289 0.00073975076115893727 0 0.009279566290322401 2.3008151040086326e-05 0 0.0084879082505221106 0.0016510129106098528 0 0.0050180222200608459 0.0014384327051142811 0 0.0031005036839093984 0.0027835974933751915 0 0.0079512242686475519 0.00055137637146199074 0 0.0085939344990493289 0.00073975076115893727 0 0.0082630350448862581 0.001345255292884794 0 0.0079512242686475519 0.00055137637146199074 0 0.0085939344990493289 0.00073975076115893727 0 0.0086571880994842764 0.00019060062497782042 0 0.0085689908656928406 -0.00039059477325285776 0 0.0079512242686475519 0.00055137637146199074 0 0.0086571880994842764 0.00019060062497782042 0 0.0085939344990493289 0.00073975076115893727 0 0.0086571880994842764 0.00019060062497782042 0 0.009279566290322401 2.3008151040086326e-05 0 0.0094464667897293398 -0.00063732181957627007 0 0.0085689908656928406 -0.00039059477325285776 0 0.009279566290322401 2.3008151040086326e-05 0 0.0085689908656928406 -0.00039059477325285776 0 0.0086571880994842764 0.00019060062497782042 0 0.009279566290322401 2.3008151040086326e-05 0 9.1150374816439801e-05 0.0049871863908137444 0 -1.8794487997115397e-05 0.0049754296704891676 0 -0.00010756066815142074 0.00495117938034614 0 9.1150374816439801e-05 0.0049871863908137444 0 -1.8794487997115397e-05 0.0049754296704891676 0 9.2070936252558057e-05 0.0049522788108272379 0 0.0085939344990493289 0.00073975076115893727 0 0.0084879082505221106 0.0016510129106098528 0 0.0082630350448862581 0.001345255292884794 0 0.0083843318763571935 0.0015108615265941718 0 0.0082630350448862581 0.001345255292884794 0 0.007523570709519015 0.0018977789255147065 0 0.0031005036839093984 0.0027835974933751915 0 0.0031533470122178395 0.0028052269187293297 0 0.0029948843704716323 0.0022703749616747285 0 0.0031005036839093984 0.0027835974933751915 0 0.0074079539342298655 0.0027032449059692844 0 0.0083843318763571935 0.0015108615265941718 0 0.007523570709519015 0.0018977789255147065 0 0.0071978410255795506 0.00097435919294794522 0 0.0082630350448862581 0.001345255292884794 0 0.007523570709519015 0.0018977789255147065 0 0.0063358399135204305 0.0023144991478370276 0 0.0062561989436785443 0.0012748217626638077 0 0.007523570709519015 0.0018977789255147065 0 0.0062561989436785443 0.0012748217626638077 0 0.0071978410255795506 0.00097435919294794522 0 0.007523570709519015 0.0018977789255147065 0 -7.8696340608587071e-06 0.0049927514886967724 0 1.7622159648232417e-05 0.0050531561781903189 0 3.279545408865789e-05 0.0050041677826611515 0 0.00015789257459171579 0.0050073833601421312 0 1.7622159648232417e-05 0.0050531561781903189 0 -1.4173025953965298e-05 0.0049014649305826781 0 -7.8696340608587071e-06 0.0049927514886967724 0 1.7622159648232417e-05 0.0050531561781903189 0 -1.4173025953965298e-05 0.0049014649305826781 0 -9.2828436731465621e-05 0.0048586695812808407 0 -1.4173025953965298e-05 0.0049014649305826781 0 -7.2582735443655767e-05 0.0049622746415554451 0 -7.8696340608587071e-06 0.0049927514886967724 0 -1.4173025953965298e-05 0.0049014649305826781 0 -7.2582735443655767e-05 0.0049622746415554451 0 -9.2828436731465621e-05 0.0048586695812808407 0 -7.2582735443655767e-05 0.0049622746415554451 0 -0.00015940738137317463 0.0049127465375900358 0 -0.00029880630407483111 0.0048957728952424085 0 -0.00015940738137317463 0.0049127465375900358 0 -0.00010756066815142074 0.00495117938034614 0 -7.2582735443655767e-05 0.0049622746415554451 0 -0.00015940738137317463 0.0049127465375900358 0 -0.00010756066815142074 0.00495117938034614 0 -7.2582735443655767e-05 0.0049622746415554451 0 -1.8794487997115397e-05 0.0049754296704891676 0 3.279545408865789e-05 0.0050041677826611515 0 -7.2582735443655767e-05 0.0049622746415554451 0 -1.8794487997115397e-05 0.0049754296704891676 0 -0.00010756066815142074 0.00495117938034614 0 -7.8696340608587071e-06 0.0049927514886967724 0 -7.2582735443655767e-05 0.0049622746415554451 0 3.279545408865789e-05 0.0050041677826611515 0 0.00026330503375603044 0.0047987646092542916 0 3.279545408865789e-05 0.0050041677826611515 0 9.2070936252558057e-05 0.0049522788108272379 0 0.00026330503375603044 0.0047987646092542916 0 9.1150374816439801e-05 0.0049871863908137444 0 9.2070936252558057e-05 0.0049522788108272379 0 0.00026330503375603044 0.0047987646092542916 0 3.279545408865789e-05 0.0050041677826611515 0 3.7505757985978807e-05 0.0049818022062124495 0 -1.8794487997115397e-05 0.0049754296704891676 0 3.279545408865789e-05 0.0050041677826611515 0 9.2070936252558057e-05 0.0049522788108272379 0 1.7622159648232417e-05 0.0050531561781903189 0 3.279545408865789e-05 0.0050041677826611515 0 3.7505757985978807e-05 0.0049818022062124495 0 1.7622159648232417e-05 0.0050531561781903189 0 3.7505757985978807e-05 0.0049818022062124495 0 -0.00022794753558147432 0.0051483547732509259 0 1.7622159648232417e-05 0.0050531561781903189 0 -0.00022794753558147432 0.0051483547732509259 0 -0.00022304495986124053 0.0051083108753401905 0 0.00015789257459171579 0.0050073833601421312 0 1.7622159648232417e-05 0.0050531561781903189 0 -0.00022304495986124053 0.0051083108753401905 0 -0.00022304495986124053 0.0051083108753401905 0 -0.0002543450810205104 0.0053965894175544279 0 5.2853085598543828e-05 0.005166065467879552 0 -0.00048076561464401756 0.0052322953571635631 0 -0.00022794753558147432 0.0051483547732509259 0 -0.0002543450810205104 0.0053965894175544279 0 -0.00022794753558147432 0.0051483547732509259 0 -0.00022304495986124053 0.0051083108753401905 0 -0.0002543450810205104 0.0053965894175544279 0 -0.0002543450810205104 0.0053965894175544279 0 -0.00026774815212761216 0.0054763888859979603 0 0.00059510749037825416 0.0060272706074184891 0 -0.00048076561464401756 0.0052322953571635631 0 -0.0002543450810205104 0.0053965894175544279 0 -0.00026774815212761216 0.0054763888859979603 0 -0.00026774815212761216 0.0054763888859979603 0 -0.00039510929216931802 0.0054970362196372297 0 0.00059510749037825416 0.0060272706074184891 0 -0.00049397809715839966 0.0053577020573976871 0 -0.00026774815212761216 0.0054763888859979603 0 -0.00039510929216931802 0.0054970362196372297 0 0.0010277020588119949 0.0067430346007638321 0 0.00090130396802285946 0.0065383632479985351 0 0.001859502024798983 0.0086939603244637377 0 0.00059510749037825416 0.0060272706074184891 0 0.002728231866853217 0.0068109873368836496 0 0.00059510749037825416 0.0060272706074184891 0 0.002728231866853217 0.0068109873368836496 0 0.0024784884446983017 0.004941105527668437 0 0.00059510749037825416 0.0060272706074184891 0 5.2853085598543828e-05 0.005166065467879552 0 0.0024784884446983017 0.004941105527668437 0 -0.0002543450810205104 0.0053965894175544279 0 0.00059510749037825416 0.0060272706074184891 0 5.2853085598543828e-05 0.005166065467879552 0 5.2853085598543828e-05 0.005166065467879552 0 0.00098577379469030934 0.0035269843201296476 0 -0.00034473709585277333 0.0048051212792829777 0 0.0031784085920323751 0.0036501034058179665 0 0.0016161780296350191 0.0042873628395151409 0 5.2853085598543828e-05 0.005166065467879552 0 0.00098577379469030934 0.0035269843201296476 0 0.0024784884446983017 0.004941105527668437 0 0.0047660673985469113 0.003679194670474506 0 0.0066110184608811403 0.0028262949705521582 0 0.0053979063857639425 0.0019122755269635582 0 0.0047660673985469113 0.003679194670474506 0 0.0025797995829383615 0.0045271425077096552 0 0.0035960415440978656 0.0021639273185398689 0 0.0021940777137461763 0.0030807514626437363 0 0.0010889637117610302 0.0037602465165082186 0 0.0025797995829383615 0.0045271425077096552 0 0.0021940777137461763 0.0030807514626437363 0 0.0025797995829383615 0.0045271425077096552 0 0.0035960415440978656 0.0021639273185398689 0 -8.9953912536613301e-05 0.0038049944337932348 0 0.0010889637117610302 0.0037602465165082186 0 0.0014942738952276773 0.0018665522576085676 0 0.0021940777137461763 0.0030807514626437363 0 0.0010889637117610302 0.0037602465165082186 0 0.0014942738952276773 0.0018665522576085676 0 0.00015789257459171579 0.0050073833601421312 0 0.00025169012815741962 0.0043099432578710475 0 0.0010889637117610302 0.0037602465165082186 0 0.00015789257459171579 0.0050073833601421312 0 0.0010889637117610302 0.0037602465165082186 0 0.0025797995829383615 0.0045271425077096552 0 0.00015789257459171579 0.0050073833601421312 0 -0.00022304495986124053 0.0051083108753401905 0 -0.00034473709585277333 0.0048051212792829777 0 0.00095002531604523779 0.004555017672921588 0 0.0016161780296350191 0.0042873628395151409 0 -0.00022304495986124053 0.0051083108753401905 0 5.2853085598543828e-05 0.005166065467879552 0 -0.00034473709585277333 0.0048051212792829777 0 0.010768386749009365 0.0053525611449626908 0 0.0091046037303092481 0.0075990141340068805 0 0.0089909710970492111 0.0045158232063595427 0 0.0088832468589848806 0.0086893306279916434 0 0.0099772809577371706 0.0085050599283642107 0 0.0091046037303092481 0.0075990141340068805 0 0.0091046037303092481 0.0075990141340068805 0 0.0070937995386212982 0.0063873555692110966 0 0.006225529995860896 0.0091635545471129409 0 0.0067336864225426528 0.0068343424642322136 0 0.0051757413272302093 0.0070134453987136724 0 0.0088832468589848806 0.0086893306279916434 0 0.0091046037303092481 0.0075990141340068805 0 0.0073195386541304985 0.0084775802455468712 0 0.0091046037303092481 0.0075990141340068805 0 0.0070937995386212982 0.0063873555692110966 0 0.0089909710970492111 0.0045158232063595427 0 0.0070937995386212982 0.0063873555692110966 0 0.004754530484253127 0.006579922494833329 0 0.006159546807509771 0.0044438388028186573 0 0.0070937995386212982 0.0063873555692110966 0 0.004754530484253127 0.006579922494833329 0 0.006225529995860896 0.0091635545471129409 0 0.004754530484253127 0.006579922494833329 0 0.006225529995860896 0.0091635545471129409 0 0.0037541149514440093 0.0084017088095266843 0 0.0030006253367714682 0.010758825885133088 0 0.001859502024798983 0.0086939603244637377 0 0.0037541149514440093 0.0084017088095266843 0 0.001859502024798983 0.0086939603244637377 0 0.0037541149514440093 0.0084017088095266843 0 0.002728231866853217 0.0068109873368836496 0 0.004754530484253127 0.006579922494833329 0 0.002728231866853217 0.0068109873368836496 0 0.0024784884446983017 0.004941105527668437 0 0.004754530484253127 0.006579922494833329 0 0.0037541149514440093 0.0084017088095266843 0 0.002728231866853217 0.0068109873368836496 0 0.0024784884446983017 0.004941105527668437 0 0.0041846958126641985 0.0024215820644808124 0 0.006159546807509771 0.0044438388028186573 0 0.0031784085920323751 0.0036501034058179665 0 0.0050840823464528015 0.0029586636303050536 0 0.00098577379469030934 0.0035269843201296476 0 0.0024784884446983017 0.004941105527668437 0 0.0041846958126641985 0.0024215820644808124 0 0.0050840823464528015 0.0029586636303050536 0 0.006228145014958531 0.0025971320061188219 0 0.0041846958126641985 0.0024215820644808124 0 0.006159546807509771 0.0044438388028186573 0 0.0079949977387843013 0.0021507062575448314 0 0.004754530484253127 0.006579922494833329 0 0.0024784884446983017 0.004941105527668437 0 0.006159546807509771 0.0044438388028186573 0 0.0070937995386212982 0.0063873555692110966 0 0.006159546807509771 0.0044438388028186573 0 0.0089909710970492111 0.0045158232063595427 0 0.006159546807509771 0.0044438388028186573 0 0.0089909710970492111 0.0045158232063595427 0 0.0079949977387843013 0.0021507062575448314 0 0.011096402039331607 0.0037004989282609178 0 0.0089909710970492111 0.0045158232063595427 0 0.010126000066022472 0.0023544479247946597 0 0.0089909710970492111 0.0045158232063595427 0 0.010126000066022472 0.0023544479247946597 0 0.0079949977387843013 0.0021507062575448314 0 0.0095860288109512626 0.00084691101631426179 0 0.0079949977387843013 0.0021507062575448314 0 0.0082138529628788121 6.932506085987918e-05 0 0.010957148031016398 0.001168147203763778 0 0.0095860288109512626 0.00084691101631426179 0 0.010126000066022472 0.0023544479247946597 0 0.010957148031016398 0.001168147203763778 0 0.010790706731875075 6.6927059747171692e-05 0 0.0095860288109512626 0.00084691101631426179 0 0.0095860288109512626 0.00084691101631426179 0 0.010126000066022472 0.0023544479247946597 0 0.0079949977387843013 0.0021507062575448314 0 0.0079949977387843013 0.0021507062575448314 0 0.0070755960707031247 0.001284804710677753 0 0.0082138529628788121 6.932506085987918e-05 0 0.0070755960707031247 0.001284804710677753 0 0.0069726211425100802 -4.6130467103874914e-05 0 0.0082138529628788121 6.932506085987918e-05 0 0.0066110184608811403 0.0028262949705521582 0 0.0079949977387843013 0.0021507062575448314 0 0.0070755960707031247 0.001284804710677753 0 0.0066110184608811403 0.0028262949705521582 0 0.0070755960707031247 0.001284804710677753 0 0.0053979063857639425 0.0019122755269635582 0 0.0070755960707031247 0.001284804710677753 0 0.0059155718503213729 0.00045179279727589896 0 0.0053979063857639425 0.0019122755269635582 0 0.0070755960707031247 0.001284804710677753 0 0.0059155718503213729 0.00045179279727589896 0 0.0069726211425100802 -4.6130467103874914e-05 0 0.0059155718503213729 0.00045179279727589896 0 0.0061284165696477285 -0.00082393390474197806 0 0.0069726211425100802 -4.6130467103874914e-05 0 0.0061284165696477285 -0.00082393390474197806 0 0.005245341494412829 -0.0014242405141586265 0 0.0062648115472587968 -0.0021387212090101327 0 0.0061284165696477285 -0.00082393390474197806 0 0.0075483358021096606 -0.0012700134026818746 0 0.0062648115472587968 -0.0021387212090101327 0 0.0075483358021096606 -0.0012700134026818746 0 0.0073166934416194545 -0.002356236723904369 0 0.0062648115472587968 -0.0021387212090101327 0 0.0075483358021096606 -0.0012700134026818746 0 0.0087984194237196219 -0.0023401928408032986 0 0.0073166934416194545 -0.002356236723904369 0 0.0061284165696477285 -0.00082393390474197806 0 0.0075483358021096606 -0.0012700134026818746 0 0.0069726211425100802 -4.6130467103874914e-05 0 0.0075483358021096606 -0.0012700134026818746 0 0.0069726211425100802 -4.6130467103874914e-05 0 0.0082138529628788121 6.932506085987918e-05 0 0.0075483358021096606 -0.0012700134026818746 0 0.0082138529628788121 6.932506085987918e-05 0 0.0095957496060631187 -0.0009083467985446322 0 0.0095860288109512626 0.00084691101631426179 0 0.0082138529628788121 6.932506085987918e-05 0 0.0095957496060631187 -0.0009083467985446322 0 0.0075483358021096606 -0.0012700134026818746 0 0.0095957496060631187 -0.0009083467985446322 0 0.0087984194237196219 -0.0023401928408032986 0 0.011224845835390032 -0.0012133842663175729 0 0.010840097510944434 -0.0027399847506473941 0 0.0095957496060631187 -0.0009083467985446322 0 0.010790706731875075 6.6927059747171692e-05 0 0.0095860288109512626 0.00084691101631426179 0 0.0095957496060631187 -0.0009083467985446322 0 0.011224845835390032 -0.0012133842663175729 0 0.010790706731875075 6.6927059747171692e-05 0 0.0095957496060631187 -0.0009083467985446322 0 0.0033422964168470918 0.0002550025825171266 0 0.0023956300049139457 0.00052175816479362112 0 0.0023501903515785361 0.0014586356798810237 0 0.0033422964168470918 0.0002550025825171266 0 0.0014942738952276773 0.0018665522576085676 0 0.0035960415440978656 0.0021639273185398689 0 0.002517257113586495 0.0012072571844506969 0 0.001861580197874409 0.0019285450295486943 0 0.0015590797148047463 0.00094068579955306527 0 0.0023956300049139457 0.00052175816479362112 0 0.0022578649823287444 0.00020220814406211646 0 0.0015590797148047463 0.00094068579955306527 0 0.0020405717270794645 0.0010770658277071152 0 0.0018442329694522536 0.0014014891418288717 0 0.0015590797148047463 0.00094068579955306527 0 0.0023956300049139457 0.00052175816479362112 0 0.0020405717270794645 0.0010770658277071152 0 0.0023956300049139457 0.00052175816479362112 0 0.0020405717270794645 0.0010770658277071152 0 0.0023501903515785361 0.0014586356798810237 0 0.0015641390423913265 0.0019055464190339722 0 0.0012209830665573242 0.0029486261436048257 0 0.0023501903515785361 0.0014586356798810237 0 0.00082264256730702064 0.0031399788578629481 0 0.001861580197874409 0.0019285450295486943 0 0.0015641390423913265 0.0019055464190339722 0 0.0023501903515785361 0.0014586356798810237 0 0.0018442329694522536 0.0014014891418288717 0 0.0020405717270794645 0.0010770658277071152 0 0.0023501903515785361 0.0014586356798810237 0 0.0018442329694522536 0.0014014891418288717 0 0.0015590797148047463 0.00094068579955306527 0 0.0015641390423913265 0.0019055464190339722 0 0.0018442329694522536 0.0014014891418288717 0 0.0021940777137461763 0.0030807514626437363 0 0.0014942738952276773 0.0018665522576085676 0 0.0035960415440978656 0.0021639273185398689 0 0.0047660673985469113 0.003679194670474506 0 0.0035960415440978656 0.0021639273185398689 0 0.0053979063857639425 0.0019122755269635582 0 0.0035960415440978656 0.0021639273185398689 0 0.0053979063857639425 0.0019122755269635582 0 0.0045388660393380102 0.00057123878545743136 0 0.0059155718503213729 0.00045179279727589896 0 0.0053979063857639425 0.0019122755269635582 0 0.0045388660393380102 0.00057123878545743136 0 0.0033422964168470918 0.0002550025825171266 0 0.0035960415440978656 0.0021639273185398689 0 0.0045388660393380102 0.00057123878545743136 0 0.0033422964168470918 0.0002550025825171266 0 0.0045388660393380102 0.00057123878545743136 0 0.0037500606797811783 -0.00054732951038240218 0 0.0045388660393380102 0.00057123878545743136 0 0.0037500606797811783 -0.00054732951038240218 0 0.0049634792139302292 -0.00057428407800677117 0 0.0037500606797811783 -0.00054732951038240218 0 0.0049634792139302292 -0.00057428407800677117 0 0.0043974692076705841 -0.0012867975750457594 0 0.0059155718503213729 0.00045179279727589896 0 0.0045388660393380102 0.00057123878545743136 0 0.0049634792139302292 -0.00057428407800677117 0 0.0059155718503213729 0.00045179279727589896 0 0.0061284165696477285 -0.00082393390474197806 0 0.0049634792139302292 -0.00057428407800677117 0 0.005245341494412829 -0.0014242405141586265 0 0.0045307918687743374 -0.0022121952355877729 0 0.0062648115472587968 -0.0021387212090101327 0 0.0061284165696477285 -0.00082393390474197806 0 0.0049634792139302292 -0.00057428407800677117 0 0.005245341494412829 -0.0014242405141586265 0 0.0049634792139302292 -0.00057428407800677117 0 0.005245341494412829 -0.0014242405141586265 0 0.0043974692076705841 -0.0012867975750457594 0 0.005245341494412829 -0.0014242405141586265 0 0.0043974692076705841 -0.0012867975750457594 0 0.0045307918687743374 -0.0022121952355877729 0 0.0037500606797811783 -0.00054732951038240218 0 0.0043974692076705841 -0.0012867975750457594 0 0.003594221383386526 -0.0015014614950503743 0 0.0070533835190228922 -0.0011391659842925775 0 0.010164645995659265 -0.0024077344758318942 0 0.0043974692076705841 -0.0012867975750457594 0 0.003594221383386526 -0.0015014614950503743 0 0.0045307918687743374 -0.0022121952355877729 0 0.013682786742929946 -0.0053769238785336473 0 0.013469684056037176 -0.0037759805504813311 0 0.012035405519146426 -0.0026931375979035656 0 0.0099822410526047758 -0.0019436642238187562 0 0.013160995512323777 -0.0019673215131231015 0 0.0037500606797811783 -0.00054732951038240218 0 0.003594221383386526 -0.0015014614950503743 0 0.0028134252771591516 -0.00092016459448068691 0 0.0028134252771591516 -0.00092016459448068691 0 0.0022564396993232042 -0.00053713615179185785 0 0.0035978402746883304 -0.002935309707773661 0 0.00423842629280222 -0.0018336061009360731 0 0.0028134252771591516 -0.00092016459448068691 0 0.0035978402746883304 -0.002935309707773661 0 0.0070533835190228922 -0.0011391659842925775 0 0.006064087175914069 -0.00072918603421531292 0 0.0033422964168470918 0.0002550025825171266 0 0.0023956300049139457 0.00052175816479362112 0 0.0028614734775382475 -0.0001272913593406583 0 0.0037500606797811783 -0.00054732951038240218 0 0.0028134252771591516 -0.00092016459448068691 0 0.0028614734775382475 -0.0001272913593406583 0 0.0028134252771591516 -0.00092016459448068691 0 0.0028614734775382475 -0.0001272913593406583 0 0.0022564396993232042 -0.00053713615179185785 0 0.0023956300049139457 0.00052175816479362112 0 0.0028614734775382475 -0.0001272913593406583 0 0.0022578649823287444 0.00020220814406211646 0 0.0033422964168470918 0.0002550025825171266 0 0.0037500606797811783 -0.00054732951038240218 0 0.0028614734775382475 -0.0001272913593406583 0 0.0084710849331325871 -0.0018077677818471556 0 0.0099822410526047758 -0.0019436642238187562 0 0.014809395965908813 -0.0058860463596421336 0 0.014913927285236057 -0.0067240567156529665 0 0.013682786742929946 -0.0053769238785336473 0 0.0015590797148047463 0.00094068579955306527 0 0.0022578649823287444 0.00020220814406211646 0 0.0022564396993232042 -0.00053713615179185785 0 0.0028614734775382475 -0.0001272913593406583 0 0.0022578649823287444 0.00020220814406211646 0 0.0022564396993232042 -0.00053713615179185785 0 0.014809395965908813 -0.0058860463596421336 0 0.013682786742929946 -0.0053769238785336473 0 0.014587593139889376 -0.004662328911790913 0 0.013682786742929946 -0.0053769238785336473 0 0.014587593139889376 -0.004662328911790913 0 0.013469684056037176 -0.0037759805504813311 0 0.015306397089271399 -0.0037998020553387346 0 0.014607246598594364 -0.0036657927304714981 0 0.015074058046054405 -0.0023938883360514408 0 0.013469684056037176 -0.0037759805504813311 0 0.014607246598594364 -0.0036657927304714981 0 0.015074058046054405 -0.0023938883360514408 0 0.015306397089271399 -0.0037998020553387346 0 0.014587593139889376 -0.004662328911790913 0 0.014607246598594364 -0.0036657927304714981 0 0.014587593139889376 -0.004662328911790913 0 0.013469684056037176 -0.0037759805504813311 0 0.014607246598594364 -0.0036657927304714981 0 0.013469684056037176 -0.0037759805504813311 0 0.012035405519146426 -0.0026931375979035656 0 0.015074058046054405 -0.0023938883360514408 0 0.013160995512323777 -0.0019673215131231015 0 0.016612834645771575 -0.0020408560877357546 0 0.019649533436394213 -0.0022937244656320616 0 0.019770781879937156 -0.0020893706420183349 0 0.019404488476008536 -0.0020495827619561946 0 0.019440040819818327 -0.0023205841330776952 0 0.019649533436394213 -0.0022937244656320616 0 0.019404488476008536 -0.0020495827619561946 0 0.019649533436394213 -0.0022937244656320616 0 0.019529271315784996 -0.0023619586566127823 0 0.019635303699775092 -0.0023876700442713359 0 0.019440040819818327 -0.0023205841330776952 0 0.019529271315784996 -0.0023619586566127823 0 0.019421647427191348 -0.0023849493365276295 0 0.019440040819818327 -0.0023205841330776952 0 0.019649533436394213 -0.0022937244656320616 0 0.019529271315784996 -0.0023619586566127823 0 0.019649533436394213 -0.0022937244656320616 0 0.020117610333447312 -0.0022343099070557572 0 0.019788906085829536 -0.0024301052370857769 0 0.020649645814857565 -0.0026473900498538237 0 0.020725543546347456 -0.0027715762049749576 0 0.019649533436394213 -0.0022937244656320616 0 0.019770781879937156 -0.0020893706420183349 0 0.020117610333447312 -0.0022343099070557572 0 0.019770781879937156 -0.0020893706420183349 0 0.019821088494516765 -0.0017871507028042282 0 0.019404488476008536 -0.0020495827619561946 0 0.019770781879937156 -0.0020893706420183349 0 0.019821088494516765 -0.0017871507028042282 0 0.020117610333447312 -0.0022343099070557572 0 0.019254386126349575 -0.00048648834947563971 0 0.021002726587881684 -0.0003596303507298384 0 0.021228675592468119 -0.0016320624610144782 0 0.00423842629280222 -0.0018336061009360731 0 0.0035978402746883304 -0.002935309707773661 0 0.0057112300712052651 -0.0028308646486280994 0 0.013160995512323777 -0.0019673215131231015 0 0.010164645995659265 -0.0024077344758318942 0 0.010164645995659265 -0.0024077344758318942 0 0.007719635107215384 -0.002482012318716924 0 0.004627582570300986 -0.0022641549122432241 0 0.0062648115472587968 -0.0021387212090101327 0 0.0062972601302471246 -0.0035086974436688155 0 0.021002726587881684 -0.0003596303507298384 0 0.021228675592468119 -0.0016320624610144782 0 0.023033530622607119 -0.001938530644463854 0 0.010164645995659265 -0.0024077344758318942 0 0.013743583730459294 -0.0032573258601248721 0 0.021228675592468119 -0.0016320624610144782 0 0.022161042664232428 -0.002707629949642811 0 0.023033530622607119 -0.001938530644463854 0 0.021228675592468119 -0.0016320624610144782 0 0.020557378552230648 -0.0026183422776257215 0 0.022161042664232428 -0.002707629949642811 0 0.013160995512323777 -0.0019673215131231015 0 0.015811623228716539 -0.0033784671424839435 0 0.019821088494516765 -0.0017871507028042282 0 0.020117610333447312 -0.0022343099070557572 0 0.020557378552230648 -0.0026183422776257215 0 0.020117610333447312 -0.0022343099070557572 0 0.020557378552230648 -0.0026183422776257215 0 0.01982295397809547 -0.0031101743791363524 0 0.019254386126349575 -0.00048648834947563971 0 0.021228675592468119 -0.0016320624610144782 0 0.020557378552230648 -0.0026183422776257215 0 0.020557378552230648 -0.0026183422776257215 0 0.020363053787569092 -0.00350318620050683 0 0.01982295397809547 -0.0031101743791363524 0 0.020557378552230648 -0.0026183422776257215 0 0.020363053787569092 -0.00350318620050683 0 0.021281371598094942 -0.0032782203144596767 0 0.020363053787569092 -0.00350318620050683 0 0.021281371598094942 -0.0032782203144596767 0 0.020694310598411824 -0.0041471162838272353 0 0.020557378552230648 -0.0026183422776257215 0 0.022161042664232428 -0.002707629949642811 0 0.021281371598094942 -0.0032782203144596767 0 0.021281371598094942 -0.0032782203144596767 0 0.022073361965372407 -0.0038694540698944874 0 0.020694310598411824 -0.0041471162838272353 0 0.022161042664232428 -0.002707629949642811 0 0.021281371598094942 -0.0032782203144596767 0 0.022073361965372407 -0.0038694540698944874 0 0.022161042664232428 -0.002707629949642811 0 0.022073361965372407 -0.0038694540698944874 0 0.023223168162387706 -0.0031772451373349702 0 0.022098646536277002 -0.0027889451574251481 0 0.021436319484685502 -0.0028670916069465646 0 0.023523697481870876 -0.0032843704277903392 0 0.023571866859856315 -0.0032336581320281418 0 0.023643996965904752 -0.0032234707595481414 0 0.023571866859856315 -0.0032336581320281418 0 0.023643996965904752 -0.0032234707595481414 0 0.023700442994237805 -0.0032327725009956357 0 0.022098646536277002 -0.0027889451574251481 0 0.022141445431698381 -0.0026366563446751628 0 0.023523697481870876 -0.0032843704277903392 0 0.023571866859856315 -0.0032336581320281418 0 0.023375765368483709 -0.0032444582033028285 0 0.021734551526376322 -0.0028185772848146194 0 0.021750208864508003 -0.0027552018542647012 0 0.021535989187599268 -0.0028054385013963597 0 0.021436319484685502 -0.0028670916069465646 0 0.021120231023489099 -0.0027154098595341966 0 0.020363053787569092 -0.00350318620050683 0 0.020694310598411824 -0.0041471162838272353 0 0.019486521939078939 -0.0044141859747730203 0 0.02196898077267392 -0.0027084527118903931 0 0.021734551526376322 -0.0028185772848146194 0 0.021750208864508003 -0.0027552018542647012 0 0.022141445431698381 -0.0026366563446751628 0 0.021604989823217641 -0.0025376686898052644 0 0.021734551526376322 -0.0028185772848146194 0 0.021535989187599268 -0.0028054385013963597 0 0.021505187817934004 -0.0029312125198599627 0 0.019623201358120658 -0.0024218753442533094 0 0.019586531150483373 -0.0023675685700183034 0 0.019635622185771025 -0.0024104887177457718 0 0.021120231023489099 -0.0027154098595341966 0 0.021604989823217641 -0.0025376686898052644 0 0.019623201358120658 -0.0024218753442533094 0 0.019583970412349983 -0.002248487439515604 0 0.019586531150483373 -0.0023675685700183034 0 0.021232447710833196 -0.0018341312572882421 0 0.020775257046702831 -0.0019376094695824104 0 0.021181925509847929 -0.0020447144622036963 0 0.021120231023489099 -0.0027154098595341966 0 0.020523679870857677 -0.0025370536868174103 0 0.019583970412349983 -0.002248487439515604 0 0.019586531150483373 -0.0023675685700183034 0 0.019612998455058404 -0.0023436144310035566 0 0.019586531150483373 -0.0023675685700183034 0 0.019553234833762125 -0.0023915833053941601 0 0.019635622185771025 -0.0024104887177457718 0 0.019553234833762125 -0.0023915833053941601 0 0.019635303699775092 -0.0023876700442713359 0 0.019635622185771025 -0.0024104887177457718 0 0.019586531150483373 -0.0023675685700183034 0 0.019553234833762125 -0.0023915833053941601 0 0.019612998455058404 -0.0023436144310035566 0 0.019529271315784996 -0.0023619586566127823 0 0.019553234833762125 -0.0023915833053941601 0 0.019421647427191348 -0.0023849493365276295 0 0.019529271315784996 -0.0023619586566127823 0 0.019553234833762125 -0.0023915833053941601 0 0.019635303699775092 -0.0023876700442713359 0 0.021120231023489099 -0.0027154098595341966 0 0.020725543546347456 -0.0027715762049749576 0 0.020363053787569092 -0.00350318620050683 0 0.019486521939078939 -0.0044141859747730203 0 0.01982295397809547 -0.0031101743791363524 0 0.019649533436394213 -0.0022937244656320616 0 0.019635303699775092 -0.0023876700442713359 0 0.019788906085829536 -0.0024301052370857769 0 0.019635303699775092 -0.0023876700442713359 0 0.019788906085829536 -0.0024301052370857769 0 0.019635622185771025 -0.0024104887177457718 0 0.019623201358120658 -0.0024218753442533094 0 0.019788906085829536 -0.0024301052370857769 0 0.019635622185771025 -0.0024104887177457718 0 0.010840097510944434 -0.0027399847506473941 0 0.010769324989008445 -0.0044117361164890739 0 0.0092899975792655708 -0.0039169313010984771 0 0.010840097510944434 -0.0027399847506473941 0 0.0087984194237196219 -0.0023401928408032986 0 0.0092899975792655708 -0.0039169313010984771 0 0.010840097510944434 -0.0027399847506473941 0 0.0095957496060631187 -0.0009083467985446322 0 0.0087984194237196219 -0.0023401928408032986 0 0.0087984194237196219 -0.0023401928408032986 0 0.0092899975792655708 -0.0039169313010984771 0 0.0077578882211055047 -0.0033983691386173542 0 0.0092899975792655708 -0.0039169313010984771 0 0.0077578882211055047 -0.0033983691386173542 0 0.0081740916269989541 -0.0049117875510634006 0 0.0077578882211055047 -0.0033983691386173542 0 0.0062972601302471246 -0.0035086974436688155 0 0.0081740916269989541 -0.0049117875510634006 0 0.023033530622607119 -0.001938530644463854 0 0.023215956607264557 -0.0026269815735758015 0 0.023731004847074147 -0.0030511260471163251 0 0.013743583730459294 -0.0032573258601248721 0 0.015722290844329429 -0.0038441843014612414 0 0.0077578882211055047 -0.0033983691386173542 0 0.0073166934416194545 -0.002356236723904369 0 0.0062972601302471246 -0.0035086974436688155 0 0.0087984194237196219 -0.0023401928408032986 0 0.0077578882211055047 -0.0033983691386173542 0 0.0073166934416194545 -0.002356236723904369 0 0.0073166934416194545 -0.002356236723904369 0 0.0062648115472587968 -0.0021387212090101327 0 0.0062972601302471246 -0.0035086974436688155 0 0.022161042664232428 -0.002707629949642811 0 0.023033530622607119 -0.001938530644463854 0 0.023215956607264557 -0.0026269815735758015 0 0.022161042664232428 -0.002707629949642811 0 0.023215956607264557 -0.0026269815735758015 0 0.023223168162387706 -0.0031772451373349702 0 0.023215956607264557 -0.0026269815735758015 0 0.023223168162387706 -0.0031772451373349702 0 0.02347194526419203 -0.0030183747960776893 0 0.023223168162387706 -0.0031772451373349702 0 0.023375765368483709 -0.0032444582033028285 0 0.02347194526419203 -0.0030183747960776893 0 0.022098646536277002 -0.0027889451574251481 0 0.022292911662524371 -0.002766045102874285 0 0.023523697481870876 -0.0032843704277903392 0 0.023223168162387706 -0.0031772451373349702 0 0.023375765368483709 -0.0032444582033028285 0 0.023375765368483709 -0.0032444582033028285 0 0.023475855411120235 -0.0032534347909135655 0 0.02347194526419203 -0.0030183747960776893 0 0.023571866859856315 -0.0032336581320281418 0 0.023375765368483709 -0.0032444582033028285 0 0.023475855411120235 -0.0032534347909135655 0 0.023571866859856315 -0.0032336581320281418 0 0.023475855411120235 -0.0032534347909135655 0 0.023594168709790784 -0.0032249515633768497 0 0.024290630790433608 -0.0026970180605235543 0 0.024557804749992793 -0.0025370801664211713 0 0.023475855411120235 -0.0032534347909135655 0 0.02347194526419203 -0.0030183747960776893 0 0.023519909853075723 -0.0032708981753097302 0 0.023215956607264557 -0.0026269815735758015 0 0.023731004847074147 -0.0030511260471163251 0 0.02347194526419203 -0.0030183747960776893 0 0.023731004847074147 -0.0030511260471163251 0 0.02347194526419203 -0.0030183747960776893 0 0.023729824467834757 -0.0030342229306250051 0 0.015722290844329429 -0.0038441843014612414 0 0.017240701710060497 -0.0041666312441077267 0 0.0092899975792655708 -0.0039169313010984771 0 0.0081740916269989541 -0.0049117875510634006 0 0.010208156960089924 -0.0063370914341056971 0 0.023731004847074147 -0.0030511260471163251 0 0.023563518708651334 -0.0030710205948608132 0 0.023729824467834757 -0.0030342229306250051 0 0.01165561748996692 -0.0053407364254527915 0 0.010769324989008445 -0.0044117361164890739 0 0.010208156960089924 -0.0063370914341056971 0 0.010769324989008445 -0.0044117361164890739 0 0.0092899975792655708 -0.0039169313010984771 0 0.010208156960089924 -0.0063370914341056971 0 0.023507730585200906 -0.002757486748820817 0 0.023606102874714579 -0.0027872591991553982 0 0.023592378672459547 -0.0026570435017155289 0 0.023606102874714579 -0.0027872591991553982 0 0.023641668460955414 -0.0027015754005183727 0 0.023592378672459547 -0.0026570435017155289 0 0.023507730585200906 -0.002757486748820817 0 0.023606102874714579 -0.0027872591991553982 0 0.023571874637058895 -0.0029133316595344179 0 0.023445785189859191 -0.0028969262263654405 0 0.023507730585200906 -0.002757486748820817 0 0.023571874637058895 -0.0029133316595344179 0 0.023445785189859191 -0.0028969262263654405 0 0.023563518708651334 -0.0030710205948608132 0 0.023571874637058895 -0.0029133316595344179 0 0.023563518708651334 -0.0030710205948608132 0 0.023571874637058895 -0.0029133316595344179 0 0.023729824467834757 -0.0030342229306250051 0 0.023606102874714579 -0.0027872591991553982 0 0.023571874637058895 -0.0029133316595344179 0 0.023729824467834757 -0.0030342229306250051 0 0.025372306578173465 -0.00153686141029116 0 0.024557804749992793 -0.0025370801664211713 0 0.023606102874714579 -0.0027872591991553982 0 0.023711911674114242 -0.0027455801133495338 0 0.023729824467834757 -0.0030342229306250051 0 0.023300136222103224 -0.0029789785625701118 0 0.023422303289840483 -0.0030572041527758714 0 0.023519909853075723 -0.0032708981753097302 0 0.023606102874714579 -0.0027872591991553982 0 0.023711911674114242 -0.0027455801133495338 0 0.023641668460955414 -0.0027015754005183727 0 0.023300136222103224 -0.0029789785625701118 0 0.023347083849677413 -0.0029640198956036559 0 0.023370222117576122 -0.0029955554418771508 0 0.023300136222103224 -0.0029789785625701118 0 0.023347083849677413 -0.0029640198956036559 0 0.023374027327833891 -0.0028882742149811983 0 0.023347083849677413 -0.0029640198956036559 0 0.023403828965994123 -0.0029734755297501892 0 0.023374027327833891 -0.0028882742149811983 0 0.023347083849677413 -0.0029640198956036559 0 0.023403828965994123 -0.0029734755297501892 0 0.023370222117576122 -0.0029955554418771508 0 0.023300136222103224 -0.0029789785625701118 0 0.023370222117576122 -0.0029955554418771508 0 0.023422303289840483 -0.0030572041527758714 0 0.023403828965994123 -0.0029734755297501892 0 0.023370222117576122 -0.0029955554418771508 0 0.023422303289840483 -0.0030572041527758714 0 0.023465130618770293 -0.0030066419767892745 0 0.023467255403647552 -0.0029225267343097722 0 0.023598025399730521 -0.0029517868685577358 0 0.023403828965994123 -0.0029734755297501892 0 0.023465130618770293 -0.0030066419767892745 0 0.023422303289840483 -0.0030572041527758714 0 0.023403828965994123 -0.0029734755297501892 0 0.023465130618770293 -0.0030066419767892745 0 0.023467255403647552 -0.0029225267343097722 0 0.023403828965994123 -0.0029734755297501892 0 0.023467255403647552 -0.0029225267343097722 0 0.023374027327833891 -0.0028882742149811983 0 0.023598025399730521 -0.0029517868685577358 0 0.023537099449565169 -0.0030663971784421718 0 0.023667134306629291 -0.0030841804865225069 0 0.023465130618770293 -0.0030066419767892745 0 0.023598025399730521 -0.0029517868685577358 0 0.023537099449565169 -0.0030663971784421718 0 0.023537099449565169 -0.0030663971784421718 0 0.023553075576219613 -0.0032147413270608837 0 0.023667134306629291 -0.0030841804865225069 0 0.023465130618770293 -0.0030066419767892745 0 0.023537099449565169 -0.0030663971784421718 0 0.023422303289840483 -0.0030572041527758714 0 0.023537099449565169 -0.0030663971784421718 0 0.023422303289840483 -0.0030572041527758714 0 0.023553075576219613 -0.0032147413270608837 0 0.023475855411120235 -0.0032534347909135655 0 0.023519909853075723 -0.0032708981753097302 0 0.023553075576219613 -0.0032147413270608837 0 0.023422303289840483 -0.0030572041527758714 0 0.023519909853075723 -0.0032708981753097302 0 0.023553075576219613 -0.0032147413270608837 0 0.023553075576219613 -0.0032147413270608837 0 0.023664370274279894 -0.0031808254719850795 0 0.023667134306629291 -0.0030841804865225069 0 0.023553075576219613 -0.0032147413270608837 0 0.023594168709790784 -0.0032249515633768497 0 0.023664370274279894 -0.0031808254719850795 0 0.023475855411120235 -0.0032534347909135655 0 0.023553075576219613 -0.0032147413270608837 0 0.023594168709790784 -0.0032249515633768497 0 0.023594168709790784 -0.0032249515633768497 0 0.023664370274279894 -0.0031808254719850795 0 0.023700442994237805 -0.0032327725009956357 0 0.024008452158524551 -0.0030142830708551004 0 0.024140720279688169 -0.0028569019208058493 0 0.023664370274279894 -0.0031808254719850795 0 0.02384330040780086 -0.0029868268859242677 0 0.024185250205590585 -0.0028617553620846961 0 0.023664370274279894 -0.0031808254719850795 0 0.023667134306629291 -0.0030841804865225069 0 0.02384330040780086 -0.0029868268859242677 0 0.023598025399730521 -0.0029517868685577358 0 0.023667134306629291 -0.0030841804865225069 0 0.02384330040780086 -0.0029868268859242677 0 0.02384330040780086 -0.0029868268859242677 0 0.024182998155547236 -0.0027497916866586402 0 0.024185250205590585 -0.0028617553620846961 0 0.02384330040780086 -0.0029868268859242677 0 0.023718805652366212 -0.002766850616511914 0 0.023986486660017056 -0.0025543768894138387 0 0.024163161683031252 -0.0027956623491918447 0 0.024248778530747594 -0.0026115535365859779 0 0.023598025399730521 -0.0029517868685577358 0 0.02384330040780086 -0.0029868268859242677 0 0.023718805652366212 -0.002766850616511914 0 0.023718805652366212 -0.002766850616511914 0 0.023986486660017056 -0.0025543768894138387 0 0.023672789726245674 -0.0025505694878354005 0 0.024112438381803068 -0.0020943785907327817 0 0.023986486660017056 -0.0025543768894138387 0 0.02381644431899077 -0.002303055943551209 0 0.023986486660017056 -0.0025543768894138387 0 0.02381644431899077 -0.002303055943551209 0 0.023672789726245674 -0.0025505694878354005 0 0.02381644431899077 -0.002303055943551209 0 0.023672789726245674 -0.0025505694878354005 0 0.023474835844013168 -0.0023430119600016848 0 0.023672789726245674 -0.0025505694878354005 0 0.023474835844013168 -0.0023430119600016848 0 0.023432758569772207 -0.0026266159219658007 0 0.023432758569772207 -0.0026266159219658007 0 0.023519578747350216 -0.0027793399840578019 0 0.023337124877799605 -0.0027834253156077903 0 0.023718805652366212 -0.002766850616511914 0 0.023672789726245674 -0.0025505694878354005 0 0.023519578747350216 -0.0027793399840578019 0 0.023672789726245674 -0.0025505694878354005 0 0.023432758569772207 -0.0026266159219658007 0 0.023519578747350216 -0.0027793399840578019 0 0.023467255403647552 -0.0029225267343097722 0 0.023598025399730521 -0.0029517868685577358 0 0.023519578747350216 -0.0027793399840578019 0 0.023598025399730521 -0.0029517868685577358 0 0.023718805652366212 -0.002766850616511914 0 0.023519578747350216 -0.0027793399840578019 0 0.023467255403647552 -0.0029225267343097722 0 0.023519578747350216 -0.0027793399840578019 0 0.023374027327833891 -0.0028882742149811983 0 0.023519578747350216 -0.0027793399840578019 0 0.023337124877799605 -0.0027834253156077903 0 0.023374027327833891 -0.0028882742149811983 0 0.025452736120330752 -0.0012249564698917979 0 0.025528326269782492 -0.0014283779651662661 0 0.025570744309876079 -0.0013896777363760762 0 0.025372306578173465 -0.00153686141029116 0 0.025820331734294974 -0.00081703953205690871 0 0.023300136222103224 -0.0029789785625701118 0 0.023337124877799605 -0.0027834253156077903 0 0.023166694841568254 -0.0026685058130349625 0 0.023300136222103224 -0.0029789785625701118 0 0.023337124877799605 -0.0027834253156077903 0 0.023374027327833891 -0.0028882742149811983 0 0.025372306578173465 -0.00153686141029116 0 0.02570794365188888 -0.001102244219322174 0 0.023711911674114242 -0.0027455801133495338 0 0.023641668460955414 -0.0027015754005183727 0 0.023645273771603924 -0.0026102761156035605 0 0.025820331734294974 -0.00081703953205690871 0 0.02570794365188888 -0.001102244219322174 0 0.023432758569772207 -0.0026266159219658007 0 0.023337124877799605 -0.0027834253156077903 0 0.023166694841568254 -0.0026685058130349625 0 0.028383056768033717 0.0019133044671149487 0 0.028022515444234834 0.0029036642219667152 0 0.027898751941680167 0.0022160917209649122 0 0.027301867785553893 0.0022812358940356831 0 0.028022515444234834 0.0029036642219667152 0 0.027898751941680167 0.0022160917209649122 0 0.023474835844013168 -0.0023430119600016848 0 0.023432758569772207 -0.0026266159219658007 0 0.023166694841568254 -0.0026685058130349625 0 0.025622392681047598 -0.00051840815707457377 0 0.025820331734294974 -0.00081703953205690871 0 0.028383056768033717 0.0019133044671149487 0 0.02818998372917049 0.0024263321468422825 0 0.028478401915017382 0.0022197661500541607 0 0.0260992484463013 0.0005568281916440099 0 0.025820331734294974 -0.00081703953205690871 0 0.026115985919492237 -0.00039988421513032391 0 0.02570794365188888 -0.001102244219322174 0 0.028761577639598034 0.0019069627389473062 0 0.028579135016577505 0.001917738373930525 0 0.028478401915017382 0.0022197661500541607 0 0.02665457581878081 7.6911355626961957e-05 0 0.026115985919492237 -0.00039988421513032391 0 0.023456069112055597 -0.0025651000036949613 0 0.023578465648706911 -0.0024239241753355911 0 0.023573206012231278 -0.0025414747268032553 0 0.023456069112055597 -0.0025651000036949613 0 0.023573206012231278 -0.0025414747268032553 0 0.023592378672459547 -0.0026570435017155289 0 0.023456069112055597 -0.0025651000036949613 0 0.023507730585200906 -0.002757486748820817 0 0.023592378672459547 -0.0026570435017155289 0 0.023573206012231278 -0.0025414747268032553 0 0.023679034954833644 -0.0025843925852787552 0 0.023592378672459547 -0.0026570435017155289 0 0.02818998372917049 0.0024263321468422825 0 0.028478401915017382 0.0022197661500541607 0 0.028260978821018246 0.0024898711354735658 0 0.023578465648706911 -0.0024239241753355911 0 0.023573206012231278 -0.0025414747268032553 0 0.023679034954833644 -0.0025843925852787552 0 0.023641668460955414 -0.0027015754005183727 0 0.023645273771603924 -0.0026102761156035605 0 0.023592378672459547 -0.0026570435017155289 0 0.02570794365188888 -0.001102244219322174 0 0.025516644191767312 -0.0012676514544515006 0 0.023624097913719919 -0.003256917558980472 0 0.023607091230393267 -0.0032655451992853052 0 0.023616660595624155 -0.003273791032656858 0 0.022439463026711747 -0.0027575766174189236 0 0.021604989823217641 -0.0025376686898052644 0 0.023624097913719919 -0.003256917558980472 0 0.02364781094943252 -0.0032654351885549374 0 0.023616660595624155 -0.003273791032656858 0 0.023624097913719919 -0.003256917558980472 0 0.023607091230393267 -0.0032655451992853052 0 0.023612508652521656 -0.0032316882548589446 0 0.021186899597453238 -0.0024497093661618725 0 0.020967407769143478 -0.0023804619402476856 0 0.021018618918402066 -0.0021560471742224415 0 0.021186899597453238 -0.0024497093661618725 0 0.020967407769143478 -0.0023804619402476856 0 0.020972101298199888 -0.0025331656281595079 0 0.020775257046702831 -0.0019376094695824104 0 0.020782745218229242 -0.0022445700735637913 0 0.021181925509847929 -0.0020447144622036963 0 0.021186899597453238 -0.0024497093661618725 0 0.021018618918402066 -0.0021560471742224415 0 0.021309415876871567 -0.002009971599839028 0 0.021203033214642293 -0.0025169237940786005 0 0.021604989823217641 -0.0025376686898052644 0 0.023624097913719919 -0.003256917558980472 0 0.023612508652521656 -0.0032316882548589446 0 0.023639758851994288 -0.0032397712079470318 0 0.023643996965904752 -0.0032234707595481414 0 0.023612508652521656 -0.0032316882548589446 0 0.023639758851994288 -0.0032397712079470318 0 0.023639758851994288 -0.0032397712079470318 0 0.023700442994237805 -0.0032327725009956357 0 0.02364781094943252 -0.0032654351885549374 0 0.023643996965904752 -0.0032234707595481414 0 0.023639758851994288 -0.0032397712079470318 0 0.023700442994237805 -0.0032327725009956357 0 0.023664370274279894 -0.0031808254719850795 0 0.023700442994237805 -0.0032327725009956357 0 0.023933571254080795 -0.0030752775097276606 0 0.023571866859856315 -0.0032336581320281418 0 0.023594168709790784 -0.0032249515633768497 0 0.023700442994237805 -0.0032327725009956357 0 0.0237730039984617 -0.0030145982884103089 0 0.023790281179902954 -0.0029495483450254294 0 0.023664370274279894 -0.0031808254719850795 0 0.023933571254080795 -0.0030752775097276606 0 0.023964627238743368 -0.0028634000829896766 0 0.023700442994237805 -0.0032327725009956357 0 0.023933571254080795 -0.0030752775097276606 0 0.024245032774706961 -0.003115792369652729 0 0.023624097913719919 -0.003256917558980472 0 0.023639758851994288 -0.0032397712079470318 0 0.02364781094943252 -0.0032654351885549374 0 0.023933571254080795 -0.0030752775097276606 0 0.024245032774706961 -0.003115792369652729 0 0.024182280662994098 -0.0029251828807665566 0 0.023790281179902954 -0.0029495483450254294 0 0.023725758179703679 -0.0028004478263006956 0 0.024182280662994098 -0.0029251828807665566 0 0.024342300547331355 -0.002758722908914536 0 0.024629545246947087 -0.002862661450004543 0 0.024245032774706961 -0.003115792369652729 0 0.024182280662994098 -0.0029251828807665566 0 0.024629545246947087 -0.002862661450004543 0 0.024182280662994098 -0.0029251828807665566 0 0.023964627238743368 -0.0028634000829896766 0 0.024342300547331355 -0.002758722908914536 0 0.023933571254080795 -0.0030752775097276606 0 0.024182280662994098 -0.0029251828807665566 0 0.023964627238743368 -0.0028634000829896766 0 0.02451044301594962 -0.0026293028375597282 0 0.024397473398428595 -0.0025736537124771862 0 0.024182998155547236 -0.0027497916866586402 0 0.024349581305940997 -0.0026312311760511957 0 0.024140720279688169 -0.0028569019208058493 0 0.024382905619057448 -0.0025301391037780493 0 0.023964627238743368 -0.0028634000829896766 0 0.024342300547331355 -0.002758722908914536 0 0.02451044301594962 -0.0026293028375597282 0 0.024182998155547236 -0.0027497916866586402 0 0.024185250205590585 -0.0028617553620846961 0 0.024457445197362506 -0.0021754008915454894 0 0.024248778530747594 -0.0026115535365859779 0 0.024382905619057448 -0.0025301391037780493 0 0.024342300547331355 -0.002758722908914536 0 0.024471825312300358 -0.0026121545676197214 0 0.024342300547331355 -0.002758722908914536 0 0.024604236254072015 -0.0026529762355641186 0 0.024629545246947087 -0.002862661450004543 0 0.024342300547331355 -0.002758722908914536 0 0.024471825312300358 -0.0026121545676197214 0 0.024604236254072015 -0.0026529762355641186 0 0.024567300509326862 -0.0025496696087278121 0 0.024471825312300358 -0.0026121545676197214 0 0.024604236254072015 -0.0026529762355641186 0 0.023725758179703679 -0.0028004478263006956 0 0.023361236074627346 -0.0026606727964682666 0 0.024604236254072015 -0.0026529762355641186 0 0.024629545246947087 -0.002862661450004543 0 0.024845935596098906 -0.0026363212936965554 0 0.024695067844426696 -0.00251174662548988 0 0.024604236254072015 -0.0026529762355641186 0 0.024845935596098906 -0.0026363212936965554 0 0.023607091230393267 -0.0032655451992853052 0 0.023616660595624155 -0.003273791032656858 0 0.023601499429534472 -0.0032778733169662741 0 0.021186899597453238 -0.0024497093661618725 0 0.021119799473618906 -0.0026892101748555506 0 0.020972101298199888 -0.0025331656281595079 0 0.022439463026711747 -0.0027575766174189236 0 0.023361236074627346 -0.0026606727964682666 0 0.021119799473618906 -0.0026892101748555506 0 0.020969344180421959 -0.0026163238222740928 0 0.021149751806156279 -0.0026999734117165025 0 0.020969344180421959 -0.0026163238222740928 0 0.021149751806156279 -0.0026999734117165025 0 0.020766232504179701 -0.0025741403294687153 0 0.020977671493748132 -0.0026747477880466951 0 0.021149751806156279 -0.0026999734117165025 0 0.020766232504179701 -0.0025741403294687153 0 0.020969344180421959 -0.0026163238222740928 0 0.020677797771134883 -0.0024809641808225839 0 0.020766232504179701 -0.0025741403294687153 0 0.021119799473618906 -0.0026892101748555506 0 0.020969344180421959 -0.0026163238222740928 0 0.020972101298199888 -0.0025331656281595079 0 0.020969344180421959 -0.0026163238222740928 0 0.020677797771134883 -0.0024809641808225839 0 0.020972101298199888 -0.0025331656281595079 0 0.021203033214642293 -0.0025169237940786005 0 0.021035715037998361 -0.0025348155137051532 0 0.020677797771134883 -0.0024809641808225839 0 0.020972101298199888 -0.0025331656281595079 0 0.020610573606120508 -0.0023472752100287425 0 0.020967407769143478 -0.0023804619402476856 0 0.021018618918402066 -0.0021560471742224415 0 0.020610573606120508 -0.0023472752100287425 0 0.020967407769143478 -0.0023804619402476856 0 0.020972101298199888 -0.0025331656281595079 0 0.020610573606120508 -0.0023472752100287425 0 0.020677797771134883 -0.0024809641808225839 0 0.020610573606120508 -0.0023472752100287425 0 0.020378905299335507 -0.0023008194158196495 0 0.020610573606120508 -0.0023472752100287425 0 0.020378905299335507 -0.0023008194158196495 0 0.02014425051706743 -0.0021203181688463362 0 0.020378905299335507 -0.0023008194158196495 0 0.02014425051706743 -0.0021203181688463362 0 0.020114697853854027 -0.0021565359937016347 0 0.020775257046702831 -0.0019376094695824104 0 0.02014425051706743 -0.0021203181688463362 0 0.020569211934368385 -0.0021976782378626508 0 0.020782745218229242 -0.0022445700735637913 0 0.020610573606120508 -0.0023472752100287425 0 0.020569211934368385 -0.0021976782378626508 0 0.020610573606120508 -0.0023472752100287425 0 0.02014425051706743 -0.0021203181688463362 0 0.020569211934368385 -0.0021976782378626508 0 0.020523679870857677 -0.0025370536868174103 0 0.020369693012248277 -0.0024797523443416919 0 0.020775257046702831 -0.0019376094695824104 0 0.020782745218229242 -0.0022445700735637913 0 0.020569211934368385 -0.0021976782378626508 0 0.02000899609660451 -0.0022065116617646144 0 0.020114697853854027 -0.0021565359937016347 0 0.019958763914514094 -0.0021255943135948612 0 0.02000899609660451 -0.0022065116617646144 0 0.020114697853854027 -0.0021565359937016347 0 0.020428226410102761 -0.0024725604556585321 0 0.020378905299335507 -0.0023008194158196495 0 0.020114697853854027 -0.0021565359937016347 0 0.020428226410102761 -0.0024725604556585321 0 0.020677797771134883 -0.0024809641808225839 0 0.020378905299335507 -0.0023008194158196495 0 0.020428226410102761 -0.0024725604556585321 0 0.02000899609660451 -0.0022065116617646144 0 0.020428226410102761 -0.0024725604556585321 0 0.01998349940357131 -0.0024080696812960991 0 0.020426486453421999 -0.0026905996243321451 0 0.020339118182727458 -0.0028406292443609797 0 0.020428226410102761 -0.0024725604556585321 0 0.020079131333819177 -0.0029086144962668331 0 0.01998349940357131 -0.0024080696812960991 0 0.020428226410102761 -0.0024725604556585321 0 0.020766232504179701 -0.0025741403294687153 0 0.020561790544315221 -0.0025304204011282051 0 0.020677797771134883 -0.0024809641808225839 0 0.020428226410102761 -0.0024725604556585321 0 0.020766232504179701 -0.0025741403294687153 0 0.020977671493748132 -0.0026747477880466951 0 0.020766232504179701 -0.0025741403294687153 0 0.020561790544315221 -0.0025304204011282051 0 0.020178049396681139 -0.0031675865163610468 0 0.020339118182727458 -0.0028406292443609797 0 0.019771566910260895 -0.0032758802932769111 0 0.020079131333819177 -0.0029086144962668331 0 0.019562871177526003 -0.0029149810879185371 0 0.019562871177526003 -0.0029149810879185371 0 0.019759577814986582 -0.0026144541394732129 0 0.019437744442803256 -0.0025182626277919025 0 0.020079131333819177 -0.0029086144962668331 0 0.019759577814986582 -0.0026144541394732129 0 0.01998349940357131 -0.0024080696812960991 0 0.020079131333819177 -0.0029086144962668331 0 0.019562871177526003 -0.0029149810879185371 0 0.019759577814986582 -0.0026144541394732129 0 0.019018572910668895 -0.0031440480146878976 0 0.019164571528120265 -0.002808894621286656 0 0.018850803338308447 -0.0028278001842287305 0 0.019369984768842989 -0.0032494155486151016 0 0.019562871177526003 -0.0029149810879185371 0 0.01927685387236007 -0.0030304050825095464 0 0.019018572910668895 -0.0031440480146878976 0 0.01927685387236007 -0.0030304050825095464 0 0.019164571528120265 -0.002808894621286656 0 0.019562871177526003 -0.0029149810879185371 0 0.01927685387236007 -0.0030304050825095464 0 0.019164571528120265 -0.002808894621286656 0 0.019562871177526003 -0.0029149810879185371 0 0.019164571528120265 -0.002808894621286656 0 0.019437744442803256 -0.0025182626277919025 0 0.019164571528120265 -0.002808894621286656 0 0.019085994378846668 -0.0025617296706892355 0 0.019437744442803256 -0.0025182626277919025 0 0.019164571528120265 -0.002808894621286656 0 0.018967680083076036 -0.0026608157976058099 0 0.018850803338308447 -0.0028278001842287305 0 0.019085994378846668 -0.0025617296706892355 0 0.018967680083076036 -0.0026608157976058099 0 0.018921771129636639 -0.0024632290040052631 0 0.019164571528120265 -0.002808894621286656 0 0.019085994378846668 -0.0025617296706892355 0 0.018967680083076036 -0.0026608157976058099 0 0.018767604135838913 -0.0026109470360953318 0 0.018967680083076036 -0.0026608157976058099 0 0.018921771129636639 -0.0024632290040052631 0 0.018767604135838913 -0.0026109470360953318 0 0.018967680083076036 -0.0026608157976058099 0 0.018850803338308447 -0.0028278001842287305 0 0.017617671422329048 -0.0019025020580688595 0 0.018949710007617495 -0.001847718775016517 0 0.018486045679316943 -0.0023759622492720354 0 0.016901959975809948 -0.0036178695602141707 0 0.017002103940202483 -0.003513542261468237 0 0.018931487537598012 -0.0022125522618701523 0 0.018486045679316943 -0.0023759622492720354 0 0.018921771129636639 -0.0024632290040052631 0 0.019085994378846668 -0.0025617296706892355 0 0.018931487537598012 -0.0022125522618701523 0 0.018921771129636639 -0.0024632290040052631 0 0.019437744442803256 -0.0025182626277919025 0 0.019435258644246788 -0.002327453925892042 0 0.01961993351501316 -0.0022690546252427113 0 0.016901959975809948 -0.0036178695602141707 0 0.017817345543071648 -0.0036563030583273409 0 0.019085994378846668 -0.0025617296706892355 0 0.018931487537598012 -0.0022125522618701523 0 0.019437744442803256 -0.0025182626277919025 0 0.019198877908775031 -0.0024038173802393738 0 0.019437744442803256 -0.0025182626277919025 0 0.019435258644246788 -0.002327453925892042 0 0.016901959975809948 -0.0036178695602141707 0 0.017511825847944733 -0.0040319633393856788 0 0.019198877908775031 -0.0024038173802393738 0 0.019435258644246788 -0.002327453925892042 0 0.019497448808084003 -0.002136422878161261 0 0.019435258644246788 -0.002327453925892042 0 0.01961993351501316 -0.0022690546252427113 0 0.019497448808084003 -0.002136422878161261 0 0.015598344568142856 -0.0073081676846944192 0 0.015356089102240995 -0.006812411282612024 0 0.015684755179959549 -0.0066314302748758172 0 0.015598344568142856 -0.0073081676846944192 0 0.015684755179959549 -0.0066314302748758172 0 0.016193890913708753 -0.0066544946246684831 0 0.015356089102240995 -0.006812411282612024 0 0.01534693505502943 -0.0065383395537041119 0 0.015684755179959549 -0.0066314302748758172 0 0.01998349940357131 -0.0024080696812960991 0 0.019747519025617586 -0.0023793314338002793 0 0.01983133063126314 -0.0022161498067291138 0 0.019759577814986582 -0.0026144541394732129 0 0.01998349940357131 -0.0024080696812960991 0 0.019747519025617586 -0.0023793314338002793 0 0.019759577814986582 -0.0026144541394732129 0 0.019437744442803256 -0.0025182626277919025 0 0.019747519025617586 -0.0023793314338002793 0 0.019437744442803256 -0.0025182626277919025 0 0.019747519025617586 -0.0023793314338002793 0 0.01961993351501316 -0.0022690546252427113 0 0.01961993351501316 -0.0022690546252427113 0 0.01983133063126314 -0.0022161498067291138 0 0.019726213897369709 -0.0021166887885137268 0 0.019747519025617586 -0.0023793314338002793 0 0.01961993351501316 -0.0022690546252427113 0 0.01983133063126314 -0.0022161498067291138 0 0.01961993351501316 -0.0022690546252427113 0 0.019726213897369709 -0.0021166887885137268 0 0.019497448808084003 -0.002136422878161261 0 0.02000899609660451 -0.0022065116617646144 0 0.01983133063126314 -0.0022161498067291138 0 0.019902936479340168 -0.0021427594930797113 0 0.02000899609660451 -0.0022065116617646144 0 0.01998349940357131 -0.0024080696812960991 0 0.01983133063126314 -0.0022161498067291138 0 0.01983133063126314 -0.0022161498067291138 0 0.019902936479340168 -0.0021427594930797113 0 0.019726213897369709 -0.0021166887885137268 0 0.019902936479340168 -0.0021427594930797113 0 0.019726213897369709 -0.0021166887885137268 0 0.019938541879798665 -0.0021142105535855906 0 0.019668611945902689 -0.0021404448088201238 0 0.01961509702785744 -0.0021755548754648301 0 0.019726213897369709 -0.0021166887885137268 0 0.01975166490679774 -0.0020694754519803228 0 0.019497448808084003 -0.002136422878161261 0 0.018085429299923093 -0.0039682731074980318 0 0.017511825847944733 -0.0040319633393856788 0 0.016841882974559314 -0.0060176830288449284 0 0.016193890913708753 -0.0066544946246684831 0 0.016299566100697726 -0.0060967862379382436 0 0.016841882974559314 -0.0060176830288449284 0 0.016471754772214419 -0.0056851569984135578 0 0.016867035865140902 -0.005443977984160654 0 0.016841882974559314 -0.0060176830288449284 0 0.016471754772214419 -0.0056851569984135578 0 0.016299566100697726 -0.0060967862379382436 0 0.019726213897369709 -0.0021166887885137268 0 0.01975166490679774 -0.0020694754519803228 0 0.019679059734913389 -0.0020770501963958883 0 0.01975166490679774 -0.0020694754519803228 0 0.019679059734913389 -0.0020770501963958883 0 0.019726039772399583 -0.0023708126378848508 0 0.015476952662198637 -0.0062916324925702443 0 0.01534693505502943 -0.0065383395537041119 0 0.015684755179959549 -0.0066314302748758172 0 0.015476952662198637 -0.0062916324925702443 0 0.01592396486417693 -0.0062500529227512633 0 0.015623969690623381 -0.0059694365140331223 0 0.015476952662198637 -0.0062916324925702443 0 0.015684755179959549 -0.0066314302748758172 0 0.01592396486417693 -0.0062500529227512633 0 0.01592396486417693 -0.0062500529227512633 0 0.016193890913708753 -0.0066544946246684831 0 0.016299566100697726 -0.0060967862379382436 0 0.015684755179959549 -0.0066314302748758172 0 0.01592396486417693 -0.0062500529227512633 0 0.016193890913708753 -0.0066544946246684831 0 0.016471754772214419 -0.0056851569984135578 0 0.016069603450567019 -0.005860336355823394 0 0.016127638177804958 -0.0054797539264300919 0 0.016471754772214419 -0.0056851569984135578 0 0.016299566100697726 -0.0060967862379382436 0 0.016069603450567019 -0.005860336355823394 0 0.01592396486417693 -0.0062500529227512633 0 0.016069603450567019 -0.005860336355823394 0 0.015623969690623381 -0.0059694365140331223 0 0.01592396486417693 -0.0062500529227512633 0 0.016299566100697726 -0.0060967862379382436 0 0.016069603450567019 -0.005860336355823394 0 0.016069603450567019 -0.005860336355823394 0 0.015623969690623381 -0.0059694365140331223 0 0.015722009536508395 -0.0055349466231543005 0 0.015280692326077774 -0.0057615265077134914 0 0.015623969690623381 -0.0059694365140331223 0 0.015722009536508395 -0.0055349466231543005 0 0.015300810059542378 -0.0060802707889338631 0 0.015476952662198637 -0.0062916324925702443 0 0.015623969690623381 -0.0059694365140331223 0 0.015280692326077774 -0.0057615265077134914 0 0.015300810059542378 -0.0060802707889338631 0 0.015623969690623381 -0.0059694365140331223 0 0.015300319742527668 -0.0052013615084952457 0 0.015280692326077774 -0.0057615265077134914 0 0.015722009536508395 -0.0055349466231543005 0 0.015300319742527668 -0.0052013615084952457 0 0.015722009536508395 -0.0055349466231543005 0 0.015954163886335252 -0.0050960442879314713 0 0.015722009536508395 -0.0055349466231543005 0 0.016127638177804958 -0.0054797539264300919 0 0.015954163886335252 -0.0050960442879314713 0 0.016069603450567019 -0.005860336355823394 0 0.015722009536508395 -0.0055349466231543005 0 0.016127638177804958 -0.0054797539264300919 0 0.016471754772214419 -0.0056851569984135578 0 0.016127638177804958 -0.0054797539264300919 0 0.016426929678146608 -0.0052106987898751919 0 0.016127638177804958 -0.0054797539264300919 0 0.015954163886335252 -0.0050960442879314713 0 0.016426929678146608 -0.0052106987898751919 0 0.01587335373056516 -0.0043933726632552237 0 0.016307866885123593 -0.0047097806523257344 0 0.015954163886335252 -0.0050960442879314713 0 0.016307866885123593 -0.0047097806523257344 0 0.015954163886335252 -0.0050960442879314713 0 0.016426929678146608 -0.0052106987898751919 0 0.0096030229031663621 -0.0042598280667000988 0 0.0094907608106411991 -0.0040567343947831387 0 0.015300319742527668 -0.0052013615084952457 0 0.01587335373056516 -0.0043933726632552237 0 0.015954163886335252 -0.0050960442879314713 0 0.0039252634268834184 -0.0039505552841773471 0 0.0037803835196835926 -0.0035401165181277597 0 0.0031214368884921306 -0.0043396878616311771 0 0.018085429299923093 -0.0039682731074980318 0 0.018455989683523348 -0.003918359803507303 0 0.016841882974559314 -0.0060176830288449284 0 0.017581918073340416 -0.005353367287821844 0 0.016867035865140902 -0.005443977984160654 0 0.017581918073340416 -0.005353367287821844 0 0.016867035865140902 -0.005443977984160654 0 0.017003913542383526 -0.0049300071112973933 0 0.016471754772214419 -0.0056851569984135578 0 0.016867035865140902 -0.005443977984160654 0 0.016426929678146608 -0.0052106987898751919 0 0.016867035865140902 -0.005443977984160654 0 0.016426929678146608 -0.0052106987898751919 0 0.017003913542383526 -0.0049300071112973933 0 0.016813734331127751 -0.0042990736843663601 0 0.016307866885123593 -0.0047097806523257344 0 0.017003913542383526 -0.0049300071112973933 0 0.016307866885123593 -0.0047097806523257344 0 0.016426929678146608 -0.0052106987898751919 0 0.017003913542383526 -0.0049300071112973933 0 0.017581918073340416 -0.005353367287821844 0 0.017003913542383526 -0.0049300071112973933 0 0.017659239096748859 -0.0048105754353489731 0 0.017318332605681098 -0.0045287909165723185 0 0.016813734331127751 -0.0042990736843663601 0 0.017003913542383526 -0.0049300071112973933 0 0.017318332605681098 -0.0045287909165723185 0 0.017003913542383526 -0.0049300071112973933 0 0.017659239096748859 -0.0048105754353489731 0 0.017318332605681098 -0.0045287909165723185 0 0.01794027146548105 -0.0045242431722356518 0 0.017659239096748859 -0.0048105754353489731 0 0.018496528251891086 -0.0041270881523071054 0 0.018455989683523348 -0.003918359803507303 0 0.018411332435289533 -0.0045021895359345721 0 0.01794027146548105 -0.0045242431722356518 0 0.017659239096748859 -0.0048105754353489731 0 0.018411332435289533 -0.0045021895359345721 0 0.017581918073340416 -0.005353367287821844 0 0.017659239096748859 -0.0048105754353489731 0 0.019422753776010979 -0.0032508011069962263 0 0.019726039772399583 -0.0023708126378848508 0 0.019205884963748029 -0.0027666128560440472 0 0.019726039772399583 -0.0023708126378848508 0 0.01921668569354017 -0.0023402116806951526 0 0.019205884963748029 -0.0027666128560440472 0 0.01961509702785744 -0.0021755548754648301 0 0.019329067335231098 -0.0023768730505632253 0 0.019679059734913389 -0.0020770501963958883 0 0.019726039772399583 -0.0023708126378848508 0 0.01921668569354017 -0.0023402116806951526 0 0.019840764131600012 -0.0022903114091429987 0 0.018559629520619375 -0.0026311579640007875 0 0.019251943642039582 -0.0023439067720108534 0 0.019840764131600012 -0.0022903114091429987 0 0.019251943642039582 -0.0023439067720108534 0 0.019645756909486601 -0.002197728278128972 0 0.019840764131600012 -0.0022903114091429987 0 0.018559629520619375 -0.0026311579640007875 0 0.01812027967576274 -0.0029479067412956561 0 0.019329067335231098 -0.0023768730505632253 0 0.018964604340904911 -0.0026410787087527659 0 0.01921668569354017 -0.0023402116806951526 0 0.019205884963748029 -0.0027666128560440472 0 0.018755766639057009 -0.0030229516731376652 0 0.01921668569354017 -0.0023402116806951526 0 0.018755766639057009 -0.0030229516731376652 0 0.01812027967576274 -0.0029479067412956561 0 0.019205884963748029 -0.0027666128560440472 0 0.019058968577200592 -0.003137772195577961 0 0.018755766639057009 -0.0030229516731376652 0 0.019422753776010979 -0.0032508011069962263 0 0.019205884963748029 -0.0027666128560440472 0 0.019058968577200592 -0.003137772195577961 0 0.018720515351623425 -0.0036292461750608443 0 0.019058968577200592 -0.003137772195577961 0 0.018755766639057009 -0.0030229516731376652 0 0.018287537253465335 -0.0034282686954785774 0 0.018533138340256845 -0.003485889564637884 0 0.018755766639057009 -0.0030229516731376652 0 0.018559629520619375 -0.0026311579640007875 0 0.01812027967576274 -0.0029479067412956561 0 0.016454150503897532 -0.0032245087272552643 0 0.018287537253465335 -0.0034282686954785774 0 0.018755766639057009 -0.0030229516731376652 0 0.01812027967576274 -0.0029479067412956561 0 0.017735963978663349 -0.0035979150343885906 0 0.01812027967576274 -0.0029479067412956561 0 0.016454150503897532 -0.0032245087272552643 0 0.017588216175597794 -0.0021063392232708584 0 0.016612834645771575 -0.0020408560877357546 0 0.018559629520619375 -0.0026311579640007875 0 0.019404488476008536 -0.0020495827619561946 0 0.0191592625553305 -0.0024204388886815793 0 0.018559629520619375 -0.0026311579640007875 0 0.015074058046054405 -0.0023938883360514408 0 0.016454150503897532 -0.0032245087272552643 0 0.015306397089271399 -0.0037998020553387346 0 0.015074058046054405 -0.0023938883360514408 0 0.016454150503897532 -0.0032245087272552643 0 0.0191592625553305 -0.0024204388886815793 0 0.019421647427191348 -0.0023849493365276295 0 0.019505669889820713 -0.0023289505848766595 0 0.019440040819818327 -0.0023205841330776952 0 0.019404488476008536 -0.0020495827619561946 0 0.0191592625553305 -0.0024204388886815793 0 0.019440040819818327 -0.0023205841330776952 0 0.0191592625553305 -0.0024204388886815793 0 0.019421647427191348 -0.0023849493365276295 0 0.018559629520619375 -0.0026311579640007875 0 0.0191592625553305 -0.0024204388886815793 0 0.019251943642039582 -0.0023439067720108534 0 0.0191592625553305 -0.0024204388886815793 0 0.019251943642039582 -0.0023439067720108534 0 0.019505669889820713 -0.0023289505848766595 0 0.019505669889820713 -0.0023289505848766595 0 0.019612998455058404 -0.0023436144310035566 0 0.019852807040383568 -0.002204225378040655 0 0.019251943642039582 -0.0023439067720108534 0 0.019505669889820713 -0.0023289505848766595 0 0.019645756909486601 -0.002197728278128972 0 0.019505669889820713 -0.0023289505848766595 0 0.019852807040383568 -0.002204225378040655 0 0.019645756909486601 -0.002197728278128972 0 0.019553234833762125 -0.0023915833053941601 0 0.019421647427191348 -0.0023849493365276295 0 0.019517895983675617 -0.0023611866834232363 0 0.019421647427191348 -0.0023849493365276295 0 0.019505669889820713 -0.0023289505848766595 0 0.019517895983675617 -0.0023611866834232363 0 0.019505669889820713 -0.0023289505848766595 0 0.019517895983675617 -0.0023611866834232363 0 0.019612998455058404 -0.0023436144310035566 0 0.019553234833762125 -0.0023915833053941601 0 0.019517895983675617 -0.0023611866834232363 0 0.019612998455058404 -0.0023436144310035566 0 0.019583970412349983 -0.002248487439515604 0 0.02014425051706743 -0.0021203181688463362 0 0.019612998455058404 -0.0023436144310035566 0 0.02014425051706743 -0.0021203181688463362 0 0.019612998455058404 -0.0023436144310035566 0 0.019852807040383568 -0.002204225378040655 0 0.02014425051706743 -0.0021203181688463362 0 0.020114697853854027 -0.0021565359937016347 0 0.019852807040383568 -0.002204225378040655 0 0.020114697853854027 -0.0021565359937016347 0 0.019890909826552929 -0.0021532235536772244 0 0.019958763914514094 -0.0021255943135948612 0 0.020114697853854027 -0.0021565359937016347 0 0.019852807040383568 -0.002204225378040655 0 0.019890909826552929 -0.0021532235536772244 0 0.019890909826552929 -0.0021532235536772244 0 0.019958763914514094 -0.0021255943135948612 0 0.019873043001066553 -0.0021535645455536398 0 0.019902936479340168 -0.0021427594930797113 0 0.019938541879798665 -0.0021142105535855906 0 0.019958763914514094 -0.0021255943135948612 0 0.02000899609660451 -0.0022065116617646144 0 0.019902936479340168 -0.0021427594930797113 0 0.019958763914514094 -0.0021255943135948612 0 0.019938541879798665 -0.0021142105535855906 0 0.019840764131600012 -0.0022903114091429987 0 0.019873043001066553 -0.0021535645455536398 0 0.019938541879798665 -0.0021142105535855906 0 0.019958763914514094 -0.0021255943135948612 0 0.019873043001066553 -0.0021535645455536398 0 0.019840764131600012 -0.0022903114091429987 0 0.019645756909486601 -0.002197728278128972 0 0.019873043001066553 -0.0021535645455536398 0 0.019890909826552929 -0.0021532235536772244 0 0.019645756909486601 -0.002197728278128972 0 0.019873043001066553 -0.0021535645455536398 0 0.019852807040383568 -0.002204225378040655 0 0.019890909826552929 -0.0021532235536772244 0 0.019645756909486601 -0.002197728278128972 0 
</DataArray>
</PointData>
<CellData Scalars="region_id,cross_section_updated," Vectors="" Tensors="stress,">
<DataArray type="Float64" Name="region_id" format="ascii">
5 5 5 5 5 6 5 5 5 5 5 5 5 6 5 5 5 5 6 5 5 6 5 5 5 5 6 5 5 5 5 6 5 5 5 5 5 5 5 5 5 5 5 5 5 6 5 5 6 5 5 5 5 5 6 5 5 5 5 5 5 5 6 5 5 5 5 6 5 5 5 5 5 5 5 5 5 6 5 5 6 5 5 6 5 5 5 5 6 5 5 5 5 5 5 5 6 6 6 5 5 6 5 5 5 5 5 6 5 5 5 5 5 5 5 5 5 5 5 5 5 6 5 5 5 6 5 5 5 5 5 5 6 5 5 5 5 5 5 5 5 5 5 5 5 5 5 5 5 5 5 5 5 5 5 5 5 5 6 5 5 5 6 5 5 6 5 5 5 5 5 5 5 5 5 5 5 6 5 5 5 5 5 5 5 5 6 5 5 5 5 5 5 5 5 6 5 5 5 5 5 5 5 5 5 6 5 5 5 5 5 5 5 5 5 5 5 5 5 5 5 5 5 5 5 5 5 5 5 6 5 5 5 6 5 6 5 6 5 5 6 5 5 5 6 5 6 5 6 5 6 6 5 6 5 5 6 5 6 5 5 5 6 5 6 6 5 5 6 5 5 5 6 5 6 6 6 5 6 5 5 5 6 5 6 6 6 5 5 6 6 5 5 5 5 6 5 6 5 5 6 5 5 5 6 5 6 6 6 5 5 5 6 5 6 6 6 6 5 5 5 6 6 5 5 6 6 6 5 6 5 5 5 5 6 5 5 5 5 5 5 5 6 5 5 5 5 5 5 6 6 5 5 5 6 5 5 5 6 5 6 5 6 6 5 5 5 5 6 5 5 6 5 5 5 5 6 5 6 5 5 5 5 5 6 6 5 5 5 5 5 5 5 5 6 5 5 5 6 5 5 6 5 6 5 5 5 5 5 5 5 5 5 5 5 6 5 6 5 6 5 5 5 6 5 6 5 6 5 5 5 5 5 5 6 5 6 5 5 5 6 5 5 5 6 5 6 6 5 5 5 5 6 5 5 5 5 6 6 5 5 6 5 6 5 6 6 5 5 5 6 5 5 5 5 6 5 5 5 5 5 5 5 5 5 5 5 6 5 5 5 5 6 5 5 5 6 5 6 6 6 5 5 5 6 6 5 6 5 5 6 5 5 5 5 6 5 5 5 5 5 5 5 5 5 5 5 6 6 5 5 6 5 5 5 6 5 5 5 5 5 5 6 5 5 5 6 5 5 5 6 5 5 5 5 5 5 5 5 5 5 5 6 5 5 5 6 5 5 5 5 5 5 5 6 5 5 5 5 5 6 5 5 5 5 5 5 5 5 5 5 5 5 5 5 5 5 5 5 5 6 5 5 5 5 6 5 5 6 5 5 5 5 5 5 5 6 5 5 5 5 5 5 5 5 6 5 6 5 5 6 5 5 5 6 5 5 6 5 5 5 6 5 6 5 5 6 5 6 5 5 5 5 5 5 5 5 5 5 5 5 5 5 5 5 5 5 5 5 5 5 6 5 6 5 6 5 5 5 5 5 5 5 5 5 5 5 5 5 5 5 6 5 5 5 5 5 5 5 5 5 6 5 5 5 5 5 5 5 5 5 5 5 5 5 5 5 5 5 5 5 5 5 5 5 5 5 5 5 5 5 6 5 5 6 5 5 5 6 6 5 6 5 5 5 5 5 6 5 5 5 5 5 6 5 5 5 5 5 5 5 5 5 5 5 5 5 5 5 5 5 5 5 5 5 5 5 5 5 5 5 5 5 5 5 5 5 5 5 5 5 5 5 5 5 5 5 5 5 5 5 5 5 6 5 5 5 5 5 5 5 5 5 5 5 5 5 5 5 6 5 5 5 5 6 5 5 5 5 5 5 5 5 5 5 5 5 5 5 5 5 5 5 5 5 5 5 5 5 5 5 5 6 5 5 6 5 6 6 6 6 5 5 6 5 5 5 5 5 5 5 5 5 5 5 5 5 5 5 5 5 6 5 5 6 5 6 5 5 5 5 6 5 6 5 5 5 5 6 5 5 5 6 5 5 5 5 5 6 5 6 5 5 6 6 5 6 5 5 5 5 5 5 5 5 5 5 5 6 5 5 5 6 5 5 5 6 5 5 6 6 6 5 5 5 5 5 5 5 5 5 5 5 6 5 5 5 5 5 5 5 5 6 6 6 5 5 5 5 5 5 5 5 6 6 5 5 5 6 5 5 6 5 5 5 5 5 5 5 5 5 5 5 6 5 5 5 5 5 5 5 5 6 5 5 5 5 5 5 5 5 5 5 6 5 6 6 6 5 5 5 5 5 5 5 6 6 5 6 5 5 5 5 5 6 5 6 6 5 5 5 6 5 6 5 5 5 5 6 5 5 5 5 5 5 5 5 5 5 5 5 5 5 5 5 5 6 5 5 5 6 5 5 5 5 5 6 5 5 5 5 5 5 6 5 6 5 5 5 5 5 5 5 5 6 5 5 5 6 5 5 5 5 5 5 5 5 5 5 5 5 5 5 5 5 5 5 5 5 5 5 5 5 5 6 6 6 5 5 5 5 6 5 5 5 5 6 5 5 5 5 5 5 5 6 5 5 5 5 5 5 5 5 6 5 5 5 5 5 5 5 5 5 5 5 5 6 5 5 5 5 5 5 6 5 5 5 5 5 5 5 5 6 5 5 5 6 5 5 5 5 5 5 5 5 5 5 5 5 6 5 5 5 5 5 5 5 5 5 5 5 5 5 5 5 5 5 5 5 5 5 5 5 5 5 5 5 5 5 5 5 5 5 5 5 5 5 5 5 5 5 5 5 5 5 5 5 6 5 5 5 5 5 5 5 5 5 5 5 5 5 5 5 5 5 5 5 5 5 5 5 5 6 5 5 5 5 5 5 5 5 5 5 6 5 5 6 5 5 5 5 5 5 5 5 5 6 5 6 5 5 5 5 6 5 5 6 5 6 5 5 5 5 5 6 5 5 5 5 5 5 5 5 6 5 5 5 5 5 5 5 5 5 5 5 5 5 5 6 5 6 6 5 5 5 5 5 6 5 5 5 5 5 5 5 5 5 5 5 5 5 5 5 6 5 5 5 5 5 5 5 5 5 5 5 5 5 5 5 5 6 5 5 5 5 5 6 6 5 5 6 5 5 5 5 5 5 5 5 5 5 6 5 5 5 5 5 5 5 5 5 6 5 6 5 5 5 5 5 6 5 5 5 5 6 5 5 5 6 5 5 5 6 5 5 6 5 5 5 5 5 5 5 5 5 5 5 5 5 5 5 5 6 5 5 5 5 5 5 5 6 5 5 5 5 5 5 5 5 5 5 5 5 5 5 5 5 5 5 5 5 5 5 5 5 5 5 5 6 5 5 5 5 6 5 5 5 6 5 5 5 5 5 5 5 5 5 6 5 6 5 5 5 5 5 5 5 5 5 5 5 5 5 5 5 5 5 5 6 6 5 5 5 6 5 5 6 5 5 6 5 5 5 6 5 5 6 5 5 5 5 5 5 5 5 5 5 5 5 5 5 5 5 5 5 5 5 6 5 6 5 5 5 5 5 5 5 5 5 5 5 6 5 6 5 5 5 6 5 5 5 5 5 6 5 5 5 5 5 5 6 5 5 5 5 5 5 5 5 5 5 5 6 5 5 5 5 5 5 5 5 6 5 5 5 6 5 5 6 5 5 5 5 5 6 5 5 5 5 5 5 5 5 5 6 5 5 6 5 6 5 6 6 6 5 6 5 5 5 5 5 5 6 5 5 5 5 5 5 6 5 5 5 5 5 5 5 6 5 5 5 5 6 5 5 5 5 5 6 5 6 5 5 5 5 5 5 5 5 5 5 6 5 5 5 5 5 5 5 6 5 5 5 5 5 5 5 6 5 6 5 5 5 5 5 5 5 5 6 5 5 5 6 6 5 5 5 5 5 6 6 5 6 5 5 6 5 5 6 5 5 5 5 5 5 5 5 6 5 5 5 5 5 6 5 5 5 5 6 5 5 6 5 5 5 5 5 5 5 5 5 5 5 5 5 5 5 5 5 5 5 5 5 5 5 5 5 5 5 5 5 5 5 5 5 5 5 5 5 5 5 5 5 6 5 5 6 5 5 5 5 5 6 5 5 5 5 6 5 5 5 5 5 5 5 5 5 5 5 5 5 5 5 5 5 5 5 5 5 5 5 5 6 5 5 5 6 5 5 5 5 5 5 6 5 5 5 5 5 5 5 5 5 5 5 6 5 6 6 5 5 6 5 5 5 5 5 5 5 5 5 5 5 6 5 5 6 5 5 5 5 5 5 5 5 5 5 5 5 5 5 5 6 5 5 5 5 5 5 5 6 5 6 5 5 5 5 6 5 6 5 5 5 5 5 5 5 5 5 6 5 5 5 5 5 5 5 5 5 5 5 5 5 5 5 5 5 6 5 5 5 5 5 5 5 5 5 5 5 5 5 5 5 5 5 5 5 5 5 5 5 5 5 6 6 5 5 5 5 5 5 5 5 5 5 5 6 5 5 5 5 6 5 5 5 5 6 5 5 5 5 5 5 5 5 6 5 5 5 5 5 5 5 5 5 6 5 5 5 5 5 5 5 5 5 5 5 5 5 5 5 5 5 5 5 5 6 5 5 5 5 5 5 5 5 5 5 5 5 5 5 6 5 6 5 5 5 5 5 5 5 5 6 5 5 6 5 5 5 5 5 5 5 5 5 5 5 5 5 5 5 5 5 5 5 5 5 5 5 5 5 5 5 5 5 5 5 5 5 5 5 5 6 5 5 6 5 5 5 5 6 5 6 5 5 6 5 6 5 5 5 5 5 6 5 5 5 5 5 5 5 5 5 5 5 5 6 5 5 5 6 5 5 5 5 5 5 5 5 5 6 5 5 5 5 6 6 5 5 5 5 5 5 5 5 6 5 5 5 5 5 6 5 5 5 6 5 5 5 6 5 5 5 5 6 5 5 5 5 5 5 5 5 5 5 5 5 5 5 6 5 5 5 5 5 5 6 5 6 6 5 6 5 6 5 5 5 5 6 5 5 5 5 6 5 5 5 5 5 5 5 5 5 6 5 5 5 5 5 5 5 5 5 5 5 5 5 5 6 5 5 5 6 5 5 5 6 5 6 5 5 5 5 5 5 5 5 5 5 5 5 5 5 5 5 6 5 5 5 5 5 5 6 5 5 5 5 5 5 5 5 5 5 5 5 5 5 5 5 5 5 6 5 5 5 5 5 5 5 5 5 5 5 5 5 5 5 5 5 5 5 5 5 5 5 5 5 5 5 5 5 5 5 5 5 5 6 5 5 5 5 6 5 5 5 5 5 5 5 6 5 5 5 5 5 5 5 5 5 6 5 5 6 5 5 5 5 5 6 5 5 5 6 5 5 6 5 5 5 5 5 5 5 5 5 5 5 5 5 5 5 5 5 5 5 5 6 5 5 5 5 5 5 5 5 5 5 6 6 5 6 5 5 5 5 5 6 5 5 5 5 6 5 5 5 5 5 6 5 6 5 5 6 5 5 5 5 5 5 5 5 6 5 5 5 5 5 5 6 5 5 5 5 5 5 6 5 5 5 5 6 5 5 6 5 6 5 5 6 5 5 5 5 5 5 6 5 5 5 5 6 5 5 5 5 5 5 5 5 6 6 5 5 5 5 5 5 5 5 6 5 5 5 5 5 5 6 5 5 5 5 5 5 5 6 5 5 5 6 5 5 5 5 5 5 5 5 5 5 5 5 6 5 5 5 5 6 5 5 6 5 5 5 5 6 5 5 5 6 6 5 5 5 6 5 5 5 6 5 5 5 5 5 5 5 5 5 6 5 5 5 6 5 5 5 5 5 5 5 5 5 5 5 5 6 5 6 5 5 6 5 5 6 5 5 5 5 5 5 5 6 5 5 5 5 5 6 5 6 5 5 5 6 6 5 6 6 5 6 5 5 5 5 5 5 6 5 6 5 5 5 5 5 5 5 5 5 5 5 5 5 6 5 5 6 5 6 5 5 6 5 5 5 6 6 5 5 6 5 5 5 5 5 5 5 5 5 5 5 5 5 5 5 5 5 5 5 5 5 5 5 6 6 5 6 5 6 5 5 6 6 5 5 6 5 5 6 5 5 6 5 6 5 5 5 5 6 5 5 5 5 6 5 6 6 5 6 5 5 6 6 5 5 5 6 5 5 5 5 6 6 5 5 5 5 5 6 5 5 5 5 5 5 5 5 5 5 5 6 5 6 5 6 5 5 6 5 6 5 5 5 5 5 5 5 5 6 5 5 6 5 5 5 5 6 5 5 5 5 5 5 5 5 5 5 5 5 6 5 5 5 5 5 5 5 5 5 5 5 6 5 5 5 5 5 5 6 5 6 5 5 6 5 5 5 5 5 5 5 5 5 5 5 5 5 5 5 5 5 6 6 5 5 5 6 5 5 6 5 5 5 5 5 5 5 5 5 5 5 5 5 5 5 5 5 5 5 5 5 5 5 5 5 6 6 5 5 5 5 5 5 5 5 5 5 5 6 5 5 5 5 5 5 5 5 5 5 5 5 5 5 5 5 5 5 5 5 5 5 5 5 5 5 5 5 5 5 5 5 5 6 5 5 5 5 5 6 5 5 6 5 5 6 6 5 5 5 5 5 5 5 5 5 5 5 5 5 6 5 5 6 5 5 5 5 5 5 6 5 5 6 5 5 5 5 5 5 5 5 5 5 5 5 5 6 5 5 5 5 5 5 5 6 5 5 5 5 5 5 5 5 5 5 5 5 6 5 5 6 5 5 5 5 5 5 5 5 5 5 5 5 5 5 5 5 5 5 5 5 6 5 5 6 5 6 5 5 5 6 5 5 6 5 6 5 5 5 6 5 5 5 5 6 5 5 5 5 5 5 5 6 5 5 5 6 5 5 5 5 5 5 5 5 5 5 5 5 6 5 5 5 5 5 5 5 5 6 5 5 5 5 5 5 5 5 5 5 5 6 5 5 5 5 5 5 5 5 5 5 5 5 5 5 5 5 5 5 5 6 6 5 5 5 6 5 5 5 5 5 5 5 5 5 5 5 5 6 5 5 5 5 5 5 5 5 5 6 5 5 5 5 5 5 5 5 5 5 5 5 5 5 5 5 6 5 6 5 5 5 5 5 6 5 5 5 5 6 5 5 5 6 5 5 5 6 5 5 5 5 5 5 5 5 5 6 5 5 5 6 5 5 6 5 5 5 5 5 5 6 5 5 5 5 5 5 5 5 6 5 5 5 6 5 5 5 5 5 5 5 5 5 5 5 5 5 5 5 5 5 5 5 5 5 5 5 5 5 5 5 6 5 5 5 5 5 5 5 6 5 5 5 5 5 5 5 5 5 5 5 5 5 5 5 5 5 5 5 5 5 5 5 5 5 6 5 6 5 5 5 5 5 5 6 5 5 5 6 5 5 6 5 5 5 5 5 5 5 5 5 5 5 5 6 5 5 5 5 5 6 5 5 5 5 5 5 5 5 5 5 5 5 5 6 5 5 5 6 5 5 5 5 5 5 5 5 5 5 5 5 6 6 5 5 5 5 6 5 5 5 5 5 5 5 5 5 6 6 5 5 5 5 5 6 5 5 5 5 5 6 5 5 5 5 5 6 5 6 5 5 5 5 6 5 6 5 6 6 5 5 5 5 5 5 5 6 6 5 5 5 5 5 5 6 6 6 5 6 6 5 5 5 6 5 5 5 5 5 6 6 6 5 6 5 5 5 6 5 6 6 5 5 5 5 5 5 5 6 6 5 5 6 6 6 5 5 5 5 5 5 5 5 5 5 5 5 5 5 5 5 5 5 5 5 5 5 5 5 5 5 5 5 5 5 5 5 5 5 5 5 5 5 5 5 6 5 5 5 5 5 5 5 5 5 5 6 5 5 5 5 5 5 6 5 5 6 5 5 5 5 5 5 5 5 5 5 5 5 5 6 5 6 5 5 5 5 6 5 5 5 6 5 5 6 5 5 5 6 5 5 6 5 5 5 5 5 6 5 5 5 5 5 5 5 6 5 5 5 5 5 5 5 6 5 5 6 5 5 5 5 6 5 6 5 5 5 5 5 6 5 5 5 5 6 5 5 5 5 5 5 6 6 5 5 5 5 5 6 5 5 6 5 5 5 5 5 5 5 5 5 5 6 5 5 5 5 5 5 5 5 5 5 5 5 5 5 5 5 5 5 6 5 5 5 5 5 5 6 5 5 5 5 5 5 5 6 6 5 5 5 5 6 5 5 5 5 5 5 5 6 5 5 6 5 6 6 6 5 5 5 5 5 5 6 5 5 5 5 5 6 5 5 5 5 6 5 5 5 6 5 5 5 6 5 5 5 5 5 5 5 5 5 5 5 5 5 5 5 5 5 5 5 5 5 5 5 5 5 6 5 5 5 5 5 5 5 6 5 6 5 5 5 5 5 5 6 5 5 6 5 5 5 6 5 5 6 5 5 5 5 5 6 5 5 5 6 6 5 5 5 5 5 5 5 5 5 5 5 5 6 5 5 5 5 5 5 5 5 5 6 5 5 5 5 5 6 6 5 5 5 5 5 5 5 5 5 6 5 5 5 5 5 5 5 5 6 5 5 5 5 5 5 5 5 5 5 5 5 5 5 5 5 5 5 6 5 5 5 5 6 5 6 5 6 5 5 5 5 5 5 5 5 5 5 5 5 5 5 5 5 5 6 5 5 5 5 5 6 5 5 5 6 6 5 5 5 5 5 6 5 5 5 5 6 5 5 5 5 5 5 5 5 6 5 5 5 5 5 5 5 6 5 5 5 5 5 5 5 5 5 6 5 5 5 5 5 5 5 5 5 5 5 5 5 5 5 5 5 5 6 5 5 5 5 5 5 5 5 5 5 5 5 5 6 5 5 5 5 5 5 6 5 5 6 5 5 6 5 5 5 5 5 5 5 5 5 5 5 5 5 5 5 5 5 5 5 5 5 5 5 5 5 5 6 5 6 5 6 6 5 5 5 6 5 5 5 5 5 5 5 5 5 6 6 5 6 5 5 5 5 5 5 5 5 5 5 5 5 5 5 6 5 6 6 5 6 5 5 5 5 5 5 5 5 5 6 6 5 5 5 5 5 5 5 5 5 5 5 5 5 5 5 5 5 5 5 5 5 5 6 5 5 5 5 5 6 5 5 5 5 5 6 5 5 5 6 5 5 5 5 5 5 5 5 5 6 5 5 5 5 6 5 5 5 5 5 5 6 5 5 5 5 5 5 5 6 5 5 5 5 6 5 5 5 5 5 5 5 5 5 5 6 5 5 5 5 6 5 5 5 6 5 5 5 5 5 6 5 5 5 5 5 5 5 5 5 5 5 5 5 5 6 6 5 5 6 5 5 5 5 5 5 5 6 5 5 5 5 5 5 6 5 5 5 5 5 5 5 5 5 5 5 5 5 5 5 5 5 5 5 5 5 5 5 6 5 5 5 5 5 5 5 5 6 5 5 5 5 6 5 5 5 5 5 6 5 6 5 6 5 5 5 5 5 5 5 6 5 5 5 6 5 5 5 5 5 6 5 5 5 5 5 6 5 6 5 5 6 5 6 5 5 5 5 5 6 5 5 5 6 5 5 5 5 5 5 5 5 5 5 6 5 5 5 5 5 5 5 5 5 5 5 5 5 5 5 5 5 5 5 5 5 5 6 5 5 5 5 5 5 5 5 5 5 5 5 5 5 5 5 5 5 6 5 5 5 6 5 5 5 5 5 5 6 5 5 5 6 6 5 6 5 6 6 5 6 5 5 6 5 5 6 6 5 5 5 5 5 5 5 5 6 5 6 5 5 5 5 5 5 5 5 5 5 5 5 5 5 5 5 5 5 5 5 5 5 6 5 5 5 5 5 5 5 5 6 5 5 6 5 5 6 6 5 5 6 5 5 5 5 5 5 5 5 5 5 5 5 5 5 5 5 5 5 5 5 5 5 5 5 5 5 5 5 5 5 5 5 5 5 5 5 5 5 5 6 5 6 5 5 5 5 5 5 5 5 5 5 5 5 5 5 5 5 5 5 5 5 5 5 5 5 5 5 5 5 5 5 5 5 5 5 5 5 5 5 5 5 6 5 5 6 5 5 5 5 5 6 5 6 5 5 6 5 5 5 5 5 5 6 5 5 5 5 5 5 5 5 5 5 5 6 5 5 6 6 5 6 5 5 6 5 5 5 5 6 5 5 5 5 5 5 5 5 5 6 5 6 5 5 5 5 5 5 5 6 5 6 5 5 5 5 5 5 5 5 5 6 5 6 5 5 5 5 5 5 5 5 5 5 6 5 5 5 6 5 5 6 5 5 6 5 5 5 5 6 5 5 5 6 5 5 5 5 5 5 5 5 5 5 5 5 5 5 6 5 5 5 5 5 5 6 5 6 5 6 5 5 5 6 5 5 5 5 5 5 5 5 6 5 5 5 5 5 6 5 5 6 5 5 5 5 5 5 5 5 5 6 5 5 5 6 5 5 5 5 5 5 6 5 5 5 5 5 5 5 5 5 5 5 5 5 5 5 5 5 5 5 5 5 5 5 5 5 5 5 5 5 5 5 6 5 5 5 5 5 6 5 5 6 6 5 5 5 5 6 5 5 5 5 5 6 5 5 5 5 5 5 5 5 5 5 5 5 5 5 5 5 6 5 5 5 5 5 5 5 5 6 6 5 5 5 5 5 5 6 5 5 5 5 6 5 5 5 5 5 5 5 5 5 5 5 5 5 5 5 5 5 5 5 5 5 5 5 5 6 5 5 6 5 5 5 5 5 5 5 5 5 5 5 5 5 5 5 5 5 5 5 5 5 5 5 5 5 5 5 6 5 6 5 5 5 5 5 6 5 5 5 5 5 5 5 5 5 5 5 5 5 5 5 5 5 5 5 5 6 6 5 6 5 5 5 5 5 5 5 5 5 5 5 5 5 5 5 5 6 5 5 5 6 5 5 5 5 5 5 5 5 5 5 5 5 5 6 5 5 5 5 5 5 5 5 5 5 5 5 5 5 5 5 5 5 5 5 5 5 6 5 5 5 5 5 5 5 5 5 5 5 5 5 6 5 6 5 5 6 6 5 5 5 5 5 5 5 5 5 5 5 5 5 5 5 5 5 5 5 5 6 5 5 6 5 5 5 6 5 5 5 5 5 5 6 5 5 5 6 5 5 5 5 5 5 5 5 6 5 5 6 5 5 6 5 6 5 5 5 5 6 6 5 5 6 6 5 5 6 5 5 5 5 6 5 5 6 6 5 6 5 5 5 5 5 5 5 5 5 5 5 5 5 5 5 5 5 5 5 5 6 5 5 5 5 6 5 5 5 5 6 6 5 5 5 5 5 5 5 5 5 5 5 5 6 5 5 5 6 5 5 5 5 5 5 5 6 5 5 5 6 5 5 6 6 5 5 5 6 5 5 5 6 5 5 5 5 5 5 5 5 5 5 5 5 5 5 5 5 5 5 6 5 5 5 5 5 5 5 5 5 5 5 5 5 5 5 5 5 5 6 6 5 5 5 5 5 6 6 5 6 5 5 5 5 5 5 5 5 5 6 5 5 5 6 5 5 5 5 5 5 5 5 5 5 5 5 5 5 6 5 5 5 5 5 5 5 6 5 5 6 5 5 5 5 5 5 6 5 5 5 5 6 5 5 5 5 5 5 6 5 5 5 5 5 5 5 5 6 6 5 5 5 6 6 5 5 5 5 5 6 5 5 5 5 5 5 6 5 5 5 5 6 5 5 5 5 5 6 5 5 5 5 6 5 5 5 5 5 5 5 5 5 5 5 5 5 5 5 5 5 5 5 5 5 5 5 5 5 6 5 5 5 5 6 5 6 5 6 5 5 6 5 5 6 5 5 6 5 5 5 5 5 5 6 5 5 6 5 6 6 6 5 5 6 5 6 6 5 5 5 6 5 6 5 5 5 5 5 5 6 5 5 5 6 5 5 5 5 5 5 5 6 5 5 5 6 5 6 6 5 5 5 5 5 5 5 6 5 5 5 5 5 5 5 5 6 6 5 5 5 5 6 5 5 6 5 5 5 6 5 5 5 6 6 5 5 5 5 6 5 5 5 5 5 6 6 5 5 5 5 5 5 5 5 5 5 5 5 5 5 5 5 5 5 5 5 5 5 5 5 5 5 5 5 5 5 5 6 5 5 5 6 5 5 5 5 5 5 5 5 5 5 5 5 5 5 5 6 5 6 6 5 5 6 5 5 5 5 5 5 5 5 5 5 5 5 5 5 5 5 5 5 5 5 5 5 5 6 5 5 6 6 5 5 5 5 5 5 5 6 5 5 5 6 5 5 5 5 6 6 5 5 5 5 5 5 5 6 5 5 5 5 6 5 5 5 5 6 5 5 5 5 5 5 5 5 5 5 5 5 5 5 5 5 5 5 5 6 5 5 5 5 5 5 5 5 5 5 5 5 5 5 5 5 6 5 5 5 6 5 5 5 5 5 5 5 5 5 6 5 5 5 5 5 5 5 5 5 5 5 5 5 5 5 5 5 5 5 5 5 6 5 5 5 5 5 5 5 5 5 5 5 5 5 5 5 5 5 6 5 5 5 5 5 6 5 5 5 5 5 5 5 5 5 5 5 5 5 5 5 5 5 5 5 5 5 5 5 5 5 5 5 6 5 5 6 5 5 5 6 5 5 5 5 5 5 5 5 5 5 5 5 5 5 5 6 5 6 5 5 5 5 5 5 5 5 5 6 5 5 5 5 5 5 5 5 5 6 6 5 5 5 5 5 5 5 5 5 5 5 5 5 5 5 5 5 5 5 5 5 5 5 5 5 5 5 5 5 5 5 5 5 5 5 5 5 5 5 5 5 5 5 5 5 5 5 5 5 5 5 5 5 5 5 5 5 5 5 5 5 5 5 5 5 5 5 5 5 5 5 6 5 5 5 5 5 5 6 5 5 5 5 5 5 5 5 5 6 5 6 5 5 5 5 5 5 5 5 5 5 5 5 5 5 5 5 5 5 5 5 5 5 5 5 5 5 5 5 5 5 5 5 5 5 6 5 5 5 6 6 5 5 5 5 5 5 5 5 5 5 5 5 5 5 5 5 5 5 5 5 5 5 6 6 5 5 5 5 5 5 5 5 6 5 5 5 5 5 5 6 5 5 5 5 5 6 5 5 5 5 6 5 5 5 6 5 5 5 6 5 5 6 5 5 5 5 5 5 5 5 5 5 5 5 5 6 5 5 5 5 5 5 5 5 6 5 5 5 5 5 5 5 5 5 5 5 6 5 5 5 6 5 5 5 5 6 5 5 5 5 5 5 5 5 6 5 6 5 5 6 5 5 5 5 5 6 5 5 5 5 5 5 5 5 5 5 5 5 6 5 5 5 5 5 5 5 5 5 6 5 5 5 5 5 5 6 5 5 5 5 5 5 5 6 5 5 5 5 5 6 5 5 5 5 5 5 5 5 5 5 5 5 5 5 5 5 5 5 5 5 5 5 5 5 5 5 5 5 5 5 5 5 5 5 5 5 5 5 5 5 5 5 5 5 5 5 5 6 5 6 5 5 5 5 5 5 5 5 5 5 5 5 5 5 6 5 5 5 5 5 5 5 5 5 5 5 5 5 5 5 6 5 5 6 5 6 5 5 5 5 5 6 5 5 5 5 5 5 5 5 5 5 5 5 5 5 5 5 5 5 5 5 6 5 5 5 5 5 5 5 5 5 5 5 6 5 6 5 5 6 5 6 5 5 5 5 5 5 5 6 5 6 5 5 5 5 6 5 5 5 5 6 6 5 5 6 5 5 5 5 5 5 5 5 5 5 5 5 5 5 5 5 6 5 5 5 5 5 5 5 5 5 5 5 5 5 5 6 5 6 5 5 5 5 5 5 5 6 5 6 5 5 5 5 5 5 5 5 5 6 6 5 5 5 6 5 5 5 5 6 5 6 5 5 6 5 6 6 6 5 5 6 5 5 5 6 6 6 5 5 5 5 5 5 5 5 5 5 5 6 5 5 5 5 5 5 6 5 5 5 6 5 5 5 5 5 5 5 5 6 5 5 5 6 5 5 5 5 5 5 5 5 5 5 5 5 5 5 5 5 5 5 5 5 5 5 5 5 5 5 5 5 5 5 5 5 5 5 5 5 5 5 5 5 5 5 5 5 5 5 5 5 5 5 5 5 5 5 5 5 5 5 5 5 6 5 5 5 5 5 6 5 5 5 5 6 5 5 5 6 5 5 5 5 5 5 5 5 5 5 5 5 5 5 5 5 5 5 5 5 5 5 5 5 5 5 5 5 5 5 5 5 5 5 5 5 5 5 5 5 6 5 5 6 5 5 5 5 5 5 5 6 5 5 5 5 5 5 5 5 5 5 5 6 5 5 6 5 6 5 5 5 6 5 5 5 5 5 5 5 5 6 5 5 5 5 6 5 5 5 5 6 5 6 5 5 5 5 5 5 5 5 5 5 5 5 6 5 6 5 5 5 5 5 5 5 5 5 5 5 5 5 6 5 5 5 5 5 5 5 5 5 6 5 5 5 6 5 5 5 5 5 5 5 5 5 5 5 5 5 5 5 5 5 5 5 5 5 5 5 5 5 5 5 5 5 5 5 5 5 5 5 6 5 5 6 5 5 5 5 6 5 5 5 5 5 5 5 5 5 5 5 5 5 5 5 6 5 5 5 5 5 5 5 5 5 6 5 6 5 5 5 5 5 5 5 6 5 5 5 5 5 5 5 5 5 5 5 5 5 5 6 5 5 5 5 5 5 5 5 5 5 5 6 5 5 5 5 5 5 5 5 5 5 5 5 5 5 5 5 5 5 5 5 5 5 5 6 5 6 5 5 5 5 5 5 6 5 6 5 5 5 6 5 5 5 6 5 5 5 6 5 5 6 5 5 5 5 5 5 5 6 5 5 5 5 5 5 5 6 5 5 5 5 5 5 5 5 5 5 5 5 5 6 5 5 5 5 5 5 5 5 6 5 5 5 5 5 5 5 5 5 5 5 5 5 5 5 5 5 5 5 5 6 5 5 5 5 5 5 5 5 5 5 5 5 5 5 5 5 5 5 5 5 5 5 5 5 5 5 5 5 5 5 5 5 5 5 5 5 5 5 5 5 5 5 5 5 5 5 5 5 5 5 6 5 6 5 5 5 6 5 5 6 6 5 6 5 5 5 5 5 5 5 5 5 5 5 5 5 5 5 5 5 5 5 5 5 5 5 5 5 5 5 5 5 5 5 5 5 5 5 6 5 5 5 5 6 5 5 6 5 5 5 6 5 5 5 5 6 5 6 6 5 5 5 5 6 5 5 5 6 5 5 5 6 5 5 5 5 5 5 6 5 5 5 5 5 5 5 5 5 5 5 5 5 5 5 5 5 5 5 5 6 5 5 5 5 5 5 5 5 5 5 5 5 5 5 5 5 5 5 6 5 5 6 5 5 6 5 5 5 5 5 5 5 5 5 5 5 6 5 5 5 5 6 5 5 5 5 6 5 5 5 6 5 5 5 5 5 5 5 5 5 5 5 5 5 5 5 5 5 5 5 5 5 5 5 5 5 6 5 5 5 5 5 5 5 5 6 5 5 5 6 5 5 5 5 5 5 5 5 5 5 5 5 5 5 5 5 5 5 5 5 5 5 5 5 6 5 5 5 6 5 5 5 5 5 5 5 5 6 5 5 6 5 5 5 5 6 5 5 5 5 5 5 5 6 5 6 5 5 6 5 5 6 6 5 5 5 5 5 5 5 5 5 5 5 5 5 5 5 5 5 5 5 5 5 6 5 5 5 5 6 5 5 5 5 5 5 5 5 5 5 5 5 5 6 5 5 6 5 5 5 5 5 5 5 5 5 5 5 5 5 5 5 5 5 5 5 5 5 5 5 5 5 5 5 5 5 5 5 5 5 5 5 5 5 5 5 5 5 5 5 5 5 5 5 5 5 5 5 5 5 5 5 5 5 5 5 5 5 5 5 5 5 5 5 5 5 5 5 5 5 5 5 5 5 5 5 5 5 5 5 5 5 5 5 5 5 5 5 5 5 5 5 5 5 5 5 5 5 5 5 5 5 5 5 5 5 5 5 5 5 5 5 5 5 5 5 5 5 5 5 5 5 5 5 5 6 5 5 5 5 5 5 5 6 5 5 5 5 5 5 5 5 5 6 5 6 5 5 5 6 5 5 6 5 5 5 5 5 5 5 5 5 5 5 5 5 5 5 5 5 5 5 5 5 5 5 5 5 5 5 5 5 5 5 5 5 5 5 5 5 6 5 5 6 6 5 5 6 5 5 6 5 5 5 6 5 5 5 5 5 5 5 5 5 6 5 5 5 5 5 5 6 5 5 5 5 5 5 5 5 5 5 5 5 5 5 5 5 5 5 5 5 5 5 5 5 5 5 5 5 5 5 5 6 5 5 5 5 5 5 5 5 5 5 5 5 5 5 5 5 5 5 5 5 5 5 5 5 5 5 5 5 5 5 5 5 5 5 5 5 5 5 5 5 5 5 5 5 5 5 6 5 6 5 5 5 5 6 5 5 5 5 6 5 5 5 5 6 5 5 5 5 5 5 5 5 6 5 5 6 5 6 5 5 5 5 6 5 5 6 6 5 5 5 5 5 5 6 5 5 5 5 5 5 5 5 5 5 6 6 5 5 5 5 5 6 5 5 6 5 5 5 5 6 5 5 6 5 5 5 5 5 5 5 5 5 5 5 5 5 5 5 5 5 5 5 5 5 5 5 5 5 5 5 5 5 6 5 6 5 5 5 5 5 5 5 5 5 5 5 5 5 6 5 5 5 5 6 6 5 5 5 5 5 5 5 5 5 5 5 5 5 5 5 5 5 5 5 5 5 5 5 5 5 5 5 5 5 5 5 5 5 5 5 5 5 5 5 5 5 5 6 5 5 5 6 5 5 5 5 5 5 5 5 5 5 5 5 5 5 5 5 5 5 5 5 6 5 5 6 5 5 5 5 5 5 5 5 5 6 5 5 5 5 5 6 5 5 5 5 5 6 5 6 5 5 5 5 5 5 5 5 5 5 5 5 5 6 5 5 5 6 6 5 5 5 5 5 5 5 5 6 5 5 6 5 5 6 6 5 5 5 5 5 6 5 5 5 5 5 5 5 6 5 5 6 6 5 5 5 5 5 5 6 6 5 5 5 6 5 5 5 5 5 5 5 6 5 5 5 5 5 5 5 5 5 5 5 5 5 5 5 5 5 5 5 5 5 5 5 5 5 5 6 5 5 5 5 5 5 5 6 5 5 5 5 5 5 5 5 5 5 5 6 5 5 5 5 5 5 5 5 6 5 5 5 5 5 5 5 5 5 5 5 5 5 5 5 5 6 5 5 5 6 5 5 5 5 5 6 5 5 5 5 5 5 5 5 5 5 5 5 5 5 6 5 5 5 5 6 5 5 6 5 5 5 5 5 6 5 5 5 5 5 5 5 5 5 5 5 5 5 5 6 5 6 5 5 5 6 5 6 5 6 5 5 5 5 5 5 6 6 5 5 5 5 5 5 6 5 6 5 5 5 5 5 5 5 5 5 5 5 5 5 5 5 5 5 6 5 5 5 6 6 5 5 5 5 5 6 5 5 6 6 5 5 5 5 5 5 5 5 5 5 5 5 5 5 5 5 5 5 5 5 5 5 5 5 5 5 5 5 5 5 5 5 5 5 5 5 5 5 5 5 5 5 5 5 6 5 5 6 6 6 5 5 5 5 5 5 6 5 5 5 5 5 5 5 5 5 6 5 5 5 6 5 5 5 5 5 5 5 5 5 5 5 5 5 5 5 5 5 5 5 5 6 5 5 5 5 6 5 5 5 5 5 5 5 5 5 5 5 5 5 5 5 5 5 5 5 5 5 5 5 5 5 5 5 5 5 5 5 5 5 5 6 5 6 5 5 5 5 5 5 5 5 6 5 5 5 6 5 6 5 5 5 5 5 5 5 5 6 5 5 5 5 6 5 5 5 5 6 5 5 5 5 5 5 5 6 5 5 5 5 6 5 5 5 5 5 5 5 5 5 5 5 5 5 5 5 5 5 5 5 5 5 5 5 5 5 5 5 5 5 5 5 5 5 5 5 5 5 5 5 5 5 5 5 5 5 5 6 5 5 5 5 6 6 5 5 6 6 5 5 5 5 5 5 5 5 5 5 5 5 5 5 5 5 5 5 5 6 5 5 5 6 6 5 5 5 5 5 5 5 5 5 5 5 5 5 5 5 5 5 5 5 5 5 5 5 5 5 5 5 6 5 5 5 5 5 5 5 6 5 5 5 5 5 5 5 5 5 5 5 5 5 5 5 6 5 5 5 5 5 5 5 5 6 5 6 6 5 5 5 5 5 5 5 5 5 5 5 5 6 5 5 5 5 5 5 5 5 5 5 5 5 5 5 5 5 5 5 6 5 5 5 6 5 5 5 5 5 5 5 5 6 5 5 5 5 5 5 5 5 5 5 5 5 5 5 5 6 5 5 5 6 5 5 5 5 5 5 5 5 5 5 5 5 5 5 5 5 5 5 5 5 5 5 5 5 5 5 5 5 5 5 5 5 5 6 5 6 5 5 5 5 5 5 5 5 6 5 5 5 5 5 5 5 5 5 6 5 5 6 5 5 5 5 5 6 5 5 5 5 6 5 5 5 5 6 5 5 5 6 5 6 5 5 6 5 5 5 5 5 5 5 5 5 5 5 5 5 5 6 5 5 6 5 6 5 5 5 6 5 5 6 5 5 5 5 6 5 6 5 5 5 5 5 5 6 5 6 5 5 5 5 5 6 5 5 5 5 6 5 5 5 5 5 5 6 5 5 5 5 5 5 5 5 5 5 5 5 5 5 5 5 5 5 5 5 5 5 5 5 5 5 5 5 5 5 5 5 5 6 6 5 5 5 5 5 5 5 5 5 5 6 5 5 6 6 5 6 5 5 5 5 5 5 5 6 5 5 5 5 5 5 5 5 5 5 5 5 6 5 5 5 5 6 5 5 5 5 5 5 5 5 5 5 5 5 6 5 5 5 5 5 5 5 5 5 5 5 5 5 5 5 5 5 6 5 5 5 5 5 6 5 5 5 6 5 5 5 5 5 5 6 5 6 5 5 5 6 5 5 5 5 5 5 5 5 5 6 5 5 6 5 5 5 5 5 5 5 6 5 5 5 5 5 5 5 5 5 5 5 5 5 6 5 5 6 5 5 5 5 5 5 6 5 5 5 5 5 5 6 5 5 5 5 5 5 5 6 5 5 5 5 5 5 5 5 5 5 5 5 5 5 5 5 5 5 5 5 5 5 6 5 5 5 5 5 5 5 5 5 5 6 5 5 5 5 6 6 5 5 5 5 6 5 5 5 5 5 5 5 5 5 6 5 5 5 5 5 5 5 5 5 5 5 6 5 5 5 6 5 5 5 6 5 5 5 5 5 5 5 5 5 5 5 5 6 5 5 5 5 5 6 5 5 6 5 5 5 5 5 5 5 5 5 5 5 5 5 5 6 5 5 5 5 5 5 5 6 5 5 5 6 5 5 5 5 5 6 5 5 5 5 5 5 5 5 5 6 5 5 5 5 5 5 5 5 6 5 5 5 5 5 6 5 5 5 5 5 5 5 6 5 5 5 5 5 5 5 5 5 5 5 5 5 5 5 5 5 5 5 5 5 5 5 5 5 5 5 5 5 5 5 5 5 5 5 5 5 5 5 5 5 5 5 5 5 5 5 5 6 5 5 5 5 5 5 5 6 5 5 5 5 5 5 5 5 5 5 5 5 5 5 5 5 5 5 5 5 5 5 6 6 5 5 6 6 5 5 5 5 5 5 5 6 5 5 5 5 5 5 5 5 5 5 5 5 5 5 6 5 5 5 5 5 5 5 5 6 5 5 6 5 5 5 6 5 5 5 5 5 5 5 5 5 5 5 5 5 5 5 5 5 5 5 5 5 5 5 5 5 5 5 5 6 5 5 5 5 5 5 5 5 6 5 5 5 5 5 5 6 6 5 5 5 5 6 5 5 6 5 5 6 5 5 5 5 5 5 6 5 5 5 5 5 5 5 5 6 5 5 5 5 5 5 5 5 5 5 5 6 5 5 6 5 5 5 5 5 5 5 6 5 5 5 6 5 6 5 6 5 5 5 5 5 5 5 5 5 5 5 5 5 5 5 5 5 6 5 6 5 5 5 5 5 5 5 5 5 5 6 5 5 5 5 5 5 5 6 5 5 5 6 5 6 6 5 5 6 5 5 5 5 6 5 5 5 6 5 5 5 6 5 6 6 5 5 5 5 5 5 6 5 5 5 5 5 5 5 5 6 6 6 5 6 5 5 6 6 5 5 6 5 5 5 5 5 5 5 5 5 5 5 6 5 5 5 5 5 5 5 5 5 5 5 5 5 6 6 5 5 5 5 6 5 5 5 6 5 5 5 5 5 6 6 5 5 5 6 5 5 5 5 5 5 5 5 5 5 5 5 5 5 5 6 5 5 5 6 5 5 5 6 5 5 5 5 5 5 6 5 5 5 5 5 6 5 5 5 5 5 5 5 5 6 5 5 5 5 5 5 5 5 5 6 5 5 5 5 6 5 6 5 5 6 5 6 5 5 5 5 5 5 6 5 6 6 5 5 5 5 5 5 5 5 6 5 6 5 6 5 6 5 5 5 5 5 5 5 5 5 5 5 6 5 5 5 6 5 5 5 5 5 5 5 5 6 5 5 5 5 5 5 5 5 5 6 5 5 5 5 6 5 5 6 5 5 5 5 5 5 5 5 5 6 5 5 5 6 5 5 5 5 5 5 5 5 5 5 5 5 5 5 5 5 5 5 5 6 5 5 5 5 5 5 5 5 5 5 6 5 5 5 5 5 5 5 5 5 5 5 5 5 5 5 5 5 5 5 5 5 5 5 5 5 5 5 5 5 5 5 5 5 5 5 5 5 5 5 5 5 5 5 5 5 6 6 5 5 5 5 5 5 5 5 5 5 5 5 5 6 6 5 5 5 6 5 5 6 5 5 5 6 5 5 5 6 5 5 5 5 5 5 5 5 6 5 5 6 5 6 6 5 5 5 5 5 5 6 5 6 6 6 5 5 6 5 5 6 6 5 5 5 5 5 5 5 5 5 5 5 5 5 5 5 5 5 5 5 5 5 6 5 5 5 5 5 5 5 5 5 6 5 5 5 5 5 5 5 6 6 5 5 5 5 5 5 5 5 5 5 5 5 5 5 5 5 5 5 5 5 5 5 5 6 5 6 5 5 5 5 5 5 5 6 5 5 5 6 6 5 5 6 5 5 5 5 6 5 5 5 6 5 5 5 6 5 5 5 5 5 5 5 5 5 6 6 5 5 5 5 5 6 5 5 6 6 6 5 5 5 5 5 6 5 5 5 5 5 5 5 5 5 6 5 6 5 5 5 5 5 5 5 5 5 5 5 5 5 5 5 5 5 5 5 5 5 5 5 5 6 5 5 5 5 6 6 5 5 5 6 5 5 5 5 5 5 5 5 5 5 5 5 5 5 5 5 6 5 5 5 6 5 5 6 5 5 5 5 5 5 5 5 5 5 5 5 5 6 5 5 6 5 5 5 6 5 6 5 6 5 6 6 6 5 5 5 5 5 5 5 5 6 5 5 5 5 5 5 5 5 6 5 5 6 5 5 5 5 5 5 5 5 5 5 5 5 5 5 5 5 5 5 5 5 5 6 5 5 5 5 5 5 5 5 5 5 6 5 6 5 5 6 5 6 5 6 5 5 6 5 6 5 5 6 5 5 5 6 5 5 5 5 5 5 5 5 5 5 5 5 5 5 5 5 5 5 5 5 5 5 5 5 5 5 5 5 5 5 5 5 5 5 5 5 5 5 5 5 5 5 5 5 5 5 5 5 5 5 5 5 5 5 5 5 5 5 5 5 5 6 5 5 6 5 5 5 5 5 5 6 6 5 5 5 5 5 5 5 5 5 5 5 5 5 5 5 5 5 5 6 5 5 5 6 5 5 5 5 5 5 5 5 5 5 5 5 5 5 5 5 6 5 5 5 5 5 5 5 6 5 5 5 5 5 5 5 5 6 5 6 5 5 5 5 5 5 5 5 5 5 5 5 5 5 5 5 6 5 5 5 5 5 5 5 6 5 5 5 5 6 5 5 5 5 5 5 5 6 5 5 6 6 5 5 6 5 5 5 5 5 5 6 5 5 5 5 5 5 5 5 5 6 5 5 6 5 5 6 5 5 6 5 5 5 5 5 6 5 5 5 5 5 5 5 5 6 5 5 5 5 5 5 5 6 5 5 5 5 5 5 5 5 5 5 5 5 6 5 5 5 5 5 5 5 6 6 5 6 5 6 5 5 5 5 5 5 5 5 5 5 5 5 5 5 5 6 5 6 5 5 5 5 5 5 5 5 6 5 6 5 6 5 6 5 6 5 5 6 5 5 5 5 5 6 5 5 5 5 5 5 5 5 6 5 5 5 5 5 6 5 5 6 5 6 6 5 5 5 5 5 5 5 5 6 5 5 5 5 5 5 5 5 5 5 5 5 5 6 5 5 5 5 5 5 5 6 5 5 5 6 5 5 5 5 5 5 5 5 5 5 5 5 5 5 5 5 5 6 5 5 5 5 5 5 5 6 5 5 6 5 5 5 5 5 5 5 5 5 5 5 5 5 5 5 6 5 5 5 5 6 5 5 5 5 5 5 5 5 5 5 5 5 5 5 5 5 5 5 5 5 5 5 5 5 5 6 5 5 5 5 5 5 6 5 5 5 5 5 5 5 5 5 6 6 5 5 5 6 5 6 5 5 5 5 5 5 5 5 5 5 5 5 5 5 5 6 5 5 5 5 5 5 5 5 5 5 5 5 6 6 5 5 5 5 5 5 5 5 6 5 5 6 5 5 6 6 5 5 5 5 5 5 5 6 5 5 5 5 5 5 5 5 5 6 5 5 5 6 5 5 5 5 5 6 5 5 5 5 5 5 5 5 5 5 5 5 6 5 5 5 6 5 5 5 6 5 5 5 5 5 5 5 5 5 5 5 5 5 5 5 5 5 5 5 5 5 5 5 5 5 5 5 5 5 5 5 5 6 5 5 5 5 5 5 5 5 5 5 5 5 5 5 5 5 5 5 5 5 5 5 5 5 6 5 6 5 5 6 5 5 5 5 5 5 5 5 5 6 5 5 5 5 5 5 5 5 5 5 5 5 5 5 6 5 5 5 5 6 5 5 5 6 5 5 5 5 5 5 5 5 5 5 5 5 5 5 5 5 5 5 5 5 5 5 5 5 5 5 5 5 5 5 5 5 5 5 5 5 5 5 5 5 5 5 5 5 5 5 5 5 5 5 5 5 5 5 5 5 5 5 5 5 5 5 5 5 5 5 5 5 5 5 5 5 5 5 5 5 5 5 5 5 5 5 5 5 5 5 5 5 5 5 5 5 5 5 5 5 5 5 5 5 5 5 5 5 5 5 5 5 5 5 5 5 5 5 5 5 5 5 5 5 5 5 5 5 5 5 5 5 5 5 5 5 5 5 5 5 5 5 5 5 5 5 5 5 5 5 5 5 5 5 5 5 5 5 5 5 5 5 5 5 5 5 5 5 5 5 5 5 5 5 5 5 5 5 5 5 5 5 5 5 5 5 5 5 5 5 5 5 5 6 5 5 5 5 5 5 5 5 5 5 5 5 5 5 5 5 6 5 5 5 5 5 5 5 5 6 5 5 5 5 6 5 5 5 5 5 5 5 5 5 5 5 5 5 5 5 5 5 5 5 5 5 5 6 5 5 5 5 5 5 5 5 5 5 5 5 5 6 6 5 5 5 5 5 6 5 6 5 5 5 5 5 5 5 5 5 5 5 6 5 5 5 5 5 5 5 6 5 5 5 5 5 5 5 5 5 5 5 5 5 5 5 6 6 5 5 5 5 5 5 5 5 5 5 5 5 6 5 5 5 5 5 5 5 5 5 5 5 5 5 5 5 5 6 5 5 5 5 5 5 5 6 5 5 5 5 5 5 5 5 5 5 6 6 5 5 5 5 5 5 5 5 5 5 5 5 5 5 5 5 5 5 5 5 5 5 5 5 5 5 5 5 5 5 6 5 5 5 5 5 6 5 5 5 5 5 5 5 5 5 5 6 5 5 5 5 6 5 5 5 5 5 5 5 5 5 5 6 5 6 5 5 5 5 5 5 5 5 5 5 5 5 5 5 5 5 5 5 5 5 5 5 5 5 5 5 5 5 5 5 5 6 5 5 5 5 5 6 5 5 5 5 5 5 5 5 5 5 5 5 5 5 5 5 5 5 6 5 5 6 5 5 5 6 5 5 5 5 5 6 5 5 5 5 5 5 5 5 5 5 6 5 5 5 5 5 5 6 5 5 5 5 5 6 6 5 5 6 5 5 6 5 5 5 5 5 5 5 5 5 5 6 5 5 6 5 5 6 5 5 6 5 5 6 5 5 6 5 5 5 5 5 5 6 5 5 5 5 5 5 5 5 5 5 5 6 5 5 5 5 5 5 5 6 5 5 5 5 6 5 5 5 6 5 5 5 5 5 5 5 5 5 5 5 6 5 5 5 5 5 5 5 5 5 5 5 5 5 5 5 5 5 5 5 5 5 5 5 5 6 5 5 5 5 5 6 5 5 5 5 5 5 5 5 5 5 5 5 5 5 6 5 5 6 5 6 5 5 5 5 6 5 6 6 5 6 5 5 5 5 5 5 5 6 5 6 5 5 5 5 5 5 6 5 5 5 5 5 5 6 5 5 5 5 6 5 5 5 5 5 6 5 5 6 5 5 5 5 6 5 5 5 5 6 5 5 5 5 5 5 6 5 5 5 5 5 5 5 5 5 6 5 5 5 5 5 5 6 5 5 5 5 6 5 5 5 5 5 5 5 5 5 5 5 5 5 5 5 5 6 5 5 5 6 5 5 6 5 5 5 5 5 5 5 5 5 5 5 5 5 5 5 5 6 5 6 5 5 5 5 5 5 5 5 5 5 5 5 5 5 5 5 5 5 5 5 5 5 5 5 5 5 6 5 5 6 5 5 5 5 5 5 5 5 5 5 6 5 5 5 5 6 5 5 5 5 6 5 5 5 5 5 5 5 5 5 6 5 5 5 5 5 5 5 5 5 5 5 5 5 5 5 5 5 5 5 5 5 5 5 5 5 5 5 5 
</DataArray>
<DataArray type="Float64" Name="stress" NumberOfComponents="9" format="ascii">
1193736373.6762886 -106887511.61236402 0 -106887511.61236402 -186445.12988049781 0 0 0 0 1998366789.2537956 -218663558.70925495 0 -218663558.70925495 -74896257.83741127 0 0 0 0 2202040475.0395546 -330804352.31988984 0 -330804352.31988984 -151814367.95733881 0 0 0 0 1884807365.4814415 -388591338.8903181 0 -388591338.8903181 113583939.6425565 0 0 0 0 1510989250.4400101 -622292270.04312325 0 -622292270.04312325 108286411.72727768 0 0 0 0 4000810.1300626248 295114.74592460133 0 295114.74592460133 102672.939956307 0 0 0 0 26723809.813072205 107622636.38574389 0 107622636.38574389 273185956.92988771 0 0 0 0 530497811.48586273 234784313.86650002 0 234784313.86650002 131370283.66207173 0 0 0 0 1379866229.8521652 -61284002.773764774 0 -61284002.773764774 -10971501.663919806 0 0 0 0 1042901582.3870029 -559650478.6182698 0 -559650478.6182698 277122307.85886914 0 0 0 0 106754300.19280243 -46013369.103906035 0 -46013369.103906035 186296084.56591946 0 0 0 0 501480891.01679993 -329917291.06318521 0 -329917291.06318521 110559960.38597357 0 0 0 0 8077263.6747436523 -454087.81273675687 0 -454087.81273675687 -1450.1254662569979 0 0 0 0 4104573.2696120739 1591207.8488052264 0 1591207.8488052264 626057.99770684494 0 0 0 0 8753564.2486419678 -1754505.0576583613 0 -1754505.0576583613 -2552790.9484952623 0 0 0 0 5713741.6002655029 -2517971.6728324057 0 -2517971.6728324057 -3921.2812294525897 0 0 0 0 8299531.5223083496 -725251.55119854503 0 -725251.55119854503 -897292.42791473225 0 0 0 0 11076495.857467651 406918.71465317806 0 406918.71465317806 -1203237.5891549271 0 0 0 0 6308674.1002316996 1915789.8507694453 0 1915789.8507694453 -222593.35032335544 0 0 0 0 8905626.4462661743 -1156863.0108950166 0 -1156863.0108950166 -630671.84621382516 0 0 0 0 7630672.7101669312 -132879.63336602878 0 -132879.63336602878 -1449477.5207597148 0 0 0 0 8124785.090628311 -163825.30031816848 0 -163825.30031816848 -427209.6869012196 0 0 0 0 -30349617.550758362 34705788.872198641 0 34705788.872198641 -25718573.673595667 0 0 0 0 -74864650.565101624 30324739.330190063 0 30324739.330190063 18260978.115767002 0 0 0 0 -22492148.961936951 11504713.678165793 0 11504713.678165793 -8073900.055637002 0 0 0 0 16161709.916194916 11578092.436136991 0 11578092.436136991 29003885.603807807 0 0 0 0 8539693.2929901406 538792.5754057169 0 538792.5754057169 445208.17863411596 0 0 0 0 -4487909.0776062012 27612659.593925118 0 27612659.593925118 23036586.224974588 0 0 0 0 457670.33461761475 -15890632.412040114 0 -15890632.412040114 6314242.4784507751 0 0 0 0 -33224730.699565887 -11475980.258087486 0 -11475980.258087486 33759449.078986406 0 0 0 0 10991824.143493652 -420018.26040840149 0 -420018.26040840149 5977330.6899296045 0 0 0 0 9712055.713478446 1041495.2073179837 0 1041495.2073179837 -216173.990113293 0 0 0 0 128091354.08206177 -78722509.05197683 0 -78722509.05197683 55310654.8594836 0 0 0 0 -58422776.740371704 -15080616.137001157 0 -15080616.137001157 123056669.30586445 0 0 0 0 -16604470.98960495 34605041.34278518 0 34605041.34278518 38082169.280619204 0 0 0 0 68475523.95136261 -55512556.780233771 0 -55512556.780233771 44229143.726347864 0 0 0 0 23531958.680855751 19709521.464977723 0 19709521.464977723 109154560.37346259 0 0 0 0 40105691.647764206 162002818.04316652 0 162002818.04316652 117979850.44732873 0 0 0 0 -31358050.101989746 129550703.64821069 0 129550703.64821069 9754379.6380639486 0 0 0 0 -42717244.412200928 39120917.210815936 0 39120917.210815936 26430677.933619797 0 0 0 0 23640697.005190015 45435634.714940421 0 45435634.714940421 13762978.969172716 0 0 0 0 -76699337.5519104 51638656.294391245 0 51638656.294391245 103484495.901969 0 0 0 0 -57343663.937393188 24271135.378517658 0 24271135.378517658 16343344.777439117 0 0 0 0 -76544590.339109421 80790133.030284107 0 80790133.030284107 22548237.1171 0 0 0 0 25927484.278671265 54510716.920488656 0 54510716.920488656 -52634067.669486687 0 0 0 0 1735643.8912780099 490461.02179034054 0 490461.02179034054 20009.237783564968 0 0 0 0 -75864105.254837036 131459523.0174268 0 131459523.0174268 -101162827.47827354 0 0 0 0 70241826.632423401 10756800.136639103 0 10756800.136639103 -19998302.976411253 0 0 0 0 1800087.513818115 257939.41848867387 0 257939.41848867387 -584600.01463418279 0 0 0 0 -233662727.68276978 85567593.411505193 0 85567593.411505193 3574982.9577228576 0 0 0 0 -41676120.746940613 23143293.520549133 0 23143293.520549133 -95018604.677900642 0 0 0 0 -222363021.41351318 86074052.155058086 0 86074052.155058086 -5800048.2915116549 0 0 0 0 -30850565.035003662 126650299.42674071 0 126650299.42674071 -90952388.077381223 0 0 0 0 -9880826.9062957764 49444754.331307516 0 49444754.331307516 8215594.4265874913 0 0 0 0 3228062.9014558122 6232022.178558372 0 6232022.178558372 2144889.0613585887 0 0 0 0 -9695919.5900802612 46759331.914163537 0 46759331.914163537 1445015.4089326151 0 0 0 0 71783059.792434692 70537285.290205225 0 70537285.290205225 -26079397.942799333 0 0 0 0 74685005.09220314 44739891.037533671 0 44739891.037533671 -140072956.66195062 0 0 0 0 -22736380.612567902 103893066.07695448 0 103893066.07695448 -34029415.789162368 0 0 0 0 28694661.52406311 119636585.70911013 0 119636585.70911013 -35565514.021499485 0 0 0 0 48759644.197952271 26726198.937207129 0 26726198.937207129 1350028.9492650349 0 0 0 0 -7228393.2807121277 -31589562.567038417 0 -31589562.567038417 7769104.5703213215 0 0 0 0 7488978.247688517 -694142.53803665191 0 -694142.53803665191 2504284.7138137626 0 0 0 0 46834152.671813965 17114911.114379466 0 17114911.114379466 4946926.7635307908 0 0 0 0 44361144.361076355 18455906.638365269 0 18455906.638365269 307950.67554962635 0 0 0 0 25769809.010314941 25625201.353394546 0 25625201.353394546 1493312.0955382437 0 0 0 0 24129180.868751526 8356255.1163437366 0 8356255.1163437366 11847813.117099285 0 0 0 0 10174709.939272299 -3914499.9690065384 0 -3914499.9690065384 -3161724.0489713419 0 0 0 0 33538218.936691284 13150537.249976516 0 13150537.249976516 -1800894.7876354009 0 0 0 0 28476369.029411316 16712241.83094877 0 16712241.83094877 2602023.097927928 0 0 0 0 38283576.070991516 22151850.453205392 0 22151850.453205392 10800421.09032619 0 0 0 0 47737036.781356812 24785002.342837811 0 24785002.342837811 11513748.668056905 0 0 0 0 44419162.56719017 -9295859.726401493 0 -9295859.726401493 10566095.576404452 0 0 0 0 53940224.885879517 20265319.621133566 0 20265319.621133566 5935786.641248107 0 0 0 0 50431281.187274933 -16119529.231802911 0 -16119529.231802911 -873925.03076100349 0 0 0 0 66201179.276947021 6954831.4353539348 0 6954831.4353539348 -3480500.4187684059 0 0 0 0 25255343.061386108 17538869.282166362 0 17538869.282166362 26282635.904673934 0 0 0 0 15590635.810840078 -2054478.5890519097 0 -2054478.5890519097 -3326036.3140599513 0 0 0 0 10058735.814022064 853608.76450282335 0 853608.76450282335 984918.15112787485 0 0 0 0 10658618.722213745 1923209.2834401131 0 1923209.2834401131 864137.70956230164 0 0 0 0 7599514.2521899194 614057.95252650033 0 614057.95252650033 4149788.6945439181 0 0 0 0 32256907.295684814 2402642.0476279259 0 2402642.0476279259 -15216600.519447088 0 0 0 0 30636936.434433937 6254536.8079804778 0 6254536.8079804778 -2632580.0180797577 0 0 0 0 17558816.604272649 -3890837.2302169586 0 -3890837.2302169586 -1775711.7136339894 0 0 0 0 28011906.292625427 -14790753.997412443 0 -14790753.997412443 2011117.6926919222 0 0 0 0 15332106.513313293 2341204.982951045 0 2341204.982951045 875262.96549057961 0 0 0 0 19985557.183914185 34974981.065550014 0 34974981.065550014 -7334934.7990305163 0 0 0 0 35132397.949066162 14528447.841022825 0 14528447.841022825 -10765842.863393683 0 0 0 0 8856545.3593892977 6583352.5038859695 0 6583352.5038859695 1112799.8834944426 0 0 0 0 31736453.614120483 16284556.265980944 0 16284556.265980944 -11221702.022475258 0 0 0 0 28869712.165115356 9719715.7184658051 0 9719715.7184658051 -23780631.256144941 0 0 0 0 51557989.757190704 -9486233.6336178109 0 -9486233.6336178109 -22161080.778215483 0 0 0 0 93137279.39100647 -14552052.067408219 0 -14552052.067408219 -33471364.634725649 0 0 0 0 75763318.263618469 -60809082.429102048 0 -60809082.429102048 25714509.265101597 0 0 0 0 1042001656.2301025 -638992238.53133976 0 -638992238.53133976 298599731.11659294 0 0 0 0 45136160.788597107 12455428.841242731 0 12455428.841242731 -62703396.211185694 0 0 0 0 19568150.939996272 3835241.112052964 0 3835241.112052964 -2095381.2142630052 0 0 0 0 518780.52732616663 -203973.66427306086 0 -203973.66427306086 -17069.967378788162 0 0 0 0 1273260.8243614472 -9910306.3937961012 0 -9910306.3937961012 -5275280.8586990219 0 0 0 0 39790941.368850708 -23998445.09774014 0 -23998445.09774014 -11930094.945761301 0 0 0 0 29992299.342269897 -11192551.594323486 0 -11192551.594323486 -4621625.2845377922 0 0 0 0 2410464.6523945853 -10052075.485139132 0 -10052075.485139132 -2993402.7768222354 0 0 0 0 30588724.395179749 -32944903.1496787 0 -32944903.1496787 -7043840.7900702655 0 0 0 0 30845829.548179626 -59627389.971452519 0 -59627389.971452519 -1970279.0913732015 0 0 0 0 19571538.982185364 8763096.1317709237 0 8763096.1317709237 103808933.71253963 0 0 0 0 21429128.478942871 -48094079.213380143 0 -48094079.213380143 63592962.493878096 0 0 0 0 48187291.099212646 -55884529.094421387 0 -55884529.094421387 -36377949.710579395 0 0 0 0 8751543.0172270089 -8128.8903284370899 0 -8128.8903284370899 -292324.62143166538 0 0 0 0 679427026.97583008 775170408.06310177 0 775170408.06310177 703498107.0326153 0 0 0 0 2201626938.8342628 -1622695806.7633407 0 -1622695806.7633407 1024920697.3167341 0 0 0 0 1029795618.0078678 -665169074.03054786 0 -665169074.03054786 242577799.83842188 0 0 0 0 1486124271.4451752 -953019192.44756222 0 -953019192.44756222 201290727.04150149 0 0 0 0 2206305495.4360943 -820006910.83322299 0 -820006910.83322299 -92142417.556143031 0 0 0 0 1017904623.9320908 -471022253.98160809 0 -471022253.98160809 90805603.525914967 0 0 0 0 1174700456.2806778 -764833237.17799294 0 -764833237.17799294 172825616.29393116 0 0 0 0 1271778680.2653904 -252897582.73496732 0 -252897582.73496732 -32963443.915779833 0 0 0 0 335547769.02705383 -30315733.841555685 0 -30315733.841555685 -31489980.585456766 0 0 0 0 187198039.02351475 -138328350.9070819 0 -138328350.9070819 -107480737.0340355 0 0 0 0 218541107.6464386 194404095.39492393 0 194404095.39492393 -68876755.313143089 0 0 0 0 -27829664.784912109 136751052.11595869 0 136751052.11595869 -372629321.51725769 0 0 0 0 399535704.04203796 152129645.07179421 0 152129645.07179421 -422837794.39363295 0 0 0 0 3730402.8759284914 -3770432.5447839499 0 -3770432.5447839499 -2247085.6247810032 0 0 0 0 101681965.05691528 -310372586.74515879 0 -310372586.74515879 133128068.24245928 0 0 0 0 221663090.79052734 -44329873.603016615 0 -44329873.603016615 -131790340.21587849 0 0 0 0 1005385301.0142288 -533783795.96903127 0 -533783795.96903127 -78486346.760363966 0 0 0 0 10976239.297989057 2511393.3890319765 0 2511393.3890319765 -4026002.7086224426 0 0 0 0 -213652208.47813702 -139248341.12304205 0 -139248341.12304205 299715338.85237932 0 0 0 0 6284822.8196640015 34212830.50840947 0 34212830.50840947 -19883753.324696124 0 0 0 0 30124883.674986839 24048133.874610532 0 24048133.874610532 -18005075.632863939 0 0 0 0 30415084.095657349 22462826.933510035 0 22462826.933510035 -66691853.033443809 0 0 0 0 29321814.457504272 77048050.641670674 0 77048050.641670674 -7451068.3547320962 0 0 0 0 -2697612.4783210754 36646922.702677578 0 36646922.702677578 -17092873.832017124 0 0 0 0 3262904.9637503363 316113.70091893524 0 316113.70091893524 -952385.93452107173 0 0 0 0 -121873101.05072021 55983469.792473771 0 55983469.792473771 40676646.82188186 0 0 0 0 98585012.710601807 178586670.20242512 0 178586670.20242512 232235974.85345322 0 0 0 0 177636423.74085236 89057534.92320241 0 89057534.92320241 19519778.377961993 0 0 0 0 213502251.10866451 321728681.59329981 0 321728681.59329981 86351995.605325222 0 0 0 0 104214760.95991516 44446483.513178557 0 44446483.513178557 168900.54134822616 0 0 0 0 -2498978.1943740845 116196934.19146936 0 116196934.19146936 19639676.648283124 0 0 0 0 57125692.930740356 33845337.333187051 0 33845337.333187051 4030427.8724510074 0 0 0 0 105051041.34142303 23995331.918790504 0 23995331.918790504 26211025.071760446 0 0 0 0 66312981.520133972 55121433.251456775 0 55121433.251456775 48893369.517803617 0 0 0 0 150067451.95896912 9931484.4882609919 0 9931484.4882609919 -29850.236692034043 0 0 0 0 128188210.89047241 6529863.04848665 0 6529863.04848665 59992341.898180597 0 0 0 0 215167500.68852234 -56223630.116189808 0 -56223630.116189808 61588919.600865364 0 0 0 0 312532997.18580627 -40943480.302364931 0 -40943480.302364931 12073576.633837029 0 0 0 0 124268054.45993042 65124111.854630992 0 65124111.854630992 114232115.00564985 0 0 0 0 99903955.025466919 -12314681.716082446 0 -12314681.716082446 10838526.606189236 0 0 0 0 94270301.220039368 -39458201.058609441 0 -39458201.058609441 -74449483.008253813 0 0 0 0 73613815.789627075 4381457.8139482141 0 4381457.8139482141 -48421829.848160297 0 0 0 0 152244793.19152069 -3062696.4908012152 0 -3062696.4908012152 -51046791.214668989 0 0 0 0 65512282.693294525 37130821.465515092 0 37130821.465515092 -34530600.843193591 0 0 0 0 89926013.390609741 70731238.00248751 0 70731238.00248751 11204663.31078802 0 0 0 0 53190236.122375488 51341369.84436211 0 51341369.84436211 -43700694.064974666 0 0 0 0 54475621.196754932 -17610051.924823433 0 -17610051.924823433 -72245722.270146489 0 0 0 0 48293078.400253296 612157.77026200294 0 612157.77026200294 -90494468.123513579 0 0 0 0 46880835.382156372 -10509798.873536348 0 -10509798.873536348 -47299660.976858735 0 0 0 0 11752395.730072021 -33885368.130534649 0 -33885368.130534649 -61642972.707627416 0 0 0 0 2082074.7202668041 675960.80604612082 0 675960.80604612082 209380.5430498838 0 0 0 0 46631499.013191223 37022257.803231865 0 37022257.803231865 -6505994.2226949222 0 0 0 0 -41114210.011501312 -103354710.23639901 0 -103354710.23639901 -48203035.938850522 0 0 0 0 27918049.892456055 -5579043.6089734063 0 -5579043.6089734063 -556348.75033140182 0 0 0 0 4309925.8983937651 211966.308276169 0 211966.308276169 480778.16894854768 0 0 0 0 21999958.379241943 2825508.7052336931 0 2825508.7052336931 15615946.282732487 0 0 0 0 24383779.802825928 -13848466.996723771 0 -13848466.996723771 -19369287.119556904 0 0 0 0 3651560.4241330512 732733.18701590598 0 732733.18701590598 -2114160.5509758927 0 0 0 0 -61729949.813537598 -56989320.759147435 0 -56989320.759147435 26684560.219531536 0 0 0 0 19638670.489700317 -1632880.1794169545 0 -1632880.1794169545 10632111.483755112 0 0 0 0 24587003.904312134 -12481300.381312102 0 -12481300.381312102 -10449117.978955507 0 0 0 0 17336432.040657043 -27891406.167449236 0 -27891406.167449236 -4606814.9476060867 0 0 0 0 25929107.650856018 -30291934.292409122 0 -30291934.292409122 -55492923.834889412 0 0 0 0 91239879.662322998 -135041221.6497547 0 -135041221.6497547 -78744498.633166224 0 0 0 0 -34352388.973739624 -122526717.63685182 0 -122526717.63685182 -45515879.97766161 0 0 0 0 37043570.690811157 -63865263.050486267 0 -63865263.050486267 -54274930.392480314 0 0 0 0 68027294.653762817 -100787731.74993029 0 -100787731.74993029 -63582878.522917271 0 0 0 0 159942779.71191406 -25610444.945846096 0 -25610444.945846096 -62938645.798829466 0 0 0 0 33028973.297966003 -108330177.27593659 0 -108330177.27593659 260891183.37811005 0 0 0 0 1144744.3094571233 -381804.58661977202 0 -381804.58661977202 -157292.49126586443 0 0 0 0 73353527.997039795 45112776.932124481 0 45112776.932124481 -17367998.953665618 0 0 0 0 -20609366.523269653 143997461.27597564 0 143997461.27597564 71647924.020434201 0 0 0 0 22495144.907394409 -5845168.0591965429 0 -5845168.0591965429 22698.744830516142 0 0 0 0 94699727.316062927 9513895.8452414088 0 9513895.8452414088 -3874498.2809261791 0 0 0 0 158076419.07689285 48434380.916059196 0 48434380.916059196 -29687561.50259624 0 0 0 0 -17339906.946868896 10466528.982167698 0 10466528.982167698 5092611.1239994615 0 0 0 0 -17564541.305723757 -20160713.115155838 0 -20160713.115155838 -5293586.6241875924 0 0 0 0 8311896.5193786621 592699.34606265742 0 592699.34606265742 1507704.195277296 0 0 0 0 3891788.5168247223 -657968.38430934772 0 -657968.38430934772 -427488.95000118081 0 0 0 0 5499586.0517578125 -5174578.7141075749 0 -5174578.7141075749 -26681331.379533425 0 0 0 0 601283.89797210693 -102560338.70112886 0 -102560338.70112886 32451281.563072257 0 0 0 0 40926912.493179321 -150238151.22077492 0 -150238151.22077492 -205818499.63365918 0 0 0 0 36645556.234375 -116209311.86008713 0 -116209311.86008713 -32993561.791791275 0 0 0 0 4701765.452381134 -2404842.9477835819 0 -2404842.9477835819 -4633410.161359909 0 0 0 0 -1796758.7331581116 -7223802.3106652163 0 -7223802.3106652163 -3514.3797124422426 0 0 0 0 4374452.9137191772 -5523336.3072740417 0 -5523336.3072740417 -5391912.5589402895 0 0 0 0 6659653.1679229736 -2328063.8947765632 0 -2328063.8947765632 -5550222.4696153635 0 0 0 0 6456964.5561890304 -195704.42854366265 0 -195704.42854366265 -406555.75772196171 0 0 0 0 -39246938.236911774 -87585307.967927128 0 -87585307.967927128 50805447.491804004 0 0 0 0 242152676.1184845 76099060.447337866 0 76099060.447337866 -102731907.17562139 0 0 0 0 163026902.81845093 -49499449.589817286 0 -49499449.589817286 6032542.6478867531 0 0 0 0 -69940340.556686401 -5786970.7074386477 0 -5786970.7074386477 79753611.759095669 0 0 0 0 -45109213.681533813 -68502928.037903428 0 -68502928.037903428 7102479.4150905609 0 0 0 0 15261592.128204346 -22591811.669462919 0 -22591811.669462919 33788014.602642536 0 0 0 0 14161317.551101685 -8261195.1938138008 0 -8261195.1938138008 13149311.032277584 0 0 0 0 179511441.99720764 75303136.720530748 0 75303136.720530748 33293345.978476286 0 0 0 0 -6656868.0261993408 40524920.265479088 0 40524920.265479088 71618014.32319513 0 0 0 0 868012.54429379106 -24213.31652713567 0 -24213.31652713567 668695.78379952372 0 0 0 0 52958058.933670044 28057805.490231156 0 28057805.490231156 39642813.902641416 0 0 0 0 17993560.127975464 -3802121.2788050175 0 -3802121.2788050175 17050955.644555092 0 0 0 0 51291193.296199799 709714.58180120587 0 709714.58180120587 3895460.8018987179 0 0 0 0 34139920.11038208 36678868.877935886 0 36678868.877935886 -12592702.283876896 0 0 0 0 33334288.937774658 30234008.860886812 0 30234008.860886812 364519.2449016571 0 0 0 0 50784506.72756958 36259800.263493538 0 36259800.263493538 -2698217.664855957 0 0 0 0 74038702.910194397 19645241.964648962 0 19645241.964648962 -15255501.760850668 0 0 0 0 47762967.783294678 -13064252.663537979 0 -13064252.663537979 -11035427.526217103 0 0 0 0 24502044.094970703 -56742555.328505486 0 -56742555.328505486 15069078.708088636 0 0 0 0 128266986.7731781 4065424.9100574255 0 4065424.9100574255 -7519283.4299272299 0 0 0 0 20554712.533973694 101873.87091434002 0 101873.87091434002 -6558082.5602402687 0 0 0 0 28188660.36315918 -4879146.9223506451 0 -4879146.9223506451 -15322856.082334518 0 0 0 0 30723920.291694641 8449012.8186689615 0 8449012.8186689615 -3333010.1741943359 0 0 0 0 26363142.405937195 15938223.8924613 0 15938223.8924613 -261897.6807320118 0 0 0 0 51311201.187194824 13373227.709267139 0 13373227.709267139 -13597459.048790216 0 0 0 0 37952011.425201416 12892998.550824523 0 12892998.550824523 -4611079.6246824265 0 0 0 0 39444768.30330658 9571635.4651221037 0 9571635.4651221037 2740192.0643386841 0 0 0 0 35540070.199874878 8544214.8481132984 0 8544214.8481132984 -12156304.05782181 0 0 0 0 25351325.395065308 -531142.10074272752 0 -531142.10074272752 -9273568.5680999756 0 0 0 0 24005491.613121033 -530754.90139722824 0 -530754.90139722824 -8489671.2939975262 0 0 0 0 28133937.59803772 10206394.676944971 0 10206394.676944971 10256846.717462063 0 0 0 0 51577495.093048096 12218864.466234207 0 12218864.466234207 -4763220.3238164783 0 0 0 0 43784757.231407166 -3217718.7114549279 0 -3217718.7114549279 -245836.47973442078 0 0 0 0 -637128.02622744441 1767597.6784146288 0 1767597.6784146288 554932.78105516266 0 0 0 0 24498100.283729553 -3557949.0284194946 0 -3557949.0284194946 -4120129.5820279121 0 0 0 0 11298038.720420837 18977827.689160466 0 18977827.689160466 6911569.2420024872 0 0 0 0 8053297.9492874146 -14173946.363940716 0 -14173946.363940716 -7619472.7006127834 0 0 0 0 9117280.8206243366 -1405026.5774807483 0 -1405026.5774807483 4219248.9880366921 0 0 0 0 14052647.297645569 -409714.05534720421 0 -409714.05534720421 -2185723.0115728378 0 0 0 0 165240.8908700645 408954.21743569517 0 408954.21743569517 987390.32386686816 0 0 0 0 33560261.518630981 31384532.257905006 0 31384532.257905006 34205028.55407197 0 0 0 0 9603183.7301699817 2806003.3552673832 0 2806003.3552673832 2476027.2748218519 0 0 0 0 17272373.134063721 10137447.250485241 0 10137447.250485241 10523685.69859314 0 0 0 0 20651398.751754761 12969130.711135149 0 12969130.711135149 10268250.305855602 0 0 0 0 13736605.279726699 9402.6379054898862 0 9402.6379054898862 450753.32579675037 0 0 0 0 20324628.183998108 9835134.9003549814 0 9835134.9003549814 1682092.958183527 0 0 0 0 10845739.783260345 1125432.2783084512 0 1125432.2783084512 -1003534.3081831932 0 0 0 0 8967373.2366409302 662845.17408394814 0 662845.17408394814 563082.79919910431 0 0 0 0 12902420.769051775 -1199577.8020000532 0 -1199577.8020000532 785186.85293945158 0 0 0 0 -434897.23364257812 3661253.5957636833 0 3661253.5957636833 -2425049.7797737867 0 0 0 0 3044104.2850360572 3185924.7667875951 0 3185924.7667875951 5287570.7561452799 0 0 0 0 2271233.5384521484 132325.59728622437 0 132325.59728622437 -853609.28611001372 0 0 0 0 5071621.695470795 1164233.4123623469 0 1164233.4123623469 4709186.4319735058 0 0 0 0 12242313.191772461 -208895.92373323441 0 -208895.92373323441 -109364.02429580688 0 0 0 0 10271300.555819087 3607923.6462939978 0 3607923.6462939978 4265426.0031394605 0 0 0 0 12180875.219260275 935892.08400547248 0 935892.08400547248 220719.59449685074 0 0 0 0 9940591.6267814636 588461.28727686405 0 588461.28727686405 -1265073.487080574 0 0 0 0 5682325.0013759434 1860333.8983413102 0 1860333.8983413102 2567778.9262157986 0 0 0 0 8025897.2556343079 928021.32053172588 0 928021.32053172588 686529.37340593338 0 0 0 0 8166991.3614959717 1328210.3927255869 0 1328210.3927255869 1670574.0983584523 0 0 0 0 9801921.1587784588 866000.40123935475 0 866000.40123935475 3865450.2956088604 0 0 0 0 8240683.5534286499 1501208.9582124949 0 1501208.9582124949 380486.56819486618 0 0 0 0 5021999.1847423762 -967793.18734174035 0 -967793.18734174035 3068570.6588438838 0 0 0 0 7021447.272567749 -111414.12228107452 0 -111414.12228107452 913468.43384075165 0 0 0 0 2301588.1909637451 220999.62270212173 0 220999.62270212173 706314.31232914329 0 0 0 0 4384092.6640586853 213273.75392210484 0 213273.75392210484 1271448.6938996315 0 0 0 0 13845277.315852918 4169304.0128505081 0 4169304.0128505081 2642397.7449499974 0 0 0 0 5823166.0458335876 -344300.67900756001 0 -344300.67900756001 -761188.97597646713 0 0 0 0 12481813.917027943 3264960.2017987669 0 3264960.2017987669 1441666.7102734977 0 0 0 0 4832703.7031134367 180806.61311753141 0 180806.61311753141 1358340.6519363909 0 0 0 0 6536633.4982376099 56987.281696081161 0 56987.281696081161 -750923.64107966423 0 0 0 0 6890913.1860046387 -484210.82099604607 0 -484210.82099604607 -1531453.3850235939 0 0 0 0 4550947.4494342804 -983709.74539315049 0 -983709.74539315049 538978.72716294392 0 0 0 0 7114598.6280841827 130231.6074025631 0 130231.6074025631 -1573719.1396780014 0 0 0 0 4519833.4577026367 -177952.19382381439 0 -177952.19382381439 352669.02032756805 0 0 0 0 5467546.0592422485 745761.95789504051 0 745761.95789504051 -268528.96915367991 0 0 0 0 11127360.423240468 2063953.9250939488 0 2063953.9250939488 260059.71305457735 0 0 0 0 5642068.5930709839 -624370.14090800285 0 -624370.14090800285 -1262340.2142751217 0 0 0 0 11859324.125935078 1824757.2664197683 0 1824757.2664197683 464758.34246788593 0 0 0 0 7430737.7641449198 2168907.92208305 0 2168907.92208305 807781.02811003942 0 0 0 0 8774706.4468590021 1677137.7891838998 0 1677137.7891838998 -474684.36511789775 0 0 0 0 1919084.8375854492 369623.21124315262 0 369623.21124315262 -295507.40535509586 0 0 0 0 2187429.7718057185 1249909.9238292491 0 1249909.9238292491 1353793.7521256257 0 0 0 0 24911546.469917297 8577739.9565873146 0 8577739.9565873146 11512661.681854248 0 0 0 0 4266411.5321598053 176992.18092003465 0 176992.18092003465 -831361.35032534599 0 0 0 0 4166342.7947120667 -237626.33174997568 0 -237626.33174997568 -779257.55683875084 0 0 0 0 2349347.3847026229 416332.50599125028 0 416332.50599125028 -229249.67180544976 0 0 0 0 11808098.958770752 5548186.590518713 0 5548186.590518713 2381545.3020396233 0 0 0 0 9897843.0595624372 2335431.5503024012 0 2335431.5503024012 261610.0861892323 0 0 0 0 9655351.3292604983 -20049.517784573138 0 -20049.517784573138 216435.37955873646 0 0 0 0 7363306.4557902962 1756246.2742946222 0 1756246.2742946222 161619.62999951513 0 0 0 0 32129923.197509766 -4288127.0002977848 0 -4288127.0002977848 -11083719.389970914 0 0 0 0 25260539.495304108 17545186.662719131 0 17545186.662719131 3278520.8846197128 0 0 0 0 10808424.384448826 1410074.4698021207 0 1410074.4698021207 -777157.80723708356 0 0 0 0 12455017.549844265 3074112.3923018426 0 3074112.3923018426 -1516644.7802132498 0 0 0 0 21647095.884841919 -9720732.1638276577 0 -9720732.1638276577 -44766057.737370014 0 0 0 0 6072684.0020294189 1403826.4081549644 0 1403826.4081549644 -1277020.1827579737 0 0 0 0 19169131.086090088 1588842.493391037 0 1588842.493391037 1079675.6363413334 0 0 0 0 15500075.46774292 33314491.608641684 0 33314491.608641684 -47186992.530250072 0 0 0 0 16103603.28953591 2432936.2488068352 0 2432936.2488068352 -1007678.7843650104 0 0 0 0 9310054.3425064087 5368834.2772158384 0 5368834.2772158384 -2101625.1463048458 0 0 0 0 3100271.2644250412 1033212.284987323 0 1033212.284987323 -391773.23738592234 0 0 0 0 25082287.956863403 -9742983.9333800934 0 -9742983.9333800934 -27962224.290985942 0 0 0 0 8898292.5992050171 4588054.9521502256 0 4588054.9521502256 -213575.73109745979 0 0 0 0 11475410.162132885 1600952.113985233 0 1600952.113985233 107967.66481441678 0 0 0 0 8101655.276506424 5051538.2792356312 0 5051538.2792356312 1136268.9329032898 0 0 0 0 8100558.100151062 3152263.8959002495 0 3152263.8959002495 -209683.50928497314 0 0 0 0 7149647.7358779907 1783122.340613842 0 1783122.340613842 -1471890.3958804607 0 0 0 0 7601762.7904363573 2679152.3035788573 0 2679152.3035788573 -198536.24551992677 0 0 0 0 6696286.6503448486 491210.26324915886 0 491210.26324915886 -1344218.3555282354 0 0 0 0 11839572.405051865 3960513.3882023245 0 3960513.3882023245 455462.23237253493 0 0 0 0 8383241.5250595212 2775100.8116863482 0 2775100.8116863482 244135.20147928875 0 0 0 0 11909542.34685196 4030252.4015223682 0 4030252.4015223682 -465385.3830898609 0 0 0 0 4652456.1121063232 194233.83444070816 0 194233.83444070816 -2832226.6386121511 0 0 0 0 4019542.8096160889 -802592.30962872505 0 -802592.30962872505 -272448.6777100563 0 0 0 0 5576955.3865356445 2390459.6285977364 0 2390459.6285977364 597027.49693927169 0 0 0 0 2995620.3105098903 1658501.2606517179 0 1658501.2606517179 2195100.1831609779 0 0 0 0 4372130.3501281738 506323.51932764053 0 506323.51932764053 -519601.48698806763 0 0 0 0 11245165.044063173 3007649.2574429661 0 3007649.2574429661 1415527.249811884 0 0 0 0 12800125.360678438 1815241.189495489 0 1815241.189495489 2822446.5887885634 0 0 0 0 3777458.0173694193 811194.2518372084 0 811194.2518372084 7135739.3070333656 0 0 0 0 5961924.5540252328 -804614.77077063732 0 -804614.77077063732 1502568.105599954 0 0 0 0 7013112.6230773926 1898801.3647036552 0 1898801.3647036552 1232022.3743042946 0 0 0 0 3905980.4102325439 1462336.6279973984 0 1462336.6279973984 2502667.4995937347 0 0 0 0 9152113.5623321533 4572394.8202404976 0 4572394.8202404976 3756.4459571838379 0 0 0 0 17754923.397937793 3747910.6302074492 0 3747910.6302074492 -21122.16762407124 0 0 0 0 34944.471880301833 177436.59780487418 0 177436.59780487418 161671.92564648483 0 0 0 0 3173778.4376831055 2621438.2292041779 0 2621438.2292041779 3471311.4753875732 0 0 0 0 1006443.7061691284 917204.09644937515 0 917204.09644937515 279385.4546585083 0 0 0 0 8452514.1676903144 3424256.298793599 0 3424256.298793599 947736.4310040772 0 0 0 0 8572266.015308179 1007097.8846969008 0 1007097.8846969008 1650013.3637869777 0 0 0 0 3673458.5244663954 1577553.7071046126 0 1577553.7071046126 6749435.209236539 0 0 0 0 6189982.1229095459 7950917.9982776642 0 7950917.9982776642 5895510.3382883072 0 0 0 0 3302690.2245488912 4793704.4739911212 0 4793704.4739911212 5975660.7230184386 0 0 0 0 5799232.0389556885 7062706.0564665794 0 7062706.0564665794 5115676.7763514519 0 0 0 0 5284515.9327316284 4019912.0319437981 0 4019912.0319437981 280284.07549858093 0 0 0 0 9620966.0171508789 9080761.0230665207 0 9080761.0230665207 5059499.1790828705 0 0 0 0 16441511.808301926 10240330.307652712 0 10240330.307652712 2440534.3103179932 0 0 0 0 638664.55056661367 505062.43837317824 0 505062.43837317824 322598.07824047934 0 0 0 0 -447905.41331481934 7835103.1110229492 0 7835103.1110229492 5690901.390083313 0 0 0 0 1260997.428894043 9991837.6218032837 0 9991837.6218032837 6101471.0015907288 0 0 0 0 2523707.0753631592 7777916.4960842133 0 7777916.4960842133 8977228.6168518066 0 0 0 0 4255913.1523590088 7109901.6948609352 0 7109901.6948609352 10481503.48915863 0 0 0 0 4593300.3034820557 7941236.6461343765 0 7941236.6461343765 5961112.6537895203 0 0 0 0 10121114.309906006 14827156.668983459 0 14827156.668983459 -4769354.3968062401 0 0 0 0 2699331.7052764893 11160273.516982555 0 11160273.516982555 16519120.008304596 0 0 0 0 7567427.0833590627 5759438.9518017489 0 5759438.9518017489 2557013.5270632766 0 0 0 0 4650920.6676940918 5504768.0232052803 0 5504768.0232052803 -4122.0004003047943 0 0 0 0 3331114.6412658691 11086046.31795764 0 11086046.31795764 6967492.1631832123 0 0 0 0 3679847.9467544556 8920156.9650993347 0 8920156.9650993347 2941935.0469322205 0 0 0 0 5643248.1553192139 6472612.4295244217 0 6472612.4295244217 5958424.009598732 0 0 0 0 4069820.4267578125 6589432.8870420456 0 6589432.8870420456 1343751.1587758064 0 0 0 0 4693828.3860168457 786055.44590091705 0 786055.44590091705 -3569271.1975045204 0 0 0 0 18463510.688200876 2657310.1033010483 0 2657310.1033010483 -319997.86287107039 0 0 0 0 31965.511384576559 17222.384801462293 0 17222.384801462293 -9530.7961615566164 0 0 0 0 8513366.1679992676 5945231.0878922939 0 5945231.0878922939 -193557.76752614975 0 0 0 0 10093366.535820007 10379990.092266798 0 10379990.092266798 379839.65455436707 0 0 0 0 10985736.058365822 -3536396.323275879 0 -3536396.323275879 -9292999.908744812 0 0 0 0 8042180.2077878714 6128263.922275478 0 6128263.922275478 2333607.0056185964 0 0 0 0 9863154.6393127441 6844287.4540319443 0 6844287.4540319443 1305617.3066454977 0 0 0 0 13864829.626403809 25450985.223976135 0 25450985.223976135 8562566.3029174805 0 0 0 0 17255764.125518799 3394355.901447773 0 3394355.901447773 -5418581.0349712372 0 0 0 0 945099.8451847434 1513087.9724899009 0 1513087.9724899009 587169.84752913192 0 0 0 0 4440039.3726425171 7018007.2338578701 0 7018007.2338578701 7625688.67831707 0 0 0 0 3949897.5056458563 3567517.8025917807 0 3567517.8025917807 4132398.1677809684 0 0 0 0 -5668442.9928283691 -11068185.039804459 0 -11068185.039804459 -10074306.965631485 0 0 0 0 3156635.8054346293 2824777.2311356114 0 2824777.2311356114 2179743.3028435907 0 0 0 0 11452423.002724588 6072829.1911125071 0 6072829.1911125071 -382007.90380227938 0 0 0 0 -54643541.591674805 -6351024.6271071434 0 -6351024.6271071434 16493452.256278038 0 0 0 0 -108071289.18228149 7262207.7561354637 0 7262207.7561354637 19621015.127449989 0 0 0 0 -14466388.608413696 39721630.79095602 0 39721630.79095602 -18083225.838913918 0 0 0 0 -29917704.313354492 -76476015.386734962 0 -76476015.386734962 -103201427.27720928 0 0 0 0 1970896.1587012559 3312067.6422812315 0 3312067.6422812315 1596938.8194192182 0 0 0 0 -20776352.415870667 119010907.07934046 0 119010907.07934046 -133868048.37604237 0 0 0 0 33928714.309906006 25485042.945959568 0 25485042.945959568 -49992869.272850037 0 0 0 0 14697640.476526506 7502583.3385676816 0 7502583.3385676816 -499921.26440299116 0 0 0 0 13813809.081653595 5468726.1575938463 0 5468726.1575938463 -639314.14770174026 0 0 0 0 10609359.827545166 5829020.3992190361 0 5829020.3992190361 -619326.46557506919 0 0 0 0 -206940569.68484116 -18150200.534459457 0 -18150200.534459457 -2703514.2413080633 0 0 0 0 -267203711.71486092 -102336267.06104887 0 -102336267.06104887 76488500.502162933 0 0 0 0 1711800.9601921905 965124.75574605912 0 965124.75574605912 211358.62245226931 0 0 0 0 -540087946.1293335 -46517072.809463978 0 -46517072.809463978 51880799.315980911 0 0 0 0 -880533.97402864695 -208032.91158098727 0 -208032.91158098727 301435.45306870155 0 0 0 0 9579680.6716995239 6090621.3202779293 0 6090621.3202779293 -530900.88622939587 0 0 0 0 8988039.6660842896 5695081.0711153746 0 5695081.0711153746 -109076.34196829796 0 0 0 0 8221416.0222644806 5500565.1681613326 0 5500565.1681613326 -125576.16799163818 0 0 0 0 10221018.65952301 4853688.3369519711 0 4853688.3369519711 -2502822.7736701965 0 0 0 0 11861368.137611389 5652663.40852952 0 5652663.40852952 -4342093.7337579727 0 0 0 0 16958879.088124357 9911195.692263931 0 9911195.692263931 -1116477.0177605543 0 0 0 0 15236822.105820566 6712425.6606702432 0 6712425.6606702432 -76225.467738840845 0 0 0 0 12075886.403236389 6369276.1071646214 0 6369276.1071646214 -2816802.6084704399 0 0 0 0 -245928355.54957581 85920822.592155337 0 85920822.592155337 80794717.795521736 0 0 0 0 -533507527.14657593 -163978244.07109737 0 -163978244.07109737 289026469.70274734 0 0 0 0 -68629975.30040741 -67207379.540148735 0 -67207379.540148735 191953658.61701965 0 0 0 0 -316724440.70067596 -54675578.05163002 0 -54675578.05163002 226856173.65578079 0 0 0 0 -5943558.96641922 -116217428.82459927 0 -116217428.82459927 113365465.18690491 0 0 0 0 -480008498.52021027 98071743.30452919 0 98071743.30452919 236343167.27654648 0 0 0 0 21600383.117988586 12645657.849026203 0 12645657.849026203 11858966.770055771 0 0 0 0 874557.52343440987 1011220.3309891224 0 1011220.3309891224 502289.84675597027 0 0 0 0 -199103815.39981079 48250230.387845993 0 48250230.387845993 414379993.48664093 0 0 0 0 21214827.468819886 57162611.621933714 0 57162611.621933714 29610203.895011902 0 0 0 0 44620066.640155792 20776404.593068123 0 20776404.593068123 -96162172.571742773 0 0 0 0 202680.44351627678 2867958.5502088666 0 2867958.5502088666 1027749.0067829695 0 0 0 0 74568991.603347778 -4943276.6438651085 0 -4943276.6438651085 -105088125.12964058 0 0 0 0 -41188134.812149048 -20891833.201825142 0 -20891833.201825142 73011968.182785034 0 0 0 0 1113643.3849024549 2006898.634486638 0 2006898.634486638 7195978.5371201262 0 0 0 0 1414348.6357879639 -47668688.397974014 0 -47668688.397974014 -56246434.686550617 0 0 0 0 -141564.51685592532 306803.87209253013 0 306803.87209253013 305511.21518486179 0 0 0 0 -168834182.4070282 -126539474.91778374 0 -126539474.91778374 -208320997.55041313 0 0 0 0 -391932189.67097473 -274408664.26627064 0 -274408664.26627064 54104333.757591248 0 0 0 0 -366482638.82003403 -174786756.61581874 0 -174786756.61581874 234756463.82754898 0 0 0 0 -100128773.59513855 16047566.097301483 0 16047566.097301483 37856921.781644821 0 0 0 0 -25022320.173423767 -110262867.93275928 0 -110262867.93275928 186032068.43923569 0 0 0 0 -217796189.05823517 194936347.27827358 0 194936347.27827358 -21946449.452041626 0 0 0 0 -21258285.339424133 210956653.7246604 0 210956653.7246604 157317782.39746284 0 0 0 0 -130892777.79263306 73371963.392038345 0 73371963.392038345 59626436.466299057 0 0 0 0 -42450067.164852142 128058567.45617247 0 128058567.45617247 -228345951.88021755 0 0 0 0 -15329402.130325317 217795863.59702682 0 217795863.59702682 -132666370.83861732 0 0 0 0 -162281752.89120483 174584721.11233521 0 174584721.11233521 83251839.767165422 0 0 0 0 1230864.2288357764 4724235.8642954789 0 4724235.8642954789 6306268.7866861857 0 0 0 0 533337.28463745117 4012798.8167457581 0 4012798.8167457581 -791469.14622566104 0 0 0 0 4616482.7492895797 6105488.5533678606 0 6105488.5533678606 2401547.3060624097 0 0 0 0 -5180066.9461364746 10950948.163022041 0 10950948.163022041 -55017513.896154404 0 0 0 0 5696257.9694387428 7005345.9696776941 0 7005345.9696776941 1350669.1229310296 0 0 0 0 -191273832.69536781 82934982.079038024 0 82934982.079038024 -75340346.868789673 0 0 0 0 -303806093.12103271 93436603.319108486 0 93436603.319108486 58186182.365215302 0 0 0 0 25943379.4270401 30270683.269300461 0 30270683.269300461 2824619.3458137512 0 0 0 0 3494594.9161786251 5121177.3236811534 0 5121177.3236811534 978249.1903188359 0 0 0 0 9819865.6776123047 949374.85818099976 0 949374.85818099976 4248480.5887413025 0 0 0 0 -214052.38021635264 -394607.63788320869 0 -394607.63788320869 467545.85198490694 0 0 0 0 432094.68518066406 4536605.6495857239 0 4536605.6495857239 3696012.6695088148 0 0 0 0 4613426.7888652086 3321424.7475842834 0 3321424.7475842834 3096325.1407282734 0 0 0 0 -1121872.0505828857 3505896.4217920303 0 3505896.4217920303 4316871.9414812922 0 0 0 0 8139930.6810760498 3646046.6529495716 0 3646046.6529495716 1865796.4608573914 0 0 0 0 7854722.2837371826 2962066.4351067543 0 2962066.4351067543 3332315.8774513602 0 0 0 0 5849221.3711547852 1778166.450633049 0 1778166.450633049 2887188.7086211741 0 0 0 0 6855331.2855682373 1725802.4752631187 0 1725802.4752631187 2503211.1915326118 0 0 0 0 5050282.267829895 1357566.2130439281 0 1357566.2130439281 3136350.8382015228 0 0 0 0 7047301.5652916161 1389622.6173844561 0 1389622.6173844561 2656036.8225367442 0 0 0 0 5899004.8889923096 692520.26191353798 0 692520.26191353798 2442594.9228420258 0 0 0 0 7245222.617087692 1009793.2925498113 0 1009793.2925498113 4107541.5830820873 0 0 0 0 799262.27745819092 -5224080.4052083492 0 -5224080.4052083492 11562823.535074234 0 0 0 0 2465782.5012664795 5570782.6984477043 0 5570782.6984477043 7400440.9597787857 0 0 0 0 9049459.4674453735 3225568.0760905743 0 3225568.0760905743 2515291.3773842156 0 0 0 0 6988953.7176740244 1023583.2144041806 0 1023583.2144041806 2681497.1689369231 0 0 0 0 3774658.274307251 1329511.5800476074 0 1329511.5800476074 3702792.5190637112 0 0 0 0 2064595.2781448364 4058112.8325734138 0 4058112.8325734138 5666349.8656830788 0 0 0 0 7468760.7102622986 2916033.6883401871 0 2916033.6883401871 -182990.48739051819 0 0 0 0 9036784.3680907246 851360.56168078631 0 851360.56168078631 2974595.4284868073 0 0 0 0 1868654.4024124146 1172756.6059160233 0 1172756.6059160233 1409822.0339298248 0 0 0 0 4818538.4937777929 2516709.1162763089 0 2516709.1162763089 3842233.188240584 0 0 0 0 2840513.4177053273 2257871.921505278 0 2257871.921505278 6069794.7347202543 0 0 0 0 10998017.101226807 974904.7570066452 0 974904.7570066452 -644372.03839588165 0 0 0 0 -811463.78743743896 -2316089.4693217278 0 -2316089.4693217278 7731856.0979003906 0 0 0 0 -1612273.0212478638 -5077909.2225215435 0 -5077909.2225215435 6695560.5353040695 0 0 0 0 -9584580.9450683594 3409523.3621788025 0 3409523.3621788025 21659646.02258873 0 0 0 0 -6919.3151594996452 388799.54988931119 0 388799.54988931119 9762259.6837389842 0 0 0 0 2416566.6141204834 849976.74540805817 0 849976.74540805817 20053023.874310493 0 0 0 0 -7547139.9967803955 -4662091.7791090012 0 -4662091.7791090012 5017907.2928524017 0 0 0 0 -13359816.277854919 20187409.045420408 0 20187409.045420408 28514353.403656006 0 0 0 0 17641628.88583374 -6513829.3768212795 0 -6513829.3768212795 5016140.4366002083 0 0 0 0 3249511.5808928683 -5124092.9336056598 0 -5124092.9336056598 4909009.7425914193 0 0 0 0 3440859.0388828963 -6803348.6085002087 0 -6803348.6085002087 6866865.6574781071 0 0 0 0 -1302328.9041595459 -2490409.4880590439 0 -2490409.4880590439 1354512.8349704742 0 0 0 0 -3874061.9447517395 -2061721.4282736778 0 -2061721.4282736778 4297915.5374717712 0 0 0 0 1948887.8406253904 -5047513.4730698215 0 -5047513.4730698215 9082122.3207378145 0 0 0 0 1118531.0203094482 -759513.83436012268 0 -759513.83436012268 65250.814136505127 0 0 0 0 7234062.0877618976 -585734.65785852075 0 -585734.65785852075 1082157.1039668638 0 0 0 0 15603110.181873322 -9134750.8938755989 0 -9134750.8938755989 1698008.2513904572 0 0 0 0 14294922.074358195 -4802070.6172728473 0 -4802070.6172728473 2729848.5873398352 0 0 0 0 14969883.133514836 -8204204.1260441225 0 -8204204.1260441225 1216109.1287118979 0 0 0 0 25505026.503967285 -9353084.0220739841 0 -9353084.0220739841 -1703970.132065773 0 0 0 0 22668552.751735687 -11477287.555820853 0 -11477287.555820853 12536495.323399544 0 0 0 0 6037353.3906974792 6386413.4112327695 0 6386413.4112327695 10092788.681382179 0 0 0 0 242493.0389572829 758294.99386461452 0 758294.99386461452 1369412.1918776846 0 0 0 0 29297589.376163483 4929401.1264762878 0 4929401.1264762878 -267526.39295268059 0 0 0 0 3288223.5602722168 1647400.058132112 0 1647400.058132112 16805212.267323017 0 0 0 0 1065141.0417175293 -3949042.6733812094 0 -3949042.6733812094 17592229.765116692 0 0 0 0 40714332.044967651 -390692.87293314934 0 -390692.87293314934 2062220.839381218 0 0 0 0 9675605.6693057269 121750.70349325985 0 121750.70349325985 3340192.5404453198 0 0 0 0 10706580.03944397 -3423208.9341305494 0 -3423208.9341305494 1816679.979552269 0 0 0 0 24471015.232284546 -5989078.5603451729 0 -5989078.5603451729 1187183.4839322567 0 0 0 0 27200139.039993286 -846717.09973144531 0 -846717.09973144531 -4472889.2858529687 0 0 0 0 15565685.724472046 64944.504720658064 0 64944.504720658064 658102.93228721619 0 0 0 0 32124728.503326416 8190626.1022706032 0 8190626.1022706032 5416746.6928079128 0 0 0 0 30272721.773880005 1666508.898999691 0 1666508.898999691 68.665263175964355 0 0 0 0 26271229.017734528 7127586.0013355017 0 7127586.0013355017 15242319.062952995 0 0 0 0 30152958.118209839 5258548.4040954113 0 5258548.4040954113 8827540.2486741543 0 0 0 0 27512259.39837265 -5016494.834303081 0 -5016494.834303081 1789911.142449379 0 0 0 0 18602511.197479248 -2964595.5040328503 0 -2964595.5040328503 4932992.3659861088 0 0 0 0 25933340.912582397 -2640948.26232934 0 -2640948.26232934 279230.34021425247 0 0 0 0 3259269.5856498182 481865.75059655681 0 481865.75059655681 -813399.25109351473 0 0 0 0 22271325.069885254 -3122139.0398375988 0 -3122139.0398375988 3073664.414930582 0 0 0 0 9098478.0980834961 -4828899.5432584286 0 -4828899.5432584286 -7680552.2817049772 0 0 0 0 22154914.121261597 -1437033.1900808811 0 -1437033.1900808811 2847484.8046576977 0 0 0 0 21493860.75967598 19060346.352643788 0 19060346.352643788 1303303.8676614761 0 0 0 0 9837233.0291404128 2632280.2348443158 0 2632280.2348443158 3892604.6546089188 0 0 0 0 -407053.13549804688 3535389.3205609322 0 3535389.3205609322 -2488795.0683662891 0 0 0 0 7255508.2736206055 -1191142.3161659241 0 -1191142.3161659241 1015603.6360549927 0 0 0 0 32791430.851084709 19160615.333818078 0 19160615.333818078 -772554.5619726181 0 0 0 0 12709960.146645769 2094854.7048063427 0 2094854.7048063427 1927020.83874494 0 0 0 0 24077941.097381592 -1279168.1455221176 0 -1279168.1455221176 -2982871.4552021027 0 0 0 0 11538222.912265092 -2376937.1034483314 0 -2376937.1034483314 -125716.0303929497 0 0 0 0 24373195.830395658 167841.42178976536 0 167841.42178976536 -1937983.9751525072 0 0 0 0 624946.7035071142 267176.8113989979 0 267176.8113989979 -159460.6468683295 0 0 0 0 9622956.2545089722 -7478537.8548775911 0 -7478537.8548775911 -6691707.0501304865 0 0 0 0 20600127.582923889 -4077432.7132527828 0 -4077432.7132527828 -1488048.7305886745 0 0 0 0 20320289.205679893 -4404674.8897552788 0 -4404674.8897552788 -1675525.4082357883 0 0 0 0 14050229.315883651 -7906069.3843331728 0 -7906069.3843331728 721447.80058416142 0 0 0 0 26191359.771845594 -4781788.1132581979 0 -4781788.1132581979 -103198.70512276888 0 0 0 0 14767222.839767456 -8091418.6458466649 0 -8091418.6458466649 1752099.1376879215 0 0 0 0 22650319.921017773 -6748290.1154485904 0 -6748290.1154485904 523409.31989496201 0 0 0 0 6497637.5533561707 -31629968.308279276 0 -31629968.308279276 5327438.5070133209 0 0 0 0 25585170.509025574 -8784950.6383128166 0 -8784950.6383128166 1299970.7774056196 0 0 0 0 8460341.0045071542 -10201395.57722158 0 -10201395.57722158 -1697557.8103407104 0 0 0 0 13449580.932350159 -30020394.32437706 0 -30020394.32437706 2058830.6654212475 0 0 0 0 19792917.582754135 -40789141.345820785 0 -40789141.345820785 -16803981.593151808 0 0 0 0 26047611.644268036 -28478549.469864368 0 -28478549.469864368 -53810927.102916002 0 0 0 0 10415211.797534943 -38991961.16357708 0 -38991961.16357708 -14342660.446292162 0 0 0 0 16286688.92725911 -9420822.6345479824 0 -9420822.6345479824 167517.44132302888 0 0 0 0 24993427.198584557 -47166187.997587234 0 -47166187.997587234 -11025036.702744484 0 0 0 0 38226392.543652534 -19155048.657708824 0 -19155048.657708824 -4846802.5572571754 0 0 0 0 15630512.562972069 -29345106.95621866 0 -29345106.95621866 22275813.871437073 0 0 0 0 27996703.025216103 -77764545.764726222 0 -77764545.764726222 55578250.240908861 0 0 0 0 -38551668.320251465 -77254783.786857963 0 -77254783.786857963 68997803.805446386 0 0 0 0 80355433.354499817 -23137838.657313466 0 -23137838.657313466 50389934.209530041 0 0 0 0 -59509853.195205688 -11715406.160829425 0 -11715406.160829425 58738254.804786801 0 0 0 0 -25334700.723735809 12926863.40357998 0 12926863.40357998 -1570280.0898551941 0 0 0 0 -15491420.154211044 -25035522.168664217 0 -25035522.168664217 28758997.577142954 0 0 0 0 11602001.178087234 -12943245.667473674 0 -12943245.667473674 21688.98572063446 0 0 0 0 -15217769.494943619 -28403316.970410109 0 -28403316.970410109 6079777.1459403634 0 0 0 0 11949744.065429322 -10965969.886712313 0 -10965969.886712313 2660177.2912906469 0 0 0 0 7827022.4323704541 -7322686.8561972249 0 -7322686.8561972249 1135280.8059580666 0 0 0 0 -14074170.665843964 -462594.36196738482 0 -462594.36196738482 11939297.199865624 0 0 0 0 7385832.8227844238 -9506714.7630782127 0 -9506714.7630782127 2343699.1345763206 0 0 0 0 -5148188.6092067249 -6607384.9002932832 0 -6607384.9002932832 5453514.826082184 0 0 0 0 673263.99731445312 -8837635.4956321716 0 -8837635.4956321716 5882718.8249015212 0 0 0 0 7346188.2410650253 -9156517.0798816979 0 -9156517.0798816979 2258154.6539402008 0 0 0 0 -8158183.4945793152 -7961672.432528019 0 -7961672.432528019 6179898.3950843811 0 0 0 0 1851608.8871966675 -454477.87092885375 0 -454477.87092885375 -283163.44853614643 0 0 0 0 12231486.785006046 -12025763.040482879 0 -12025763.040482879 5053427.9780483246 0 0 0 0 12436563.413742065 -13311407.602282971 0 -13311407.602282971 11435.102287769318 0 0 0 0 8098250.9444923401 -8567907.0775313377 0 -8567907.0775313377 4361590.9567835331 0 0 0 0 6444680.9458236694 -12329270.391094446 0 -12329270.391094446 -475326.46383494139 0 0 0 0 13659840.037610054 -7682466.9430305958 0 -7682466.9430305958 754853.50901699066 0 0 0 0 14054773.462470055 -5880809.041908145 0 -5880809.041908145 5695729.5908441544 0 0 0 0 6157813.3079146855 -6747004.8799443804 0 -6747004.8799443804 6185486.0147193382 0 0 0 0 20028931.062362671 -9297402.7079286575 0 -9297402.7079286575 1742309.1120736599 0 0 0 0 -17924066.20708847 17935123.055582047 0 17935123.055582047 9723357.0175285339 0 0 0 0 -16107816.44631958 16794079.26132369 0 16794079.26132369 3700916.9265346527 0 0 0 0 -2998567.8203297555 1828625.1624181382 0 1828625.1624181382 1333966.733606874 0 0 0 0 -16307061.038658142 15671462.586088657 0 15671462.586088657 12511236.356164932 0 0 0 0 -3997268.3608016968 -451208.80106735229 0 -451208.80106735229 2712361.6762065887 0 0 0 0 -42159532.793998718 -9793895.064789772 0 -9793895.064789772 18308774.611418724 0 0 0 0 1546215.0509958491 -1008331.0132181197 0 -1008331.0132181197 5662798.5935240127 0 0 0 0 -35959427.128871918 9383870.8857727051 0 9383870.8857727051 12683329.299987793 0 0 0 0 -15376750.597198486 13782597.778139114 0 13782597.778139114 15945309.118694305 0 0 0 0 -10712388.354858398 9902304.4810752869 0 9902304.4810752869 17725433.636543274 0 0 0 0 -5905159.6004638672 8347450.3232212067 0 8347450.3232212067 8642913.3522911072 0 0 0 0 -1366567.2514343262 20241.080738067627 0 20241.080738067627 20389155.23494339 0 0 0 0 10905853.196655273 7686252.101732254 0 7686252.101732254 4473946.0702848434 0 0 0 0 -11500350.244262695 4335009.5491752625 0 4335009.5491752625 16807714.905006409 0 0 0 0 22681392.021995544 -3717009.9495325089 0 -3717009.9495325089 6611423.9651079178 0 0 0 0 -18907995.657470703 9832701.2006874084 0 9832701.2006874084 13787216.98772049 0 0 0 0 -20600416.009635925 -10850096.967930794 0 -10850096.967930794 3797222.0729279518 0 0 0 0 -58920156.948760986 6623048.7460196018 0 6623048.7460196018 20150480.672935486 0 0 0 0 5727929.4824307235 -8443671.4897750132 0 -8443671.4897750132 4273713.5319862179 0 0 0 0 -11055771.974190712 3333008.4529862404 0 3333008.4529862404 -4418285.4076690674 0 0 0 0 21183404.620830536 -7942112.7756769657 0 -7942112.7756769657 -2747315.481256485 0 0 0 0 -20090613.227111816 164112.40007066727 0 164112.40007066727 -8695396.2644886971 0 0 0 0 9708764.4119431153 -8862100.5337615646 0 -8862100.5337615646 1892892.3994693849 0 0 0 0 -60483031.112941742 -20213431.764467239 0 -20213431.764467239 27436060.709087849 0 0 0 0 3746497.39012146 15260118.21698308 0 15260118.21698308 34098794.684738159 0 0 0 0 -33804593.831794739 -22965125.357158184 0 -22965125.357158184 72366944.963401556 0 0 0 0 -20388707.03099823 291745.29709768295 0 291745.29709768295 29044707.03478241 0 0 0 0 7749719.541595459 8650195.4726829529 0 8650195.4726829529 1091221.7320404053 0 0 0 0 17337511.97416687 2565459.4421052933 0 2565459.4421052933 23244086.266142368 0 0 0 0 5745140.7103252411 12245214.636820197 0 12245214.636820197 30474616.384274483 0 0 0 0 2012458.0846157819 -612356.53936894238 0 -612356.53936894238 -480630.19450865686 0 0 0 0 19936362.733364105 28320189.434909225 0 28320189.434909225 149613570.8234539 0 0 0 0 293370802.87442017 -120310158.16706133 0 -120310158.16706133 -16033718.385775447 0 0 0 0 197698737.61127853 17326738.918751717 0 17326738.918751717 -48253102.220684052 0 0 0 0 -79008117.155143738 -65147980.03237915 0 -65147980.03237915 44200072.123825073 0 0 0 0 25780398.038480043 26153311.517576486 0 26153311.517576486 10675290.872812271 0 0 0 0 2867778.7252827585 -961581.79381710291 0 -961581.79381710291 1138212.0707487836 0 0 0 0 -69414918.073547363 -43624674.627908707 0 -43624674.627908707 45124161.592222214 0 0 0 0 -60726073.575050354 -52270113.983451843 0 -52270113.983451843 -10097191.506072998 0 0 0 0 -72356132.058929443 -6283718.7732315063 0 -6283718.7732315063 12093526.974891663 0 0 0 0 -53256264.579589844 10835608.547489166 0 10835608.547489166 24537090.015922546 0 0 0 0 -49949824.152923584 12614661.68645668 0 12614661.68645668 22848062.176273346 0 0 0 0 -82177153.462738037 19070714.343038559 0 19070714.343038559 61568222.037014008 0 0 0 0 -30475503.549072266 4783362.5897216797 0 4783362.5897216797 -366972.53941488266 0 0 0 0 -41441653.855735779 -2052422.687787056 0 -2052422.687787056 12824488.961112976 0 0 0 0 -29864460.776786804 2770312.4299116135 0 2770312.4299116135 18409022.329353333 0 0 0 0 -19979883.286514282 14296163.886699677 0 14296163.886699677 16163822.352815151 0 0 0 0 -28548807.135696411 33071547.363388062 0 33071547.363388062 39919249.158073425 0 0 0 0 -57795604.082275391 38043462.848653793 0 38043462.848653793 63319387.624790192 0 0 0 0 -152470191.07237244 102119719.60219097 0 102119719.60219097 60802650.875490189 0 0 0 0 92635989.799186707 -4389820.7465372086 0 -4389820.7465372086 -22791408.911240578 0 0 0 0 -178712352.23861122 194841373.05327845 0 194841373.05327845 -6882898.9039039612 0 0 0 0 -96373602.920181274 1386552.7306413651 0 1386552.7306413651 39596035.189552307 0 0 0 0 -68917826.967922211 -189484288.31273091 0 -189484288.31273091 -202598101.38890076 0 0 0 0 -18397776.893264771 -16792850.663772136 0 -16792850.663772136 31947224.257666543 0 0 0 0 17146907.197463989 115697809.64439909 0 115697809.64439909 -97348835.744992301 0 0 0 0 23429901.825925209 8130428.409469543 0 8130428.409469543 4013885.1082212194 0 0 0 0 -6432482.6557855606 23843838.428933106 0 23843838.428933106 -5851607.8859704137 0 0 0 0 -15043091.781023979 -194909613.48752314 0 -194909613.48752314 150488024.49680996 0 0 0 0 -197240676.86541748 185535577.96102929 0 185535577.96102929 287254827.47774792 0 0 0 0 -150036856.28876495 83335271.630311728 0 83335271.630311728 162866549.92912984 0 0 0 0 17755151.897644185 7815377.0681630382 0 7815377.0681630382 5064857.0586838443 0 0 0 0 -28305159.394096375 312019492.90621829 0 312019492.90621829 -16325300.365978718 0 0 0 0 169696771.00410461 -397409346.19718707 0 -397409346.19718707 255854901.70383522 0 0 0 0 6762498.6490445286 3562643.0092661362 0 3562643.0092661362 4735936.6226541949 0 0 0 0 2200737272.1277542 -635582339.69846988 0 -635582339.69846988 -89768730.982988805 0 0 0 0 1443963550.9713593 -970154755.75519896 0 -970154755.75519896 498846262.92200184 0 0 0 0 1436347260.8307734 -300248862.66472387 0 -300248862.66472387 -230444510.60809636 0 0 0 0 96437021.612922668 -75408587.406323582 0 -75408587.406323582 9232769.4035114348 0 0 0 0 773035993.92008209 -41554313.820704579 0 -41554313.820704579 47331468.652064383 0 0 0 0 1390833622.7756786 -563962522.42089391 0 -563962522.42089391 156670889.50465009 0 0 0 0 -126253709.66810608 153517403.1610153 0 153517403.1610153 360595093.97194105 0 0 0 0 2138247.1613168493 -116223.61428895593 0 -116223.61428895593 269930.82037348929 0 0 0 0 1331266424.2796936 -75131157.325766116 0 -75131157.325766116 -164509132.03169176 0 0 0 0 1393290501.6535873 253591587.62147671 0 253591587.62147671 -388332032.92841095 0 0 0 0 2206135313.0333672 -157737507.53408709 0 -157737507.53408709 -421843331.89440101 0 0 0 0 2200386422.6378951 796193594.96335292 0 796193594.96335292 -388006246.26065236 0 0 0 0 1487107435.6821213 276496914.20546126 0 276496914.20546126 -383390366.59173977 0 0 0 0 304857724.74567413 43309608.05989968 0 43309608.05989968 53316288.78321401 0 0 0 0 296521179.16311073 63791682.045601197 0 63791682.045601197 21356217.378177039 0 0 0 0 1036913000.0772781 776972464.37975442 0 776972464.37975442 296752345.20812172 0 0 0 0 -523675.51820603013 -2313324.2170136292 0 -2313324.2170136292 451348.12435505172 0 0 0 0 26926852.137039185 -17161611.367752805 0 -17161611.367752805 15581093.282714695 0 0 0 0 6181375.0802087747 -1616328.5052140132 0 -1616328.5052140132 502721.1256196514 0 0 0 0 26879513.357778549 -3365086.8050460815 0 -3365086.8050460815 16984226.616320819 0 0 0 0 10398129.105503082 -4928008.1754303277 0 -4928008.1754303277 10028436.444586754 0 0 0 0 24014000.600135937 -2955373.9513843721 0 -2955373.9513843721 -2450982.3278535623 0 0 0 0 18581611.640995026 1241422.5594944805 0 1241422.5594944805 6566998.6314264536 0 0 0 0 14253127.354194641 3304676.1568460464 0 3304676.1568460464 6412902.6656538174 0 0 0 0 15562966.409965515 2821935.7220908403 0 2821935.7220908403 4247332.7900936604 0 0 0 0 22818414.172309756 3813651.0136883864 0 3813651.0136883864 -379219.17896485247 0 0 0 0 15425649.941764832 6966267.9417474419 0 6966267.9417474419 -63386.532097294927 0 0 0 0 26647168.053159237 70333988.637528419 0 70333988.637528419 -213821373.82040739 0 0 0 0 29725800.332448587 4193270.110062764 0 4193270.110062764 795909.68338902853 0 0 0 0 13299166.343833923 5013710.0979095101 0 5013710.0979095101 9092159.3609033749 0 0 0 0 11532469.939674377 925742.70191133022 0 925742.70191133022 -932744.2219107151 0 0 0 0 14815357.496673584 -4732063.5870714188 0 -4732063.5870714188 -11459017.295130853 0 0 0 0 23810566.893364213 6257048.9354283735 0 6257048.9354283735 173174.0354821533 0 0 0 0 11926843.406532288 1458534.2616354823 0 1458534.2616354823 -232003.93544929661 0 0 0 0 20934318.690886259 3387006.2909925357 0 3387006.2909925357 2784948.0949252388 0 0 0 0 58050334.516098022 -15768454.737365723 0 -15768454.737365723 -56670687.866842747 0 0 0 0 96602798.389890671 57052072.528399467 0 57052072.528399467 -239312892.15393829 0 0 0 0 1311288.6633118959 425896.23240247741 0 425896.23240247741 57691.275075461715 0 0 0 0 44390108.512207031 -7580327.0007286072 0 -7580327.0007286072 -36103420.407564163 0 0 0 0 27246536.592622191 7477236.9960768167 0 7477236.9960768167 1584626.8200002126 0 0 0 0 54698700.509796143 -3735013.4038829803 0 -3735013.4038829803 -63223976.725684643 0 0 0 0 26923156.150087357 -27490578.973836184 0 -27490578.973836184 -19257569.179532051 0 0 0 0 44424508.209148407 -48902507.050768614 0 -48902507.050768614 3018124.8627710342 0 0 0 0 52484588.949327469 -35563520.922324538 0 -35563520.922324538 -71261687.566711426 0 0 0 0 30743660.50084877 -14615784.224081159 0 -14615784.224081159 -46208446.935006142 0 0 0 0 51454203.511463165 -40629024.780460596 0 -40629024.780460596 -36415913.864753723 0 0 0 0 75261861.916717529 -77863719.613976955 0 -77863719.613976955 -2801744.0586848259 0 0 0 0 47407810.195198059 -54703779.471420288 0 -54703779.471420288 -71862346.667938232 0 0 0 0 81099760.620100975 -23114468.424294621 0 -23114468.424294621 -62096977.356068611 0 0 0 0 29635026.492206573 -60015292.053599596 0 -60015292.053599596 28719221.95447588 0 0 0 0 44660755.291225433 -116706312.11991405 0 -116706312.11991405 240961618.92248821 0 0 0 0 24160734.548454285 -62314735.536028624 0 -62314735.536028624 61055827.017170429 0 0 0 0 13452806.712402523 -28302533.454839122 0 -28302533.454839122 -435354.98186397552 0 0 0 0 -23757373.189525604 -37570322.585808754 0 -37570322.585808754 -38293185.990857601 0 0 0 0 116540135.09334946 185944877.46590996 0 185944877.46590996 -293350336.539819 0 0 0 0 141486770.43629074 29401118.237753868 0 29401118.237753868 -246959554.45570326 0 0 0 0 274376846.68045044 96086889.345909357 0 96086889.345909357 21602848.619534969 0 0 0 0 180472985.32801819 -146125762.00236368 0 -146125762.00236368 31143174.885024309 0 0 0 0 109058411.73438454 87586001.438715219 0 87586001.438715219 184106531.77274632 0 0 0 0 275588968.09267855 104396873.61249891 0 104396873.61249891 -33863227.994293213 0 0 0 0 290920994.75553966 8535454.7041398287 0 8535454.7041398287 69518468.242763519 0 0 0 0 201903559.5777626 79736404.638954759 0 79736404.638954759 26405411.032563448 0 0 0 0 1769395.4460160211 -1386039.9268413782 0 -1386039.9268413782 730222.35762549681 0 0 0 0 53748847.718633652 180897533.22172338 0 180897533.22172338 283837684.88506389 0 0 0 0 3928782.1664805114 -2050747.8553391567 0 -2050747.8553391567 274508.91726137605 0 0 0 0 60136641.063152313 -4122261.8911728859 0 -4122261.8911728859 -113612152.07718897 0 0 0 0 1209489.1419181973 -36111.431041794829 0 -36111.431041794829 322848.61313586496 0 0 0 0 109688971.65449905 151355024.50172758 0 151355024.50172758 -15837750.010992408 0 0 0 0 -9924856.1217918396 398282.42840975523 0 398282.42840975523 9646638.6707491875 0 0 0 0 121808765.19431686 97271889.084259868 0 97271889.084259868 13415743.913869143 0 0 0 0 163319133.70332336 36322398.679527044 0 36322398.679527044 -6848142.2203904986 0 0 0 0 92752582.744205475 -52427639.85007906 0 -52427639.85007906 8552171.9335408211 0 0 0 0 98719602.566264629 34256489.969107077 0 34256489.969107077 32356460.962788105 0 0 0 0 96916447.72233963 -10770155.267909169 0 -10770155.267909169 45529078.222176313 0 0 0 0 265353806.90614319 97871991.215008259 0 97871991.215008259 -3196334.5892750621 0 0 0 0 188615781.66498947 -1946628.0228617191 0 -1946628.0228617191 27385284.733127475 0 0 0 0 388602393.27403641 -5810927.2802852988 0 -5810927.2802852988 50086945.400148392 0 0 0 0 291076754.61945724 203895279.07192808 0 203895279.07192808 265420917.15420508 0 0 0 0 223123150.71717834 50162546.783065259 0 50162546.783065259 56137812.600608706 0 0 0 0 197187858.07371807 -79552840.992138684 0 -79552840.992138684 22201326.197649479 0 0 0 0 107880697.06752014 -73039772.358303785 0 -73039772.358303785 94560787.490319252 0 0 0 0 241767224.62996674 110578524.67542946 0 110578524.67542946 38439389.248687029 0 0 0 0 988663.56118536741 -606413.71939722821 0 -606413.71939722821 272372.33274861181 0 0 0 0 221852600.08360291 80795712.451343238 0 80795712.451343238 61696481.536524534 0 0 0 0 449287622.8597393 442454084.9618873 0 442454084.9618873 377071706.6609903 0 0 0 0 843220989.59949493 392531936.01807159 0 392531936.01807159 193640691.18021381 0 0 0 0 373955939.67554855 519473868.41569918 0 519473868.41569918 377888509.61673278 0 0 0 0 384070092.39231491 275839670.10926992 0 275839670.10926992 168713669.24015152 0 0 0 0 286654935.49784279 344133230.79129821 0 344133230.79129821 114282790.51608622 0 0 0 0 328998332.19511414 248289907.06805778 0 248289907.06805778 296681091.90470552 0 0 0 0 66014121.141916275 -66691111.548641682 0 -66691111.548641682 201393901.48451281 0 0 0 0 223960454.55130386 190137274.50466955 0 190137274.50466955 31002967.294865012 0 0 0 0 1159581.8260891587 -1016405.2685213424 0 -1016405.2685213424 165592.00529743172 0 0 0 0 176884600.18111801 234518706.04218709 0 234518706.04218709 153854703.08038792 0 0 0 0 -195219078.63939667 -62380813.127548218 0 -62380813.127548218 275501968.41851616 0 0 0 0 -108221832.30198669 -84430665.448974609 0 -84430665.448974609 250809716.58287263 0 0 0 0 516653161.54231644 1215569035.8303423 0 1215569035.8303423 1873691653.4589899 0 0 0 0 84090221.788326263 166166715.118588 0 166166715.118588 442681937.53267461 0 0 0 0 547462293.66303158 863776448.58300149 0 863776448.58300149 792907364.07114458 0 0 0 0 1361072336.053112 915285501.54939079 0 915285501.54939079 55952943.119224265 0 0 0 0 2200172617.6791573 1350400477.3724804 0 1350400477.3724804 267268487.45377228 0 0 0 0 2205699235.5997658 750057218.72520435 0 750057218.72520435 -206291748.12970388 0 0 0 0 1311605691.1785431 694813596.31198072 0 694813596.31198072 141431793.32540864 0 0 0 0 1006946803.4891129 680993532.70640862 0 680993532.70640862 162925381.82471105 0 0 0 0 1569612991.6209526 427674254.16063559 0 427674254.16063559 -198227192.94532898 0 0 0 0 2204074818.3976097 -21269529.693873741 0 -21269529.693873741 -380286887.04023272 0 0 0 0 1404886881.5025673 341458361.12836075 0 341458361.12836075 -194829644.19748226 0 0 0 0 1229593514.5478907 57441392.787274018 0 57441392.787274018 -91350432.101430476 0 0 0 0 1120378691.5821915 48559515.617533028 0 48559515.617533028 -91117448.66908887 0 0 0 0 1232521073.705658 -166939933.52273357 0 -166939933.52273357 -395626198.289805 0 0 0 0 442193909.37031555 157184344.8924025 0 157184344.8924025 274972183.57717574 0 0 0 0 694374043.83781433 342909599.26668072 0 342909599.26668072 184812159.33558616 0 0 0 0 810529186.5752697 -227932840.33546612 0 -227932840.33546612 -58035594.730522692 0 0 0 0 287496026.86113167 154107852.4688251 0 154107852.4688251 278353292.71759117 0 0 0 0 106442047.0939517 377131139.12148935 0 377131139.12148935 -283540523.27977061 0 0 0 0 181286254.71089864 -179029109.24929726 0 -179029109.24929726 34137496.900653601 0 0 0 0 508015537.11248779 -8278119.0864877999 0 -8278119.0864877999 -225665788.37072897 0 0 0 0 2204816948.5860786 -485040870.38791263 0 -485040870.38791263 -442979102.15025896 0 0 0 0 762931601.76587486 -808934372.54355669 0 -808934372.54355669 257511427.72960794 0 0 0 0 1196321399.784462 -500604863.72583359 0 -500604863.72583359 -329382855.73769391 0 0 0 0 2201789356.1502457 -1280958590.5710163 0 -1280958590.5710163 63626256.059098385 0 0 0 0 64529007.798564911 -1113784602.3921745 0 -1113784602.3921745 1795715724.3172357 0 0 0 0 3017852.8784151226 -455496.05501299538 0 -455496.05501299538 1431014.144281284 0 0 0 0 2195350376.9973946 -107230.68195223555 0 -107230.68195223555 -3209801.6029847781 0 0 0 0 59493740.199645996 1102984164.7180009 0 1102984164.7180009 1392150051.5902727 0 0 0 0 8098352.9706642479 -3517850.8924198151 0 -3517850.8924198151 1282963.8904617475 0 0 0 0 -29589790.858146667 -7489658.0185294151 0 -7489658.0185294151 2156708.008605063 0 0 0 0 -33663276.843109131 -26242221.726189017 0 -26242221.726189017 1489461.6620825082 0 0 0 0 208305595.83483613 -169119596.74078557 0 -169119596.74078557 211608011.31342787 0 0 0 0 13753914.053540878 -3511410.9371766485 0 -3511410.9371766485 1432066.9470848867 0 0 0 0 5604897.6494469196 -4225758.6267631128 0 -4225758.6267631128 183790.6952510823 0 0 0 0 646935916.87979603 -283231695.2388007 0 -283231695.2388007 105688812.4576667 0 0 0 0 5712048.6773956642 1278717.5401572846 0 1278717.5401572846 2499140.225692994 0 0 0 0 -126893114.57967377 69496897.542706251 0 69496897.542706251 -12784022.912866473 0 0 0 0 -158902332.14789486 26169387.715434402 0 26169387.715434402 120816402.60781145 0 0 0 0 -114055480.41096878 -37276699.593701363 0 -37276699.593701363 49012475.675679326 0 0 0 0 -34300608.680660248 -20496622.985139966 0 -20496622.985139966 25898684.501013186 0 0 0 0 -27566131.675202847 887060.93897560239 0 887060.93897560239 27054063.293505907 0 0 0 0 15008737.604549624 -3623188.116514571 0 -3623188.116514571 874540.37503704138 0 0 0 0 98562461.607124329 -208783265.72522023 0 -208783265.72522023 59539189.27014783 0 0 0 0 -100325800.20232296 -83685371.341642454 0 -83685371.341642454 -34546645.943089485 0 0 0 0 -78867144.920585632 -108520672.39178509 0 -108520672.39178509 -118737758.75988802 0 0 0 0 -108842212.32846498 -63914279.197393551 0 -63914279.197393551 70842217.145809174 0 0 0 0 -101873217.75357056 -231404825.3365899 0 -231404825.3365899 -138589402.04392621 0 0 0 0 15670675.756995384 -1639213.0958455242 0 -1639213.0958455242 -221529.25970578304 0 0 0 0 -103033442.66656113 48114731.89177531 0 48114731.89177531 117141785.60399817 0 0 0 0 1878503336.1307526 164399131.15965718 0 164399131.15965718 -198887783.61572847 0 0 0 0 348593775.05038261 -173837617.33642101 0 -173837617.33642101 -112204634.16133249 0 0 0 0 1723480927.8366318 843777099.42373621 0 843777099.42373621 234635088.31074065 0 0 0 0 2202076253.1814227 1015750766.7840281 0 1015750766.7840281 -175645369.18548286 0 0 0 0 927289810.10762024 1517611329.9526756 0 1517611329.9526756 798721915.21172023 0 0 0 0 1284813041.4932203 379161449.53585976 0 379161449.53585976 -34336157.507346123 0 0 0 0 165412010.04214668 381199934.13985652 0 381199934.13985652 110497718.08248252 0 0 0 0 164108393.08292007 -128902916.57480836 0 -128902916.57480836 283631140.22753143 0 0 0 0 411322174.01091003 -108079771.58568525 0 -108079771.58568525 -44974864.803811908 0 0 0 0 175466408.45454407 -79738547.09115757 0 -79738547.09115757 1222034.3697149158 0 0 0 0 325854355.62483931 196150570.18847173 0 196150570.18847173 65551629.389074862 0 0 0 0 704995869.81383514 -15153092.379590392 0 -15153092.379590392 176838451.81103146 0 0 0 0 55874182.555131912 52372206.282682553 0 52372206.282682553 22537679.367422402 0 0 0 0 260499273.14695168 -46699047.283561945 0 -46699047.283561945 -258896423.03716135 0 0 0 0 140097796.06717682 -38251230.613386124 0 -38251230.613386124 -62948180.390228808 0 0 0 0 93602198.127933502 -168738670.42852885 0 -168738670.42852885 850039.83710497618 0 0 0 0 195904306.90690613 -122424579.97979173 0 -122424579.97979173 -201817201.20292985 0 0 0 0 94710667.174133301 -78907118.305131435 0 -78907118.305131435 -217553900.34530485 0 0 0 0 40948914.392730713 -158285113.18696702 0 -158285113.18696702 -172132778.43025404 0 0 0 0 63336959.121124268 -151973890.55069816 0 -151973890.55069816 -255221208.81988335 0 0 0 0 -5898861.666519165 -109744104.03513521 0 -109744104.03513521 -189670603.87683582 0 0 0 0 23271362.009475708 -176665673.4097389 0 -176665673.4097389 -198347851.42859986 0 0 0 0 39663592.764652252 -190067146.75921738 0 -190067146.75921738 -61758741.466114819 0 0 0 0 99508662.164344788 -122880481.35408738 0 -122880481.35408738 -172394386.53578866 0 0 0 0 -141595840.39904022 -105689248.6661616 0 -105689248.6661616 -153393038.0270505 0 0 0 0 -55456503.16063118 -190870774.34261793 0 -190870774.34261793 -69863918.379798293 0 0 0 0 -92146186.893741608 -89924572.645272732 0 -89924572.645272732 119117882.90827346 0 0 0 0 6150448.2294692993 -157080773.50556749 0 -157080773.50556749 -76058758.865757897 0 0 0 0 75407938.977815628 -184542207.25893697 0 -184542207.25893697 122367840.84616566 0 0 0 0 9853254.5800094604 -88729068.118281603 0 -88729068.118281603 -3821688.3840277791 0 0 0 0 53543213.397121429 4386303.2565573454 0 4386303.2565573454 233315914.06491232 0 0 0 0 14797357.376111031 -110288372.26201636 0 -110288372.26201636 110580815.61077523 0 0 0 0 -115370994.87688065 -41068744.532709479 0 -41068744.532709479 249999553.46411467 0 0 0 0 -83844504.872718811 2847141.3126711845 0 2847141.3126711845 23012577.509832621 0 0 0 0 -9613386.3937950134 104206248.20496047 0 104206248.20496047 156663207.7559973 0 0 0 0 65650134.33543396 -32259537.988392115 0 -32259537.988392115 252814711.99057102 0 0 0 0 512579215.91427612 89637288.426622987 0 89637288.426622987 465873062.69920254 0 0 0 0 445288996.02241898 198362528.03978479 0 198362528.03978479 311274899.99404979 0 0 0 0 848424462.65447998 430163238.59605622 0 430163238.59605622 267245665.04439402 0 0 0 0 141596251.67693329 -102012405.90339351 0 -102012405.90339351 352060777.64652133 0 0 0 0 435868398.81747818 45717195.456312418 0 45717195.456312418 230744661.34893566 0 0 0 0 667640580.11586189 591957735.81842136 0 591957735.81842136 1415421989.4923601 0 0 0 0 810624079.95205688 321519587.32859993 0 321519587.32859993 400939412.11658216 0 0 0 0 338323598.36692619 217978870.2864275 0 217978870.2864275 693748456.95126438 0 0 0 0 1338111078.6129799 901064143.75804114 0 901064143.75804114 394939208.14364052 0 0 0 0 702992536.69863892 431408076.77822018 0 431408076.77822018 583970139.11340141 0 0 0 0 1405771155.0007591 298726581.27137804 0 298726581.27137804 350048561.54920197 0 0 0 0 1552765499.9663486 784526647.50707197 0 784526647.50707197 -187654085.52571869 0 0 0 0 264667.73442488536 1302186.5180432741 0 1302186.5180432741 2804984.0882917969 0 0 0 0 89953470.835456848 275814835.354105 0 275814835.354105 555123348.66989422 0 0 0 0 1490311353.1909122 93172085.219239056 0 93172085.219239056 -86320599.939917564 0 0 0 0 891150230.38045311 -44088027.181700438 0 -44088027.181700438 -117744771.24383497 0 0 0 0 930653766.76411057 429306526.76430655 0 429306526.76430655 65168488.277482033 0 0 0 0 1251206199.2519894 657283366.28969288 0 657283366.28969288 222050510.0677228 0 0 0 0 870976346.08314133 327486215.74462128 0 327486215.74462128 596016461.14056301 0 0 0 0 526164713.72596741 260511740.72649944 0 260511740.72649944 198168600.51381874 0 0 0 0 928579506.73884606 458815356.83052802 0 458815356.83052802 -128909476.48294115 0 0 0 0 876217175.8809185 598076606.42077434 0 598076606.42077434 135563176.97584429 0 0 0 0 978938950.76118469 586830161.38542235 0 586830161.38542235 -63690246.616281837 0 0 0 0 768881364.26124573 288580463.95934832 0 288580463.95934832 -29634173.684586287 0 0 0 0 353817576.24784088 105711813.24075449 0 105711813.24075449 22590964.546325445 0 0 0 0 212711663.67137146 28949651.034877539 0 28949651.034877539 6075079.2728995085 0 0 0 0 685899672.13315582 374058506.07402503 0 374058506.07402503 -96285485.477313519 0 0 0 0 1009852143.2348862 496796882.67566538 0 496796882.67566538 -80448013.022012711 0 0 0 0 5717047.819632709 3615007.0740264952 0 3615007.0740264952 2974027.8778787619 0 0 0 0 -185799191.48412323 325927083.74609685 0 325927083.74609685 -98009985.332447767 0 0 0 0 -57378008.075874329 -60816759.350296497 0 -60816759.350296497 -16064356.113150835 0 0 0 0 529833318.67253494 267600381.36773443 0 267600381.36773443 122414075.07566601 0 0 0 0 870759111.89335251 232991100.97570702 0 232991100.97570702 -376971138.75980663 0 0 0 0 2706328.6076689065 1995264.9295378234 0 1995264.9295378234 1466349.6477390677 0 0 0 0 209569194.47042847 -38433024.696255788 0 -38433024.696255788 -50834006.492631793 0 0 0 0 -222825987.35127831 399127202.64721274 0 399127202.64721274 514440177.48965013 0 0 0 0 568442367.60062218 507113252.31968975 0 507113252.31968975 405735348.72462487 0 0 0 0 189139734.97820091 380110978.15651405 0 380110978.15651405 442988221.29442883 0 0 0 0 420191185.53884697 117692903.34936517 0 117692903.34936517 69794746.937641621 0 0 0 0 252551868.0842514 165207572.58071971 0 165207572.58071971 60856102.857662559 0 0 0 0 58073995.870384216 49309609.24023664 0 49309609.24023664 113336039.27830184 0 0 0 0 615962617.62182522 58471136.949669197 0 58471136.949669197 159003683.19969702 0 0 0 0 583708223.41239548 447869782.96196687 0 447869782.96196687 375345978.21546847 0 0 0 0 363797626.37761688 122231097.77908492 0 122231097.77908492 366141288.66418499 0 0 0 0 761967667.63786316 371933397.79071552 0 371933397.79071552 187976139.52844846 0 0 0 0 329683469.61694717 136526126.96723568 0 136526126.96723568 201628167.14548016 0 0 0 0 291937976.97063541 -36718481.994791135 0 -36718481.994791135 46064055.930621147 0 0 0 0 147125325.40480042 40870769.674718857 0 40870769.674718857 177762588.67504799 0 0 0 0 193300443.83155823 24938947.29332912 0 24938947.29332912 58742652.014250755 0 0 0 0 53186183.226615906 12772808.893612742 0 12772808.893612742 -14584673.443464518 0 0 0 0 91011956.197799683 -56922716.262437761 0 -56922716.262437761 71133072.564136505 0 0 0 0 -29863301.955449104 -10863525.650120556 0 -10863525.650120556 -12503468.228229523 0 0 0 0 -228907816.87847137 49299627.160329938 0 49299627.160329938 9285791.3724198341 0 0 0 0 -48928587.868972778 9207631.997541666 0 9207631.997541666 -54366212.548499107 0 0 0 0 -235314833.60645294 -78682888.591812253 0 -78682888.591812253 -39856570.811799288 0 0 0 0 -39159548.84280014 -55576610.433834463 0 -55576610.433834463 -14924661.402677059 0 0 0 0 -70777873.302200317 62332145.602543354 0 62332145.602543354 17158225.425202012 0 0 0 0 -60964098.466285706 4771927.3546577096 0 4771927.3546577096 -130238374.64510965 0 0 0 0 132902153.74636841 94432791.409807086 0 94432791.409807086 4465383.44230479 0 0 0 0 -168694199.47718811 -8594119.0226919055 0 -8594119.0226919055 129764635.86776471 0 0 0 0 5164251.576133728 135865243.13898671 0 135865243.13898671 104922844.21777618 0 0 0 0 2329357.1034830492 3446556.1584864073 0 3446556.1584864073 4632028.4150542971 0 0 0 0 71675481.737312317 12219839.916686475 0 12219839.916686475 -15516790.307751894 0 0 0 0 -192559838.56889343 122557230.68133754 0 122557230.68133754 72014649.358925462 0 0 0 0 7435464.9859800451 3672357.6368297022 0 3672357.6368297022 1522466.746684161 0 0 0 0 -1093415.8658180237 848313.88025450706 0 848313.88025450706 1175467.1988515854 0 0 0 0 7013698.1328973398 -2583115.9490124118 0 -2583115.9490124118 1422324.7774392422 0 0 0 0 4029824.0963052996 -1449707.7581712063 0 -1449707.7581712063 2125437.0698868111 0 0 0 0 -915948.9482765086 2614720.8448986411 0 2614720.8448986411 827124.43478252669 0 0 0 0 8043047.8996307217 -4483741.739788793 0 -4483741.739788793 1465403.9042188022 0 0 0 0 9536665.902053833 2519046.1735780239 0 2519046.1735780239 -6195678.9919300079 0 0 0 0 3149717.4896259308 13096869.896807313 0 13096869.896807313 -1968161.0042067766 0 0 0 0 975984.32201935165 1365247.2838976979 0 1365247.2838976979 -577278.58611139352 0 0 0 0 -360601700.32073212 9842619.3633693457 0 9842619.3633693457 46086744.638699532 0 0 0 0 15486763.076274872 -11284488.851508617 0 -11284488.851508617 -3749138.3897275925 0 0 0 0 13262721.443935394 -7060775.3035674095 0 -7060775.3035674095 154839.86390590668 0 0 0 0 1462206.7671585083 -11922640.49191761 0 -11922640.49191761 132341.08660793304 0 0 0 0 9136398.2028331757 -10889010.958282113 0 -10889010.958282113 -3167421.8361682892 0 0 0 0 9154026.5578269958 -10842528.144582987 0 -10842528.144582987 -3225022.7092618942 0 0 0 0 4813954.5119972229 -9039660.30306077 0 -9039660.30306077 2268387.1899547577 0 0 0 0 5275973.192276001 -13926669.517187357 0 -13926669.517187357 -4257622.0761957169 0 0 0 0 6706896.3886260986 -14036245.761200428 0 -14036245.761200428 -5597012.5056180954 0 0 0 0 9205255.1586608887 -10894967.508533478 0 -10894967.508533478 -3256409.2172107697 0 0 0 0 9240859.7970733643 -10955204.642553329 0 -10955204.642553329 -3194240.4554443359 0 0 0 0 9787896.9088096619 -11962268.374025583 0 -11962268.374025583 -6420239.0008563995 0 0 0 0 9467402.2800140381 -11621107.9059515 0 -11621107.9059515 -5800423.4786013365 0 0 0 0 11962477.631530762 -10126598.335643291 0 -10126598.335643291 -3161286.1870648861 0 0 0 0 -1092851.42212677 -5881281.3315086365 0 -5881281.3315086365 -5536327.9513254166 0 0 0 0 13913928.412582397 -9195110.7880325317 0 -9195110.7880325317 -5141248.7750754356 0 0 0 0 13699782.220241547 -8635609.5092921257 0 -8635609.5092921257 -6478579.3562431335 0 0 0 0 11841771.527847618 -2215939.087619463 0 -2215939.087619463 578845.03905307967 0 0 0 0 16179934.249153137 -7891817.7977905273 0 -7891817.7977905273 -6282122.6848385334 0 0 0 0 19911.639528274536 -6943074.0898728371 0 -6943074.0898728371 -7984600.1498174667 0 0 0 0 13169153.130595118 -5140154.8574441243 0 -5140154.8574441243 -2138103.0592962983 0 0 0 0 8545865.537612915 -25007787.502909422 0 -25007787.502909422 -15094687.454145759 0 0 0 0 7570820.6168757677 -12534891.524871185 0 -12534891.524871185 -2298507.1905183252 0 0 0 0 35373914.647676468 29193042.689381599 0 29193042.689381599 19266674.414721012 0 0 0 0 10672441.728515625 -14894773.368697166 0 -14894773.368697166 -6650876.1796550751 0 0 0 0 16997240.143692017 -11514315.156098366 0 -11514315.156098366 -7342860.081404686 0 0 0 0 66072909.138458252 27265876.479679108 0 27265876.479679108 24167356.917892456 0 0 0 0 24178078.28614603 -1075179.4526599031 0 -1075179.4526599031 -5811396.3186225854 0 0 0 0 54757591.306684494 7160773.0049479008 0 7160773.0049479008 16641044.846418381 0 0 0 0 6231172.4154691398 4667116.3773828279 0 4667116.3773828279 4854753.3684466723 0 0 0 0 18998413.27545929 -1713270.0486807823 0 -1713270.0486807823 -3891739.3661327362 0 0 0 0 -2763902.30418396 44641833.6881814 0 44641833.6881814 28226477.910656929 0 0 0 0 8580531.0000109673 2172195.6759297848 0 2172195.6759297848 949652.60414123535 0 0 0 0 10457345.122486115 8439323.2483406067 0 8439323.2483406067 6245775.2290716171 0 0 0 0 4557472.9429289326 542526.64456986636 0 542526.64456986636 -2012612.1124492595 0 0 0 0 5805959.3996963501 -1764961.5635490417 0 -1764961.5635490417 6661371.3933500648 0 0 0 0 8723315.1762542725 4569774.9132976532 0 4569774.9132976532 -8453191.4197187424 0 0 0 0 3488118.5134773254 3137488.7457289696 0 3137488.7457289696 832819.22846889496 0 0 0 0 6461056.5178322494 1021252.0728977136 0 1021252.0728977136 1282060.3966077045 0 0 0 0 5554772.3910980225 3886622.6565461159 0 3886622.6565461159 173960.20402860641 0 0 0 0 12476108.083524704 -2458369.5250037909 0 -2458369.5250037909 6265568.199593544 0 0 0 0 10468081.847858429 2933810.9655866623 0 2933810.9655866623 -3878454.0143077374 0 0 0 0 -2000283.2784118652 3106781.4477500916 0 3106781.4477500916 5193314.151134491 0 0 0 0 -129688.53511810303 2610302.1184062958 0 2610302.1184062958 -1418222.7187509537 0 0 0 0 1028042.5729909688 4319575.2530984962 0 4319575.2530984962 3714355.5982111786 0 0 0 0 139559833.66969681 167189524.70301282 0 167189524.70301282 -118510338.98561168 0 0 0 0 98724.749656099826 2992714.044730084 0 2992714.044730084 6943714.7079378124 0 0 0 0 -121244487.03990173 175266920.29289937 0 175266920.29289937 -20425093.592764378 0 0 0 0 92362736.147720337 -27151077.536722004 0 -27151077.536722004 -50242820.033125877 0 0 0 0 6073651.7025669571 1304335.9073637538 0 1304335.9073637538 -171976.40541128255 0 0 0 0 4702623.9162765518 3763279.4230661783 0 3763279.4230661783 3219360.6742548654 0 0 0 0 4306024.6452007294 2291880.7938768864 0 2291880.7938768864 4733625.877248764 0 0 0 0 4281068.9281912223 2739454.7270634668 0 2739454.7270634668 3030755.7117688102 0 0 0 0 2297455.0645751953 2034335.3843336105 0 2034335.3843336105 1182661.3958343267 0 0 0 0 3978335.0905208588 2347117.3618462086 0 2347117.3618462086 1027834.4903969765 0 0 0 0 125157625.36631584 -28654904.654964507 0 -28654904.654964507 -23714910.962429523 0 0 0 0 143085096.63638306 -57618851.429569006 0 -57618851.429569006 -202710952.00869894 0 0 0 0 109985565.35052872 -139933974.562392 0 -139933974.562392 132663025.98631763 0 0 0 0 24909010.265777588 -37533367.677623034 0 -37533367.677623034 11498181.531049252 0 0 0 0 7937773.7808074951 -76229446.756220579 0 -76229446.756220579 2730888.1834267974 0 0 0 0 12769785.280323029 -61906919.388363481 0 -61906919.388363481 -81930182.063589096 0 0 0 0 -19463792.964229584 -40667609.190909386 0 -40667609.190909386 -16141935.336046219 0 0 0 0 -3019211.6472015381 -59774460.423792839 0 -59774460.423792839 -21327275.507603884 0 0 0 0 519328.02824783325 -68454911.35120213 0 -68454911.35120213 20748732.396227837 0 0 0 0 14509967.62947474 -12364974.764252927 0 -12364974.764252927 278121.6544394074 0 0 0 0 -37980085.32383728 -53939606.568332195 0 -53939606.568332195 1870363.4096240997 0 0 0 0 -33610289.084144115 -25011122.866247445 0 -25011122.866247445 -1516235.6473522186 0 0 0 0 304104.72013759613 -17893997.305314422 0 -17893997.305314422 -5391393.411901474 0 0 0 0 17548310.266894661 -10751423.96449412 0 -10751423.96449412 -2913671.4455180429 0 0 0 0 4796422.8835487366 -12528754.971856117 0 -12528754.971856117 -4854372.1964857876 0 0 0 0 -352948.64447975159 -18583178.70714879 0 -18583178.70714879 -6844067.7757701874 0 0 0 0 2529743.8640527725 -15519592.239397883 0 -15519592.239397883 2922333.6278982162 0 0 0 0 10340769.353607051 -13852109.815891158 0 -13852109.815891158 -3256251.1720753945 0 0 0 0 25059530.477680206 -2355890.8950858116 0 -2355890.8950858116 -13232291.148341358 0 0 0 0 -19452197.588428497 -47573259.151623487 0 -47573259.151623487 5197222.6212821007 0 0 0 0 27007228.411148675 -11125211.011420906 0 -11125211.011420906 -5441381.8715941291 0 0 0 0 1108281.7543343604 -13874045.483061155 0 -13874045.483061155 -2428813.3260918395 0 0 0 0 178161.24903550744 -2634349.6606604769 0 -2634349.6606604769 -553291.41136658622 0 0 0 0 3294839.6069335938 -20888978.154167384 0 -20888978.154167384 -5074050.4615299702 0 0 0 0 18787438.738975525 -69518131.510273635 0 -69518131.510273635 -16506755.193401068 0 0 0 0 130592877.77560425 -53023300.528604768 0 -53023300.528604768 -26990556.869421564 0 0 0 0 79446800.125988007 -49278933.278873287 0 -49278933.278873287 -16228607.402199864 0 0 0 0 87051794.320398331 -52875606.550638378 0 -52875606.550638378 -16500713.735185385 0 0 0 0 64562426.495346069 -85491202.777121067 0 -85491202.777121067 60055693.731765747 0 0 0 0 74147801.098144531 -45071808.885513455 0 -45071808.885513455 -32657439.227212548 0 0 0 0 24309405.895858765 -63033728.21224165 0 -63033728.21224165 -38848181.946300507 0 0 0 0 80420198.270843506 -59402303.956369162 0 -59402303.956369162 -64724414.236768246 0 0 0 0 86469020.567495346 -32888155.106465995 0 -32888155.106465995 -52556321.930627823 0 0 0 0 160955778.32563782 49749617.336069345 0 49749617.336069345 -14418688.290184975 0 0 0 0 7506398.5063809119 1443852.6438198909 0 1443852.6438198909 261071.71934844647 0 0 0 0 92758624.841390133 -45357218.563332632 0 -45357218.563332632 -48162457.335003376 0 0 0 0 92658041.03276062 -44289895.029599071 0 -44289895.029599071 -52909251.418720603 0 0 0 0 96707895.169387817 -50482278.781702071 0 -50482278.781702071 -45402304.760748386 0 0 0 0 64484958.535711288 -28625775.617388368 0 -28625775.617388368 -30978955.675063372 0 0 0 0 89633468.915962219 -42068320.999184847 0 -42068320.999184847 -39360804.167868853 0 0 0 0 91088099.640716553 -41863807.609679431 0 -41863807.609679431 -49217603.480778456 0 0 0 0 111979125.19168091 -56355816.172892347 0 -56355816.172892347 -35129406.98956427 0 0 0 0 17004465.488586426 4915323.3711555004 0 4915323.3711555004 -14269610.195156097 0 0 0 0 31730501.537323508 -9749128.4621393643 0 -9749128.4621393643 -6883753.3411693238 0 0 0 0 19154098.291994154 -12134510.593722587 0 -12134510.593722587 -2616013.3567168443 0 0 0 0 42696472.901920617 -7403164.0376696214 0 -7403164.0376696214 -9436505.8366838135 0 0 0 0 12058374.031654358 -22917257.679299831 0 -22917257.679299831 -17774101.676905632 0 0 0 0 101591156.62409401 -185827756.17036343 0 -185827756.17036343 -67237631.200276256 0 0 0 0 416546082.78131294 195132492.53473711 0 195132492.53473711 54392625.535719395 0 0 0 0 -122688082.85557938 -7117073.3294768333 0 -7117073.3294768333 -101846953.9017452 0 0 0 0 179304409.61978531 211166190.17188406 0 211166190.17188406 -41269556.663619041 0 0 0 0 -106641686.7012825 54063813.226712227 0 54063813.226712227 128578555.96557665 0 0 0 0 13727416.236240387 -29624246.84206295 0 -29624246.84206295 -16639738.824040592 0 0 0 0 200155990.8531208 -61194756.758941174 0 -61194756.758941174 -99504238.304068565 0 0 0 0 24601927.458457977 -6508938.6848039739 0 -6508938.6848039739 -6183530.649482673 0 0 0 0 862244.50831670687 1980382.7694572755 0 1980382.7694572755 -16970.478554880712 0 0 0 0 18024673.6984272 86038097.922154427 0 86038097.922154427 18093327.795771845 0 0 0 0 26439667.023141861 35246145.073159695 0 35246145.073159695 83537151.376722336 0 0 0 0 66879276.471420288 10623182.367908478 0 10623182.367908478 -10556473.343662262 0 0 0 0 3635628.878605172 5260051.2991459854 0 5260051.2991459854 -50119.834122769535 0 0 0 0 -23322128.306390285 -12494271.924752653 0 -12494271.924752653 -87452003.663302422 0 0 0 0 -36660780.739652634 -170533834.36094999 0 -170533834.36094999 -175766343.62480402 0 0 0 0 9015946.6317569818 1547032.8358525317 0 1547032.8358525317 -3401900.8517193906 0 0 0 0 239512423.90911579 62010312.899556279 0 62010312.899556279 11980832.09667778 0 0 0 0 283106544.61636734 53411031.672524363 0 53411031.672524363 39818505.292754441 0 0 0 0 65921594.304187775 85866699.196371496 0 85866699.196371496 69602908.416922092 0 0 0 0 131897729.72199392 -95348128.920876205 0 -95348128.920876205 -101084407.11415434 0 0 0 0 145934372.43270874 101283791.56179488 0 101283791.56179488 254982102.24042273 0 0 0 0 453385175.22096252 262115420.19770324 0 262115420.19770324 196049478.93685254 0 0 0 0 238623077.41105366 79948499.119308174 0 79948499.119308174 156895428.77873999 0 0 0 0 192660179.35138822 -30577337.399131119 0 -30577337.399131119 64526139.402226448 0 0 0 0 218180188.34875107 -156256509.92908025 0 -156256509.92908025 -189726441.89970016 0 0 0 0 20157095.357255936 1660334.9042084217 0 1660334.9042084217 71711997.501959562 0 0 0 0 -116172702.14672863 -325290935.41084021 0 -325290935.41084021 -136903332.70713806 0 0 0 0 3414261.6454838067 376019.14675146248 0 376019.14675146248 -1608526.8883806439 0 0 0 0 94765597.7345047 -16783249.379982471 0 -16783249.379982471 -112908950.08035171 0 0 0 0 250540900.49644899 -154366564.95667148 0 -154366564.95667148 -39930529.197616577 0 0 0 0 -170229282.41670799 -23485340.848071337 0 -23485340.848071337 22856768.275724888 0 0 0 0 -6012346.8964719772 -6633857.1933389902 0 -6633857.1933389902 -19272276.061515808 0 0 0 0 32259241.099730492 -84065963.456076384 0 -84065963.456076384 81545997.552018642 0 0 0 0 108183631.92317009 -33807443.132761478 0 -33807443.132761478 -13721008.133044422 0 0 0 0 193108686.34860039 -132571638.24550557 0 -132571638.24550557 66034960.479765415 0 0 0 0 57354703.23188591 -55866541.698367357 0 -55866541.698367357 169017586.6248033 0 0 0 0 1528940.5629943861 -363919.86001711618 0 -363919.86001711618 -443226.94807926507 0 0 0 0 72749019.505078316 78491231.863966152 0 78491231.863966152 80911245.054298878 0 0 0 0 -37512187.950904846 30761756.55228591 0 30761756.55228591 46209447.329272926 0 0 0 0 65624338.730466843 24221414.765908621 0 24221414.765908621 -4249411.1445490681 0 0 0 0 -17233612.268774986 -32338893.668130457 0 -32338893.668130457 26176781.935282707 0 0 0 0 17225842.250400543 17810012.812081456 0 17810012.812081456 33806540.423817158 0 0 0 0 -53745770.469581604 -8770471.4165587425 0 -8770471.4165587425 29015964.965665698 0 0 0 0 -133095025.15083027 -64520584.867418528 0 -64520584.867418528 8805620.497989893 0 0 0 0 -60881481.978769302 31815651.16604799 0 31815651.16604799 20560252.721718892 0 0 0 0 -29290457.51091361 -4039164.2979667634 0 -4039164.2979667634 -47866115.899612427 0 0 0 0 -87039677.527378082 -65344638.730559081 0 -65344638.730559081 -17304945.693360642 0 0 0 0 1388763.4987226333 -1721366.4437051765 0 -1721366.4437051765 -889882.49045598798 0 0 0 0 15114931.380527496 1820255.00563097 0 1820255.00563097 -1490306.6474432945 0 0 0 0 27857932.422968883 -5762092.0707112625 0 -5762092.0707112625 248940.68348883046 0 0 0 0 23199115.87194407 1252639.7027396043 0 1252639.7027396043 -3754661.5546270427 0 0 0 0 20616510.485186718 4570730.269195484 0 4570730.269195484 -2003654.2778529897 0 0 0 0 -140199708.94677639 -44243118.851522207 0 -44243118.851522207 29905530.013273239 0 0 0 0 -182146501.71026421 -7364099.5222655535 0 -7364099.5222655535 -2431400.9236674309 0 0 0 0 7386817.299747467 -5801700.511348635 0 -5801700.511348635 -7350192.9253501296 0 0 0 0 -112252840.42265701 -62022544.208542109 0 -62022544.208542109 50452266.236881018 0 0 0 0 -117363041.12717342 -38820769.902869821 0 -38820769.902869821 -30803830.30737114 0 0 0 0 10001469.933700562 -1079795.0461502075 0 -1079795.0461502075 -3042575.6943664551 0 0 0 0 -195561564.32280827 -126746969.10885668 0 -126746969.10885668 -5405035.1671552658 0 0 0 0 29099539.808023829 -6742543.5689616641 0 -6742543.5689616641 -1721295.3194003017 0 0 0 0 34044206.757612713 -8843667.534972148 0 -8843667.534972148 -8673784.9390285537 0 0 0 0 58594707.400299072 -34614478.343851805 0 -34614478.343851805 -23973771.586032867 0 0 0 0 30868412.691772029 2130193.0642897151 0 2130193.0642897151 -1877047.8822952881 0 0 0 0 72581078.52646637 341592093.58477712 0 341592093.58477712 380883517.09376907 0 0 0 0 18402488.297544479 329269819.28680992 0 329269819.28680992 486589716.43750763 0 0 0 0 274316099.42411041 850693408.88716519 0 850693408.88716519 1244299322.6504297 0 0 0 0 1409540941.6594772 284370214.95141315 0 284370214.95141315 405504759.14224863 0 0 0 0 -131466829.05075836 -36061982.741815567 0 -36061982.741815567 559254205.56954765 0 0 0 0 -187427.72490936983 572439.67079307884 0 572439.67079307884 4597598.0751327947 0 0 0 0 1571945075.538166 290754708.52055192 0 290754708.52055192 58238638.932185173 0 0 0 0 -259848.27268907428 868598.87553415634 0 868598.87553415634 189861.53223886807 0 0 0 0 5754063.2684431374 7750521.2940224642 0 7750521.2940224642 -523983.8814360539 0 0 0 0 5501652.313205719 1126733.9672429562 0 1126733.9672429562 -3558063.8226680756 0 0 0 0 160380381.52045631 -12626276.295058489 0 -12626276.295058489 -186125092.28704548 0 0 0 0 129978228.67162132 112212883.93749213 0 112212883.93749213 -122072113.74192059 0 0 0 0 10528039.773833174 6449603.7653825432 0 6449603.7653825432 -1874017.0333118339 0 0 0 0 10745903.323036194 -4508594.9717702866 0 -4508594.9717702866 -15454410.966700554 0 0 0 0 13963243.534421552 5429241.0835672263 0 5429241.0835672263 -3025561.803756915 0 0 0 0 57020745.729251862 12061042.707125187 0 12061042.707125187 -8535026.0885539055 0 0 0 0 103225175.60925674 -54937634.472361565 0 -54937634.472361565 -230738490.14439428 0 0 0 0 16773942.175827026 13650590.031087399 0 13650590.031087399 -8687147.4441776276 0 0 0 0 10819894.584960938 14693535.495500088 0 14693535.495500088 -8317968.3501229286 0 0 0 0 1686333.4949896447 118450.99340962805 0 118450.99340962805 -926417.07302023005 0 0 0 0 -1828285.6138687134 2175460.7133274078 0 2175460.7133274078 -4333290.2513394356 0 0 0 0 602637.90046691895 -52361913.083827019 0 -52361913.083827019 -25797224.097233295 0 0 0 0 141331043.37478638 139800963.18659782 0 139800963.18659782 45415308.570367098 0 0 0 0 126392325.30018806 -40116290.701719046 0 -40116290.701719046 -100115560.92280722 0 0 0 0 1572343.3448824883 96474296.83412075 0 96474296.83412075 103762404.36547041 0 0 0 0 314821146.49525833 423936690.16595221 0 423936690.16595221 273404482.06597394 0 0 0 0 234086303.40539551 266504273.64940974 0 266504273.64940974 234171669.10163632 0 0 0 0 226836419.17254329 85875590.765012652 0 85875590.765012652 78181565.434895992 0 0 0 0 521812662.02659798 97979375.791681051 0 97979375.791681051 329005758.22555244 0 0 0 0 741617284.33240032 632752194.91849339 0 632752194.91849339 225412383.80844152 0 0 0 0 200607838.77453995 726800278.35843861 0 726800278.35843861 492694689.92046404 0 0 0 0 273458137.33840561 675366908.68599916 0 675366908.68599916 507430442.64469624 0 0 0 0 206062949.24777794 513488745.52417403 0 513488745.52417403 200126366.79461801 0 0 0 0 559434348.22743416 582373359.88578582 0 582373359.88578582 217495783.52041996 0 0 0 0 393582809.84211731 508333879.10364801 0 508333879.10364801 360926379.66989076 0 0 0 0 357081799.62236881 133907651.34188145 0 133907651.34188145 -390572825.50382304 0 0 0 0 -101450610.06311226 262630501.65968478 0 262630501.65968478 192689572.46848682 0 0 0 0 8240336.7110220827 3050791.2617630633 0 3050791.2617630633 1045382.8056619822 0 0 0 0 -58424603.430634499 -24225054.188291907 0 -24225054.188291907 25123154.751485825 0 0 0 0 58530781.012935638 328124432.56435871 0 328124432.56435871 -472499931.05696869 0 0 0 0 -8693383.8527393341 -74808152.407936096 0 -74808152.407936096 -96939995.720714808 0 0 0 0 17411116.367110744 25501.036892722594 0 25501.036892722594 -1648625.3559819411 0 0 0 0 44565193.176643372 84344225.337979317 0 84344225.337979317 -394697200.62436783 0 0 0 0 324874737.0500021 91080391.882811189 0 91080391.882811189 -118689326.64691973 0 0 0 0 -75550493.513684273 -93421393.501217961 0 -93421393.501217961 81201749.41173625 0 0 0 0 -26681390.222298622 28797900.055152714 0 28797900.055152714 95619075.113433838 0 0 0 0 384900690.25855064 -88756182.963158488 0 -88756182.963158488 44349448.119092226 0 0 0 0 2680280.4028173499 2419266.9542945749 0 2419266.9542945749 1158787.8237592964 0 0 0 0 889390877.71418381 453569359.76334268 0 453569359.76334268 112867122.36021113 0 0 0 0 472828821.64077377 571979447.69723356 0 571979447.69723356 588875555.72957981 0 0 0 0 371030985.17381287 369799569.30695689 0 369799569.30695689 187388591.7073884 0 0 0 0 714924731.4689579 529073424.42653155 0 529073424.42653155 245443680.94775021 0 0 0 0 392210831.31362438 556482325.15343738 0 556482325.15343738 439556566.58074951 0 0 0 0 197668521.43638611 108887726.6568799 0 108887726.6568799 59388831.357967883 0 0 0 0 13170022.027682181 -63892.416764663532 0 -63892.416764663532 -1214949.2272757203 0 0 0 0 194836054.67616177 -53834481.658731461 0 -53834481.658731461 -618727604.1119504 0 0 0 0 5301139.7251627557 194412.34647172759 0 194412.34647172759 -447503.03241695755 0 0 0 0 -14158803.080059052 -343048160.21717751 0 -343048160.21717751 -249684491.67833471 0 0 0 0 723203714.65843201 795369370.55312634 0 795369370.55312634 609288878.49145961 0 0 0 0 406433004.48420525 -321570177.99521774 0 -321570177.99521774 -298015069.19588399 0 0 0 0 203158066.14648247 -110030514.8309629 0 -110030514.8309629 -341845753.70826328 0 0 0 0 57479768.239273548 37034683.489674419 0 37034683.489674419 -248262771.26099598 0 0 0 0 15805315.910694122 -43483766.290460169 0 -43483766.290460169 -344710757.35618734 0 0 0 0 75792645.625379443 44272322.683711812 0 44272322.683711812 -445406845.87037468 0 0 0 0 32783404.227836609 -71176757.434442699 0 -71176757.434442699 -349881070.22160482 0 0 0 0 2616824.988484255 45248.605785542168 0 45248.605785542168 85431.059971275739 0 0 0 0 4170522.5676081926 -9512000.0788632575 0 -9512000.0788632575 -20484429.492941856 0 0 0 0 -53615429.727891445 -14073689.879000023 0 -14073689.879000023 31456249.45371145 0 0 0 0 5108274.7507422268 40755478.680533066 0 40755478.680533066 36000296.70801495 0 0 0 0 19629174.469135683 506975.82154978719 0 506975.82154978719 1232886.7029115807 0 0 0 0 -20995546.325971603 -266752.0491067986 0 -266752.0491067986 27757251.359276097 0 0 0 0 5104295.1910514832 -63330274.97374332 0 -63330274.97374332 -27010346.566871643 0 0 0 0 -4381079.0925383568 42608393.227964401 0 42608393.227964401 272807533.48832583 0 0 0 0 796909183.78100014 -9948642.6833792925 0 -9948642.6833792925 207952144.6121068 0 0 0 0 279209311.37229395 32784938.593897223 0 32784938.593897223 271338408.60352993 0 0 0 0 127641933.70313549 -153989599.72543114 0 -153989599.72543114 -4902374.6911138296 0 0 0 0 228474163.60328674 155734951.67191046 0 155734951.67191046 -3260204.1255973577 0 0 0 0 593887546.04120445 247378401.45332575 0 247378401.45332575 89469241.787026286 0 0 0 0 290037252.44906521 75648651.027370811 0 75648651.027370811 60350207.110761046 0 0 0 0 1149744927.4793644 462009869.78501844 0 462009869.78501844 191124669.63506758 0 0 0 0 525091916.22933149 273951239.33141416 0 273951239.33141416 150262836.45932221 0 0 0 0 572641485.80831647 493846624.94381285 0 493846624.94381285 259255442.25276756 0 0 0 0 817897410.56626379 17374184.937562585 0 17374184.937562585 -180369978.90623045 0 0 0 0 315397550.54003811 230889662.33274305 0 230889662.33274305 -5470242.8987627029 0 0 0 0 297769453.99184704 398160651.0961473 0 398160651.0961473 71709235.555045724 0 0 0 0 267796512.88353825 159759977.99937224 0 159759977.99937224 546167403.62782454 0 0 0 0 298523237.73016071 186662373.03963137 0 186662373.03963137 87933312.550535202 0 0 0 0 157798006.13649273 225618702.22681773 0 225618702.22681773 217081770.6124723 0 0 0 0 146491025.81581342 162235773.91925216 0 162235773.91925216 44831453.632668972 0 0 0 0 354367824.27386284 240781995.96204996 0 240781995.96204996 -25885782.90323925 0 0 0 0 139343944.17354584 172852830.68054879 0 172852830.68054879 63714205.487342119 0 0 0 0 167410790.45116246 75225392.292786866 0 75225392.292786866 3321388.0278418064 0 0 0 0 81564480.283667088 56760277.089571238 0 56760277.089571238 23450680.704456806 0 0 0 0 -32095168.787445664 -13530520.869826436 0 -13530520.869826436 47405737.818453074 0 0 0 0 15051599.175899506 144596312.26012182 0 144596312.26012182 195265485.96282506 0 0 0 0 2403770.8664083648 1979015.6346001006 0 1979015.6346001006 1653785.9546485627 0 0 0 0 3741484.2204162939 927793.10562320496 0 927793.10562320496 -1600466.2719272124 0 0 0 0 6572192.6158401882 7210920.8150517959 0 7210920.8150517959 10539072.326818524 0 0 0 0 37850591.014630795 15758840.160559654 0 15758840.160559654 60796805.48106575 0 0 0 0 27459383.208065033 -1879573.6327064037 0 -1879573.6327064037 -1265801.5060958862 0 0 0 0 401980101.45337653 -16328697.931819126 0 -16328697.931819126 82472812.487240791 0 0 0 0 66460372.048173428 -79252842.229671001 0 -79252842.229671001 -238259636.92331982 0 0 0 0 1524578.9711572984 -2551415.2878717189 0 -2551415.2878717189 -3247902.2430947698 0 0 0 0 1109018221.9573574 -71731027.008661628 0 -71731027.008661628 -167770979.01711702 0 0 0 0 1010806535.3136692 57081486.426185489 0 57081486.426185489 -214032911.25260067 0 0 0 0 444783409.80360413 -536108299.02491093 0 -536108299.02491093 760766712.59257889 0 0 0 0 531968962.1232872 -48362779.319146469 0 -48362779.319146469 -93409455.566815376 0 0 0 0 3972343.52891444 -588596.14949718909 0 -588596.14949718909 -6233810.699080376 0 0 0 0 334137191.05553532 -10360879.410002172 0 -10360879.410002172 -94065981.64424324 0 0 0 0 314416845.11723161 181732609.47055721 0 181732609.47055721 -110941293.3433466 0 0 0 0 508088336.81524515 157726227.77122688 0 157726227.77122688 -120634075.4487009 0 0 0 0 620261966.58938408 143760938.53331661 0 143760938.53331661 -160396773.50179815 0 0 0 0 485153788.26882458 406190991.58668923 0 406190991.58668923 -178715099.42872906 0 0 0 0 320574618.75013018 309905304.25714785 0 309905304.25714785 -87351365.487710714 0 0 0 0 309745283.94026875 330845752.63093936 0 330845752.63093936 -90375941.269557953 0 0 0 0 4378137.6552018346 51521.950005721767 0 51521.950005721767 -559499.16479489626 0 0 0 0 958545083.44216919 -321355929.21042466 0 -321355929.21042466 -483410161.40140194 0 0 0 0 433460214.85616493 438122743.63950586 0 438122743.63950586 -247684853.64201701 0 0 0 0 808843562.42199326 303197082.25104594 0 303197082.25104594 -219903994.86351776 0 0 0 0 66571854.520690918 425943119.12294781 0 425943119.12294781 -64207444.841295481 0 0 0 0 -24749633.58716166 -18036725.160617977 0 -18036725.160617977 -280380860.21912742 0 0 0 0 284290791.34851778 -176568891.91170269 0 -176568891.91170269 -245820929.66942644 0 0 0 0 433917868.37100506 280979906.11683202 0 280979906.11683202 -113571490.88033855 0 0 0 0 261032017.89042139 -16198725.989594012 0 -16198725.989594012 -597538889.67284751 0 0 0 0 7778512.4990465883 590613.12985404069 0 590613.12985404069 -905083.75466704019 0 0 0 0 213632435.9073236 336160887.41292125 0 336160887.41292125 -588037855.6159631 0 0 0 0 70784983.020799637 35768257.269584171 0 35768257.269584171 -187519907.26773214 0 0 0 0 -27343139.603452682 273514219.75083768 0 273514219.75083768 256254147.62905499 0 0 0 0 249295604.62736177 59250268.706439078 0 59250268.706439078 298530867.94936347 0 0 0 0 411592558.39609277 -119456976.75530218 0 -119456976.75530218 97905227.190665305 0 0 0 0 632937925.25596499 -115758016.1937312 0 -115758016.1937312 406715581.97516227 0 0 0 0 744675751.01996684 95254420.806515217 0 95254420.806515217 230728903.01339588 0 0 0 0 -213952261.04874718 135732729.34378791 0 135732729.34378791 27519863.534317315 0 0 0 0 544086283.39395142 -439327087.23841381 0 -439327087.23841381 -306148890.34425819 0 0 0 0 949382079.90317106 -165605513.96536139 0 -165605513.96536139 69661736.749618083 0 0 0 0 1007905804.0334756 -164008986.18047974 0 -164008986.18047974 -142857320.72494388 0 0 0 0 914344599.43555522 -481516404.47019547 0 -481516404.47019547 152179700.86681148 0 0 0 0 1650163.5114211442 1571866.5549361804 0 1571866.5549361804 3360529.2886169464 0 0 0 0 1610070700.0580676 -335091056.79025233 0 -335091056.79025233 171662775.18338585 0 0 0 0 947031321.88028336 -367349470.12686598 0 -367349470.12686598 -77860073.77270481 0 0 0 0 865459957.1171689 -498068837.4709869 0 -498068837.4709869 340282640.86731684 0 0 0 0 903083275.85224104 -309040805.1534757 0 -309040805.1534757 321858031.01763296 0 0 0 0 128238004.09032989 -178722535.83741254 0 -178722535.83741254 280640631.71149731 0 0 0 0 175011027.20052719 -415661702.67547727 0 -415661702.67547727 -255365346.98610237 0 0 0 0 859143.0127805064 -616144.14168202924 0 -616144.14168202924 1479040.6673767492 0 0 0 0 88284710.956660867 -166267006.96395504 0 -166267006.96395504 439276688.73020887 0 0 0 0 53853760.828374863 -78877731.027513027 0 -78877731.027513027 160019952.06346035 0 0 0 0 69071422.074373245 -153115887.38515139 0 -153115887.38515139 292294173.03427124 0 0 0 0 97789088.947921753 -122706350.70265388 0 -122706350.70265388 222497065.04910469 0 0 0 0 127077174.6518116 -167019147.45001221 0 -167019147.45001221 171512211.97402382 0 0 0 0 135752989.01426697 -116152005.39253139 0 -116152005.39253139 28690906.389493942 0 0 0 0 166989686.25292587 -157002873.80993176 0 -157002873.80993176 7040987.9029750824 0 0 0 0 138613382.71501827 -184561564.68294811 0 -184561564.68294811 73329415.306587219 0 0 0 0 4659003.6345489193 -2255683.3669198435 0 -2255683.3669198435 -3573551.1281835986 0 0 0 0 -88350547.663589716 143886286.1407671 0 143886286.1407671 137408504.51847649 0 0 0 0 14065695.770466447 11538061.832003355 0 11538061.832003355 -11506932.647426605 0 0 0 0 958804564.07260799 -212210229.694426 0 -212210229.694426 -298986714.10896331 0 0 0 0 4793366.2639575945 5347918.7239793641 0 5347918.7239793641 8222205.9881137963 0 0 0 0 266983660.94644642 319086801.26951838 0 319086801.26951838 -15613231.198845983 0 0 0 0 611561460.09766054 82341541.954471141 0 82341541.954471141 -137524513.46125051 0 0 0 0 201255535.73235178 150918803.41108474 0 150918803.41108474 292991647.83528215 0 0 0 0 180910952.35674644 59691739.014192641 0 59691739.014192641 -14443310.438143134 0 0 0 0 56668296.458381176 87118117.248826921 0 87118117.248826921 -14428067.90024209 0 0 0 0 269544163.33644533 29235510.982790709 0 29235510.982790709 -249663340.14071712 0 0 0 0 177093861.28492117 -71475469.944001943 0 -71475469.944001943 -176273113.50558317 0 0 0 0 237583550.96670628 -45928575.520481169 0 -45928575.520481169 -278979258.74568379 0 0 0 0 170284532.06722999 -280407445.42810929 0 -280407445.42810929 -162778852.98548627 0 0 0 0 142663634.30750847 -263739670.69131902 0 -263739670.69131902 -130642973.83008674 0 0 0 0 67483868.666288853 -60270279.028510422 0 -60270279.028510422 -307972946.63283873 0 0 0 0 402668906.15051937 -346643819.79740846 0 -346643819.79740846 -174262687.88711822 0 0 0 0 3440475.0807250626 343504.80266653775 0 343504.80266653775 -332191.15014820587 0 0 0 0 206794267.90548515 391558623.81527495 0 391558623.81527495 117099649.09711379 0 0 0 0 -57565022.354694724 180529767.63217378 0 180529767.63217378 216135069.47459185 0 0 0 0 45911234.835764647 231616360.88252741 0 231616360.88252741 236700720.6163913 0 0 0 0 524055976.64762306 71728721.054616481 0 71728721.054616481 86406813.346913472 0 0 0 0 295593678.93144774 -126488112.06784865 0 -126488112.06784865 236932944.44740236 0 0 0 0 204444854.26836896 -1100672.220340997 0 -1100672.220340997 81336623.394925237 0 0 0 0 113534241.57048798 111322259.1866371 0 111322259.1866371 -9054109.3961739466 0 0 0 0 307692781.49380636 -1044736.0122622252 0 -1044736.0122622252 4229606.8895124644 0 0 0 0 93766115.932105064 121252480.79533535 0 121252480.79533535 52566754.703409433 0 0 0 0 202134880.9317975 3038749.1692117751 0 3038749.1692117751 101673570.34490716 0 0 0 0 82793130.892318368 107945966.0422467 0 107945966.0422467 -4350622.2024828196 0 0 0 0 78635268.896546364 140595932.29439339 0 140595932.29439339 100773648.57250229 0 0 0 0 51244184.748318434 165666919.6572597 0 165666919.6572597 38927513.495859027 0 0 0 0 49433292.798183918 148824338.12510124 0 148824338.12510124 -161056802.76958513 0 0 0 0 3752735.4705219269 126326920.02739659 0 126326920.02739659 -6438255.5910127982 0 0 0 0 83896505.906560183 119937127.26141611 0 119937127.26141611 -171698785.32026446 0 0 0 0 202292564.3739748 243423053.30921632 0 243423053.30921632 8708683.8197124004 0 0 0 0 71692928.364583969 128793564.66496164 0 128793564.66496164 47845729.195029229 0 0 0 0 111205506.49591017 120880788.5128592 0 120880788.5128592 67347043.994172707 0 0 0 0 75441356.749907017 135777945.63769156 0 135777945.63769156 -110756069.816167 0 0 0 0 27449732.702760696 136397185.3913753 0 136397185.3913753 -1380499.9635410202 0 0 0 0 80344988.697950363 167660405.02213788 0 167660405.02213788 -1605410.0254578008 0 0 0 0 78658851.931306839 167178849.13732547 0 167178849.13732547 30922784.702180028 0 0 0 0 156566744.58077335 173238818.21715963 0 173238818.21715963 3876380.3523271084 0 0 0 0 188984056.15351343 81751889.014035612 0 81751889.014035612 -56093787.763265848 0 0 0 0 111953768.1329155 173400774.00011498 0 173400774.00011498 23448564.779106855 0 0 0 0 88463484.427955627 140470761.80788749 0 140470761.80788749 -16957887.712334096 0 0 0 0 -20393559.146940231 143832660.55403304 0 143832660.55403304 53763.222828745842 0 0 0 0 32456586.420383453 -6196091.2587298751 0 -6196091.2587298751 -103207267.1492334 0 0 0 0 490309134.80879879 -193423492.92190599 0 -193423492.92190599 -120356495.41177809 0 0 0 0 500233635.18398309 -182695024.51661891 0 -182695024.51661891 -233444284.95713961 0 0 0 0 375580691.7067976 -130404048.55215198 0 -130404048.55215198 -154617050.26738375 0 0 0 0 606382376.87170386 -129669437.84048158 0 -129669437.84048158 -335624259.53782749 0 0 0 0 565828454.98868728 -18872597.029258281 0 -18872597.029258281 -215981243.437392 0 0 0 0 197920765.34429741 91134489.58563149 0 91134489.58563149 -58730030.347858787 0 0 0 0 203080945.88062477 82063751.909259558 0 82063751.909259558 -58734016.329959273 0 0 0 0 211585084.17065382 91079901.783932209 0 91079901.783932209 -61687340.550745964 0 0 0 0 2085426725.7944751 278460278.19365257 0 278460278.19365257 54912493.559604406 0 0 0 0 699370865.61259842 22833816.365837753 0 22833816.365837753 -84187040.068529606 0 0 0 0 249151566.65544224 -155624687.33210099 0 -155624687.33210099 -138810754.57716733 0 0 0 0 585659683.62659931 -244481114.66342694 0 -244481114.66342694 -197444447.16826412 0 0 0 0 616653459.12438202 -193939892.49061 0 -193939892.49061 -245748875.6299766 0 0 0 0 598626841.12962914 -193026472.98515368 0 -193026472.98515368 -346185369.98426569 0 0 0 0 612094609.59640145 -271757250.68686604 0 -271757250.68686604 -407897692.04443967 0 0 0 0 2783712619.2240744 323078416.85549581 0 323078416.85549581 32276541.531219684 0 0 0 0 -126364690.54162455 -581908577.0508821 0 -581908577.0508821 -163219035.51820451 0 0 0 0 2205941355.3040724 -701860647.49257886 0 -701860647.49257886 -174286454.78407535 0 0 0 0 2500739.2761108316 -1359027.7285654293 0 -1359027.7285654293 -508227.27742676623 0 0 0 0 598323030.85056877 -766713939.744699 0 -766713939.744699 -573065163.59699237 0 0 0 0 1672672370.7321062 -471568758.4502722 0 -471568758.4502722 -494255333.7849437 0 0 0 0 1891494587.7396622 -373327252.71369207 0 -373327252.71369207 -500723519.7267971 0 0 0 0 1543098201.4521437 -664843887.6000036 0 -664843887.6000036 -580084385.97155714 0 0 0 0 1649505720.30476 -223006317.42368987 0 -223006317.42368987 -385649450.66400766 0 0 0 0 901497050.13838768 -207236374.91975003 0 -207236374.91975003 -385445000.55352342 0 0 0 0 842273535.41094148 -254441324.48954332 0 -254441324.48954332 -416929479.25315273 0 0 0 0 808426367.78058243 -26515739.451198101 0 -26515739.451198101 -283231411.03010237 0 0 0 0 1067753860.532393 12901766.524524063 0 12901766.524524063 -232990378.81627345 0 0 0 0 1101644222.0183463 50638831.632759884 0 50638831.632759884 -268034842.26834899 0 0 0 0 1542208163.9398594 -50613889.809356928 0 -50613889.809356928 -271221774.51523954 0 0 0 0 2204352651.5130239 -126883911.94897938 0 -126883911.94897938 -569606029.35150015 0 0 0 0 441953739.08171749 138259010.07064396 0 138259010.07064396 -60787194.159529269 0 0 0 0 329326367.24034119 128906208.70043319 0 128906208.70043319 -37833671.660097778 0 0 0 0 448392734.17514277 142755257.61168543 0 142755257.61168543 -96464171.53838563 0 0 0 0 666188455.69062042 7776070.7596740723 0 7776070.7596740723 -228135297.7263563 0 0 0 0 664907445.35843182 5090645.8109477162 0 5090645.8109477162 -230721138.64262009 0 0 0 0 619375506.25720215 127498692.3566283 0 127498692.3566283 -97773256.90805313 0 0 0 0 628353381.03890133 200489082.51476923 0 200489082.51476923 -79632646.727753252 0 0 0 0 712561805.93554974 246226465.01778358 0 246226465.01778358 -90086552.28001976 0 0 0 0 628151402.65001678 225712432.32146794 0 225712432.32146794 -68600841.353650689 0 0 0 0 442062310.64374352 253647592.48838562 0 253647592.48838562 -61450742.089888096 0 0 0 0 274350675.52400398 345746649.28744483 0 345746649.28744483 139435188.14092785 0 0 0 0 406692141.30235195 737936792.30562258 0 737936792.30562258 319978516.0806579 0 0 0 0 3298061.0401073955 1232275.6236403058 0 1232275.6236403058 361763.38468230254 0 0 0 0 67456601.844787359 -8318436.362294253 0 -8318436.362294253 -34239066.946072429 0 0 0 0 114092534.10492325 129177631.18612742 0 129177631.18612742 -344801990.97936118 0 0 0 0 1745108056.9929876 77001225.037487537 0 77001225.037487537 -242150771.89443496 0 0 0 0 998693301.52566719 370794899.49685347 0 370794899.49685347 -179677030.78579193 0 0 0 0 1776109290.635088 386802587.52696759 0 386802587.52696759 -196016812.32301021 0 0 0 0 1605295514.567234 -8526524.4539556652 0 -8526524.4539556652 -223754734.11617953 0 0 0 0 2204165627.8121948 398333370.03060305 0 398333370.03060305 52415444.849578992 0 0 0 0 1812371040.475502 575655137.80594182 0 575655137.80594182 -27516403.508169349 0 0 0 0 1849611482.0745955 476993427.23769444 0 476993427.23769444 -118179132.2917922 0 0 0 0 1523782422.090456 886021956.94350123 0 886021956.94350123 311449339.75943196 0 0 0 0 4463169.3267944381 71428.395408957731 0 71428.395408957731 -282883.40708886931 0 0 0 0 2125437081.1695919 427232415.52333361 0 427232415.52333361 -168807594.53755289 0 0 0 0 2205502427.9674006 628177931.64166272 0 628177931.64166272 315870591.04221982 0 0 0 0 7974069.4932551701 1466553.8879704406 0 1466553.8879704406 -54563.118275006542 0 0 0 0 -36419795.142311096 10469805.282262161 0 10469805.282262161 15071860.234450649 0 0 0 0 -117974684.57457924 64116502.938673913 0 64116502.938673913 -10892942.928384546 0 0 0 0 837251793.86041641 -221037035.15340859 0 -221037035.15340859 8666259.7784087732 0 0 0 0 -169389214.54684973 8529283.3338771909 0 8529283.3338771909 247986385.74135455 0 0 0 0 270654011.97319603 320824488.50500518 0 320824488.50500518 173280790.35687923 0 0 0 0 110432960.80111504 -278337601.99492264 0 -278337601.99492264 107917470.41706075 0 0 0 0 -25747543.440132141 45283870.854084827 0 45283870.854084827 -71128753.224329323 0 0 0 0 -349605.85800170898 -103175326.29026993 0 -103175326.29026993 -139825344.08364695 0 0 0 0 -13709196.909591675 4187369.4931630194 0 4187369.4931630194 24855184.881767839 0 0 0 0 9114467.5166044012 -681232.34200332686 0 -681232.34200332686 -650460.34093865415 0 0 0 0 28998325.957608223 15063744.057439409 0 15063744.057439409 -41247883.400546998 0 0 0 0 9962326.6573925987 -746589.36001367494 0 -746589.36001367494 -1332062.3599526233 0 0 0 0 12099014.478408813 -127018439.57813287 0 -127018439.57813287 -301119018.0633533 0 0 0 0 1022748.5482726097 -24157221.145922184 0 -24157221.145922184 -26817534.510827065 0 0 0 0 53819353.934371948 -5890947.3895930648 0 -5890947.3895930648 -285031149.13872898 0 0 0 0 -1137223.98777771 -5047851.2281867564 0 -5047851.2281867564 -10743331.762507617 0 0 0 0 11890246.958335321 -2849233.569289438 0 -2849233.569289438 -2731086.3067626907 0 0 0 0 6296035.0527906418 -31114836.980502959 0 -31114836.980502959 -255066647.4587211 0 0 0 0 -99361070.863723755 -18929363.325706959 0 -18929363.325706959 -177451285.0158844 0 0 0 0 20810857.743859686 2014165.9309782777 0 2014165.9309782777 -6007543.4882815862 0 0 0 0 4218399.8551177979 -2814152.6888003349 0 -2814152.6888003349 -27047278.30381012 0 0 0 0 18465498.652183954 9955917.0525570586 0 9955917.0525570586 -6645194.2099436894 0 0 0 0 36071635.199691772 -186155610.89218903 0 -186155610.89218903 -306464053.06679106 0 0 0 0 -95217383.054441452 -107670267.80209184 0 -107670267.80209184 -271816382.32566166 0 0 0 0 -12975003.63117981 -88231182.642197132 0 -88231182.642197132 -293887127.87762833 0 0 0 0 -6234302.3132019043 -192925754.74847364 0 -192925754.74847364 -295272265.09826946 0 0 0 0 -82946422.998458862 -72960237.314005136 0 -72960237.314005136 -264292894.53029823 0 0 0 0 20973658.949005421 3511233.3241610005 0 3511233.3241610005 -4592778.4607199635 0 0 0 0 -60120257.473114014 -107132303.12085676 0 -107132303.12085676 -296735279.95000839 0 0 0 0 16198649.563201904 -118514980.1558094 0 -118514980.1558094 -271905537.05692196 0 0 0 0 41415773.325389862 -137765995.69319355 0 -137765995.69319355 -288561124.76597834 0 0 0 0 -4057917.4209632874 -167194282.98728418 0 -167194282.98728418 -252452841.30283976 0 0 0 0 98255575.772659302 -120899413.9499681 0 -120899413.9499681 -274617174.14199591 0 0 0 0 108011355.41925049 73645438.494498253 0 73645438.494498253 -529715613.77206713 0 0 0 0 105744922.01152802 -151126934.47631001 0 -151126934.47631001 -266087840.16055393 0 0 0 0 170931608.37136078 -12419757.898678303 0 -12419757.898678303 -537970189.03443432 0 0 0 0 14739665.267886363 -3395257.3579680603 0 -3395257.3579680603 -2635402.4027837785 0 0 0 0 56649715.050468445 -44867413.956253052 0 -44867413.956253052 -353138755.60695934 0 0 0 0 161914014.03414154 -71943163.718823552 0 -71943163.718823552 -397945764.25262499 0 0 0 0 67005223.973976135 20859551.057565689 0 20859551.057565689 -418374147.06654418 0 0 0 0 -111480541.37965393 22018198.422225952 0 22018198.422225952 -280115718.02640533 0 0 0 0 12575848.260681152 -36530462.595341206 0 -36530462.595341206 -331467702.74008465 0 0 0 0 -33578276.778366089 22116737.486557007 0 22116737.486557007 -384689073.91459084 0 0 0 0 -90761330.874328613 72073877.246604919 0 72073877.246604919 -347928389.76972055 0 0 0 0 76934418.352858543 -42430631.12787351 0 -42430631.12787351 -359058096.83219767 0 0 0 0 42596398.162162781 -123639034.3357172 0 -123639034.3357172 -418180736.46911192 0 0 0 0 90089808.231811523 -4852188.4702851772 0 -4852188.4702851772 -264342301.61591905 0 0 0 0 16291617.333438158 -32790387.710149318 0 -32790387.710149318 -30711755.169659376 0 0 0 0 -11516727.083559513 144724253.70644575 0 144724253.70644575 72613219.847424507 0 0 0 0 -4484483.5326461792 26995334.402171135 0 26995334.402171135 -10603765.832211137 0 0 0 0 88816479.212274551 16317562.53427124 0 16317562.53427124 -81344665.947440982 0 0 0 0 20948556.226115562 2486512.3967582849 0 2486512.3967582849 -2895322.7309533199 0 0 0 0 -11972387.358495712 15785985.176349759 0 15785985.176349759 -5270017.6404407024 0 0 0 0 18797333.833529182 -7553844.415809446 0 -7553844.415809446 -3240387.0281493133 0 0 0 0 10141463.76963664 7518463.3611477837 0 7518463.3611477837 -6043853.6693760389 0 0 0 0 15724295.512131691 -55572810.816163175 0 -55572810.816163175 -271946550.63291144 0 0 0 0 33722645.970170975 -36165844.10317497 0 -36165844.10317497 -272452077.32785606 0 0 0 0 39542225.046632767 -41820503.674741477 0 -41820503.674741477 -267735567.38614669 0 0 0 0 -19601876.459483385 -194717118.1323528 0 -194717118.1323528 -619430367.26495051 0 0 0 0 55000954.912518501 147608041.00985909 0 147608041.00985909 -496040185.95096952 0 0 0 0 2466074.2711185645 2144861.8117373595 0 2144861.8117373595 -1436790.6852564947 0 0 0 0 46932558.529354572 56977746.619113684 0 56977746.619113684 -384003585.5971427 0 0 0 0 -38286881.672481298 149780417.61635065 0 149780417.61635065 -314743974.12325835 0 0 0 0 -43983415.661902428 67232942.673510909 0 67232942.673510909 -174750026.58599854 0 0 0 0 62169547.298316479 80553605.207890362 0 80553605.207890362 -284139245.54902679 0 0 0 0 12195301.294509172 74191518.081983104 0 74191518.081983104 -162003737.62086153 0 0 0 0 70730219.783973455 61631797.74768436 0 61631797.74768436 -205316933.03349024 0 0 0 0 49207896.65188694 66883842.632951438 0 66883842.632951438 -106769546.89329673 0 0 0 0 54163210.182641029 106633364.90455247 0 106633364.90455247 -40355190.745014288 0 0 0 0 123107136.75422812 119732894.81664658 0 119732894.81664658 -108140465.634864 0 0 0 0 33226252.183935642 -12497361.203019835 0 -12497361.203019835 -178393027.59585404 0 0 0 0 61938647.252152443 -29868732.822422836 0 -29868732.822422836 -265100987.26246744 0 0 0 0 41517499.322104454 -4264919.7474011779 0 -4264919.7474011779 -174516727.86982861 0 0 0 0 56851796.280591011 -12574601.47838822 0 -12574601.47838822 -256849066.27954215 0 0 0 0 56416208.454070091 -79697622.377116144 0 -79697622.377116144 -770265754.38057566 0 0 0 0 -62214883.36991787 1143909.7307465076 0 1143909.7307465076 -302837804.07344872 0 0 0 0 6757861.5486968495 -3579310.3796846699 0 -3579310.3796846699 1196719.9724550738 0 0 0 0 -578601795.92356014 -319701457.21466303 0 -319701457.21466303 -328505596.91129327 0 0 0 0 -326874619.26799774 -842313011.25060081 0 -842313011.25060081 -691305483.55896974 0 0 0 0 136871847.76246643 -190713190.09124529 0 -190713190.09124529 -424450513.92668295 0 0 0 0 26186957.105718613 -148729874.94072914 0 -148729874.94072914 -302636371.7345438 0 0 0 0 -5653575.2786835432 -445808754.99319071 0 -445808754.99319071 -351111762.55486536 0 0 0 0 280689488.51100159 -395078859.98576069 0 -395078859.98576069 -592093819.60697937 0 0 0 0 282305503.84275246 -259759514.97887516 0 -259759514.97887516 -262771340.32596016 0 0 0 0 63168262.46889019 -252031076.58781195 0 -252031076.58781195 -139895457.38097668 0 0 0 0 179287154.9246273 -84378562.370508194 0 -84378562.370508194 -35634098.243476391 0 0 0 0 -275572.98782217503 -59910677.878428698 0 -59910677.878428698 108271994.69238806 0 0 0 0 119960756.33818436 -227716584.86440754 0 -227716584.86440754 -337166262.80775261 0 0 0 0 106441031.20442176 8523028.0177184492 0 8523028.0177184492 -69239700.415261179 0 0 0 0 581779443.8352952 96724488.84256959 0 96724488.84256959 -141417460.38722146 0 0 0 0 82751784.373314857 175834434.60531902 0 175834434.60531902 89889192.180035114 0 0 0 0 192117462.60746697 79294799.385923624 0 79294799.385923624 -317064194.27667165 0 0 0 0 263187007.80243039 233351314.32073465 0 233351314.32073465 -100463890.1957694 0 0 0 0 -422812.93002001452 2365945.2366161249 0 2365945.2366161249 1411486.7824420803 0 0 0 0 465813803.53920603 -81984752.385696679 0 -81984752.385696679 -436885450.7254107 0 0 0 0 81887869.356933117 -23511802.166085005 0 -23511802.166085005 -311559104.69972366 0 0 0 0 -197241953.23219657 -387816893.14009678 0 -387816893.14009678 -373194286.75997853 0 0 0 0 128693771.00115657 -24743362.59813039 0 -24743362.59813039 -329991647.08582801 0 0 0 0 21228181.728724241 -151186616.66458017 0 -151186616.66458017 -362911924.50706196 0 0 0 0 21087304.956034824 -10786675.428978149 0 -10786675.428978149 3587603.2116957796 0 0 0 0 3623939.8215263896 -1019985.8027367368 0 -1019985.8027367368 363611.75979647739 0 0 0 0 7376798.3345623016 216399029.08396566 0 216399029.08396566 13058420.015677575 0 0 0 0 668782350.36371231 -345940504.78073645 0 -345940504.78073645 16551569.662460327 0 0 0 0 17077639.002425678 -8790943.6080297306 0 -8790943.6080297306 2339947.7921455209 0 0 0 0 -66294934.738888741 -468145008.46738863 0 -468145008.46738863 -731314570.6596458 0 0 0 0 444134135.27445984 650151266.83186722 0 650151266.83186722 362539463.36370921 0 0 0 0 703857030.43173218 897026779.03083003 0 897026779.03083003 592089296.57647657 0 0 0 0 551428640.98664856 564879491.88699579 0 564879491.88699579 429483434.03745317 0 0 0 0 1304374125.9689484 626942878.97959495 0 626942878.97959495 424757238.32235909 0 0 0 0 274877050.73562622 222064317.81170535 0 222064317.81170535 182488147.14533564 0 0 0 0 235485754.07831573 180238965.69738817 0 180238965.69738817 187101577.15182492 0 0 0 0 -15790034.9458251 -31995862.383380204 0 -31995862.383380204 -32002598.308306217 0 0 0 0 255907057.51541901 121557374.0383091 0 121557374.0383091 120810106.01301718 0 0 0 0 -85995680.404475212 -100884575.88370728 0 -100884575.88370728 142480308.96273279 0 0 0 0 1381044.8512544073 500012.65099289082 0 500012.65099289082 -1543526.2133493312 0 0 0 0 -19264822.260147095 -617727.69297552109 0 -617727.69297552109 13079266.90379858 0 0 0 0 356178459.6660614 167395325.88265896 0 167395325.88265896 69963798.98974061 0 0 0 0 -199015949.96923828 222663286.91600358 0 222663286.91600358 -72045695.970252514 0 0 0 0 -194690244.86083794 170356187.58267039 0 170356187.58267039 147440158.69537765 0 0 0 0 304440541.5422743 -27368001.733464506 0 -27368001.733464506 183623766.44877946 0 0 0 0 323169335.22187424 315311428.59077078 0 315311428.59077078 82120837.124978483 0 0 0 0 471942365.73643494 419281656.53716028 0 419281656.53716028 244885296.66769528 0 0 0 0 636083994.83299637 207875266.85294157 0 207875266.85294157 -88124947.091659069 0 0 0 0 821501629.42377853 545604535.23070765 0 545604535.23070765 -225668455.00337577 0 0 0 0 6163289.3496866748 -930566.93963260204 0 -930566.93963260204 -2715617.5219869553 0 0 0 0 1028761308.507 667523519.57751179 0 667523519.57751179 12196657.16153869 0 0 0 0 25243792.188318931 26508882.859545685 0 26508882.859545685 10223158.587940991 0 0 0 0 27628142.953181267 9249126.1790589094 0 9249126.1790589094 34882624.070305347 0 0 0 0 17047031.948760033 34659396.840782344 0 34659396.840782344 -120589.61761713028 0 0 0 0 56065797.686389923 23748996.694935799 0 23748996.694935799 -5321956.4171118736 0 0 0 0 65693352.627155304 79522096.627414465 0 79522096.627414465 82996403.123507023 0 0 0 0 51959329.997058868 20070441.176615477 0 20070441.176615477 28876157.71788311 0 0 0 0 6928279.1886273855 1380334.1873802021 0 1380334.1873802021 451918.53487873264 0 0 0 0 98706768.522984505 12067269.215179682 0 12067269.215179682 -294579.68367743492 0 0 0 0 151416396.54193306 99406044.777773142 0 99406044.777773142 22786209.522601247 0 0 0 0 148812556.48234749 65436073.792102814 0 65436073.792102814 18310646.110761672 0 0 0 0 -114946572.62212849 112099598.86025369 0 112099598.86025369 28001433.853246689 0 0 0 0 24686939.979250468 28396283.50886602 0 28396283.50886602 11689569.401222875 0 0 0 0 -102587064.87195683 72528218.295000911 0 72528218.295000911 38700883.752164841 0 0 0 0 -94690224.830956459 106993930.79012632 0 106993930.79012632 52371389.438201904 0 0 0 0 -106330150.06364441 64817463.505852699 0 64817463.505852699 -21009561.538136482 0 0 0 0 22146627.169213504 5776911.7700302918 0 5776911.7700302918 1673539.617287667 0 0 0 0 646511355.43220139 -250762945.24144003 0 -250762945.24144003 -282158918.65333796 0 0 0 0 67059387.039205551 39687173.628534421 0 39687173.628534421 18122865.28263627 0 0 0 0 73412007.393339157 40903999.587202549 0 40903999.587202549 7363596.7305030823 0 0 0 0 25439227.371495858 31172354.071165245 0 31172354.071165245 9396876.2860215846 0 0 0 0 -8201565.8928985596 89066603.321254611 0 89066603.321254611 -206176557.94496673 0 0 0 0 142662391.45874405 338198605.55206376 0 338198605.55206376 105722745.70781398 0 0 0 0 22270336.880715229 6783806.5150506459 0 6783806.5150506459 -3180824.4417747539 0 0 0 0 -226467727.19417953 9970648.3752627373 0 9970648.3752627373 32560671.347703934 0 0 0 0 -158514412.40463257 96238301.899498463 0 96238301.899498463 34068149.580171585 0 0 0 0 3233578.9815597534 89991312.09679985 0 89991312.09679985 -2519734.5327014923 0 0 0 0 1313136530.9766426 1214492684.4410233 0 1214492684.4410233 340931530.38329232 0 0 0 0 169896832.93861389 -983015828.40650034 0 -983015828.40650034 -1145499278.9721775 0 0 0 0 2106795681.2485275 763975978.40771461 0 763975978.40771461 -210823820.96411097 0 0 0 0 2032695544.1197968 121683010.808173 0 121683010.808173 38868255.290727377 0 0 0 0 1149296313.8001404 159896380.85402143 0 159896380.85402143 294903926.80000865 0 0 0 0 2099061597.1411095 -775721540.86851323 0 -775721540.86851323 581142991.92143774 0 0 0 0 2651074175.8416901 -149104353.06842721 0 -149104353.06842721 -80348580.812652588 0 0 0 0 789658644.60035706 263986424.38868871 0 263986424.38868871 49170540.525263965 0 0 0 0 1714746395.8864517 825600860.80366385 0 825600860.80366385 -921438.08844721317 0 0 0 0 838195652.82370567 460070841.5203113 0 460070841.5203113 -27799685.397772431 0 0 0 0 -275087509.7246809 -271346433.80626321 0 -271346433.80626321 355262854.53438926 0 0 0 0 361294208.93250084 453995602.68340009 0 453995602.68340009 227645975.75784498 0 0 0 0 -85214210.204223633 -447777622.23901612 0 -447777622.23901612 17717292.04258287 0 0 0 0 2613181.6713040266 -598204.75575824548 0 -598204.75575824548 -771704.25919236382 0 0 0 0 829914065.16361618 209069715.89932644 0 209069715.89932644 65165004.06397742 0 0 0 0 -102494403.93513107 316176584.76033449 0 316176584.76033449 143650293.40183997 0 0 0 0 94823760.526420593 -120101651.361678 0 -120101651.361678 -318828512.95797187 0 0 0 0 198733563.58560181 -48692608.518324614 0 -48692608.518324614 255069315.03878558 0 0 0 0 324510681.96944046 -400621841.65018749 0 -400621841.65018749 196112422.42258275 0 0 0 0 483304052.1781044 -241164768.69814214 0 -241164768.69814214 200955501.30306816 0 0 0 0 485127612.30654144 -207216653.42078948 0 -207216653.42078948 682522868.56756234 0 0 0 0 10648310.65223439 6388752.5832429267 0 6388752.5832429267 -645800.60700028646 0 0 0 0 796042382.31868744 56641435.027482271 0 56641435.027482271 -224348500.70465112 0 0 0 0 -9438184.6885414124 62598211.548808336 0 62598211.548808336 -97650392.958034471 0 0 0 0 822305828.52006769 224050943.9906742 0 224050943.9906742 -118434660.36037254 0 0 0 0 123697008.6058197 -106328194.45757294 0 -106328194.45757294 -198505148.51404694 0 0 0 0 133273024.7370739 -207011105.40811795 0 -207011105.40811795 -126806798.64614034 0 0 0 0 902104558.31853485 -9677617.7935438156 0 -9677617.7935438156 -415330102.15019703 0 0 0 0 887994340.14003372 -234738680.10445189 0 -234738680.10445189 -570695980.27536964 0 0 0 0 880872444.11674213 -72893941.014283806 0 -72893941.014283806 -603167799.27469015 0 0 0 0 643023789.8449173 -418640301.45049 0 -418640301.45049 -696069438.34282875 0 0 0 0 1170442465.3955173 -78601849.067005515 0 -78601849.067005515 -921492291.13158131 0 0 0 0 739642428.65130615 -170037641.30457854 0 -170037641.30457854 1872218089.4993749 0 0 0 0 1596963270.1368828 764900889.824525 0 764900889.824525 284621272.80481434 0 0 0 0 935544022.29285431 455636412.64772773 0 455636412.64772773 327395569.19696832 0 0 0 0 300489609.69765091 -538808499.42753172 0 -538808499.42753172 -717443699.55067444 0 0 0 0 878975133.09742737 -463755482.25408649 0 -463755482.25408649 -1301238114.1471963 0 0 0 0 570714540.66251373 -260929741.8484621 0 -260929741.8484621 -462619115.24239731 0 0 0 0 251713227.26204681 -285317533.01397252 0 -285317533.01397252 -179891206.28216743 0 0 0 0 434257487.82881165 -372485572.21315861 0 -372485572.21315861 -443073608.48224509 0 0 0 0 563649994.150383 -165260587.64289284 0 -165260587.64289284 -177204859.41900635 0 0 0 0 392130381.42658186 -218544757.70234573 0 -218544757.70234573 -148389628.78004456 0 0 0 0 412571972.43092728 -279324557.08539391 0 -279324557.08539391 -224071940.35933924 0 0 0 0 308247634.46926069 -249394767.74665284 0 -249394767.74665284 -19400153.96247673 0 0 0 0 316590768.15877533 -210320683.49002266 0 -210320683.49002266 20005334.623569489 0 0 0 0 416047540.66806984 -178366411.86804438 0 -178366411.86804438 -97205360.979986191 0 0 0 0 526969905.50046539 -108383648.99559999 0 -108383648.99559999 -53705077.276492119 0 0 0 0 497836068.99241686 63158695.965032995 0 63158695.965032995 106040281.28557587 0 0 0 0 205164470.52077484 -38677596.40228653 0 -38677596.40228653 70605984.213040829 0 0 0 0 18143778.995697644 30536346.650833573 0 30536346.650833573 17516613.603244096 0 0 0 0 36404936.973363876 66300257.558968544 0 66300257.558968544 14816528.769260406 0 0 0 0 270663729.22333193 -193131730.5085001 0 -193131730.5085001 89240482.505706787 0 0 0 0 207098387.80356026 -126918180.9041729 0 -126918180.9041729 28727205.213068008 0 0 0 0 273659.79957199097 -13371614.227435112 0 -13371614.227435112 -11308298.713031232 0 0 0 0 6769912.5991091728 1691478.5191765502 0 1691478.5191765502 -1234305.1745473929 0 0 0 0 20033806.353164673 110803130.8096962 0 110803130.8096962 -16055197.180738449 0 0 0 0 109752890.39236832 25508803.828474522 0 25508803.828474522 1464474.7725064754 0 0 0 0 36803188.734991074 63015009.452459335 0 63015009.452459335 37031502.018974304 0 0 0 0 21238077.075389653 19684865.62317542 0 19684865.62317542 -15327898.177200686 0 0 0 0 125099862.01382065 58421673.365860939 0 58421673.365860939 -12027146.157043457 0 0 0 0 -484524835.45071125 63055006.862561703 0 63055006.862561703 134144359.40145302 0 0 0 0 -288133937.95425415 142533804.00009537 0 142533804.00009537 19558994.671489954 0 0 0 0 -280282835.47680664 -72152953.182577133 0 -72152953.182577133 65000406.743644714 0 0 0 0 -81442269.537796021 -158640633.66384983 0 -158640633.66384983 -52126330.486915588 0 0 0 0 53776341.125152588 -23304548.033979416 0 -23304548.033979416 -115403202.24536562 0 0 0 0 150181967.61630249 103749711.75799561 0 103749711.75799561 37678295.045043945 0 0 0 0 -117662284.00286102 82749892.79539299 0 82749892.79539299 31292045.327184677 0 0 0 0 102441628.79411888 122381163.00369644 0 122381163.00369644 80584380.391975403 0 0 0 0 13404893.192618817 13990178.548546985 0 13990178.548546985 -17452439.499731805 0 0 0 0 174468366.28281403 212171797.33399963 0 212171797.33399963 240510364.40659332 0 0 0 0 223183.87573834509 10933.671376368962 0 10933.671376368962 -647990.43136484921 0 0 0 0 -46013314.813684464 -39299645.524237156 0 -39299645.524237156 -24198919.317893982 0 0 0 0 -22684894.531242371 -69170888.612875462 0 -69170888.612875462 3226939.5432319641 0 0 0 0 -64296850.896951675 -66237613.244713783 0 -66237613.244713783 23499553.909030914 0 0 0 0 -51564217.16506958 -90290340.244465351 0 -90290340.244465351 61526859.191619873 0 0 0 0 64025951.581886292 66424855.689750671 0 66424855.689750671 91459030.136813641 0 0 0 0 80840078.209056377 47532915.721753597 0 47532915.721753597 17050947.004302979 0 0 0 0 23104118.821908951 62237272.523184776 0 62237272.523184776 64329180.685703278 0 0 0 0 24025444.431215286 23202295.981471062 0 23202295.981471062 8572062.9238872528 0 0 0 0 -21523459.314287186 25734904.734419823 0 25734904.734419823 47978931.381259918 0 0 0 0 15097902.549086809 18006979.15098381 0 18006979.15098381 43651555.917366028 0 0 0 0 27259535.565895557 74144626.489586353 0 74144626.489586353 102255811.54402924 0 0 0 0 36374311.978366852 104828592.84374237 0 104828592.84374237 83354194.852142334 0 0 0 0 -20562443.792293549 -2778627.0423030853 0 -2778627.0423030853 64506747.010852814 0 0 0 0 92243579.985134125 77372869.421562195 0 77372869.421562195 26065374.332759857 0 0 0 0 73193562.089729309 149137847.81004715 0 149137847.81004715 253968510.13058472 0 0 0 0 144070817.55847168 78496345.10018158 0 78496345.10018158 80566424.302921295 0 0 0 0 178336832.43788147 188834436.12485123 0 188834436.12485123 186642632.49501038 0 0 0 0 217064109.02379608 283955008.3621521 0 283955008.3621521 261010584.21003723 0 0 0 0 -990571.34571067244 842689.14508357458 0 842689.14508357458 1952022.0655588284 0 0 0 0 16064162.596462667 19922248.675866768 0 19922248.675866768 11383437.900549348 0 0 0 0 82669868.667040825 -29509094.018553734 0 -29509094.018553734 113480251.46115971 0 0 0 0 -4204099.4810733795 15694679.104183197 0 15694679.104183197 23425914.64973259 0 0 0 0 -27304969.726835251 35252460.991387844 0 35252460.991387844 33115499.579492569 0 0 0 0 5236564.7738553602 13929556.923015922 0 13929556.923015922 -574013.8450637646 0 0 0 0 -12800362.036268234 3523568.3877878189 0 3523568.3877878189 11404963.99932003 0 0 0 0 65095096.839881897 -20410267.557641983 0 -20410267.557641983 -68426656.86901474 0 0 0 0 2750620.5767703978 7083330.4242886854 0 7083330.4242886854 12515800.967550153 0 0 0 0 335936718.60149586 174905371.88752842 0 174905371.88752842 120747463.7304554 0 0 0 0 504180085.62798285 343752027.99933624 0 343752027.99933624 121324197.80809975 0 0 0 0 15854312.812090252 1726644.236209251 0 1726644.236209251 1647493.9681699574 0 0 0 0 472341105.24689269 54403112.391490936 0 54403112.391490936 20393197.169821739 0 0 0 0 1473488446.522439 137603514.96399403 0 137603514.96399403 318018684.91318607 0 0 0 0 1254416913.0622439 419603725.11286068 0 419603725.11286068 14239423.461850166 0 0 0 0 -35466.790336218895 2217852.4482507957 0 2217852.4482507957 2344550.1487895995 0 0 0 0 1346149659.3359261 709402164.19366717 0 709402164.19366717 279672027.38710213 0 0 0 0 840402686.86864567 -278085298.22933149 0 -278085298.22933149 1503900232.5152016 0 0 0 0 4806910.8443846749 -344015.24567912519 0 -344015.24567912519 1545184.6869964898 0 0 0 0 132053491.60564613 -511081688.7545886 0 -511081688.7545886 1059979498.8231745 0 0 0 0 130679604.70543957 -101548339.69742489 0 -101548339.69742489 141668072.77310467 0 0 0 0 118154025.5073595 -114655045.13199306 0 -114655045.13199306 128013389.13900948 0 0 0 0 170174201.23404598 -219586543.03854108 0 -219586543.03854108 294997979.99856377 0 0 0 0 371346487.62371254 -354067938.22506237 0 -354067938.22506237 114944437.65919256 0 0 0 0 456298917.37164307 -202168238.58547735 0 -202168238.58547735 -78618785.978164673 0 0 0 0 1230180259.4477148 -728196415.84279442 0 -728196415.84279442 -8254.1970691680908 0 0 0 0 1451672045.2996271 -195242210.28635073 0 -195242210.28635073 -441003688.35713387 0 0 0 0 830065372.84467375 205361156.30731428 0 205361156.30731428 -537296622.44613266 0 0 0 0 668385362.10002518 -349083466.13435793 0 -349083466.13435793 -76558324.415030241 0 0 0 0 326474755.56719971 197364640.25600529 0 197364640.25600529 40850119.919554949 0 0 0 0 437623095.45917726 252792481.10647964 0 252792481.10647964 -161054701.23707199 0 0 0 0 307675368.29425228 -104956196.84984228 0 -104956196.84984228 -75836052.782518387 0 0 0 0 280978497.78929901 -275913942.5467782 0 -275913942.5467782 -41042890.198975563 0 0 0 0 331169097.38992691 -184567394.99914932 0 -184567394.99914932 -71910971.196228981 0 0 0 0 106665315.64425707 -258447033.92852283 0 -258447033.92852283 -96216043.589687347 0 0 0 0 260001582.60599804 -129505140.77898884 0 -129505140.77898884 -70714305.805436134 0 0 0 0 403474071.69099867 501934121.50836903 0 501934121.50836903 369208919.43161249 0 0 0 0 -22367438.654934406 12638805.467791796 0 12638805.467791796 637113028.33837616 0 0 0 0 312809470.93276405 270471603.47837782 0 270471603.47837782 524004743.12324572 0 0 0 0 -608193.01035113947 4451138.2896823063 0 4451138.2896823063 3710256.5357730584 0 0 0 0 325910497.42524064 486927284.29360437 0 486927284.29360437 72290187.960507393 0 0 0 0 2794596.8415647792 1506742.2202638388 0 1506742.2202638388 1332018.4118917054 0 0 0 0 329119612.0679788 527977474.43122983 0 527977474.43122983 -275606711.97803307 0 0 0 0 -355546732.17495644 127284557.33129025 0 127284557.33129025 227522610.87533808 0 0 0 0 422686131.77843761 172750719.13478535 0 172750719.13478535 -384258091.95822144 0 0 0 0 987836591.13786221 514101146.30194581 0 514101146.30194581 127205554.04157829 0 0 0 0 424252468.57534921 121410692.61317682 0 121410692.61317682 -13331159.212260008 0 0 0 0 170313975.80742607 149094223.56542063 0 149094223.56542063 507266345.63545036 0 0 0 0 340165571.34651446 -35517057.232309341 0 -35517057.232309341 631687709.14718151 0 0 0 0 109393978.80683726 -56338985.908772945 0 -56338985.908772945 86530486.703496933 0 0 0 0 -141834386.67449191 71120040.747511387 0 71120040.747511387 226236272.60502625 0 0 0 0 3525868.025706768 13372075.403188109 0 13372075.403188109 43426410.585149288 0 0 0 0 -106803615.22915255 99854050.271371841 0 99854050.271371841 -117102526.04084778 0 0 0 0 5337705.058337843 2186915.2992338277 0 2186915.2992338277 4675976.6729679499 0 0 0 0 -400804973.87919724 442059187.17877817 0 442059187.17877817 -68847859.716392398 0 0 0 0 9361234.8752494156 -576373.82411467936 0 -576373.82411467936 5307512.3867047653 0 0 0 0 21538045.949111 50940.887827157974 0 50940.887827157974 -7980610.4604807496 0 0 0 0 63502032.067316055 87631291.521008015 0 87631291.521008015 105017411.29093671 0 0 0 0 224317785.44781113 166535544.10561943 0 166535544.10561943 140097058.54008603 0 0 0 0 14560873.561949696 -6218388.9736846788 0 -6218388.9736846788 -2672180.1057256432 0 0 0 0 13973897.145574212 -23103761.428759813 0 -23103761.428759813 2537518.7491602898 0 0 0 0 44617085.15092057 2973550.6250743866 0 2973550.6250743866 -7627823.7463320792 0 0 0 0 20861966.004595518 21274138.425543547 0 21274138.425543547 26510940.151916981 0 0 0 0 76817734.186552465 34581165.762844682 0 34581165.762844682 1032650.9365450144 0 0 0 0 44271353.00428462 -1075094.7127598524 0 -1075094.7127598524 -1026671.9569969177 0 0 0 0 2398482.8129655779 -953090.36496422626 0 -953090.36496422626 -982359.97194816405 0 0 0 0 36319697.447245181 75992452.213486731 0 75992452.213486731 165061979.48627186 0 0 0 0 -11265526.869060218 96336509.092441559 0 96336509.092441559 156536070.10588205 0 0 0 0 -11862856.735671937 120299346.3802774 0 120299346.3802774 309160405.74394453 0 0 0 0 41393826.18392688 27832454.091901183 0 27832454.091901183 42746600.428608418 0 0 0 0 -19463069.180375814 -22919162.758783579 0 -22919162.758783579 195208448.97032714 0 0 0 0 17263482.172388077 -6965555.8013739586 0 -6965555.8013739586 -6705345.926559031 0 0 0 0 7071293.883429056 7091644.9116087165 0 7091644.9116087165 3419877.5389637062 0 0 0 0 105778181.73771667 -295753.20471477509 0 -295753.20471477509 -50904372.509494781 0 0 0 0 -12231052.706050277 -58766006.974291921 0 -58766006.974291921 165121212.82151794 0 0 0 0 -3219909.0297117233 -9206616.3190340996 0 -9206616.3190340996 98058554.419079781 0 0 0 0 55899333.748707592 -115122636.81020851 0 -115122636.81020851 183632324.28918743 0 0 0 0 8496404.3271923065 -43926846.460613251 0 -43926846.460613251 256289385.0864625 0 0 0 0 -15166089.885494232 -74448529.495805144 0 -74448529.495805144 288106358.46173859 0 0 0 0 -24214316.889699936 -28731616.478540421 0 -28731616.478540421 179617680.20952916 0 0 0 0 -31097057.2651968 -9591360.4490413666 0 -9591360.4490413666 174956906.66745377 0 0 0 0 -39293941.654156685 -41521142.699123383 0 -41521142.699123383 232263964.57034111 0 0 0 0 1576155.6930656433 -46891343.184048653 0 -46891343.184048653 82256530.946878433 0 0 0 0 14073510.87285614 13053323.85542202 0 13053323.85542202 47737678.309729099 0 0 0 0 12548802.531169645 9908677.625097584 0 9908677.625097584 3650186.7359595583 0 0 0 0 11069207.533670425 -9649609.7396783829 0 -9649609.7396783829 53860944.176068306 0 0 0 0 23193132.725521088 37403076.575860023 0 37403076.575860023 105523737.53906584 0 0 0 0 -30749408.529743016 -1357083.9549589828 0 -1357083.9549589828 164309660.29079056 0 0 0 0 -61536321.731582642 22064156.062987685 0 22064156.062987685 213271462.97763181 0 0 0 0 -52711109.573626518 47452772.006292343 0 47452772.006292343 191890674.72826564 0 0 0 0 61333835.289624214 82620077.43729496 0 82620077.43729496 127844543.29229975 0 0 0 0 21331957.794424534 19808501.498158664 0 19808501.498158664 46626901.760780334 0 0 0 0 -20673901.821653962 -23622098.448747993 0 -23622098.448747993 12242179.110594749 0 0 0 0 15223868.809662677 -1129816.6382980444 0 -1129816.6382980444 -5407027.2145253913 0 0 0 0 33148840.275829315 24486803.335247993 0 24486803.335247993 46627721.8111284 0 0 0 0 625311.1154063344 -4424784.0548939705 0 -4424784.0548939705 52678478.304726124 0 0 0 0 12854555.586184263 30997125.735787153 0 30997125.735787153 135992269.09374261 0 0 0 0 5000202.3593743723 6677022.8345537493 0 6677022.8345537493 1386939.9863240849 0 0 0 0 -10796813.671686172 11001848.995060682 0 11001848.995060682 12271487.480527759 0 0 0 0 7443006.7417984009 32547528.045965433 0 32547528.045965433 -8514218.3991174698 0 0 0 0 19076515.584775731 11966793.385010686 0 11966793.385010686 1211850.6105367281 0 0 0 0 36698933.029880524 23283933.144503832 0 23283933.144503832 9534718.2130775452 0 0 0 0 10503945.694126606 14012267.843327522 0 14012267.843327522 -10625254.255535841 0 0 0 0 25076164.612432003 24809116.141530871 0 24809116.141530871 -32107020.952884436 0 0 0 0 51684659.182779789 35562318.55520308 0 35562318.55520308 -3684382.2630047798 0 0 0 0 13262534.490924835 -10657869.99194479 0 -10657869.99194479 19684123.268013716 0 0 0 0 3508954.0283593349 1274379.367293519 0 1274379.367293519 -215168.48268284276 0 0 0 0 21393848.950174034 -400991.94338649139 0 -400991.94338649139 442508.61785769463 0 0 0 0 54112750.502104282 -13501070.736393522 0 -13501070.736393522 -4594903.632588625 0 0 0 0 21890180.1833601 -8713018.9788815975 0 -8713018.9788815975 1348606.4444274902 0 0 0 0 23172044.073513508 3578626.0085840225 0 3578626.0085840225 -13043220.529073238 0 0 0 0 9736273.1647524834 2774387.7853758335 0 2774387.7853758335 -7085703.4501390457 0 0 0 0 29864107.823410273 -5320570.9293080568 0 -5320570.9293080568 -13603561.222215652 0 0 0 0 10354846.386795044 10859181.599640608 0 10859181.599640608 240523.0676202774 0 0 0 0 126927070.16588688 42248845.709962964 0 42248845.709962964 16866947.066167653 0 0 0 0 127457179.98359907 13311831.359545618 0 13311831.359545618 -327496.55307650566 0 0 0 0 -388002.87460225215 -493465.41152057284 0 -493465.41152057284 536121.6823910852 0 0 0 0 2022032.1707372665 -3401288.2307498455 0 -3401288.2307498455 -1384443.9898509979 0 0 0 0 -17668497.407122612 -18016352.034218311 0 -18016352.034218311 5016060.8915081322 0 0 0 0 9040892.8786647785 2084222.4422039664 0 2084222.4422039664 4587490.6061762795 0 0 0 0 5298364.8115701675 1004308.9273929 0 1004308.9273929 -666357.65084838867 0 0 0 0 5940485.4907232467 3399715.3102254434 0 3399715.3102254434 4048350.0829533981 0 0 0 0 4529446.8240718842 2421645.3257071972 0 2421645.3257071972 66864.786058425903 0 0 0 0 6548861.1082134005 4083027.7978414628 0 4083027.7978414628 3684519.310117756 0 0 0 0 7639514.9999316605 2737131.3977723024 0 2737131.3977723024 -360749.73755481932 0 0 0 0 3879163.6027367585 1030071.74203964 0 1030071.74203964 -647812.74505537399 0 0 0 0 5411006.6956119537 2936602.8671097755 0 2936602.8671097755 85303.503325462341 0 0 0 0 26853.443951232824 294764.61295449873 0 294764.61295449873 709555.90672363667 0 0 0 0 -16188013.615662813 -20811414.012878686 0 -20811414.012878686 31379309.159072638 0 0 0 0 44403944.337493896 -10977923.157536507 0 -10977923.157536507 47753071.629337192 0 0 0 0 23268183.07650423 27787034.47244221 0 27787034.47244221 -10479476.035893679 0 0 0 0 108071199.6121726 53276833.876013637 0 53276833.876013637 -4111391.256349802 0 0 0 0 33015175.746137142 74752610.820148945 0 74752610.820148945 -3684653.1623468399 0 0 0 0 140313246.80761242 -16766681.239185333 0 -16766681.239185333 -26916229.174467981 0 0 0 0 2585255.4381438694 6925776.4589996235 0 6925776.4589996235 1902537.8081787524 0 0 0 0 119713956.53149033 -9678865.3817905784 0 -9678865.3817905784 7343811.7725515962 0 0 0 0 33518700.247240663 -4897629.7867034674 0 -4897629.7867034674 14508083.162170053 0 0 0 0 72379325.526927158 76978591.149236023 0 76978591.149236023 -16364429.647025108 0 0 0 0 53530908.770591855 80583233.582852244 0 80583233.582852244 -2824603.1907842159 0 0 0 0 138792953.41475135 131323509.45007461 0 131323509.45007461 -31515824.658522367 0 0 0 0 186929645.64081019 65947061.141229868 0 65947061.141229868 -21520368.521153212 0 0 0 0 2566002.5251434455 -239960.5505522177 0 -239960.5505522177 -498968.39947826357 0 0 0 0 93244529.377057076 -24824591.427525282 0 -24824591.427525282 20701564.878667414 0 0 0 0 327043391.96698582 -154902324.8816891 0 -154902324.8816891 68963007.558400914 0 0 0 0 91150032.605717182 23177001.389322758 0 23177001.389322758 10593842.736990809 0 0 0 0 62330266.21565485 52422465.656280041 0 52422465.656280041 15094067.860525757 0 0 0 0 47256882.354514837 76115833.736776203 0 76115833.736776203 92696109.623851061 0 0 0 0 226163327.3482866 102199446.61789942 0 102199446.61789942 22604373.757699668 0 0 0 0 1157504.6142964363 -34044247.911309361 0 -34044247.911309361 57339261.830114841 0 0 0 0 5947469.3373190043 8164198.1352007035 0 8164198.1352007035 331223.34175018454 0 0 0 0 6164134.9046417475 5619117.7012224644 0 5619117.7012224644 52136591.256670102 0 0 0 0 25671162.281862497 52108884.308234215 0 52108884.308234215 12903908.963458538 0 0 0 0 63791652.509481311 69198531.199325785 0 69198531.199325785 20130865.440537646 0 0 0 0 85119711.300599098 9289263.7513446808 0 9289263.7513446808 -26903018.004934311 0 0 0 0 20016374.224655867 9055042.0104574412 0 9055042.0104574412 -6534594.900930644 0 0 0 0 62990303.296081543 -5739982.6095919609 0 -5739982.6095919609 -20886570.146033764 0 0 0 0 30983294.925481677 52261126.007984966 0 52261126.007984966 -21048680.582859516 0 0 0 0 81699839.811901093 -4611756.4172021151 0 -4611756.4172021151 -41558780.998771906 0 0 0 0 -13601960.210800171 -736041.72759631276 0 -736041.72759631276 25224484.444736779 0 0 0 0 38112576.628417015 44986110.275520444 0 44986110.275520444 48564930.642229557 0 0 0 0 11874925.947353285 1748521.1254655877 0 1748521.1254655877 3415284.4004247971 0 0 0 0 71742259.796276093 55899259.599519968 0 55899259.599519968 -22516061.949828327 0 0 0 0 -1029678.7856269111 -923133.43585075624 0 -923133.43585075624 577489.16996095609 0 0 0 0 96392899.53207767 146776037.06123668 0 146776037.06123668 -47076504.005772412 0 0 0 0 205036042.03893971 175999676.51898217 0 175999676.51898217 -199502726.84541368 0 0 0 0 76210658.930277705 122359750.70387486 0 122359750.70387486 37450162.82395488 0 0 0 0 124021253.39701971 237028638.09500152 0 237028638.09500152 82411734.899061918 0 0 0 0 64797673.480252974 58099409.168501198 0 58099409.168501198 94013410.154973149 0 0 0 0 56117856.285641737 166918076.48554134 0 166918076.48554134 22386873.664576292 0 0 0 0 56447922.357275069 114239099.10782385 0 114239099.10782385 116640290.50537568 0 0 0 0 34646606.345034778 59578708.40702609 0 59578708.40702609 -82008884.021311581 0 0 0 0 -65727433.795300469 207757653.13941318 0 207757653.13941318 -60000064.471535049 0 0 0 0 49716709.671883918 54193576.117659733 0 54193576.117659733 -146238583.26254463 0 0 0 0 7316217.066400528 -1118581.2515994115 0 -1118581.2515994115 -937659.8398541481 0 0 0 0 11362055.981461287 116865960.79500026 0 116865960.79500026 -172924372.91726789 0 0 0 0 27366867.097234696 46771051.078787237 0 46771051.078787237 -146941485.19340241 0 0 0 0 106556696.51623356 70134584.901256293 0 70134584.901256293 -145588073.1182867 0 0 0 0 109042238.40820074 12976329.932835728 0 12976329.932835728 -235518779.37385142 0 0 0 0 108371090.45613743 68519747.629068688 0 68519747.629068688 -167361079.6108976 0 0 0 0 52839202.612634897 -23371876.229691684 0 -23371876.229691684 -152971199.756733 0 0 0 0 34986641.967202231 -11510624.806558762 0 -11510624.806558762 -138637474.96315432 0 0 0 0 21560897.828734104 -11450911.626221597 0 -11450911.626221597 6068154.2011047145 0 0 0 0 -182808.27914619446 -41680597.944965482 0 -41680597.944965482 -21465755.414156556 0 0 0 0 -12409955.644882202 -42474202.834826589 0 -42474202.834826589 -9401319.5967132449 0 0 0 0 12313185.249961853 -9667967.7496666908 0 -9667967.7496666908 7213220.0425901413 0 0 0 0 27405320.050582886 -12109797.868355632 0 -12109797.868355632 -11408731.727401733 0 0 0 0 6600683.7682209015 -17661075.688809633 0 -17661075.688809633 -19897.093246459961 0 0 0 0 8396452.695930481 -23773179.226091862 0 -23773179.226091862 -6695380.0863928795 0 0 0 0 31537851.268379211 -25991049.725776672 0 -25991049.725776672 -42364586.270595551 0 0 0 0 1300388.5409123227 -550440.83920121379 0 -550440.83920121379 -473891.4628709536 0 0 0 0 33116380.911541075 5505006.9637764134 0 5505006.9637764134 -102558468.01410282 0 0 0 0 15768832.634696491 -3601826.3597000279 0 -3601826.3597000279 -3341504.5998489112 0 0 0 0 55516711.359938443 -25543964.214346707 0 -25543964.214346707 8804231.280807972 0 0 0 0 131631632.71340978 -79683586.378169775 0 -79683586.378169775 20492627.9950037 0 0 0 0 71675320.186062992 1569717.6579023004 0 1569717.6579023004 -64441298.206844807 0 0 0 0 84134733.405447781 -34470488.719256401 0 -34470488.719256401 -36840332.520255327 0 0 0 0 47851539.781776428 -8708475.9181585312 0 -8708475.9181585312 -15278033.122987568 0 0 0 0 64883292.390934467 -32702462.992880106 0 -32702462.992880106 -6565972.4069685936 0 0 0 0 52830978.913787365 -21282253.396101952 0 -21282253.396101952 -6765137.6597571522 0 0 0 0 64855291.489429474 -20296165.175874233 0 -20296165.175874233 -17246976.576809883 0 0 0 0 30722655.97101777 -748623.01478966512 0 -748623.01478966512 1752155.8863771684 0 0 0 0 19406936.771347046 -4762938.48037076 0 -4762938.48037076 -10812397.544972897 0 0 0 0 68305096.718635559 62015143.56140554 0 62015143.56140554 -33332648.26607728 0 0 0 0 39111761.791473389 49973679.368954182 0 49973679.368954182 -29641350.965646148 0 0 0 0 54017453.039637089 10323601.458218198 0 10323601.458218198 3073933.4243442039 0 0 0 0 11910143.650913112 5473940.2066301107 0 5473940.2066301107 -5961387.5477925409 0 0 0 0 73317728.830116272 2216180.3288454264 0 2216180.3288454264 -81673382.997518957 0 0 0 0 55364282.938346863 4381550.34480685 0 4381550.34480685 -76338784.570924163 0 0 0 0 56757542.735536575 11983758.019640982 0 11983758.019640982 -37742636.722446203 0 0 0 0 37464261.071342468 56005235.229181886 0 56005235.229181886 -96642653.052408069 0 0 0 0 18143554.472465515 33758358.79134959 0 33758358.79134959 -6395073.5433467627 0 0 0 0 23266247.473921716 3864119.9090994671 0 3864119.9090994671 5135427.5993860383 0 0 0 0 5429002.00471057 1638486.8321168013 0 1638486.8321168013 -2445676.6304765767 0 0 0 0 111922306.56409359 139703989.40832373 0 139703989.40832373 32878555.168833971 0 0 0 0 14762149.030674383 4026300.3997362889 0 4026300.3997362889 1471035.678421645 0 0 0 0 -12504825.334255219 -1003560.083119154 0 -1003560.083119154 33177383.122112751 0 0 0 0 21730019.168518543 13278971.067135155 0 13278971.067135155 19108733.014475822 0 0 0 0 7912728.6163857132 1063012.7494529784 0 1063012.7494529784 3659878.456092895 0 0 0 0 19328193.100143433 -4523270.8647556305 0 -4523270.8647556305 4453972.5496997833 0 0 0 0 17770188.998998642 -10385792.854497135 0 -10385792.854497135 695649.47648620605 0 0 0 0 38761525.293006979 -608851.59270881489 0 -608851.59270881489 1508158.3143837212 0 0 0 0 21387314.124069214 -9116770.7413454056 0 -9116770.7413454056 -7399722.3852291107 0 0 0 0 13499603.179267883 -11445669.008884907 0 -11445669.008884907 3642247.1425380707 0 0 0 0 18233605.028160095 -16241360.268702507 0 -16241360.268702507 -2410835.921022892 0 0 0 0 18575974.76616478 -14610314.278235942 0 -14610314.278235942 -3315986.1091938019 0 0 0 0 19311836.284732819 -6237711.5176753998 0 -6237711.5176753998 -1677806.1947289407 0 0 0 0 14944643.500155449 -4648450.0720266402 0 -4648450.0720266402 5969164.6426987648 0 0 0 0 16534762.003498077 -6155460.3599765301 0 -6155460.3599765301 7208387.1725184917 0 0 0 0 74139793.020927429 -10715320.933948994 0 -10715320.933948994 -26539890.317214012 0 0 0 0 34784642.495245151 -9536254.671223348 0 -9536254.671223348 -7519945.523135893 0 0 0 0 75603677.669243336 3607694.4983257055 0 3607694.4983257055 -52678305.772117615 0 0 0 0 89409626.608322144 -23014793.600340366 0 -23014793.600340366 -44748973.049710751 0 0 0 0 77183792.671096802 -8700644.2487325668 0 -8700644.2487325668 -42473912.399656832 0 0 0 0 11514596.135667801 -6218493.5898850858 0 -6218493.5898850858 -7831224.6351643801 0 0 0 0 33001291.6900599 51927419.025324523 0 51927419.025324523 -21038360.419590771 0 0 0 0 44941156.967887864 -11999020.90513395 0 -11999020.90513395 -4883517.3082629964 0 0 0 0 50568851.848014832 21602221.766401052 0 21602221.766401052 24696489.433289528 0 0 0 0 18043618.747087717 70020079.340265751 0 70020079.340265751 -30789189.749328375 0 0 0 0 46126425.43606019 78702123.340007246 0 78702123.340007246 -106125074.40338302 0 0 0 0 73513425.79261446 57765348.318399429 0 57765348.318399429 -40104252.286298275 0 0 0 0 66834039.084624305 16712803.389212828 0 16712803.389212828 -4275302.3511772305 0 0 0 0 57911063.346443176 25775014.257140875 0 25775014.257140875 -51943673.911760092 0 0 0 0 77950189.978012085 7961662.5328454971 0 7961662.5328454971 -44733705.080691338 0 0 0 0 61055384.894041359 14283648.551305331 0 14283648.551305331 -379442.08550115023 0 0 0 0 112633092.40952098 57093605.240456104 0 57093605.240456104 -131865883.67717695 0 0 0 0 76976184.694442749 51534906.350783587 0 51534906.350783587 -69264599.806066036 0 0 0 0 58293744.063566446 10193965.177501321 0 10193965.177501321 -79867493.495779514 0 0 0 0 146624013.15314138 59479081.077467635 0 59479081.077467635 -52375481.285013914 0 0 0 0 148575882.62210035 -33098385.924512107 0 -33098385.924512107 -33567864.853720903 0 0 0 0 49072178.326494396 34016960.005679607 0 34016960.005679607 -50244523.645722151 0 0 0 0 35589607.207138062 46498315.459840178 0 46498315.459840178 -43743080.901121855 0 0 0 0 36208021.730133533 36624363.674520582 0 36624363.674520582 -48062007.290362597 0 0 0 0 33722852.07006073 46279665.794041812 0 46279665.794041812 -40277855.824420154 0 0 0 0 40642246.841369629 51897469.828125492 0 51897469.828125492 -42882721.377475612 0 0 0 0 95763851.81072998 80734675.182997704 0 80734675.182997704 -46241426.136087894 0 0 0 0 17429782.375305176 80759699.184458613 0 80759699.184458613 -55392055.789179564 0 0 0 0 34473664.864234924 67298887.6937868 0 67298887.6937868 -48312317.731337085 0 0 0 0 184184833.31201172 146923651.06876132 0 146923651.06876132 -98095307.485568032 0 0 0 0 105363418.14486694 32157464.750221252 0 32157464.750221252 -69238227.166607141 0 0 0 0 95189849.510503769 2642187.2897982597 0 2642187.2897982597 -60888402.302603722 0 0 0 0 102235217.58480835 -4402602.0214750767 0 -4402602.0214750767 -53999660.799912393 0 0 0 0 148819874.82108688 6473979.7511837482 0 6473979.7511837482 -72468068.432543755 0 0 0 0 110540780.4196682 25759916.275611281 0 25759916.275611281 -64594477.165494919 0 0 0 0 123117892.85892487 28461337.289049268 0 28461337.289049268 -74041981.10882163 0 0 0 0 243261738.67926025 2524834.2628088593 0 2524834.2628088593 -76452792.248418182 0 0 0 0 174798029.6051178 -28806547.345376849 0 -28806547.345376849 -49766171.629999429 0 0 0 0 127793878.07964325 -21239283.283296824 0 -21239283.283296824 -50484327.827623129 0 0 0 0 124189772.35877228 -33678043.586330682 0 -33678043.586330682 -38588580.1137584 0 0 0 0 119838463.7808075 -44435659.096386194 0 -44435659.096386194 -46564489.009287119 0 0 0 0 101854382.51298332 -33359036.116138637 0 -33359036.116138637 -51049481.715396881 0 0 0 0 99849714.579284668 -39361683.572454929 0 -39361683.572454929 -54240485.616298914 0 0 0 0 124960600.50475311 -27003583.948890448 0 -27003583.948890448 -57014628.850976467 0 0 0 0 110496425.38224792 -19675219.680064201 0 -19675219.680064201 -58901366.797745228 0 0 0 0 92422925.757980347 -18930501.889596462 0 -18930501.889596462 -56662390.626965523 0 0 0 0 85102762.748977661 -35652228.910112858 0 -35652228.910112858 -53149027.606238365 0 0 0 0 214613845.87707138 -25180399.104343653 0 -25180399.104343653 -60095560.576002598 0 0 0 0 212839201.69130707 -41240505.917757511 0 -41240505.917757511 -85055219.694899321 0 0 0 0 239216971.49565125 21115779.697515249 0 21115779.697515249 -23646074.606975317 0 0 0 0 147433044.60180283 -13928411.228015974 0 -13928411.228015974 343098.54247903824 0 0 0 0 141594181.65667343 -49776306.591759622 0 -49776306.591759622 -26397869.579561353 0 0 0 0 169401614.79222679 -12308065.686896749 0 -12308065.686896749 -835727.32767921686 0 0 0 0 333782861.80626678 36616588.648975849 0 36616588.648975849 -22708756.058454752 0 0 0 0 267585886.5994873 15128386.649783015 0 15128386.649783015 -32551226.418656111 0 0 0 0 227689169.84517288 10819830.85702312 0 10819830.85702312 1378471.2856836319 0 0 0 0 9312288.4439315796 763795.96640658379 0 763795.96640658379 -32225079.946647406 0 0 0 0 3514668.0273311753 -3233058.2906547561 0 -3233058.2906547561 -3806267.6500071511 0 0 0 0 232857190.12401962 -30415915.903917313 0 -30415915.903917313 -366780.06966042519 0 0 0 0 338741273.77323389 -84777497.586316735 0 -84777497.586316735 19178543.912185192 0 0 0 0 35525.588948912919 117534.86108919606 0 117534.86108919606 869801.16439840081 0 0 0 0 -43292493.696975708 175547720.57066834 0 175547720.57066834 -98183212.336076856 0 0 0 0 -67996195.134825706 44714099.739035964 0 44714099.739035964 -70364189.734735489 0 0 0 0 -1512082.0020828247 24349798.616242766 0 24349798.616242766 -60879666.072850734 0 0 0 0 -11945311.102470398 40167208.013689518 0 40167208.013689518 -127653197.71670485 0 0 0 0 -19520572.807186127 45800591.966248043 0 45800591.966248043 -65944200.269897014 0 0 0 0 4246.5278597772121 4333679.7709266543 0 4333679.7709266543 3605241.1126397764 0 0 0 0 -62002173.978876114 59113859.44250375 0 59113859.44250375 -72071868.526059866 0 0 0 0 -31203578.833770752 95572610.379893064 0 95572610.379893064 -124970576.78869985 0 0 0 0 42305242.150159836 -20965302.502468526 0 -20965302.502468526 -18871300.072879553 0 0 0 0 46003940.319232941 -59436835.051897287 0 -59436835.051897287 12345653.277963638 0 0 0 0 3230052.9317222144 -4570579.5741825253 0 -4570579.5741825253 -2884657.7512862692 0 0 0 0 -29032481.973743439 -23520518.877186298 0 -23520518.877186298 650391.52052807808 0 0 0 0 242832942.22737122 15227157.376767635 0 15227157.376767635 -14249501.500113487 0 0 0 0 300872730.39020538 34514688.810666323 0 34514688.810666323 -17763760.676915109 0 0 0 0 257714497.65717316 42737646.39403224 0 42737646.39403224 52262079.112422466 0 0 0 0 320933920.18980026 -17515488.121966839 0 -17515488.121966839 -38659169.844100595 0 0 0 0 215387757.91707802 238898353.50389943 0 238898353.50389943 168451843.58263969 0 0 0 0 177651030.00713348 122369647.67382145 0 122369647.67382145 19444837.928980589 0 0 0 0 148067903.96722269 291771931.80489331 0 291771931.80489331 263710074.45229912 0 0 0 0 63163781.213685036 -17677425.0034733 0 -17677425.0034733 -158181202.94077283 0 0 0 0 124441638.02146149 -22568309.339224569 0 -22568309.339224569 -118079065.095649 0 0 0 0 28917627.859100342 133234209.53179504 0 133234209.53179504 41634303.002413988 0 0 0 0 93080620.782581329 -37290585.2883448 0 -37290585.2883448 -63491056.417701721 0 0 0 0 105128290.66004181 13145833.93897444 0 13145833.93897444 -140140767.73165622 0 0 0 0 74106575.505020142 -1885830.9015712738 0 -1885830.9015712738 -91956903.389992595 0 0 0 0 69333253.598537445 3719234.3681520261 0 3719234.3681520261 -82234732.40067175 0 0 0 0 26502720.260879517 1759974.9153199196 0 1759974.9153199196 -71242635.679586768 0 0 0 0 36284066.908973694 24428401.740958452 0 24428401.740958452 -84528186.738705635 0 0 0 0 4207395.6214752197 3901981.6667271852 0 3901981.6667271852 -47044275.950987101 0 0 0 0 60241367.449890137 5543593.8804457188 0 5543593.8804457188 -80369348.838828564 0 0 0 0 233035927.97099686 20256413.905411005 0 20256413.905411005 -49579297.231373429 0 0 0 0 60246117.069602966 6162195.1288847923 0 6162195.1288847923 -18807245.40081954 0 0 0 0 522814692.75937653 95038157.247587681 0 95038157.247587681 -41110472.113789558 0 0 0 0 42551999.905042648 -14125212.576280892 0 -14125212.576280892 861694.36985349655 0 0 0 0 9871237.987121582 68705508.719668865 0 68705508.719668865 -59818586.843763411 0 0 0 0 -948073.4618318826 3427835.7102363072 0 3427835.7102363072 4452064.6568686664 0 0 0 0 -1866935.5009860992 57928896.889127553 0 57928896.889127553 -49231842.495124578 0 0 0 0 137312247.19447327 33034603.783853054 0 33034603.783853054 -45495091.193578243 0 0 0 0 30716425.189418793 73228188.155516863 0 73228188.155516863 115243278.3093853 0 0 0 0 -819477.23373256624 1489085.5949925557 0 1489085.5949925557 2432493.7435130542 0 0 0 0 139976283.65077209 421227716.10664392 0 421227716.10664392 380049113.49916267 0 0 0 0 340403901.1469059 429082088.51559073 0 429082088.51559073 352166496.99996805 0 0 0 0 225623493.45739746 267092314.27673364 0 267092314.27673364 145290155.90197301 0 0 0 0 222557829.59200072 311295287.17819226 0 311295287.17819226 223592386.61773968 0 0 0 0 352391144.4143486 253411270.64131236 0 253411270.64131236 230754921.60167861 0 0 0 0 374604918.47335815 257303055.98126507 0 257303055.98126507 151637939.09085226 0 0 0 0 -1128630.1409781054 -83368.185317080468 0 -83368.185317080468 2093659.5645583579 0 0 0 0 591392389.95047474 -28546154.249240994 0 -28546154.249240994 41541983.108012199 0 0 0 0 544135927.80147934 286843533.04406935 0 286843533.04406935 -44014686.207554817 0 0 0 0 660531434.2938385 113950275.95957112 0 113950275.95957112 -64917093.768796921 0 0 0 0 508496595.25405884 257975581.53653467 0 257975581.53653467 151635719.40674859 0 0 0 0 410427577.55477715 353354881.38838756 0 353354881.38838756 177857123.30497432 0 0 0 0 175263737.69920731 -60082102.526857853 0 -60082102.526857853 51987782.832987309 0 0 0 0 166043830.34283638 -98495236.131293297 0 -98495236.131293297 -82733949.133540154 0 0 0 0 -543643.02223587036 133290139.63431025 0 133290139.63431025 30908950.311924934 0 0 0 0 424139296.39283752 141602826.25568247 0 141602826.25568247 27173425.790531158 0 0 0 0 161280233.38096619 -30927932.665402412 0 -30927932.665402412 74407938.257905006 0 0 0 0 142767104.29508781 -82452058.688705206 0 -82452058.688705206 37216487.12123394 0 0 0 0 5766874.6680648755 2817078.7005746458 0 2817078.7005746458 3842247.187091195 0 0 0 0 195969899.40480137 -151483470.49739218 0 -151483470.49739218 126636042.11450386 0 0 0 0 -5101411.2001432031 2331752.0923217898 0 2331752.0923217898 1651199.8768259434 0 0 0 0 6240422.7079889029 5962677.9755462129 0 5962677.9755462129 1222067.165702184 0 0 0 0 1389559.1162848473 3226739.9455133677 0 3226739.9455133677 -1369100.4623022079 0 0 0 0 261063519.60554504 -161590050.61631274 0 -161590050.61631274 126747038.14879227 0 0 0 0 5542282.8231083909 2494978.3569902722 0 2494978.3569902722 1974128.7236207873 0 0 0 0 14719433.552910805 -19577049.869377851 0 -19577049.869377851 -22649059.65203476 0 0 0 0 500982528.48577118 -282879205.34154415 0 -282879205.34154415 -129922012.85469103 0 0 0 0 513332369.1062851 -68991917.862278938 0 -68991917.862278938 77051688.541306019 0 0 0 0 483804802.16147232 15123433.597499013 0 15123433.597499013 -120134579.59663486 0 0 0 0 416321951.14691353 23750172.173149854 0 23750172.173149854 62555627.230493069 0 0 0 0 1011188649.3836136 11772108.84879756 0 11772108.84879756 -190084224.94974327 0 0 0 0 566705115.88878155 3062078.4012296498 0 3062078.4012296498 -140807282.5300858 0 0 0 0 713683219.71533966 543268331.82417548 0 543268331.82417548 1125477306.9270627 0 0 0 0 1222985739.2495003 -326972164.45432889 0 -326972164.45432889 168680432.7738111 0 0 0 0 -134224536.73233032 213535957.15811026 0 213535957.15811026 287308275.11399257 0 0 0 0 6511407.4070677757 8047795.2347346544 0 8047795.2347346544 3512670.2779273987 0 0 0 0 644396.28745904192 5627902.8034060113 0 5627902.8034060113 8399599.7221675925 0 0 0 0 806290276.40629578 368316835.8378706 0 368316835.8378706 -22785385.196081638 0 0 0 0 1363989729.0836639 405171214.93928719 0 405171214.93928719 -110662596.12215894 0 0 0 0 5260421.8615539894 1953424.7166323503 0 1953424.7166323503 951541.33005001605 0 0 0 0 410161153.76168442 715162594.2185576 0 715162594.2185576 779010789.09035325 0 0 0 0 136167271.45290375 106691024.12382299 0 106691024.12382299 70403707.033076644 0 0 0 0 -63812130.721826553 45275760.638166428 0 45275760.638166428 171128023.83463359 0 0 0 0 -62973359.524051666 10655369.548500299 0 10655369.548500299 5098178.5516060591 0 0 0 0 610486184.12664366 402722256.79658264 0 402722256.79658264 -15670640.741161346 0 0 0 0 1031363300.6267319 470552825.11178827 0 470552825.11178827 64786178.521993637 0 0 0 0 624094591.30373096 305978550.63036561 0 305978550.63036561 43281814.64996624 0 0 0 0 1112814852.9567299 369145084.52706003 0 369145084.52706003 -249677096.77077579 0 0 0 0 1088441839.7610092 -182397513.30645418 0 -182397513.30645418 -151283873.62054443 0 0 0 0 1458305401.3418617 516093926.72231758 0 516093926.72231758 -189849571.10422707 0 0 0 0 812052670.5620575 511209693.17270923 0 511209693.17270923 40445697.969694614 0 0 0 0 1087625688.4138184 325781825.58145368 0 325781825.58145368 -156874388.04982185 0 0 0 0 -3384624.6907253265 7744566.3556303978 0 7744566.3556303978 3389977.7665433884 0 0 0 0 135833750.10489082 -64600484.938325047 0 -64600484.938325047 44120598.156831741 0 0 0 0 101253.50239944458 8932795.1681156158 0 8932795.1681156158 4320250.3066148758 0 0 0 0 2198602.8735703751 6360340.0631907694 0 6360340.0631907694 4421073.1892336793 0 0 0 0 -5222686.4131660461 9820128.0615155697 0 9820128.0615155697 6526745.1466283798 0 0 0 0 -11638661.886199951 -75206.868100166321 0 -75206.868100166321 3028020.0997370481 0 0 0 0 -8085466.8253173828 6979584.4778265953 0 6979584.4778265953 5646069.9979963303 0 0 0 0 -5248611.5208244324 5122540.2564387321 0 5122540.2564387321 654993.65269565582 0 0 0 0 2485172861.7519798 153045763.1604104 0 153045763.1604104 -118207549.02056646 0 0 0 0 1685065586.5732193 345993263.08600855 0 345993263.08600855 -167062753.28931022 0 0 0 0 1644138021.388382 338985951.99343634 0 338985951.99343634 146423029.57756329 0 0 0 0 1465767.4571761861 58945.765394799411 0 58945.765394799411 -387868.64015495125 0 0 0 0 1038372826.398262 432225387.55965757 0 432225387.55965757 172779646.83633518 0 0 0 0 -345587.9428974567 1532718.4148745947 0 1532718.4148745947 2808134.4596607983 0 0 0 0 1334355374.779315 100958469.70187235 0 100958469.70187235 543317773.39982033 0 0 0 0 1146661506.1264496 912187967.27556896 0 912187967.27556896 480875996.78291607 0 0 0 0 2178270895.5307617 683062637.51008463 0 683062637.51008463 20930396.552693367 0 0 0 0 4617256.7901763916 57974106.6468665 0 57974106.6468665 353121786.20258856 0 0 0 0 2133071.7587897331 4440804.3989730794 0 4440804.3989730794 -3304643.3323403709 0 0 0 0 1151227444.0831785 682307255.56441236 0 682307255.56441236 198792931.42533302 0 0 0 0 3871276.7703349963 -291008.38610192947 0 -291008.38610192947 -2153352.7275800593 0 0 0 0 238752591.65714645 119864551.96322155 0 119864551.96322155 23927395.233485222 0 0 0 0 296951898.33465576 223118540.66716385 0 223118540.66716385 -27379091.161166191 0 0 0 0 1368446255.4392016 282768282.85411936 0 282768282.85411936 44228688.147129059 0 0 0 0 488105981.96045685 737089763.69770384 0 737089763.69770384 75010182.190170437 0 0 0 0 -46206391.714030385 -142685875.60470164 0 -142685875.60470164 -7448836.8282260895 0 0 0 0 5624756.2185764313 48863771.570715547 0 48863771.570715547 49085643.394910991 0 0 0 0 -25485034.433624268 -29760483.319559455 0 -29760483.319559455 24859643.485620022 0 0 0 0 146318476.13339615 -379389009.56771421 0 -379389009.56771421 268061310.96343613 0 0 0 0 665900425.40984344 158921762.81174421 0 158921762.81174421 -164948784.90203881 0 0 0 0 5943611.8557457142 -1629260.7389749084 0 -1629260.7389749084 3123059.8284203205 0 0 0 0 517815305.45583344 152120121.46108913 0 152120121.46108913 332826806.52573204 0 0 0 0 61071936.061626434 1024454.539077282 0 1024454.539077282 -7851748.2105798721 0 0 0 0 29097134.250619888 12952828.520848036 0 12952828.520848036 -10367048.957060814 0 0 0 0 56947543.522327423 11875373.360992908 0 11875373.360992908 -6759554.353556633 0 0 0 0 62126639.359875679 45689800.348624945 0 45689800.348624945 -21326040.269132614 0 0 0 0 56808753.458277702 37531643.726042747 0 37531643.726042747 -9994808.1064167023 0 0 0 0 79922377.476716995 17075286.102878332 0 17075286.102878332 -23722061.667190552 0 0 0 0 39973344.583521843 19079388.185318828 0 19079388.185318828 -7554030.2359061241 0 0 0 0 3868550.399772644 39787080.271216154 0 39787080.271216154 -7418571.3169856071 0 0 0 0 43562193.746235847 22324599.862607718 0 22324599.862607718 -21721964.395324707 0 0 0 0 48312564.507049561 14109947.785246849 0 14109947.785246849 -7620721.2914961576 0 0 0 0 54139330.818885803 22632948.044120789 0 22632948.044120789 -24764029.553631544 0 0 0 0 54736464.954105377 18225895.82858628 0 18225895.82858628 -26615276.71559906 0 0 0 0 32757696.012496948 30221646.41853714 0 30221646.41853714 -15214033.526263952 0 0 0 0 50451247.659095764 12250734.917780161 0 12250734.917780161 -26194444.321434975 0 0 0 0 12806493.657092094 -2092548.2173608541 0 -2092548.2173608541 -46225842.830248356 0 0 0 0 -5404884.3114509583 24274962.512986422 0 24274962.512986422 -22385951.491543293 0 0 0 0 2389217.5670864843 1982003.0213213954 0 1982003.0213213954 -2912347.3303233841 0 0 0 0 -25342539.272151947 -8281526.6861166954 0 -8281526.6861166954 -1295561.4691128731 0 0 0 0 295567122.34210587 264845254.46277952 0 264845254.46277952 94499366.12918973 0 0 0 0 227479187.91405296 155322057.64662346 0 155322057.64662346 145571228.65311384 0 0 0 0 -4075943.8058204651 4298927.0419993401 0 4298927.0419993401 -864463.74798510969 0 0 0 0 -12253994.536372185 4280267.0509789884 0 4280267.0509789884 9289175.3287143707 0 0 0 0 -465902.99950027466 11352694.968738079 0 11352694.968738079 11423431.906693935 0 0 0 0 29169611.158932187 -1260291.6278055627 0 -1260291.6278055627 -6371115.7771720886 0 0 0 0 -2725005.572098732 -375964.86930048466 0 -375964.86930048466 7712171.4734706879 0 0 0 0 22583236.525751114 -11038866.996979237 0 -11038866.996979237 30562533.157270432 0 0 0 0 11802422.024349213 12642831.355517149 0 12642831.355517149 23150058.027047634 0 0 0 0 -8977368.924495697 8370659.3989109993 0 8370659.3989109993 20744675.348673344 0 0 0 0 -6878347.0961227417 8150874.0485715866 0 8150874.0485715866 5619981.6207504272 0 0 0 0 -4591083.2503948212 19572986.293487549 0 19572986.293487549 9373937.01957798 0 0 0 0 198498.20212745667 15563400.544647217 0 15563400.544647217 1993630.443406105 0 0 0 0 -4085678.1957206726 50467492.97042942 0 50467492.97042942 -9044544.0645184517 0 0 0 0 -2661814.5589084625 11266986.56397891 0 11266986.56397891 33388070.906970978 0 0 0 0 -46610978.196275711 3150838.7620930672 0 3150838.7620930672 72355330.047270179 0 0 0 0 191809941.85102844 12974821.648118973 0 12974821.648118973 914704.44946408272 0 0 0 0 71428560.429710388 -58679370.066068172 0 -58679370.066068172 60189093.819869041 0 0 0 0 99323285.603927612 -6793241.6601572037 0 -6793241.6601572037 -3266998.4705343246 0 0 0 0 65666439.347592115 69517724.119379252 0 69517724.119379252 19632622.229758263 0 0 0 0 64036761.183521271 49431501.508392334 0 49431501.508392334 29336515.253617287 0 0 0 0 114471051.28120041 58695949.792251587 0 58695949.792251587 -2463671.6343798637 0 0 0 0 159120112.98384094 98991862.332586765 0 98991862.332586765 53380473.383494854 0 0 0 0 157407820.02482033 -44937310.139379501 0 -44937310.139379501 -161234187.89351368 0 0 0 0 1544553.6283875704 799346.73674101382 0 799346.73674101382 -267324.09099385282 0 0 0 0 599693.36299676821 4148004.4604093158 0 4148004.4604093158 663391.46043586044 0 0 0 0 306854077.60343552 7095644.0483870506 0 7095644.0483870506 -148383184.42889833 0 0 0 0 35588063.500291824 82063168.452208996 0 82063168.452208996 140237598.92714119 0 0 0 0 238184560.27260995 136242268.74040174 0 136242268.74040174 -27687110.194501877 0 0 0 0 257176902.69458675 -31280035.813555181 0 -31280035.813555181 3563306.7825431824 0 0 0 0 108876146.42356968 141444301.91001368 0 141444301.91001368 -26276178.764990807 0 0 0 0 185670174.50881672 47844031.738754272 0 47844031.738754272 23555101.373500824 0 0 0 0 72035230.826580048 120624407.06612492 0 120624407.06612492 63133960.016955853 0 0 0 0 103353044.33395767 202636650.88550711 0 202636650.88550711 93798739.555878639 0 0 0 0 113426173.14836502 197642467.62546635 0 197642467.62546635 36259477.701288223 0 0 0 0 74961535.745887756 182517821.4538126 0 182517821.4538126 164329951.90799141 0 0 0 0 275423871.17567444 -121012835.71834946 0 -121012835.71834946 -142069100.43284035 0 0 0 0 1854802.5264457837 1501725.5130913435 0 1501725.5130913435 402258.10651464155 0 0 0 0 398854402.91278076 -89919423.527515888 0 -89919423.527515888 -182592339.34626293 0 0 0 0 26706414.102142334 86344980.662876129 0 86344980.662876129 205448435.78548193 0 0 0 0 101177473.96419525 87174319.535957813 0 87174319.535957813 81039899.402973175 0 0 0 0 -27931410.527954102 1661353.6489191055 0 1661353.6489191055 76395942.922740936 0 0 0 0 3958125.9640199915 4937847.4593145829 0 4937847.4593145829 48701.667880526744 0 0 0 0 4579301.5735340118 10251968.306084156 0 10251968.306084156 1410710.278960228 0 0 0 0 -63722069.667823792 -17711103.431485176 0 -17711103.431485176 -16961889.150382042 0 0 0 0 9855292.6709671021 12988348.247301579 0 12988348.247301579 2364456.4249272346 0 0 0 0 10816345.165435791 14987236.782200336 0 14987236.782200336 -41782609.209277153 0 0 0 0 3029429.1124266572 2061750.1502393465 0 2061750.1502393465 -61454.673894805368 0 0 0 0 215768529.87714696 -153343760.64012396 0 -153343760.64012396 -101850299.59598827 0 0 0 0 -162805057.4656868 173749248.03616047 0 173749248.03616047 188833255.86602426 0 0 0 0 -110343282.04014206 -53374849.295516968 0 -53374849.295516968 216063539.68773842 0 0 0 0 -54573697.391490936 111555133.92883396 0 111555133.92883396 -60603444.069031239 0 0 0 0 -49586680.172920227 5243416.3372869492 0 5243416.3372869492 -5030285.8372449875 0 0 0 0 -118537353.57551479 -1278592.1595455408 0 -1278592.1595455408 3789559.5966625214 0 0 0 0 -13393301.817842484 1008688.875494957 0 1008688.875494957 1576953.4924917221 0 0 0 0 -2687012.1635608673 721254.24046611786 0 721254.24046611786 -10410623.40236187 0 0 0 0 2286540.7891813964 4804804.9767849408 0 4804804.9767849408 2320522.236450471 0 0 0 0 4015775.253112793 -6923141.1667890549 0 -6923141.1667890549 -5903099.0896487236 0 0 0 0 -5764181.1132364273 798799.54740285873 0 798799.54740285873 25692158.701584816 0 0 0 0 27498732.418041229 44000355.616629124 0 44000355.616629124 38421025.284669876 0 0 0 0 14328634.342279434 11352287.907697201 0 11352287.907697201 83708.076708316803 0 0 0 0 -11045124.492929459 -4567164.3282122612 0 -4567164.3282122612 14393823.272925377 0 0 0 0 58137157.698070526 -111229182.27894211 0 -111229182.27894211 150406519.70335925 0 0 0 0 -58915562.301895142 201195582.33139181 0 201195582.33139181 111584685.04574203 0 0 0 0 200989975.93775845 -121144301.91589999 0 -121144301.91589999 -140094037.72473145 0 0 0 0 302862795.69864655 -82990327.016479492 0 -82990327.016479492 -181945211.48384237 0 0 0 0 1552999.5863165967 1175453.774097892 0 1175453.774097892 484700.27142946841 0 0 0 0 57227516.242980957 72515245.701030731 0 72515245.701030731 80442422.140456915 0 0 0 0 226934637.7740097 76401142.056447983 0 76401142.056447983 -2772356.9330635071 0 0 0 0 95222486.874048233 47786989.768322945 0 47786989.768322945 -8284353.3389238119 0 0 0 0 292811613.93855667 -67765953.202148318 0 -67765953.202148318 -43336212.286022186 0 0 0 0 80930869.291091919 -58467134.107010841 0 -58467134.107010841 -31261766.439328194 0 0 0 0 74847293.810028076 -7528917.7142543793 0 -7528917.7142543793 -20046343.842131615 0 0 0 0 155408465.51545715 -17741760.261528015 0 -17741760.261528015 -27787623.339427948 0 0 0 0 62208936.388570786 26874047.358685732 0 26874047.358685732 -7157748.8211994171 0 0 0 0 77857696.319164276 27869579.20257616 0 27869579.20257616 -7124026.5867977142 0 0 0 0 79932726.054222107 15510364.864274502 0 15510364.864274502 -16245960.814460754 0 0 0 0 64696594.254886627 15074503.713331223 0 15074503.713331223 -12907572.765073776 0 0 0 0 51139268.032413483 4086624.9639129639 0 4086624.9639129639 -7649343.5137562752 0 0 0 0 75134440.217583179 -20064.799761414528 0 -20064.799761414528 -11931955.143198013 0 0 0 0 62075432.731287003 11571588.218491077 0 11571588.218491077 -3307909.0041475296 0 0 0 0 62184441.911416054 12462674.068521976 0 12462674.068521976 -10567590.976396561 0 0 0 0 60814041.674446106 15516159.798647881 0 15516159.798647881 -4415093.6606731415 0 0 0 0 60704279.544502735 12489021.645944238 0 12489021.645944238 -985743.38566970825 0 0 0 0 60381606.966270447 16231654.940850258 0 16231654.940850258 7625679.0084915757 0 0 0 0 33998627.977832794 -10723201.394044399 0 -10723201.394044399 -44303464.730738401 0 0 0 0 60642317.500219345 13317160.674656391 0 13317160.674656391 -3518461.1189543605 0 0 0 0 30831790.731385082 -7303030.9172433317 0 -7303030.9172433317 -14916411.810167 0 0 0 0 376362233.15557861 -106801250.9398098 0 -106801250.9398098 -86293001.155964851 0 0 0 0 114876647.0267601 47541210.98884964 0 47541210.98884964 -42534117.091590881 0 0 0 0 144194368.73588562 65700665.757476807 0 65700665.757476807 -60726170.892816544 0 0 0 0 323024241.69919777 112074890.98849273 0 112074890.98849273 -55078895.825332642 0 0 0 0 144090134.79631805 50235631.053520203 0 50235631.053520203 -43244706.460067749 0 0 0 0 161915198.5921402 -92387488.169685364 0 -92387488.169685364 -85875098.476480007 0 0 0 0 139926217.23914337 -1357168.5013980865 0 -1357168.5013980865 -74986531.174863815 0 0 0 0 258857826.4833374 29293408.051908493 0 29293408.051908493 -74954967.098640442 0 0 0 0 65741106.558681488 7255040.4143400192 0 7255040.4143400192 -392888.45629405975 0 0 0 0 52513437.051319122 8909848.7652339935 0 8909848.7652339935 -529792.50175333023 0 0 0 0 61259803.368438721 11780009.717289448 0 11780009.717289448 -5756951.8340759277 0 0 0 0 48671061.076442719 11334166.907030106 0 11334166.907030106 -285326.59199142456 0 0 0 0 54701093.481880188 15699296.37613678 0 15699296.37613678 -6810236.7062358856 0 0 0 0 47663506.03431797 14022461.136661291 0 14022461.136661291 -4672995.4248313904 0 0 0 0 10270702.356343007 1352845.5841890462 0 1352845.5841890462 -1016717.2473028246 0 0 0 0 403406058.02548337 -143866197.4452379 0 -143866197.4452379 49571000.39733696 0 0 0 0 -1112100.436676383 -113409.84209132567 0 -113409.84209132567 1971290.1516801827 0 0 0 0 416388544.31159592 4125738.4884858131 0 4125738.4884858131 84669578.384941101 0 0 0 0 37523610.630397797 146087138.98213434 0 146087138.98213434 -57917032.494838595 0 0 0 0 44088018.794670105 15606155.491250038 0 15606155.491250038 -6801441.1476509571 0 0 0 0 44311587.395492554 6693953.0307149887 0 6693953.0307149887 -11039273.0970833 0 0 0 0 50324396.309696198 13966014.580906868 0 13966014.580906868 -6774631.3184816986 0 0 0 0 60095695.73995018 19920610.105384827 0 19920610.105384827 -7697685.083442688 0 0 0 0 51687669.100811005 12851951.806052208 0 12851951.806052208 -10874677.481700897 0 0 0 0 283770684.88469124 -89078645.658569098 0 -89078645.658569098 -50845831.057302475 0 0 0 0 5863119.5258297967 1312266.4267762341 0 1312266.4267762341 1774669.4812500626 0 0 0 0 2958669.3266091347 18428500.902643323 0 18428500.902643323 13365675.444951057 0 0 0 0 143070528.55771637 16062870.686422825 0 16062870.686422825 -8177642.1891708374 0 0 0 0 -1631600.9391492307 -1031.1496649384499 0 -1031.1496649384499 3404867.778044736 0 0 0 0 134405756.85206842 -21325212.977954268 0 -21325212.977954268 -3583653.1954441071 0 0 0 0 181829419.91498566 -66752154.761188507 0 -66752154.761188507 -33954295.858181953 0 0 0 0 134544059.92069292 -20766730.555678993 0 -20766730.555678993 -42328559.925615311 0 0 0 0 132029111.7576561 -106099327.41708279 0 -106099327.41708279 44542958.071112633 0 0 0 0 110266255.52761841 -52783762.829806328 0 -52783762.829806328 -48878176.323208332 0 0 0 0 161699448.25620651 128879008.74688911 0 128879008.74688911 177050960.92206526 0 0 0 0 370650729.13933372 85528253.893017292 0 85528253.893017292 23916296.858074188 0 0 0 0 208966208.30857849 -79552261.17656374 0 -79552261.17656374 34741892.238325 0 0 0 0 229148360.89313126 -51478986.554571152 0 -51478986.554571152 -103636263.64048767 0 0 0 0 191275139.35585403 -5776616.4329667091 0 -5776616.4329667091 -85503533.754780769 0 0 0 0 157745517.1949501 -15520259.374477863 0 -15520259.374477863 -5753300.4077005386 0 0 0 0 -40738138.677955627 25480655.49824667 0 25480655.49824667 -68131763.163336754 0 0 0 0 209892605.1239357 -32567842.248825073 0 -32567842.248825073 -108646543.80890751 0 0 0 0 231582789.25189209 -70475064.330760956 0 -70475064.330760956 -108810305.67070961 0 0 0 0 641602909.78309631 1995310.2477989197 0 1995310.2477989197 -103560229.24648738 0 0 0 0 143438736.56175995 -33815968.51788044 0 -33815968.51788044 -87612632.926006317 0 0 0 0 135242622.51656532 -52530509.019159555 0 -52530509.019159555 -129075636.60352135 0 0 0 0 -11929615.233402252 76833900.668981075 0 76833900.668981075 -6493829.5729141235 0 0 0 0 8623085.1868429184 -12952280.636357427 0 -12952280.636357427 -24211627.689411163 0 0 0 0 137889507.28695297 65421493.567820549 0 65421493.567820549 -37999430.475280762 0 0 0 0 149811666.99876785 -22112838.733155251 0 -22112838.733155251 -83066506.945770264 0 0 0 0 201584699.24966621 -17647454.199388742 0 -17647454.199388742 -116891057.06318665 0 0 0 0 176153273.35488892 -25583872.488877296 0 -25583872.488877296 -83556489.747814775 0 0 0 0 202529216.19810104 140416662.8610611 0 140416662.8610611 -18562266.805505753 0 0 0 0 357092304.75937653 12463254.386741638 0 12463254.386741638 -113630705.67628527 0 0 0 0 14885706.920799255 125132831.17804527 0 125132831.17804527 -11290540.785720348 0 0 0 0 55386522.683883667 37339850.513902664 0 37339850.513902664 -37381125.582057953 0 0 0 0 73063354.136039734 62648371.032354355 0 62648371.032354355 -31704681.036066055 0 0 0 0 72111656.959224701 61929838.272090912 0 61929838.272090912 -13148394.211421967 0 0 0 0 89384063.960197449 74434339.337415695 0 74434339.337415695 -21695895.416859627 0 0 0 0 66759496.142929077 53595005.749822617 0 53595005.749822617 -14147988.312519312 0 0 0 0 98619144.012044907 39165760.194875717 0 39165760.194875717 -44459271.342956543 0 0 0 0 54308898.963287354 35996838.78717041 0 35996838.78717041 -41449377.236189842 0 0 0 0 83115502.756542206 15362953.517436981 0 15362953.517436981 -48842128.783374786 0 0 0 0 4956127.1512145996 44578836.918798447 0 44578836.918798447 -33139362.447220802 0 0 0 0 62012108.656297684 58001234.888679028 0 58001234.888679028 -50660826.196224213 0 0 0 0 3298151.1214696066 -35346.115173310041 0 -35346.115173310041 138007.56437774375 0 0 0 0 477610418.83618164 167990083.69275188 0 167990083.69275188 63466908.233169556 0 0 0 0 -111795215.55089188 86966138.708016396 0 86966138.708016396 6864338.4986171722 0 0 0 0 3094732.0283230841 -481399.82877093367 0 -481399.82877093367 -1419697.8285022061 0 0 0 0 2473126.2360420227 36064600.491910934 0 36064600.491910934 -49472485.860580444 0 0 0 0 522038274.1517334 -284024338.55810642 0 -284024338.55810642 -169937953.77158165 0 0 0 0 314382705.00677109 193479990.719944 0 193479990.719944 487497550.0026474 0 0 0 0 26778344.764019012 3341732.6620774269 0 3341732.6620774269 -14498199.419201851 0 0 0 0 10070465.113347262 -5703471.5274027325 0 -5703471.5274027325 -5812667.7816814147 0 0 0 0 50516171.484077454 25878277.101848602 0 25878277.101848602 -35019231.112808228 0 0 0 0 26701242.597510982 9732691.5144068114 0 9732691.5144068114 -7352414.8650597353 0 0 0 0 37468157.385599136 21506035.186301231 0 21506035.186301231 -34196420.019733429 0 0 0 0 14471901.029045105 52702410.193998337 0 52702410.193998337 -49902152.318593681 0 0 0 0 15975421.80037038 8723348.9534297362 0 8723348.9534297362 -2315399.3711631633 0 0 0 0 17857296.41065979 59218626.160869598 0 59218626.160869598 -42455731.091054916 0 0 0 0 585501.86268142611 3920154.485535291 0 3920154.485535291 4610215.9210417774 0 0 0 0 -43159251.164117813 139265559.84249485 0 139265559.84249485 -146431655.43968391 0 0 0 0 -36952854.211763382 134149085.19391823 0 134149085.19391823 -235052810.51094627 0 0 0 0 92900835.107395172 -176698626.74884796 0 -176698626.74884796 53738520.406906128 0 0 0 0 -68291842.467128754 233467487.33689117 0 233467487.33689117 66317074.790603638 0 0 0 0 632323190.61049843 -23410221.549103498 0 -23410221.549103498 -82352858.190984726 0 0 0 0 -579.72724607586861 1797092.1535467384 0 1797092.1535467384 2366819.0643176306 0 0 0 0 -130521091.75634956 56980932.680464983 0 56980932.680464983 43213118.720561981 0 0 0 0 -33692604.439391136 -1744669.5956134796 0 -1744669.5956134796 13552022.036003113 0 0 0 0 29491052.22063446 85109652.577484131 0 85109652.577484131 22025785.169687271 0 0 0 0 -68274904.490756989 89312777.083789825 0 89312777.083789825 60005876.356895447 0 0 0 0 31411015.932996631 171142206.05173942 0 171142206.05173942 -29212507.668819427 0 0 0 0 261261232.6062851 302144120.99170303 0 302144120.99170303 40935040.833253384 0 0 0 0 235170302.21292114 97269357.321460724 0 97269357.321460724 -36085087.590667725 0 0 0 0 77323639.158488274 55978344.737916708 0 55978344.737916708 5395156.3231925964 0 0 0 0 86910658.757677078 71858428.366112709 0 71858428.366112709 -40374061.632225037 0 0 0 0 11850470.855369568 36616733.037908554 0 36616733.037908554 17524844.594280243 0 0 0 0 27463682.036697388 74555139.52531147 0 74555139.52531147 15673019.531615257 0 0 0 0 25901298.15921402 -3225391.5942659378 0 -3225391.5942659378 -7224645.2490262985 0 0 0 0 21483286.398275167 -749234.65786558017 0 -749234.65786558017 -8045036.0337077742 0 0 0 0 22462820.517416 2450600.0788021088 0 2450600.0788021088 -9084241.1797332764 0 0 0 0 12836368.70326376 11659639.805155933 0 11659639.805155933 -11232378.639722824 0 0 0 0 13929841.537760735 3170610.336351037 0 3170610.336351037 -1024066.5061645508 0 0 0 0 16767273.010669352 -3387820.3410010226 0 -3387820.3410010226 -12666214.109557413 0 0 0 0 97316368.540836334 -23441560.712011337 0 -23441560.712011337 -58562752.878425598 0 0 0 0 676434404.06553268 84049462.469715118 0 84049462.469715118 -314465996.81876755 0 0 0 0 191419057.37957001 -26942214.250818253 0 -26942214.250818253 -220270801.41944981 0 0 0 0 124140406.58128738 33758975.636076927 0 33758975.636076927 -3014685.0239925385 0 0 0 0 44495301.547561646 -17231924.501832724 0 -17231924.501832724 -27066033.889064275 0 0 0 0 25697136.626037598 -8675150.415368557 0 -8675150.415368557 -27233220.229027152 0 0 0 0 47591615.103440285 15191541.178842932 0 15191541.178842932 -51908636.020183563 0 0 0 0 156450614.73391724 37863652.387673855 0 37863652.387673855 -29738716.786634684 0 0 0 0 29678027.609474182 7039137.7078008652 0 7039137.7078008652 -33955555.368708611 0 0 0 0 26525815.824674286 5445747.4608227201 0 5445747.4608227201 -10186655.910722839 0 0 0 0 16661065.373771667 6971673.2939291 0 6971673.2939291 -15223109.757193089 0 0 0 0 52194727.224075317 -5443295.6608605385 0 -5443295.6608605385 -9171539.5181853175 0 0 0 0 29235674.019966125 -5100421.3569440842 0 -5100421.3569440842 -11223153.166212082 0 0 0 0 15342401.254508972 -2549786.869474411 0 -2549786.869474411 1350288.2145824432 0 0 0 0 18876788.431127191 6116377.641519472 0 6116377.641519472 -6407965.6281026527 0 0 0 0 12281358.725712214 -5573769.6886124015 0 -5573769.6886124015 -4987140.0144477971 0 0 0 0 29879029.717475891 1201694.4432265759 0 1201694.4432265759 -15209855.204508305 0 0 0 0 28139285.245338798 84193928.965721801 0 84193928.965721801 -33066804.40450573 0 0 0 0 -17794183.977493286 -17535155.264859915 0 -17535155.264859915 21037172.17056334 0 0 0 0 -9135318.4399871826 -18533753.925023794 0 -18533753.925023794 20418945.670935988 0 0 0 0 -52464773.545326233 -25344080.114324749 0 -25344080.114324749 33803473.69190979 0 0 0 0 30577240.861942291 -48571881.769742906 0 -48571881.769742906 -24175474.87486887 0 0 0 0 -41382902.531829834 2287163.8846300244 0 2287163.8846300244 19372664.017221451 0 0 0 0 -20966412.686965942 -39817278.132027388 0 -39817278.132027388 32882994.961741686 0 0 0 0 -256850.00458077341 -145088.39405349642 0 -145088.39405349642 635573.33996046265 0 0 0 0 257668989.24795723 96575025.489362329 0 96575025.489362329 -50736911.651046515 0 0 0 0 25731010.675125122 38501778.216619492 0 38501778.216619492 4712917.166441679 0 0 0 0 200491779.53256226 -55198326.459692359 0 -55198326.459692359 -57057340.193205357 0 0 0 0 96441232.898544312 46016710.153570771 0 46016710.153570771 -77983123.512111664 0 0 0 0 47291900.132019043 96522321.107146263 0 96522321.107146263 115832546.03022265 0 0 0 0 13998148.145487808 -5965246.9096456356 0 -5965246.9096456356 -8066017.1758811902 0 0 0 0 31074751.023677826 -40145028.182155728 0 -40145028.182155728 -63653490.143420458 0 0 0 0 -35657337.263130188 -63547686.422563493 0 -63547686.422563493 22150210.158675671 0 0 0 0 16981052.69858551 -22277223.518526554 0 -22277223.518526554 -35756565.92241478 0 0 0 0 20667854.970944151 -11086398.481247554 0 -11086398.481247554 -17120393.108076949 0 0 0 0 13094887.609588623 -18759756.348210454 0 -18759756.348210454 -7158517.7967977524 0 0 0 0 19725659.604465485 -19486367.840684056 0 -19486367.840684056 -33925491.285746574 0 0 0 0 20802769.030532837 -28753492.771852136 0 -28753492.771852136 -44753118.742143631 0 0 0 0 34995546.431657456 -5416656.575896848 0 -5416656.575896848 -20850296.728490252 0 0 0 0 16107637.302981377 -25294070.070866704 0 -25294070.070866704 -32632533.185812473 0 0 0 0 16362041.529536247 -25673251.987649262 0 -25673251.987649262 -38267747.310510635 0 0 0 0 73760355.315217972 12446769.962524891 0 12446769.962524891 2889109.9553279877 0 0 0 0 109905564.19995117 -31845774.548718452 0 -31845774.548718452 -46554338.748203278 0 0 0 0 24031151.679933421 6925023.5671162233 0 6925023.5671162233 -7022116.5181193836 0 0 0 0 69858729.571268082 18952412.724076271 0 18952412.724076271 7752929.0245110691 0 0 0 0 124755677.600806 -15394179.106875092 0 -15394179.106875092 -48028566.351921082 0 0 0 0 124377666.74574971 -6856098.9801460505 0 -6856098.9801460505 -63986282.429130554 0 0 0 0 109345658.73802185 -3389171.2798919678 0 -3389171.2798919678 -55627403.708522797 0 0 0 0 84732330.323822021 16599304.175567627 0 16599304.175567627 -49409712.318141937 0 0 0 0 92221555.532543182 23687410.974850655 0 23687410.974850655 -51275855.559005737 0 0 0 0 127309344.83992004 19631822.501241684 0 19631822.501241684 -53050136.561405182 0 0 0 0 116306822.74222755 -14958328.626114845 0 -14958328.626114845 -29523145.961582184 0 0 0 0 108682859.38891602 -4666619.4461250305 0 -4666619.4461250305 -44314106.745269775 0 0 0 0 115167128.28784943 -4972733.522518158 0 -4972733.522518158 -55251600.093225479 0 0 0 0 89076874.597457886 2790784.288269043 0 2790784.288269043 -44939818.602180481 0 0 0 0 108452184.51911163 -11793634.279350281 0 -11793634.279350281 -39004915.28024292 0 0 0 0 21924401.004959106 -2815905.9344511032 0 -2815905.9344511032 -9583110.1378126144 0 0 0 0 85406367.342453003 -6191168.1436767578 0 -6191168.1436767578 -28017609.15619278 0 0 0 0 26237509.652905699 -690486.1966226697 0 -690486.1966226697 -14224937.237133712 0 0 0 0 75576867.211387634 -3513308.9124450684 0 -3513308.9124450684 -27428361.654979706 0 0 0 0 49931162.126671076 7428985.4040316194 0 7428985.4040316194 -32428157.217754364 0 0 0 0 59949553.862625122 32958868.481750488 0 32958868.481750488 -45293100.091739178 0 0 0 0 62330906.113571167 7818352.630607605 0 7818352.630607605 -29425861.224599838 0 0 0 0 16833848.297149658 3752223.5831737518 0 3752223.5831737518 751973.33728027344 0 0 0 0 -2812848.0009460449 -10859124.536773682 0 -10859124.536773682 -39671120.587863207 0 0 0 0 17297746.539407931 -5333624.8858193345 0 -5333624.8858193345 -6582653.0518045118 0 0 0 0 114386271.60858154 2683538.722659111 0 2683538.722659111 -4688373.9960861206 0 0 0 0 25540471.931956619 3359080.4175478704 0 3359080.4175478704 -10306671.930600025 0 0 0 0 4236939.7517384961 -2936296.9397707973 0 -2936296.9397707973 -4697700.3635065891 0 0 0 0 38136191.057037354 19744510.311210632 0 19744510.311210632 5110589.868560791 0 0 0 0 39265013.913811356 -4773673.8577605672 0 -4773673.8577605672 -22546973.127453528 0 0 0 0 16098241.125823975 1215365.0190668106 0 1215365.0190668106 -11396674.774642944 0 0 0 0 23116437.777757578 -5153734.4840391753 0 -5153734.4840391753 -19272404.999982517 0 0 0 0 151637532.74816132 -215845357.56330705 0 -215845357.56330705 20147415.192722321 0 0 0 0 571628989.71058655 -64485904.46221447 0 -64485904.46221447 -37928741.075234413 0 0 0 0 267185665.21977615 -97134767.235655308 0 -97134767.235655308 47231864.351228714 0 0 0 0 129941147.1750946 2187101.3817148209 0 2187101.3817148209 -20522434.507194281 0 0 0 0 1209803.0097099226 -1987389.597179383 0 -1987389.597179383 -672474.89984418266 0 0 0 0 695424394.60256195 33384345.094698191 0 33384345.094698191 -28881687.28705883 0 0 0 0 -34807090.154712677 -42529416.908944964 0 -42529416.908944964 25664410.581523895 0 0 0 0 450569242.24483871 -201557336.49967337 0 -201557336.49967337 -63216294.699330807 0 0 0 0 318367303.65962601 -68568129.93077153 0 -68568129.93077153 75122037.255748749 0 0 0 0 2575641.1064301804 -4114353.1801090986 0 -4114353.1801090986 -1681406.6632664856 0 0 0 0 420878138.72109604 -47425246.97773838 0 -47425246.97773838 -45720812.229048014 0 0 0 0 -14014981.058793068 -26297691.363546073 0 -26297691.363546073 30916091.697117805 0 0 0 0 181664358.73485565 111717282.46472168 0 111717282.46472168 47760484.348576665 0 0 0 0 272264033.37157059 208262827.69427443 0 208262827.69427443 -20830229.059056282 0 0 0 0 659441203.44929504 367055730.05104494 0 367055730.05104494 44188480.212795258 0 0 0 0 740252934.58351135 -44655129.179035664 0 -44655129.179035664 -49855389.328761578 0 0 0 0 269379494.292099 187459962.53534985 0 187459962.53534985 53510561.209438741 0 0 0 0 288085055.04753113 161139804.26264668 0 161139804.26264668 -46903371.439723969 0 0 0 0 22600092.563861847 6146460.6920804977 0 6146460.6920804977 39735363.456523895 0 0 0 0 -207120.3560077101 1970033.8239427954 0 1970033.8239427954 2659523.5090314113 0 0 0 0 475062989.76638222 -21091402.7982952 0 -21091402.7982952 -181669677.71905804 0 0 0 0 346324377.5099535 372304150.52608025 0 372304150.52608025 220697628.19278908 0 0 0 0 545990481.14742279 325150231.87648535 0 325150231.87648535 11589478.86418891 0 0 0 0 179360271.27965355 78177517.781881571 0 78177517.781881571 217095355.07703972 0 0 0 0 481811919.88800049 267401970.65380955 0 267401970.65380955 155944319.85532784 0 0 0 0 406628001.99163055 411371463.87082911 0 411371463.87082911 117948779.0160923 0 0 0 0 -46312669.666236877 416678655.28811359 0 416678655.28811359 255420286.85303879 0 0 0 0 435926672.9942503 437270857.01661527 0 437270857.01661527 136816405.58773136 0 0 0 0 220579781.10136414 158904226.32950163 0 158904226.32950163 359780274.38161421 0 0 0 0 238058231.70999336 201551132.34685898 0 201551132.34685898 163890569.31595325 0 0 0 0 21412366.308883667 120455320.74950027 0 120455320.74950027 177858395.12198675 0 0 0 0 15843333.161815643 209733992.05349445 0 209733992.05349445 -262589506.87449169 0 0 0 0 9776238.5844192505 5994084.8513112068 0 5994084.8513112068 -59471636.842594147 0 0 0 0 16963449.118488312 128121174.50441217 0 128121174.50441217 -189189811.17857742 0 0 0 0 507382.39817668498 4050726.0366458297 0 4050726.0366458297 4785791.2583835423 0 0 0 0 -58852842.1951828 152311347.39933825 0 152311347.39933825 -10294967.941324234 0 0 0 0 -6268386.5683059692 -20193654.107303619 0 -20193654.107303619 -20188524.768574715 0 0 0 0 68393765.711452484 36632458.746544838 0 36632458.746544838 21057499.441788673 0 0 0 0 6433141.7587445434 237734.79227073118 0 237734.79227073118 184769.85546864197 0 0 0 0 -6112203.7158050537 20246565.384497643 0 20246565.384497643 19183547.052726746 0 0 0 0 21191056.543838501 30245181.582736969 0 30245181.582736969 10328515.301727295 0 0 0 0 16634481.716823578 29410374.170567513 0 29410374.170567513 16892241.492805481 0 0 0 0 20131130.839609474 4023350.5304467306 0 4023350.5304467306 1820290.8028646484 0 0 0 0 76124837.069099426 26892931.47336483 0 26892931.47336483 10913771.631307602 0 0 0 0 12767773.595654979 108548.04810244218 0 108548.04810244218 -8214960.4781385399 0 0 0 0 129479321.32215691 -16737373.499517918 0 -16737373.499517918 -23193093.529018402 0 0 0 0 129331737.19419193 38133902.522240877 0 38133902.522240877 12678838.591016769 0 0 0 0 118967235.98926163 28889552.605607033 0 28889552.605607033 4542396.1486988068 0 0 0 0 124714344.28569412 7923352.856306076 0 7923352.856306076 -12511633.634601593 0 0 0 0 106826329.39112091 29681564.19474411 0 29681564.19474411 -15343548.839454651 0 0 0 0 99095598.108181 3055892.1615419388 0 3055892.1615419388 12310320.646327972 0 0 0 0 60236979.538433075 23200633.008080959 0 23200633.008080959 -28960371.861009598 0 0 0 0 75961981.133968353 42558945.606493473 0 42558945.606493473 -13627599.898744583 0 0 0 0 129986737.78922272 9319370.0674858093 0 9319370.0674858093 -16878912.82700187 0 0 0 0 58796706.98493576 47281343.690975189 0 47281343.690975189 20164906.620254517 0 0 0 0 196092068.98970413 66283929.147026062 0 66283929.147026062 13179955.1710186 0 0 0 0 80502636.690491676 -10605862.159372568 0 -10605862.159372568 19054353.438501358 0 0 0 0 120265159.30524445 -6953019.8248825073 0 -6953019.8248825073 10676465.737814903 0 0 0 0 204715158.20146561 14589097.517736912 0 14589097.517736912 -63967477.23431778 0 0 0 0 177938887.6722784 109531491.04185164 0 109531491.04185164 97659736.255941391 0 0 0 0 383731916.23713398 449592256.53263557 0 449592256.53263557 226964839.42055416 0 0 0 0 1280276.4239120185 1281090.6906097904 0 1281090.6906097904 3045031.9900675192 0 0 0 0 -307088141.1345253 51284361.59420681 0 51284361.59420681 192321063.81376934 0 0 0 0 2298031617.2257829 170339697.27389491 0 170339697.27389491 -31000352.076530457 0 0 0 0 -1521246.3148269653 261995826.83486843 0 261995826.83486843 329789785.14158726 0 0 0 0 -12323328.599369049 101284130.88228559 0 101284130.88228559 -33536620.584751129 0 0 0 0 72800178.838003159 43006679.465890408 0 43006679.465890408 -44196828.269670486 0 0 0 0 -142506936.07308197 51973218.562775612 0 51973218.562775612 11526935.716283321 0 0 0 0 3028367.1945559997 4982113.792253226 0 4982113.792253226 9750232.3526352495 0 0 0 0 1901479106.738719 -103322213.27237129 0 -103322213.27237129 -238061415.13973045 0 0 0 0 1477574847.8514252 27149306.594040871 0 27149306.594040871 138279575.62221718 0 0 0 0 988832275.75867462 -95548687.622262955 0 -95548687.622262955 209074806.41485739 0 0 0 0 1520376289.2133255 167513667.96667576 0 167513667.96667576 -44741530.069257736 0 0 0 0 774207565.80581665 -57612732.943067551 0 -57612732.943067551 -26438506.836509705 0 0 0 0 1478731141.9905548 118986959.90025234 0 118986959.90025234 -276745971.6814909 0 0 0 0 647309735.95733452 -334703869.13714921 0 -334703869.13714921 -205073682.92915344 0 0 0 0 -105893582.60436249 105864544.70491982 0 105864544.70491982 111374541.99602228 0 0 0 0 894058121.21985626 206976721.8674655 0 206976721.8674655 107146928.7376461 0 0 0 0 302292157.70415497 -125467552.98307228 0 -125467552.98307228 129098787.9965207 0 0 0 0 257174739.73666382 27605305.456000328 0 27605305.456000328 145459917.49163818 0 0 0 0 390891.75698852539 -177311128.13766575 0 -177311128.13766575 224778080.90196562 0 0 0 0 270419183.38905907 -30882066.454210281 0 -30882066.454210281 402953802.53113365 0 0 0 0 837113133.2053299 296502050.35922527 0 296502050.35922527 452896370.11415482 0 0 0 0 585093317.92181396 -174834882.03422737 0 -174834882.03422737 177480481.9145937 0 0 0 0 571775829.95309067 -110032331.07753944 0 -110032331.07753944 243253051.1503334 0 0 0 0 274595257.08853149 -195774869.60282564 0 -195774869.60282564 155733255.50486946 0 0 0 0 308653959.47543335 20396788.134439468 0 20396788.134439468 167750923.22954369 0 0 0 0 24771431.957832024 5808137.8202050803 0 5808137.8202050803 -3543143.1665649717 0 0 0 0 -85284531.360610962 266622367.72346616 0 266622367.72346616 -278742401.30936509 0 0 0 0 100238591.76667786 -155169084.86783123 0 -155169084.86783123 268947746.90926927 0 0 0 0 -230763814.25695801 73349344.001128674 0 73349344.001128674 73886325.795520306 0 0 0 0 -257119599.34192657 279296125.75104904 0 279296125.75104904 224264775.39419174 0 0 0 0 -48061982.185493469 -400442571.85388541 0 -400442571.85388541 542898000.43399429 0 0 0 0 1550689649.166893 -724294101.95866358 0 -724294101.95866358 -58652158.353053808 0 0 0 0 2964101173.765625 -22612296.267177105 0 -22612296.267177105 -43137659.437652588 0 0 0 0 2586616580.0237732 71007244.688934326 0 71007244.688934326 -252781362.31708908 0 0 0 0 1494831769.3839722 -672795312.44122958 0 -672795312.44122958 -108830100.80221042 0 0 0 0 1174517807.3658638 -146222271.86262131 0 -146222271.86262131 69095138.764974117 0 0 0 0 639862153.08058167 -278628185.71932459 0 -278628185.71932459 167789207.79132915 0 0 0 0 1303868409.7082367 -112036743.4752574 0 -112036743.4752574 -104770967.32783794 0 0 0 0 581211390.6805954 -120382914.07741916 0 -120382914.07741916 63295934.397604942 0 0 0 0 1302752165.5758448 35176747.91845952 0 35176747.91845952 -93824275.92361927 0 0 0 0 1948539469.0021362 -157960909.5565424 0 -157960909.5565424 -249867553.04374599 0 0 0 0 1329092207.0412979 140626279.23641157 0 140626279.23641157 -191517940.09143257 0 0 0 0 1547412252.7000885 -914217.68019723892 0 -914217.68019723892 -240806574.22610855 0 0 0 0 1399059766.3551292 -28396032.954510331 0 -28396032.954510331 -182577602.37837982 0 0 0 0 665490633.75111389 108711807.65701294 0 108711807.65701294 -46785666.139816284 0 0 0 0 205306425.48912048 144981237.696527 0 144981237.696527 101577446.11267018 0 0 0 0 453732996.52587128 60980555.432860374 0 60980555.432860374 79065478.70183754 0 0 0 0 5487963.7437973022 -147852836.96417546 0 -147852836.96417546 113237857.87708569 0 0 0 0 -165449986.00375366 64368741.693988323 0 64368741.693988323 55117203.323498726 0 0 0 0 -135417504.40185547 125207175.54098392 0 125207175.54098392 164910733.14295673 0 0 0 0 -202691556.33272552 123639670.55412149 0 123639670.55412149 15614503.594421387 0 0 0 0 -220467824.18121338 -79065683.200809479 0 -79065683.200809479 -13121394.302206039 0 0 0 0 -202742115.63694763 -18731501.003987789 0 -18731501.003987789 111353547.36454868 0 0 0 0 -179386805.74662781 -105449555.57193279 0 -105449555.57193279 -82182107.007461548 0 0 0 0 -137640702.84074402 -185247244.17822313 0 -185247244.17822313 50057799.249433994 0 0 0 0 -151695299.37353516 10703369.832416534 0 10703369.832416534 173706383.53675246 0 0 0 0 -99716848.751917839 174429360.79338434 0 174429360.79338434 202240328.18182564 0 0 0 0 -98096447.711837769 196913110.52245235 0 196913110.52245235 5476796.6260995865 0 0 0 0 -128951679.22793579 19733411.203103065 0 19733411.203103065 142037337.91665792 0 0 0 0 -144328195.462883 17407376.541241169 0 17407376.541241169 292131675.82115173 0 0 0 0 2021459.1936240494 -686974.97287994064 0 -686974.97287994064 513117.19773162832 0 0 0 0 545186525.51409912 259453837.97278786 0 259453837.97278786 264630543.25399473 0 0 0 0 1000683551.090416 -173569187.17555523 0 -173569187.17555523 -433335585.90912342 0 0 0 0 1610822745.4902954 108437142.43934822 0 108437142.43934822 -166319979.15315151 0 0 0 0 621635010.19264984 295587247.73789549 0 295587247.73789549 3038044.4297709465 0 0 0 0 1306687.6207070351 -158765.48235885892 0 -158765.48235885892 511968.71476238873 0 0 0 0 1305410881.5653381 218516599.64238691 0 218516599.64238691 -163672628.42634869 0 0 0 0 707167969.36668015 -197335744.0656774 0 -197335744.0656774 -249409742.75209999 0 0 0 0 1285200755.5311584 -65069069.660633087 0 -65069069.660633087 -74767366.661840558 0 0 0 0 1502423761.6490479 -11669032.804603577 0 -11669032.804603577 -96006713.938892603 0 0 0 0 1093517526.7546234 25619039.99250412 0 25619039.99250412 -49700383.16189003 0 0 0 0 -57478817.081122398 42024332.819850445 0 42024332.819850445 23776196.066543579 0 0 0 0 1483645594.7319536 10532760.780042231 0 10532760.780042231 -44449664.322202682 0 0 0 0 3774385.229298098 8850750.4533271566 0 8850750.4533271566 17684931.365698192 0 0 0 0 1499586279.2901917 -83871929.071949959 0 -83871929.071949959 216953860.37454367 0 0 0 0 1299855.5304603577 34315019.527352333 0 34315019.527352333 1799397.1384925842 0 0 0 0 -8764629.4466934204 51195610.651832581 0 51195610.651832581 -1095644.5870676041 0 0 0 0 15666767.231723785 45941679.903816223 0 45941679.903816223 473389.42810440063 0 0 0 0 -17130914.981628418 12511811.046325684 0 12511811.046325684 17672995.58272171 0 0 0 0 16382232.883132935 26537404.289421082 0 26537404.289421082 13481628.013702393 0 0 0 0 17509419.126579285 19036356.826780319 0 19036356.826780319 41524540.818710327 0 0 0 0 8483633.5629348755 36365103.959705353 0 36365103.959705353 36204110.424571991 0 0 0 0 676574012.296875 -555466780.82309771 0 -555466780.82309771 75138705.406719446 0 0 0 0 20918424.718255177 1942193.6041459367 0 1942193.6041459367 -9290177.3433598056 0 0 0 0 7235630.1531219482 35107940.76705265 0 35107940.76705265 46922531.267997742 0 0 0 0 876572329.36059189 318720643.24562633 0 318720643.24562633 194171375.71125746 0 0 0 0 4160060.938611554 13648182.307881214 0 13648182.307881214 25363688.5950801 0 0 0 0 1462222755.4267273 223477326.09086943 0 223477326.09086943 -20560313.31098175 0 0 0 0 1596461140.3486633 280385886.92373323 0 280385886.92373323 -132967221.14330339 0 0 0 0 1707209744.3368378 436436796.78907657 0 436436796.78907657 75905242.771921158 0 0 0 0 1347008283.2140007 648540928.84363151 0 648540928.84363151 363982091.23480463 0 0 0 0 -845509955.02680969 747955802.23150039 0 747955802.23150039 590195840.92003727 0 0 0 0 1755469.9262174107 2037295.9108249471 0 2037295.9108249471 -343605.67920690915 0 0 0 0 -11364034.26373291 -100505616.14109755 0 -100505616.14109755 -297897177.43349886 0 0 0 0 549796434.61288452 70248553.472471237 0 70248553.472471237 -517021089.62612844 0 0 0 0 2523833589.1654053 556480366.40668821 0 556480366.40668821 -97296180.904819489 0 0 0 0 5239409.1284303963 1899300.9322188906 0 1899300.9322188906 3401091.7018283 0 0 0 0 1936064198.7294388 926897063.46675658 0 926897063.46675658 321979396.92254066 0 0 0 0 3208502491.9413757 297176159.30377865 0 297176159.30377865 -563286454.60510838 0 0 0 0 1156270.711274974 -674184.0573496744 0 -674184.0573496744 3833088.200150176 0 0 0 0 361465563.97138214 -279374795.14545631 0 -279374795.14545631 147917547.4217329 0 0 0 0 -887068681.20132446 320485825.92039955 0 320485825.92039955 201601066.57413661 0 0 0 0 398603663.79783821 -75499196.809000522 0 -75499196.809000522 36262981.058119297 0 0 0 0 -929229004.70684814 557350214.13057327 0 557350214.13057327 -4703868.6468486786 0 0 0 0 -40067775.762786865 -31156247.783602715 0 -31156247.783602715 146561783.86138821 0 0 0 0 23349700.160934448 -304687164.50705528 0 -304687164.50705528 514775296.56347847 0 0 0 0 159969430.69187927 -178271632.56078386 0 -178271632.56078386 144849462.13931429 0 0 0 0 72778333.61151123 -124499814.46044254 0 -124499814.46044254 215622710.92788601 0 0 0 0 51090025.766994476 -45808323.441555738 0 -45808323.441555738 75521510.297611237 0 0 0 0 138641263.62046814 -137938832.07658386 0 -137938832.07658386 138504318.24702644 0 0 0 0 124664200.05036926 -49033143.136610985 0 -49033143.136610985 20046867.804608136 0 0 0 0 14925042.065383911 60256904.933555365 0 60256904.933555365 22111723.178057671 0 0 0 0 68197949.094482422 -17771427.108421087 0 -17771427.108421087 113271829.33333921 0 0 0 0 -6855055.0088806152 62588174.49189806 0 62588174.49189806 64663105.061242342 0 0 0 0 20799210.452400208 71811370.547037721 0 71811370.547037721 -18778633.779038906 0 0 0 0 -109810935.63911438 256991078.5997982 0 256991078.5997982 -46062013.202516556 0 0 0 0 20521934.580726624 8328633.2545257807 0 8328633.2545257807 169492404.69584942 0 0 0 0 -238547359.91397095 22312534.434935093 0 22312534.434935093 406994212.06179094 0 0 0 0 57925689.711994171 38707490.065957069 0 38707490.065957069 8978757.5662918091 0 0 0 0 49042762.473972321 51961170.473793983 0 51961170.473793983 10720424.574493408 0 0 0 0 29765413.583926409 -151110.38559134677 0 -151110.38559134677 -11491966.872792739 0 0 0 0 19931680.949546814 57806341.486637115 0 57806341.486637115 -8359749.4683046341 0 0 0 0 54099479.791061401 48148290.085605145 0 48148290.085605145 -11515929.870376587 0 0 0 0 59793143.231655121 35339922.1631217 0 35339922.1631217 7961235.1215629578 0 0 0 0 20190953.35723114 37881119.391052246 0 37881119.391052246 11132788.559372902 0 0 0 0 57277536.686088562 28226307.771215439 0 28226307.771215439 -10895246.422699928 0 0 0 0 81854462.978977203 -12681922.924214363 0 -12681922.924214363 -21214730.411964417 0 0 0 0 49846445.591863632 21833310.838996172 0 21833310.838996172 4517169.4088053703 0 0 0 0 51759814.639663696 27797773.523049831 0 27797773.523049831 -156687743.26582313 0 0 0 0 64851413.479972839 28899684.277534485 0 28899684.277534485 5603709.5086209774 0 0 0 0 79791481.688961029 38562490.837681532 0 38562490.837681532 -9843426.9599885941 0 0 0 0 19223975.206223883 10693293.224923998 0 10693293.224923998 4310981.5147480164 0 0 0 0 34084669.605627604 -2626293.3811597899 0 -2626293.3811597899 -9932150.3746275585 0 0 0 0 33791157.660064697 35255894.145606995 0 35255894.145606995 17949152.692566395 0 0 0 0 28458897.286715895 27128409.429057498 0 27128409.429057498 13508244.397747228 0 0 0 0 31761500.742927551 43654741.979541779 0 43654741.979541779 19146062.844260216 0 0 0 0 27844351.120933533 26360260.618213654 0 26360260.618213654 15399164.039197922 0 0 0 0 33939818.751410484 34426713.915650368 0 34426713.915650368 22572971.842536926 0 0 0 0 21589597.288703918 30771342.728183568 0 30771342.728183568 18790750.579850674 0 0 0 0 25822213.197815895 59654020.307573766 0 59654020.307573766 11984181.377017021 0 0 0 0 36041912.223707817 31615167.046002842 0 31615167.046002842 10964657.494396109 0 0 0 0 -1313957.0189743042 22159934.994561791 0 22159934.994561791 -6077737.3387508392 0 0 0 0 99018223.274673462 62039620.924529552 0 62039620.924529552 40228728.194541216 0 0 0 0 99137817.680923462 19911616.83823061 0 19911616.83823061 16340853.700003147 0 0 0 0 7819504.8162193298 44894282.43573308 0 44894282.43573308 39336295.820648193 0 0 0 0 8216858.7166592479 4435267.2374466136 0 4435267.2374466136 2653839.7428123937 0 0 0 0 7037394.6590499878 57899194.393099308 0 57899194.393099308 32269541.956791878 0 0 0 0 131205202.28702545 27916781.330339193 0 27916781.330339193 6625848.0628623962 0 0 0 0 148198722.27954102 58022860.178437352 0 58022860.178437352 -13941259.889715195 0 0 0 0 252001471.7335968 144581273.69080329 0 144581273.69080329 -14900438.678657055 0 0 0 0 143760488.25294495 90327887.491415501 0 90327887.491415501 -38274555.346596718 0 0 0 0 5146681.1646936238 2879314.8934371173 0 2879314.8934371173 -226798.58745102352 0 0 0 0 142720998.60522461 81076109.334415913 0 81076109.334415913 11494657.544172287 0 0 0 0 4555495.1984691769 4303480.5869364589 0 4303480.5869364589 -956332.2354079145 0 0 0 0 121086152.22749329 -35726455.817803383 0 -35726455.817803383 112162141.2592535 0 0 0 0 46884679.195198059 69244800.007556677 0 69244800.007556677 25980679.288341522 0 0 0 0 12536359.630602434 6884162.1412437782 0 6884162.1412437782 -744923.23044727044 0 0 0 0 51907948.7159729 54125542.108382225 0 54125542.108382225 -84009363.500237703 0 0 0 0 17913834.600818157 -185946969.68720412 0 -185946969.68720412 -79765436.624000788 0 0 0 0 -2478783.4910202026 54200947.240055442 0 54200947.240055442 29905830.58239603 0 0 0 0 16827486.121520996 71461006.693492889 0 71461006.693492889 32956606.975471079 0 0 0 0 56409015.256983757 94098094.336789355 0 94098094.336789355 -32665702.4947505 0 0 0 0 218271849.68395233 273688391.13789594 0 273688391.13789594 21466882.768371969 0 0 0 0 402694383.75468445 71543243.630964041 0 71543243.630964041 -15633376.559324265 0 0 0 0 673595778.68234253 -133693981.63233042 0 -133693981.63233042 -136744365.2274977 0 0 0 0 2562587.6206436753 2073231.0060249195 0 2073231.0060249195 707174.81151855178 0 0 0 0 326118142.60350609 -164368731.59529775 0 -164368731.59529775 102018468.09235716 0 0 0 0 189464358.32002258 49885093.45736289 0 49885093.45736289 42050887.912271976 0 0 0 0 142566186.3566761 -182684083.85728657 0 -182684083.85728657 146436932.44228935 0 0 0 0 367683941.82884979 -47584627.14875406 0 -47584627.14875406 16225306.701626778 0 0 0 0 428684758.70992851 129934419.54806471 0 129934419.54806471 -74909162.480157584 0 0 0 0 -3196345.4427642822 -17764130.099926472 0 -17764130.099926472 107897863.39176357 0 0 0 0 1258735.4939521104 934621.17812936008 0 934621.17812936008 331072.12832989148 0 0 0 0 -31753090.29813385 74041068.191005349 0 74041068.191005349 139882901.55655313 0 0 0 0 593169323.98446465 64913427.618391119 0 64913427.618391119 -134741032.76658028 0 0 0 0 613016576.87286377 -95972961.848022476 0 -95972961.848022476 -312463.77715612034 0 0 0 0 95343740.967971802 -204023205.34639007 0 -204023205.34639007 231690705.66562784 0 0 0 0 263065685.89741898 168567258.94016379 0 168567258.94016379 -49961417.934738711 0 0 0 0 649349040.90888214 -97035186.111949682 0 -97035186.111949682 -67491620.684863225 0 0 0 0 2188081.543785423 5740.6285217367113 0 5740.6285217367113 -260245.25679860055 0 0 0 0 350135790.28572083 -341541619.33780408 0 -341541619.33780408 269384372.29934543 0 0 0 0 110856291.40068054 -44410184.475699604 0 -44410184.475699604 76805074.371501207 0 0 0 0 106533834.08117676 -117103113.5313338 0 -117103113.5313338 111449050.00870204 0 0 0 0 118166812.54931641 -56531833.282147408 0 -56531833.282147408 23442825.945359111 0 0 0 0 5401930.7356578708 535864.64009577036 0 535864.64009577036 -494526.17139871995 0 0 0 0 27397788.486976624 -65935449.77683112 0 -65935449.77683112 221689.08889064688 0 0 0 0 -22954301.631484985 -24558782.701013565 0 -24558782.701013565 -21297582.988546491 0 0 0 0 5327022.6585002169 -23094.156159743667 0 -23094.156159743667 -315340.14490899752 0 0 0 0 -5736368.9856376648 8842893.1703395396 0 8842893.1703395396 -392628.22319500893 0 0 0 0 8389138.4107745141 -478530.64216182381 0 -478530.64216182381 26061.258253003314 0 0 0 0 8330677.5280303955 -5747100.9010162503 0 -5747100.9010162503 -9191778.7928979993 0 0 0 0 145398757.12568665 -69279868.634266376 0 -69279868.634266376 3643144.3257110119 0 0 0 0 3209314.8807830047 1276690.5102094188 0 1276690.5102094188 -343391.20411895891 0 0 0 0 3719526.8372802734 -28616152.358878493 0 -28616152.358878493 89718503.91160059 0 0 0 0 213956542.40608215 -87956478.067039013 0 -87956478.067039013 53590983.425507903 0 0 0 0 201239785.2850647 -170615144.11207223 0 -170615144.11207223 113022880.49779087 0 0 0 0 128782610.8221283 -105161279.57267857 0 -105161279.57267857 173855464.32462263 0 0 0 0 151324855.10188293 -163970436.06885839 0 -163970436.06885839 130776732.559865 0 0 0 0 208446371.23286438 -117429109.39201993 0 -117429109.39201993 75854673.591853619 0 0 0 0 2175539.8897235096 1627413.2804205865 0 1627413.2804205865 1205653.3586004754 0 0 0 0 175165914.46347809 -45889385.784094244 0 -45889385.784094244 98200308.644284248 0 0 0 0 124701661.22428131 -150291422.98608553 0 -150291422.98608553 127836937.17430735 0 0 0 0 161113482.14275694 -136511070.08662441 0 -136511070.08662441 54960865.539892197 0 0 0 0 -13617431.377597809 -10281053.390230477 0 -10281053.390230477 4538742.2121171951 0 0 0 0 1084108.0438283198 589969.06881557405 0 589969.06881557405 -97368.281718570273 0 0 0 0 207632581.23806 -159478639.45050561 0 -159478639.45050561 103629164.00307441 0 0 0 0 150191108.50533676 -162492058.97354549 0 -162492058.97354549 131011912.69983435 0 0 0 0 146888213.23122406 -124005841.6518265 0 -124005841.6518265 82430475.229691625 0 0 0 0 78746680.648849487 56814407.231536508 0 56814407.231536508 -14961085.831556559 0 0 0 0 -5632243.365814209 3392699.4093481898 0 3392699.4093481898 10578055.97747612 0 0 0 0 -836195285.37458801 -337005666.65592778 0 -337005666.65592778 526167215.6885376 0 0 0 0 489341156.12523651 1447301161.5122719 0 1447301161.5122719 312899082.39973783 0 0 0 0 2329628208.2689514 -1233511537.382777 0 -1233511537.382777 242423977.36244953 0 0 0 0 5779980.3695814833 -1553462.7597934455 0 -1553462.7597934455 2946006.5809157179 0 0 0 0 9762966.3086152077 -147138.26480558515 0 -147138.26480558515 106732.28099894203 0 0 0 0 16805922.356918335 15252067.294714749 0 15252067.294714749 -7942179.0615599751 0 0 0 0 20842880.971557617 -13741902.762349486 0 -13741902.762349486 -4083710.4870298505 0 0 0 0 11577387.877700806 7123834.3030595779 0 7123834.3030595779 -9920332.0702945907 0 0 0 0 9388588.6423912048 2481959.7497785278 0 2481959.7497785278 -10448633.473786891 0 0 0 0 31261347.727783203 6176802.1592787933 0 6176802.1592787933 -11476950.583559513 0 0 0 0 10799494.239349365 16161396.281928264 0 16161396.281928264 18253.165199216612 0 0 0 0 883008.58558654785 -17862753.627763752 0 -17862753.627763752 2117706.6101628933 0 0 0 0 27434398.607834816 -10058851.945400784 0 -10058851.945400784 -9633490.419497706 0 0 0 0 4716491.4716113657 -524782.35889858752 0 -524782.35889858752 175787.35358388661 0 0 0 0 9108249.6905326843 -8114481.9885952808 0 -8114481.9885952808 -9831398.7496141866 0 0 0 0 15778075.043838501 -1436623.6033859365 0 -1436623.6033859365 -10397512.392680585 0 0 0 0 505388056.33370972 -304771376.16268384 0 -304771376.16268384 163671747.74739775 0 0 0 0 1053453931.551712 337386623.29485166 0 337386623.29485166 -127444692.47625789 0 0 0 0 957945600.02532959 250053349.27983022 0 250053349.27983022 -194491145.45095405 0 0 0 0 1230634293.5290222 327450250.88029212 0 327450250.88029212 -181483374.52053714 0 0 0 0 1682471.9381432086 -266184.18968982249 0 -266184.18968982249 172724.78151853787 0 0 0 0 1171320367.5000763 231323160.77601731 0 231323160.77601731 -129148958.70517077 0 0 0 0 754430408.98353577 139479850.85600615 0 139479850.85600615 -8074976.4303713562 0 0 0 0 925062146.91841888 173990598.49401319 0 173990598.49401319 -133033684.69253582 0 0 0 0 795375675.31388855 392406649.70184255 0 392406649.70184255 -14118931.624422044 0 0 0 0 467474421.46906281 118365239.87406158 0 118365239.87406158 -98841511.141064167 0 0 0 0 729028644.33311462 787119354.28551507 0 787119354.28551507 1102188198.8140957 0 0 0 0 1110139234.0185089 -415279204.01540017 0 -415279204.01540017 151911603.81140861 0 0 0 0 4960183.5930649787 1088558.3864356242 0 1088558.3864356242 438344.5458526978 0 0 0 0 1771188206.9882355 155285170.45934927 0 155285170.45934927 -191546505.62336034 0 0 0 0 1271752518.1109314 1042864667.3643378 0 1042864667.3643378 77107920.201148897 0 0 0 0 1068707524.9417114 1099364625.5910435 0 1099364625.5910435 62340639.787901163 0 0 0 0 10150050.279102996 1909439.6652990561 0 1909439.6652990561 -1077221.5071189757 0 0 0 0 972575613.17715263 1344280050.594547 0 1344280050.594547 606257650.77637815 0 0 0 0 379273105.54776001 -256518267.93669987 0 -256518267.93669987 67676234.25760293 0 0 0 0 275432037.47553253 -37338224.568404198 0 -37338224.568404198 -361998696.33116817 0 0 0 0 27604668.856811523 -9811096.9857640266 0 -9811096.9857640266 -13765604.845465183 0 0 0 0 57052897.745994568 -9013182.3191268444 0 -9013182.3191268444 -14504523.488922954 0 0 0 0 11085709.661254883 -6046422.4675779343 0 -6046422.4675779343 -8864107.2978534698 0 0 0 0 519507.13861083984 28948880.38036716 0 28948880.38036716 -16420396.69390583 0 0 0 0 28693022.480947495 -22957187.946937859 0 -22957187.946937859 -50388626.560581207 0 0 0 0 25185240.718589783 28404253.576309919 0 28404253.576309919 -52559981.857899085 0 0 0 0 5978353.4925460815 30189109.748445272 0 30189109.748445272 -26888047.772707462 0 0 0 0 33255747.341907501 -11389374.58708322 0 -11389374.58708322 -26235010.666552544 0 0 0 0 25677722.979393005 20245038.403129578 0 20245038.403129578 -631381.10440802574 0 0 0 0 5783232.2791161314 -3020670.0394572467 0 -3020670.0394572467 -2446124.0472888369 0 0 0 0 -5144777.4835338593 -12505599.488799199 0 -12505599.488799199 -1198249.1041927338 0 0 0 0 143464746.01107025 27681780.750974655 0 27681780.750974655 -18428833.476910114 0 0 0 0 153663287.62504578 -20383038.080340147 0 -20383038.080340147 221829.38786268234 0 0 0 0 -5509099.5400390625 -9804395.3169665635 0 -9804395.3169665635 -5601963.8353490829 0 0 0 0 16569902.338806137 -3446578.6891509369 0 -3446578.6891509369 -6066757.8369274 0 0 0 0 -35979921.092842102 -36521014.720509291 0 -36521014.720509291 -32647809.44839859 0 0 0 0 -6007855.819644928 -10092818.67433241 0 -10092818.67433241 4206287.8318715096 0 0 0 0 -7604747.4708745182 -6216660.6622161455 0 -6216660.6622161455 3625576.2279601567 0 0 0 0 -9006399.529876709 -14171999.467471719 0 -14171999.467471719 4715841.0868766308 0 0 0 0 -5556827.6377182007 -13957903.570886493 0 -13957903.570886493 -3220331.4508509636 0 0 0 0 -13844651.545318604 -20550874.103744745 0 -20550874.103744745 -7917836.7646903992 0 0 0 0 -15163110.919675827 -2411898.5817938894 0 -2411898.5817938894 -10349889.027634382 0 0 0 0 3335624.5445265435 -409704.79191067815 0 -409704.79191067815 -2762621.7667085538 0 0 0 0 32687541.078475952 -8256148.7111725807 0 -8256148.7111725807 -10663105.037405014 0 0 0 0 96256686.92665863 50487801.68811512 0 50487801.68811512 28952677.999662876 0 0 0 0 319430198.58876038 33149036.533771992 0 33149036.533771992 -62603948.166861296 0 0 0 0 535556.02083465829 131980.70187916607 0 131980.70187916607 48116.535508386325 0 0 0 0 8165787.5097862892 380020.69284646958 0 380020.69284646958 -4436625.3162994944 0 0 0 0 -13229836.118246078 -21075762.2576814 0 -21075762.2576814 77940.392322063446 0 0 0 0 -25634481.570110321 -2023363.7036167383 0 -2023363.7036167383 14929382.082162857 0 0 0 0 218665521.07373047 33797796.82860148 0 33797796.82860148 -34396544.917032242 0 0 0 0 -425796.32725838572 -1707297.9266173542 0 -1707297.9266173542 1594429.5664028758 0 0 0 0 39578700.500823975 85418901.709359765 0 85418901.709359765 45742338.723621726 0 0 0 0 -51244807.732940674 -7388983.0055472255 0 -7388983.0055472255 -10107155.048410267 0 0 0 0 33436210.264156103 -60724543.608947232 0 -60724543.608947232 11129414.702788591 0 0 0 0 6335136.5517548099 -3297593.6271740645 0 -3297593.6271740645 -2015369.9519463375 0 0 0 0 -60452555.606384277 19410120.882209778 0 19410120.882209778 -16528702.899526596 0 0 0 0 135820273.73397827 -25684286.495545328 0 -25684286.495545328 -86408722.062145233 0 0 0 0 143195656.77344894 -55708931.939656556 0 -55708931.939656556 18549054.51591444 0 0 0 0 74413725.553598404 89040411.571642339 0 89040411.571642339 87874652.894584179 0 0 0 0 123890312.45078659 114514296.12165433 0 114514296.12165433 64654757.367980957 0 0 0 0 -12011646.637748718 111349292.48053408 0 111349292.48053408 -21895493.038810253 0 0 0 0 60256352.951171875 28667837.194951534 0 28667837.194951534 53711838.04211998 0 0 0 0 149292181.32203674 35366934.385735989 0 35366934.385735989 -12022779.615136147 0 0 0 0 27861048.485527039 -7116473.8570666909 0 -7116473.8570666909 -14967625.078019142 0 0 0 0 12044538.059560508 1223495.6150517613 0 1223495.6150517613 -3855027.3833515029 0 0 0 0 29680069.266220093 -2446161.0429468155 0 -2446161.0429468155 -42769463.497852802 0 0 0 0 2605769.544708252 20865084.869485378 0 20865084.869485378 -10908252.075782776 0 0 0 0 -11118077.890258789 -25529961.651509523 0 -25529961.651509523 17584881.758939981 0 0 0 0 2764666.2877620459 -636419.32672427967 0 -636419.32672427967 -2028106.594513109 0 0 0 0 73440810.767261505 -56716802.476922393 0 -56716802.476922393 41229812.286456108 0 0 0 0 -2439764.2596435547 3418661.5548911095 0 3418661.5548911095 -18471797.357557058 0 0 0 0 -59967076.134716034 31431664.013123274 0 31431664.013123274 41854010.870476723 0 0 0 0 21366540.687171936 56442511.999970436 0 56442511.999970436 96789830.71029377 0 0 0 0 21398666.589935303 3819972.7060687542 0 3819972.7060687542 11641093.39647913 0 0 0 0 9144544.0356445312 -20603846.243806839 0 -20603846.243806839 -22486395.60290122 0 0 0 0 26148757.275901794 -31314085.282841921 0 -31314085.282841921 3240095.3276386261 0 0 0 0 142037662.19979858 39491176.458321333 0 39491176.458321333 18604751.845204473 0 0 0 0 74300613.519683838 34565290.18844676 0 34565290.18844676 7118777.5971088409 0 0 0 0 41393984.315162659 -7124250.0350804329 0 -7124250.0350804329 4553980.0743818283 0 0 0 0 81926135.711029053 -51818508.325321674 0 -51818508.325321674 -572045.94337320328 0 0 0 0 9657285.1854782104 -25458795.473034143 0 -25458795.473034143 8206428.5551410317 0 0 0 0 18265220.492184423 2525778.3377359807 0 2525778.3377359807 -4667558.9058731552 0 0 0 0 76985199.828128815 78833098.639870167 0 78833098.639870167 77366080.9146595 0 0 0 0 -1042616.4782108814 -1965898.2239141166 0 -1965898.2239141166 230287.63291573478 0 0 0 0 -10503247.41166687 -7739531.7494482994 0 -7739531.7494482994 10052322.012460232 0 0 0 0 21754807.377259254 18819735.033452153 0 18819735.033452153 8650865.4337096214 0 0 0 0 25476471.829628021 -204427.95528230816 0 -204427.95528230816 -16618104.017318904 0 0 0 0 91931970.250873566 50090350.030189514 0 50090350.030189514 -8394451.1837501526 0 0 0 0 33219564.073791504 -8926696.5099163055 0 -8926696.5099163055 2687486.0446853638 0 0 0 0 9783306.6639096439 5339435.0620962083 0 5339435.0620962083 -4424292.3907892732 0 0 0 0 17581008.609558105 14022502.605460167 0 14022502.605460167 -1849022.6478779316 0 0 0 0 14798708.513206482 34023470.394006252 0 34023470.394006252 -6195891.5441799164 0 0 0 0 55144466.590454102 61541864.419801235 0 61541864.419801235 1217942.9938044548 0 0 0 0 63432429.764251709 21608279.706478596 0 21608279.706478596 15815713.258500099 0 0 0 0 43193382.429382324 40162746.936760902 0 40162746.936760902 66890731.906836987 0 0 0 0 62452045.771270752 49519860.713731289 0 49519860.713731289 62653870.824104071 0 0 0 0 6773077.8740997314 10170185.730019569 0 10170185.730019569 66204314.039345741 0 0 0 0 732581.57993178256 547055.92197319865 0 547055.92197319865 -110774.52118538506 0 0 0 0 54105066.443145752 35247250.737930298 0 35247250.737930298 15185062.525993347 0 0 0 0 55341740.274959564 57358134.73421669 0 57358134.73421669 5844930.5832562447 0 0 0 0 86292512.438091278 33732786.929213524 0 33732786.929213524 21478893.696079254 0 0 0 0 24534058.955432892 26887255.1324265 0 26887255.1324265 21953723.399459839 0 0 0 0 33925451.329404771 27916250.988396998 0 27916250.988396998 -19410320.044570923 0 0 0 0 3190211.3552773297 1378665.7712202147 0 1378665.7712202147 -324061.20468498766 0 0 0 0 72984881.734035492 36686499.359079361 0 36686499.359079361 13745746.692434311 0 0 0 0 35056669.375467233 6236111.2657443099 0 6236111.2657443099 -13064253.438372407 0 0 0 0 68100592.241672516 57367369.105895996 0 57367369.105895996 20438974.129204452 0 0 0 0 24505389.676696777 13352898.254262924 0 13352898.254262924 8474766.6815261841 0 0 0 0 13660097.864715576 3502413.4580907822 0 3502413.4580907822 -13519367.55796814 0 0 0 0 9346918.5499786213 17723758.92178268 0 17723758.92178268 3212796.1776245777 0 0 0 0 22390890.438354298 2499246.4717154577 0 2499246.4717154577 -11280673.070581526 0 0 0 0 34596223.874206543 174480.08503723145 0 174480.08503723145 -1722778.635597229 0 0 0 0 34693572.529737316 -358291.69827744365 0 -358291.69827744365 -14001772.549397031 0 0 0 0 18159275.993480846 9855797.6604738608 0 9855797.6604738608 -9438264.2255367618 0 0 0 0 -227001234.16213989 26705607.009580851 0 26705607.009580851 -16684168.289162159 0 0 0 0 7902320.2006587535 8292100.3493636958 0 8292100.3493636958 -5595858.5457267873 0 0 0 0 65620422.303108215 169471041.09475064 0 169471041.09475064 -24722671.729886696 0 0 0 0 193446866.79032898 -83396211.514473915 0 -83396211.514473915 -61408315.914570808 0 0 0 0 -10971653.594696045 21934094.565975428 0 21934094.565975428 23754393.750180066 0 0 0 0 -50239334.896759033 36201164.054708958 0 36201164.054708958 21679669.700414181 0 0 0 0 18344877.515686035 33883495.762953639 0 33883495.762953639 -6986151.98957555 0 0 0 0 68032451.067846239 -111865475.12262037 0 -111865475.12262037 -1159384.6441578865 0 0 0 0 1998143.7687462419 -18343.089275959879 0 -18343.089275959879 -123891.16022333596 0 0 0 0 37281397.441703796 6471949.4613244534 0 6471949.4613244534 -23385994.86785841 0 0 0 0 21177955.011450239 10428437.973238487 0 10428437.973238487 -5063097.2418759977 0 0 0 0 38085396.505905151 5240623.0429037809 0 5240623.0429037809 -69201788.075335979 0 0 0 0 24988702.098907471 37664109.341124773 0 37664109.341124773 -27658660.404793113 0 0 0 0 36633905.929153442 50122696.453597307 0 50122696.453597307 -16903725.704630375 0 0 0 0 26913756.023406982 37082264.906145573 0 37082264.906145573 -21152260.26267612 0 0 0 0 41345563.016197205 31451358.743349075 0 31451358.743349075 -64770378.115401745 0 0 0 0 51308333.19631958 10340201.957217693 0 10340201.957217693 -9675913.4167084694 0 0 0 0 36797646.359203339 51024148.618891954 0 51024148.618891954 3888092.8222084045 0 0 0 0 45173096.939361572 44084907.929131031 0 44084907.929131031 -22696568.285287857 0 0 0 0 -2781050.278678894 38931850.811671019 0 38931850.811671019 -3713126.6997100115 0 0 0 0 10428225.518867493 51301336.96363759 0 51301336.96363759 271198.38050556183 0 0 0 0 14033873.517166138 58518117.316023827 0 58518117.316023827 4894785.9899802208 0 0 0 0 -20658462.951950073 71916737.107552528 0 71916737.107552528 -296436.9017945528 0 0 0 0 18478533.766220093 25401169.13922596 0 25401169.13922596 -36916562.035834312 0 0 0 0 3577323.1067402214 746347.66381763667 0 746347.66381763667 -668058.56708265841 0 0 0 0 19678700.326942444 2049109.5183634758 0 2049109.5183634758 -22491809.662642241 0 0 0 0 17348515.576820374 -8266620.2404427528 0 -8266620.2404427528 -57522960.713833213 0 0 0 0 11572293.97658819 3484236.9415042587 0 3484236.9415042587 1630444.3129112753 0 0 0 0 22812668.237602234 383491.02291238308 0 383491.02291238308 -4396308.308382947 0 0 0 0 7738708.8987601995 -238928.397426337 0 -238928.397426337 -1615755.3106504302 0 0 0 0 46343671.605514526 -18350965.046002984 0 -18350965.046002984 -3814975.4626076221 0 0 0 0 -6309984.0415480137 19066733.737054281 0 19066733.737054281 -3853141.779654026 0 0 0 0 14183172.57108964 8486085.1895923503 0 8486085.1895923503 -1309271.2552651558 0 0 0 0 -3191113.4996795654 9717338.6792902946 0 9717338.6792902946 2375490.89678967 0 0 0 0 8189080.1448860168 2221662.761297822 0 2221662.761297822 -2881261.0315029621 0 0 0 0 6866752.6852874756 894009.13895589113 0 894009.13895589113 -2507075.1166653633 0 0 0 0 7896543.4521501884 178136.30411613733 0 178136.30411613733 -1322895.8817442176 0 0 0 0 14886954.373200126 1187996.2310591787 0 1187996.2310591787 1416303.5976628345 0 0 0 0 13921810.53754425 56333232.017751813 0 56333232.017751813 -17735379.558934689 0 0 0 0 13249922.926345825 48415827.947422862 0 48415827.947422862 9902580.9943571091 0 0 0 0 16385975.97549215 9305816.9098590575 0 9305816.9098590575 -1707728.6905178213 0 0 0 0 9397632.4996871948 34678814.712247133 0 34678814.712247133 -12723741.833166599 0 0 0 0 9278953.5736083984 37286036.687381387 0 37286036.687381387 -9492927.0579349995 0 0 0 0 -2252463.7316741943 19169585.58374548 0 19169585.58374548 -4978308.407877028 0 0 0 0 -6361027.9110093117 17174080.040833879 0 17174080.040833879 10094370.380995274 0 0 0 0 -3383135.5138702393 9158589.7704389095 0 9158589.7704389095 2181182.8503420353 0 0 0 0 -1517570.2862548828 4841675.9034674168 0 4841675.9034674168 22467301.939514697 0 0 0 0 -997352.19938278198 24786101.850245148 0 24786101.850245148 20136235.040594578 0 0 0 0 5113154.1701126099 -7694288.5131778717 0 -7694288.5131778717 36864869.604297698 0 0 0 0 -2531277.0771026611 28716192.501646996 0 28716192.501646996 11944580.089403763 0 0 0 0 -1830999.5192565918 41739242.975260019 0 41739242.975260019 63902434.813364506 0 0 0 0 3979516.9674224854 5263685.3704272509 0 5263685.3704272509 766037.45818287134 0 0 0 0 3631987.2912063599 2752306.4090945125 0 2752306.4090945125 1833301.8715078831 0 0 0 0 2720862.9758911133 3714651.5295529366 0 3714651.5295529366 487523.63802146912 0 0 0 0 -2762437.4649581909 10061501.226259351 0 10061501.226259351 2489118.8216176033 0 0 0 0 -7175216.1871948242 9975070.083152771 0 9975070.083152771 2815207.3344886303 0 0 0 0 -1709485.3825378418 7095023.3179984093 0 7095023.3179984093 4772842.4156389236 0 0 0 0 -3034565.7243232727 10993760.153895557 0 10993760.153895557 -1285434.3951320648 0 0 0 0 2079262.4414024353 6186920.2805122137 0 6186920.2805122137 -1675673.5879006386 0 0 0 0 778655.46978759766 7513222.0893158913 0 7513222.0893158913 -3004059.2951335907 0 0 0 0 2208508.8699493408 4461754.1189785004 0 4461754.1189785004 402924.45848679543 0 0 0 0 4506979.258272171 5156630.7189886272 0 5156630.7189886272 -1531857.708514452 0 0 0 0 2820176.0437011719 1075590.9661980867 0 1075590.9661980867 -1063154.0516395569 0 0 0 0 109680992.12741089 -202811475.92275396 0 -202811475.92275396 376122240.66782689 0 0 0 0 1907532.4360891581 -718191.34422296192 0 -718191.34422296192 -1610736.2498148908 0 0 0 0 15715016.514404751 7790288.2052321658 0 7790288.2052321658 3731359.0702555948 0 0 0 0 -36529918.915019989 120908961.83836983 0 120908961.83836983 -6184977.5110077644 0 0 0 0 2187506.6833921075 1958978.443669565 0 1958978.443669565 701731.06480142544 0 0 0 0 8575012.2490844727 4265838.8103322983 0 4265838.8103322983 -800807.98020376265 0 0 0 0 6656662.8512844592 4166681.6226400989 0 4166681.6226400989 -1836067.3798578088 0 0 0 0 11932958.048583984 3161462.1218694448 0 3161462.1218694448 -2401491.5788390636 0 0 0 0 8530069.2045822144 5385427.836900115 0 5385427.836900115 -3722782.8898485899 0 0 0 0 1050934.6696564034 19089.215221390128 0 19089.215221390128 -714547.11647467467 0 0 0 0 10167023.70427043 8584409.0521811321 0 8584409.0521811321 -884582.83021350577 0 0 0 0 6854001.3801269531 2811774.1625216305 0 2811774.1625216305 -3762236.989176631 0 0 0 0 -5940260.1220321655 6109071.5139614344 0 6109071.5139614344 1512543.5163621902 0 0 0 0 275763.6866299063 1221495.7910844348 0 1221495.7910844348 -254081.19403190073 0 0 0 0 7982522.8554534912 3725740.2740924358 0 3725740.2740924358 205774.70067063719 0 0 0 0 2329550.4085578918 1777384.899902283 0 1777384.899902283 817.95912834226169 0 0 0 0 5173860.9021831602 2229112.7766221799 0 2229112.7766221799 -431141.16412798612 0 0 0 0 3311828.4534301758 826119.04500631779 0 826119.04500631779 -150521.75936104218 0 0 0 0 8861498.6533279419 4334950.7676948905 0 4334950.7676948905 -842680.26064896584 0 0 0 0 11357415.915571913 6680376.2870505154 0 6680376.2870505154 598746.64968339098 0 0 0 0 3372807.8507995605 731113.20441781287 0 731113.20441781287 -8065.8336526179337 0 0 0 0 6270859.571841538 280738.6941135088 0 280738.6941135088 -932459.63723855233 0 0 0 0 10161048.949836731 993357.36651754379 0 993357.36651754379 -2412213.8897099495 0 0 0 0 7928816.3542740345 2060071.6939302115 0 2060071.6939302115 -2704100.507937789 0 0 0 0 3945852.8352355957 -1924306.5306630346 0 -1924306.5306630346 -817090.01620904799 0 0 0 0 10098437.735534668 823636.49554365873 0 823636.49554365873 -5116293.2939423323 0 0 0 0 11703968.720070735 4514226.1025976017 0 4514226.1025976017 -1635896.5327908464 0 0 0 0 215808949.97799683 -526020776.77312422 0 -526020776.77312422 -768501.65864742943 0 0 0 0 10334829.786636353 -280699.50291079283 0 -280699.50291079283 -4281095.1007386446 0 0 0 0 18882855.047161102 54258681.309104659 0 54258681.309104659 -27586224.36626792 0 0 0 0 15330229.101394653 6849031.2472018003 0 6849031.2472018003 9472967.4512010813 0 0 0 0 4537113.7456218302 1960022.0966088176 0 1960022.0966088176 -838769.86539810465 0 0 0 0 6540030.8629150391 -1255232.4870447153 0 -1255232.4870447153 -10875.472158356153 0 0 0 0 12642227.981599569 2458196.4959343821 0 2458196.4959343821 -1446653.4439310734 0 0 0 0 10994096.971142188 -2208533.093835324 0 -2208533.093835324 -1829966.7618362918 0 0 0 0 7097086.4301452637 798550.23216554523 0 798550.23216554523 -4790358.4505828023 0 0 0 0 14666935.027406484 -5645190.1687817946 0 -5645190.1687817946 -5314177.0730011025 0 0 0 0 4871148.5841674805 -3311736.4053106317 0 -3311736.4053106317 -8483726.5114193689 0 0 0 0 270896488.10072327 -69714591.496576309 0 -69714591.496576309 -220112527.12393761 0 0 0 0 16741156.189287961 -2882574.0851570899 0 -2882574.0851570899 -5538453.3394671744 0 0 0 0 8742021.4465043545 2552973.8973538429 0 2552973.8973538429 -822776.87198829791 0 0 0 0 6639084.8581848145 -2214608.7822303772 0 -2214608.7822303772 -5274695.6769375801 0 0 0 0 11468119.379089355 114210.10446083546 0 114210.10446083546 -7090816.1122168303 0 0 0 0 10475123.645202637 -360470.80401527882 0 -360470.80401527882 -6642190.7594587207 0 0 0 0 6915539.8871483207 513847.39932513516 0 513847.39932513516 -755743.69784549274 0 0 0 0 11689691.786938667 1374828.4826206192 0 1374828.4826206192 -6015370.121593833 0 0 0 0 7378162.2419891357 1580208.2211172581 0 1580208.2211172581 -5203963.48699525 0 0 0 0 4535391.0153884888 -13457343.383597851 0 -13457343.383597851 11380725.808242321 0 0 0 0 15884668.925201416 52926657.360794067 0 52926657.360794067 -7273468.224779129 0 0 0 0 18167824.708825961 2542083.2806656882 0 2542083.2806656882 -2215608.499621978 0 0 0 0 -689215.34125892818 -1292681.3840619922 0 -1292681.3840619922 333877.83962094411 0 0 0 0 222016236.66333723 261348000.10379493 0 261348000.10379493 -142624431.47168732 0 0 0 0 -43662528.291915894 -11599560.053895473 0 -11599560.053895473 -19785121.875566483 0 0 0 0 -38960410.217903137 -48654897.200294018 0 -48654897.200294018 194196001.65172434 0 0 0 0 -104094431.34944153 -46853649.289720058 0 -46853649.289720058 28534508.723232746 0 0 0 0 242029036.40519714 -39692333.713703632 0 -39692333.713703632 -32558632.794963837 0 0 0 0 1002779.2919214517 -95661.735549397767 0 -95661.735549397767 -895021.23193606362 0 0 0 0 49110599.453277588 40085438.07701683 0 40085438.07701683 -59778420.605606556 0 0 0 0 22173453.373531342 34171259.819110751 0 34171259.819110751 -17626758.973891258 0 0 0 0 51319180.632226467 3178465.6015971452 0 3178465.6015971452 -11005744.55772686 0 0 0 0 1567877.2846984863 16049780.85099256 0 16049780.85099256 1045052.8601975441 0 0 0 0 3748650.5694122314 9014340.3149442673 0 9014340.3149442673 1519725.4584007263 0 0 0 0 -12881036.557312012 -12535797.788518503 0 -12535797.788518503 -8123226.5919885933 0 0 0 0 -35388636.559249878 -40440985.599995792 0 -40440985.599995792 -9823628.4065853357 0 0 0 0 -33437687.06289959 -18719965.30188743 0 -18719965.30188743 3999809.7700568438 0 0 0 0 -29853703.281536102 -28360613.253437042 0 -28360613.253437042 -27888678.72771883 0 0 0 0 144460042.48467636 50120844.849607587 0 50120844.849607587 52002906.875016212 0 0 0 0 -46187117.632087708 -41882550.656392574 0 -41882550.656392574 -20282903.169827938 0 0 0 0 -7251695.7253837138 -3649355.3758223243 0 -3649355.3758223243 3112268.9432803532 0 0 0 0 -10454957.650619507 -6884424.094959259 0 -6884424.094959259 -6374752.2856273651 0 0 0 0 5943377.341718398 -2448044.6501890123 0 -2448044.6501890123 -3064846.5483932197 0 0 0 0 252157383.32427979 -37327035.786979675 0 -37327035.786979675 115126355.28723526 0 0 0 0 16008995.766658485 -3034265.8478633389 0 -3034265.8478633389 -3464949.254224984 0 0 0 0 -13038340.857269287 -12290299.934347987 0 -12290299.934347987 5959584.3727399111 0 0 0 0 -29835063.634643555 -39905487.727355957 0 -39905487.727355957 -25273778.82336998 0 0 0 0 -1384075.1776662171 -340176.79196994007 0 -340176.79196994007 498256.73782713979 0 0 0 0 -41118256.079860687 -39251164.162455857 0 -39251164.162455857 -33872423.932146072 0 0 0 0 17481184.942770228 -2666841.0316596404 0 -2666841.0316596404 -2773770.0682122321 0 0 0 0 -100050428.01397705 -90864104.070590973 0 -90864104.070590973 -43797468.619353414 0 0 0 0 -12288024.096748352 -24703036.14691335 0 -24703036.14691335 -4899457.1790690422 0 0 0 0 -3811717.1351165771 -21769594.230797559 0 -21769594.230797559 -12965155.477532506 0 0 0 0 -5945691.1480731964 -118515.76604583859 0 -118515.76604583859 2231279.2277576923 0 0 0 0 -1295072.3078174591 -6623771.4921022542 0 -6623771.4921022542 -2973290.867563121 0 0 0 0 959864.08491516113 -978265.60472868383 0 -978265.60472868383 -5318722.6741666794 0 0 0 0 14627.204069137573 -617125.74326635455 0 -617125.74326635455 871555.38747986406 0 0 0 0 3092446.9784698486 -5318498.1715646982 0 -5318498.1715646982 -5436608.0279859304 0 0 0 0 2728444.6352920383 -2450016.0459996127 0 -2450016.0459996127 1588979.630596804 0 0 0 0 1919165.7329711914 -4158423.302852869 0 -4158423.302852869 -1387305.2478422821 0 0 0 0 3368576.9196472168 -7563822.9985734904 0 -7563822.9985734904 -3152758.222106047 0 0 0 0 -2388159.5975365192 -5598336.7683961662 0 -5598336.7683961662 -203542.32853584367 0 0 0 0 5104915.6098632812 -5556331.4994755983 0 -5556331.4994755983 -3972889.346897006 0 0 0 0 1991677.2381896973 -4841540.9646581411 0 -4841540.9646581411 -4136082.2397356331 0 0 0 0 3062340.5450286865 -1776886.7354319096 0 -1776886.7354319096 -5278054.2998796357 0 0 0 0 6237604.4986419678 -2793359.4710847163 0 -2793359.4710847163 -7139103.5162290642 0 0 0 0 610965.51444104314 -198532.39490000904 0 -198532.39490000904 -286477.6827692021 0 0 0 0 6092713.2885150909 -2611881.3232594482 0 -2611881.3232594482 -2377078.9540906823 0 0 0 0 11581050.703155518 -2404625.8290667366 0 -2404625.8290667366 -2084316.2487614965 0 0 0 0 4775259.0131835938 -3755055.6180963372 0 -3755055.6180963372 4346.5757562042236 0 0 0 0 2079395.1519470215 -7480775.9837371483 0 -7480775.9837371483 -2294470.4863793477 0 0 0 0 12640540.688293457 5157269.9300483018 0 5157269.9300483018 5186859.7681992305 0 0 0 0 53378328.94606781 3934223.4012307529 0 3934223.4012307529 -5767924.1682728697 0 0 0 0 28723725.361354828 -2699681.9375698557 0 -2699681.9375698557 7388.4268786273569 0 0 0 0 21245021.412887573 12700810.415357519 0 12700810.415357519 7593188.5676243566 0 0 0 0 20487342.257537842 2809152.2704122327 0 2809152.2704122327 5276089.0720204934 0 0 0 0 8276785.7161026001 -7780957.3912246488 0 -7780957.3912246488 -7643258.4548033718 0 0 0 0 -1201137.4124755859 -3214286.4178428426 0 -3214286.4178428426 5916085.4247233272 0 0 0 0 10056522.540756226 9834287.1035792679 0 9834287.1035792679 1547922.0075174198 0 0 0 0 2961282.3816486895 -1158372.7965941988 0 -1158372.7965941988 594947.47590742982 0 0 0 0 18577076.803948402 -2357392.1856933227 0 -2357392.1856933227 -1847554.8532807343 0 0 0 0 46217019.147590637 -25762356.146095339 0 -25762356.146095339 -3319829.1357612088 0 0 0 0 54912791.001939774 6688676.2718985304 0 6688676.2718985304 -7971725.5208479036 0 0 0 0 69667822.623771667 -8737632.2886084467 0 -8737632.2886084467 -28322.205702125349 0 0 0 0 107438208.05680847 3665322.0279925801 0 3665322.0279925801 -10038634.259210594 0 0 0 0 91634821.241687775 -23291043.240754735 0 -23291043.240754735 -3425673.5252381712 0 0 0 0 27144116.937232971 -55630391.325989328 0 -55630391.325989328 28522961.669105992 0 0 0 0 104100456.51320839 -11550697.17975251 0 -11550697.17975251 27585051.924308088 0 0 0 0 85440778.875270844 -14277477.056388425 0 -14277477.056388425 -386725.89002266526 0 0 0 0 178880555.78385925 -39192038.152377903 0 -39192038.152377903 6231936.0141196176 0 0 0 0 148165690.91318893 57400126.992527917 0 57400126.992527917 20519999.07818146 0 0 0 0 70858.100522756577 -572247.04621167108 0 -572247.04621167108 272776.83132915199 0 0 0 0 107630441.90023804 12538957.721261367 0 12538957.721261367 172348411.42591244 0 0 0 0 116611522.44348145 -88144856.35341306 0 -88144856.35341306 73073633.827302471 0 0 0 0 192655242.61433411 26387595.528176393 0 26387595.528176393 17406821.928526357 0 0 0 0 115571399.40913391 -15500772.988996416 0 -15500772.988996416 1878803.2711935043 0 0 0 0 14092741.915290833 11413933.963333055 0 11413933.963333055 45831763.74488318 0 0 0 0 52243593.837539673 47885613.436791867 0 47885613.436791867 45647685.197314471 0 0 0 0 210043.50375029445 51154.932771384716 0 51154.932771384716 -12700.217287812644 0 0 0 0 -15501316.334594727 -3838817.186419934 0 -3838817.186419934 24538554.998878121 0 0 0 0 -1966239.4404180646 -3269110.2449589223 0 -3269110.2449589223 47634.176463432173 0 0 0 0 4707881.7877960205 2960561.3826973438 0 2960561.3826973438 17210786.835906152 0 0 0 0 25115031.057479858 6812853.708241798 0 6812853.708241798 -4765303.5262707397 0 0 0 0 22297.042698860168 -1760252.4545276463 0 -1760252.4545276463 774899.38441651594 0 0 0 0 30645527.650695801 1468359.6801344231 0 1468359.6801344231 -2866169.9935635626 0 0 0 0 33479193.05456543 26302720.835556038 0 26302720.835556038 18117596.646639772 0 0 0 0 -3585191.7456359863 9337650.0048627108 0 9337650.0048627108 39085355.665505528 0 0 0 0 1294135.1759338379 -4820772.3552401885 0 -4820772.3552401885 32542684.904930294 0 0 0 0 1128757.6189117432 -1309650.5250518918 0 -1309650.5250518918 141620954.4575941 0 0 0 0 6403627.8860321045 -28342623.075055808 0 -28342623.075055808 41704465.847034246 0 0 0 0 17986598.861862183 -47549238.842986837 0 -47549238.842986837 -9138756.6782029867 0 0 0 0 -14239121.116592407 -44250953.974977806 0 -44250953.974977806 -19504162.303616136 0 0 0 0 -21606981.049453735 -32727426.265927777 0 -32727426.265927777 35561848.90973185 0 0 0 0 -948407.56135559082 -2220119.7988779247 0 -2220119.7988779247 29535507.209110856 0 0 0 0 -19204729.591430664 -19524745.82667692 0 -19524745.82667692 16536262.043085195 0 0 0 0 -20499762.813934326 -45475251.3819471 0 -45475251.3819471 -17464325.40394482 0 0 0 0 29588833.242797852 -38258571.128908902 0 -38258571.128908902 -46261232.48245275 0 0 0 0 -198958.75492095947 -40551177.713720828 0 -40551177.713720828 -46102430.424780786 0 0 0 0 1333577.1675720215 -12509706.861170292 0 -12509706.861170292 -5432494.2964241505 0 0 0 0 23957162.466339111 11228697.59408474 0 11228697.59408474 -18581579.006249905 0 0 0 0 794758.66316986084 5751808.9201281667 0 5751808.9201281667 -13607905.74702096 0 0 0 0 5314265.17381908 -661053.61543408781 0 -661053.61543408781 -1357541.7125019222 0 0 0 0 7933613.7159849405 -8916243.8139650635 0 -8916243.8139650635 -2539857.3477720171 0 0 0 0 -5858394.9850921631 2946762.2831070423 0 2946762.2831070423 -12153785.209477186 0 0 0 0 -21744580.097885132 -4353210.5144314766 0 -4353210.5144314766 -10693570.840185404 0 0 0 0 53728116.163330078 19541732.029056489 0 19541732.029056489 -16074310.513760626 0 0 0 0 3895590.7543528229 325549.10379227996 0 325549.10379227996 -914530.32675236603 0 0 0 0 -50675646.48783493 -99095195.532783136 0 -99095195.532783136 -42328955.41931355 0 0 0 0 11018306.520019531 -46566001.184693575 0 -46566001.184693575 -1600376.9348384142 0 0 0 0 10615074.519773394 -9038798.7373255454 0 -9038798.7373255454 -2402191.4796698089 0 0 0 0 27949575.118743896 -98864659.122618437 0 -98864659.122618437 -89092616.754461884 0 0 0 0 -41721042.354568481 -46637507.03536205 0 -46637507.03536205 -9151893.6504302025 0 0 0 0 43638570.573913574 -40765816.6287449 0 -40765816.6287449 -92040542.756135374 0 0 0 0 31843523.778320312 -46323226.219679952 0 -46323226.219679952 -22673489.740139902 0 0 0 0 117152646.39178085 1108555.2230341211 0 1108555.2230341211 -29596313.858609468 0 0 0 0 62238987.617370605 -17810084.996707916 0 -17810084.996707916 -28289642.7321008 0 0 0 0 91281983.683624268 -65123359.017765522 0 -65123359.017765522 -16897745.222663045 0 0 0 0 90389634.094009399 -17121429.830114454 0 -17121429.830114454 -53512979.433339834 0 0 0 0 90616429.788925171 -40388308.525083721 0 -40388308.525083721 -61465432.786767602 0 0 0 0 12025010.589035034 -48242015.470580034 0 -48242015.470580034 -43272840.43387711 0 0 0 0 63498592.938812256 21176848.147176802 0 21176848.147176802 -10924016.636463162 0 0 0 0 124116652.07891655 45123535.70075009 0 45123535.70075009 -12568308.086487204 0 0 0 0 79533839.636535645 21939347.47797218 0 21939347.47797218 -25896570.96161592 0 0 0 0 51386619.24801445 24618617.45031783 0 24618617.45031783 3205893.1704570651 0 0 0 0 54624023.98878479 12106879.17548123 0 12106879.17548123 -20130676.954333186 0 0 0 0 48083936.308670044 -5232030.3597095609 0 -5232030.3597095609 -31859127.855947971 0 0 0 0 69496751.316955566 12174854.724010587 0 12174854.724010587 -35387040.068070173 0 0 0 0 50088165.875915527 -3768955.5557759404 0 -3768955.5557759404 -30965828.928302169 0 0 0 0 39665119.41204834 -48625000.646297902 0 -48625000.646297902 -61826683.123201966 0 0 0 0 37277189.200469971 -16725153.534888864 0 -16725153.534888864 -37328221.39991498 0 0 0 0 27486243.222473145 -32222630.814404011 0 -32222630.814404011 -35490171.861296773 0 0 0 0 55062656.195072174 -15359607.321768813 0 -15359607.321768813 -51825672.383133888 0 0 0 0 20249217.590148926 -29131816.448887885 0 -29131816.448887885 -23785361.910564661 0 0 0 0 27139313.546051025 -23485117.103017509 0 -23485117.103017509 -62707275.275701046 0 0 0 0 -38929475.903764725 -22196771.507715169 0 -22196771.507715169 -30008917.233982563 0 0 0 0 -1775743.736289531 -867040.79375153407 0 -867040.79375153407 1044567.4569574385 0 0 0 0 14747926.536840081 -8420570.1157930642 0 -8420570.1157930642 -1339608.970400318 0 0 0 0 11735528.151702881 -114569248.53416792 0 -114569248.53416792 44921574.958233714 0 0 0 0 13979485.723693848 -22097499.055716276 0 -22097499.055716276 -2216416.7884771824 0 0 0 0 24554509.403015137 -19755052.812492371 0 -19755052.812492371 -16042192.602303326 0 0 0 0 30499776.734008789 -23663854.870481789 0 -23663854.870481789 -29388598.033866048 0 0 0 0 13798685.347671509 -20533615.988176525 0 -20533615.988176525 -12529337.844844341 0 0 0 0 37003311.757095337 -11404020.255527921 0 -11404020.255527921 -18325229.354837477 0 0 0 0 32608303.291061401 -12501912.393700004 0 -12501912.393700004 -18541073.556282625 0 0 0 0 35663558.124061584 -7106192.7841016054 0 -7106192.7841016054 -9071611.4215468168 0 0 0 0 28548458.73890686 -8124716.7575581372 0 -8124716.7575581372 2319657.2343488932 0 0 0 0 29474297.884414673 -7301788.164183557 0 -7301788.164183557 -9077720.5125974044 0 0 0 0 -67110744.672496796 1414260.1408198569 0 1414260.1408198569 690711.87640112638 0 0 0 0 16728349.284504719 -9228901.108819291 0 -9228901.108819291 -1393859.5067463419 0 0 0 0 30058137.625762939 -8159299.8707210422 0 -8159299.8707210422 -5910153.6200480461 0 0 0 0 -3125947.4648666382 33627224.583547264 0 33627224.583547264 -32211563.737809837 0 0 0 0 -65516647.371795654 15035348.961312413 0 15035348.961312413 21349612.676732719 0 0 0 0 24656428.894165039 -10249283.946177959 0 -10249283.946177959 -4455711.3315243721 0 0 0 0 -52732184.780502319 3256206.3600502871 0 3256206.3600502871 -14239535.195789889 0 0 0 0 -38539894.402259827 13363978.703100801 0 13363978.703100801 7009165.0331013203 0 0 0 0 -38340534.193328857 11415111.422974721 0 11415111.422974721 -9975401.4210931063 0 0 0 0 4396528.4009552002 -21883597.226924092 0 -21883597.226924092 24254601.093786895 0 0 0 0 3945540.0112609863 -56299792.337033942 0 -56299792.337033942 85829334.560865909 0 0 0 0 -50875065.917480469 13491199.410057336 0 13491199.410057336 7364753.0250683352 0 0 0 0 21126124.971252441 -48536662.505785346 0 -48536662.505785346 5280869.8789026141 0 0 0 0 64480100.449356079 -69888460.845213711 0 -69888460.845213711 14431779.530080199 0 0 0 0 59840958.973861694 -14565288.778712869 0 -14565288.778712869 -16889516.481481522 0 0 0 0 43077001.470550537 -85457478.311708212 0 -85457478.311708212 6670588.323777914 0 0 0 0 16461566.890808105 -79617487.254497677 0 -79617487.254497677 45625220.526387066 0 0 0 0 46135182.945526123 -98718747.531877786 0 -98718747.531877786 32695410.907467961 0 0 0 0 39327720.224395752 -116714330.2543622 0 -116714330.2543622 88648645.180112556 0 0 0 0 121257775.28262329 -96373989.716311991 0 -96373989.716311991 152040413.59642887 0 0 0 0 220167389.44766235 -1890147.3531155586 0 -1890147.3531155586 -222271254.74942541 0 0 0 0 34412334.211517334 99102786.288500428 0 99102786.288500428 -127695689.58297306 0 0 0 0 204700815.57907677 -135581432.41358611 0 -135581432.41358611 -55130619.179987192 0 0 0 0 100832835.93875122 -153899650.09625614 0 -153899650.09625614 56592381.495254815 0 0 0 0 73871092.614395142 -17670554.362106562 0 -17670554.362106562 -111007907.80527788 0 0 0 0 51903145.00195694 -87131172.773750514 0 -87131172.773750514 -16163605.441636205 0 0 0 0 23544963.940612793 -31653421.267767906 0 -31653421.267767906 -46948016.623197436 0 0 0 0 83542024.424728394 -77701387.555703044 0 -77701387.555703044 -14630044.270007968 0 0 0 0 12441837.52532959 19975534.228891969 0 19975534.228891969 -62704604.883896559 0 0 0 0 30369812.449050903 -16436186.874878824 0 -16436186.874878824 -30397122.627728224 0 0 0 0 -53109775.520118713 60625626.398328066 0 60625626.398328066 -45270340.297516346 0 0 0 0 57370454.402877808 -907845.2593729496 0 -907845.2593729496 -57793805.514419079 0 0 0 0 -13384287.370105743 12960476.348803848 0 12960476.348803848 -25169768.627465725 0 0 0 0 -2923546.098815918 10636041.783295691 0 10636041.783295691 -25419071.839462996 0 0 0 0 -421482.11254882812 -5245788.1005577445 0 -5245788.1005577445 -31015857.762210488 0 0 0 0 1600909.9531544 -204046.42252091318 0 -204046.42252091318 -423015.80935054738 0 0 0 0 48653194.763618469 49011314.943046272 0 49011314.943046272 -27525174.486981452 0 0 0 0 5481301.1039123535 -47328724.553655088 0 -47328724.553655088 -13068545.916775465 0 0 0 0 42738223.933944702 -76963563.062198758 0 -76963563.062198758 7938541.6260085553 0 0 0 0 9906704.5941238403 -10457590.741493225 0 -10457590.741493225 -766722.93058168888 0 0 0 0 15719848.216335297 9483875.5058875084 0 9483875.5058875084 -6231384.530957222 0 0 0 0 1781331.5247915983 -3238463.2407371756 0 -3238463.2407371756 -962312.26637043478 0 0 0 0 -6348406.2752838135 -59539663.415254116 0 -59539663.415254116 26284702.582923532 0 0 0 0 26576820.691547394 -2396163.5135509968 0 -2396163.5135509968 -4734315.3208909035 0 0 0 0 4990358.1749116629 -1683910.3949250355 0 -1683910.3949250355 -1759249.9491597302 0 0 0 0 28735207.85225296 -6994093.5472342968 0 -6994093.5472342968 -8630228.8488316536 0 0 0 0 32780149.42515564 -1370166.3654650152 0 -1370166.3654650152 -11158523.046239674 0 0 0 0 9662301.8016581237 -477488.31969561987 0 -477488.31969561987 -5515688.851996881 0 0 0 0 12967947.329832673 -1023952.7691346556 0 -1023952.7691346556 -6618038.1403306285 0 0 0 0 31231012.8891716 -4680283.9527540207 0 -4680283.9527540207 -5404077.1645166874 0 0 0 0 33509492.945884705 -2883840.5552177429 0 -2883840.5552177429 -8566296.2415843606 0 0 0 0 35972545.190177917 -67121.087741404772 0 -67121.087741404772 -16869447.306702554 0 0 0 0 34601655.274688721 -4801763.9316222072 0 -4801763.9316222072 -13828913.607684612 0 0 0 0 35794762.670928955 912018.66927580535 0 912018.66927580535 -9939800.0691487193 0 0 0 0 26000867.121315002 2558306.6335682496 0 2558306.6335682496 -7743961.1994211972 0 0 0 0 36435734.036949158 8087459.323243767 0 8087459.323243767 -14979841.675921194 0 0 0 0 45074598.379003525 5647611.288097214 0 5647611.288097214 -14325283.52927351 0 0 0 0 20649283.406616211 807376.87734357268 0 807376.87734357268 2286438.0059352778 0 0 0 0 34288576.899623871 11220027.630167842 0 11220027.630167842 -303962.61578392982 0 0 0 0 30516034.64440155 14854257.164357968 0 14854257.164357968 4050205.2441546321 0 0 0 0 14928656.775360107 -4994904.2053673416 0 -4994904.2053673416 -3743178.5975938644 0 0 0 0 56593185.44959259 -16050744.755644083 0 -16050744.755644083 -27601480.233616829 0 0 0 0 7347227.3068210855 57620.951338067651 0 57620.951338067651 -6586780.5918445094 0 0 0 0 24965304.561531067 4440653.216238603 0 4440653.216238603 -6334546.9984256625 0 0 0 0 -113705.67786502838 31085064.93027252 0 31085064.93027252 -45647288.825716019 0 0 0 0 1102889.3729890063 -593757.49134733528 0 -593757.49134733528 -224288.58341336995 0 0 0 0 21448278.89100647 -23021266.292943001 0 -23021266.292943001 -65152672.362010956 0 0 0 0 17702670.307449341 -6870323.5245294571 0 -6870323.5245294571 1944644.5502557755 0 0 0 0 6305971.0537567139 -33215174.661893368 0 -33215174.661893368 5858972.9865452647 0 0 0 0 3442335.2135267258 -15155369.536706477 0 -15155369.536706477 26570592.334319115 0 0 0 0 14955034.715641022 -11326478.799812317 0 -11326478.799812317 8642032.4199914932 0 0 0 0 26757410.746459961 -24505354.353099585 0 -24505354.353099585 8564249.0769410133 0 0 0 0 -177479.70654828846 201209.0753537938 0 201209.0753537938 -56010.626598030474 0 0 0 0 10678289.939174652 1337159.929781206 0 1337159.929781206 -2316351.8416421711 0 0 0 0 10431309.726486206 418821.70582502335 0 418821.70582502335 -5723354.3476358652 0 0 0 0 5358802.7856436372 222762.66519993544 0 222762.66519993544 -6172822.321253513 0 0 0 0 15914717.626049042 -1321894.6155651063 0 -1321894.6155651063 -4951101.8850167096 0 0 0 0 17285370.396102905 -5152816.8644856587 0 -5152816.8644856587 343367.12095993757 0 0 0 0 17530400.010894775 -1088002.7996770591 0 -1088002.7996770591 -9518417.8936214447 0 0 0 0 10587719.43536377 -2766186.024108693 0 -2766186.024108693 -9131512.3968273439 0 0 0 0 19219644.492271423 -5960391.3727806248 0 -5960391.3727806248 -14922196.280625135 0 0 0 0 18665610.636352539 -5815199.1053660288 0 -5815199.1053660288 -6042852.8545675278 0 0 0 0 9775064.2732543945 -6331521.6211238801 0 -6331521.6211238801 -6366674.0713143125 0 0 0 0 26332882.376522064 -11731182.995549886 0 -11731182.995549886 -6477918.7892311364 0 0 0 0 20176261.143051147 -7320560.4447607547 0 -7320560.4447607547 -3618232.6614639759 0 0 0 0 21749814.732879639 -6797311.8111696988 0 -6797311.8111696988 -9125631.5719623715 0 0 0 0 25078628.722839355 -6938746.8746140897 0 -6938746.8746140897 -8785606.9248004034 0 0 0 0 17408325.488464355 -7160654.8847615011 0 -7160654.8847615011 -1867080.8810107037 0 0 0 0 18951577.1900177 -6516897.9255310148 0 -6516897.9255310148 -7677679.4527273476 0 0 0 0 5852034.4889116287 -1736794.2985212207 0 -1736794.2985212207 -3325033.7790402691 0 0 0 0 4257785.5442695618 -530693.55472432729 0 -530693.55472432729 -3871469.0155149214 0 0 0 0 9594079.5163879395 -6817072.6008775532 0 -6817072.6008775532 -3151103.4215676486 0 0 0 0 13097215.486541748 1675981.8283486627 0 1675981.8283486627 -5643544.8243774362 0 0 0 0 4796163.760093689 1425129.4123786772 0 1425129.4123786772 -13228033.919640793 0 0 0 0 11603576.498523712 4658769.3285664273 0 4658769.3285664273 -11798662.049531898 0 0 0 0 10183761.238166809 243163.62986258231 0 243163.62986258231 -10900112.049891174 0 0 0 0 4827515.0499267578 6782759.9547830224 0 6782759.9547830224 -18413474.075121619 0 0 0 0 74664.391828224063 -229091.21499981731 0 -229091.21499981731 153296.62126573414 0 0 0 0 8853817.0846939087 -10166470.897509068 0 -10166470.897509068 -19480195.870012581 0 0 0 0 9019855.6441802979 -11542063.487184474 0 -11542063.487184474 14466876.069315467 0 0 0 0 23062554.499092102 10493861.54251565 0 10493861.54251565 29142249.405593082 0 0 0 0 20981479.748046875 -1361573.4120239764 0 -1361573.4120239764 -3503870.4700329453 0 0 0 0 21098292.556564331 -364057.35766390711 0 -364057.35766390711 4677404.5873337984 0 0 0 0 22101034.455184937 -11289677.537709817 0 -11289677.537709817 4232842.0078070331 0 0 0 0 22402341.104827881 -8551047.340559952 0 -8551047.340559952 -3797940.364510715 0 0 0 0 21627543.618888855 -9282017.3998653069 0 -9282017.3998653069 -2527043.7001951039 0 0 0 0 22584013.970214844 -13022493.738887019 0 -13022493.738887019 976242.13339526951 0 0 0 0 24223548.906929016 -14045430.509569837 0 -14045430.509569837 928584.26994881372 0 0 0 0 18690508.654335022 -14855490.716463024 0 -14855490.716463024 983240.18824482709 0 0 0 0 24341414.40103817 -10391161.088338755 0 -10391161.088338755 9764888.1315992437 0 0 0 0 309851.64760434628 71724.930318951607 0 71724.930318951607 -15617.638914544194 0 0 0 0 24431557.057937622 -10797175.968883384 0 -10797175.968883384 2576620.7394823013 0 0 0 0 10847797.300689697 -15010429.86641138 0 -15010429.86641138 10534649.448897265 0 0 0 0 129511.61627373099 13117.918476633728 0 13117.918476633728 -19768.403687210473 0 0 0 0 17890966.764022827 -2920163.8652641736 0 -2920163.8652641736 -5117731.9573089834 0 0 0 0 40344503.022541046 -10281069.325708404 0 -10281069.325708404 9667.8894483781314 0 0 0 0 17921427.083423615 752476.14881348773 0 752476.14881348773 873771.31473430223 0 0 0 0 26089207.804794312 -7421848.2950445125 0 -7421848.2950445125 -84310.945953419665 0 0 0 0 10049724.917114258 1033615.1378299082 0 1033615.1378299082 2683213.1766149271 0 0 0 0 14270552.628540039 -4961952.9772256128 0 -4961952.9772256128 3245232.9959810339 0 0 0 0 21939011.903869629 -3771885.7760296175 0 -3771885.7760296175 -3599675.4001395721 0 0 0 0 15768987.327529907 -4268348.575765986 0 -4268348.575765986 -4142827.5786086395 0 0 0 0 30396527.747207642 -8423118.9461499602 0 -8423118.9461499602 -1548163.736371052 0 0 0 0 24932931.763053894 -21551843.066384155 0 -21551843.066384155 19712021.099538375 0 0 0 0 20799421.06640625 -12173659.568313943 0 -12173659.568313943 -1486958.3779822458 0 0 0 0 22422723.111244202 -12185477.66522971 0 -12185477.66522971 11250920.793577619 0 0 0 0 50751218.023431778 -11700410.509462407 0 -11700410.509462407 1509013.4923316343 0 0 0 0 45458594.466827393 -36690988.608115494 0 -36690988.608115494 15102111.69099026 0 0 0 0 44564147.096466064 -18906551.668719381 0 -18906551.668719381 995.0632049989199 0 0 0 0 26204899.029724121 -2741402.9520699619 0 -2741402.9520699619 6384486.8869292503 0 0 0 0 21258421.461051941 -8732500.0049172435 0 -8732500.0049172435 4946660.9638538808 0 0 0 0 8909894.5237693787 649484.34905339114 0 649484.34905339114 13486.822329744738 0 0 0 0 7404418.4392471313 -3625521.8662998984 0 -3625521.8662998984 -5342840.3014353961 0 0 0 0 3219895.9781341553 4367782.2222218122 0 4367782.2222218122 -4134533.7032492426 0 0 0 0 6099798.2860426754 -2021410.5129625127 0 -2021410.5129625127 -2682958.6690704171 0 0 0 0 3880524.0185394287 -1934511.6377911938 0 -1934511.6377911938 92223.169488932355 0 0 0 0 1224746.3324737549 732419.13962895307 0 732419.13962895307 -4220.9747847068766 0 0 0 0 3969874.9222868606 -3158551.3660273477 0 -3158551.3660273477 2353120.6660299897 0 0 0 0 12249833.132790565 -6169286.873943707 0 -6169286.873943707 6683190.6412482187 0 0 0 0 2056515.8390072137 -2777143.9629214965 0 -2777143.9629214965 2541223.2144938102 0 0 0 0 9820165.6495513916 -8186542.8923667884 0 -8186542.8923667884 10045.563662336594 0 0 0 0 6434873.927696228 -5296902.669606898 0 -5296902.669606898 5209210.4018081194 0 0 0 0 13766508.373931885 -14031287.424836624 0 -14031287.424836624 6161567.9931958001 0 0 0 0 787942.0440512076 -690322.60966702551 0 -690322.60966702551 -345764.10829256976 0 0 0 0 5748525.7483520508 -4212533.5682371138 0 -4212533.5682371138 10370397.85166127 0 0 0 0 -149790558.80120087 -2116455.3246058822 0 -2116455.3246058822 90943228.04482162 0 0 0 0 3355250.7697596774 -6002018.9760090485 0 -6002018.9760090485 4587046.0091699716 0 0 0 0 13936855.623735428 -6964176.9361617882 0 -6964176.9361617882 3189959.5720184147 0 0 0 0 6060831.0625329316 -1421188.4401639923 0 -1421188.4401639923 -1292997.1070280473 0 0 0 0 9587262.9168930054 -5731478.1319670677 0 -5731478.1319670677 4210950.8713870049 0 0 0 0 7262614.6612129211 -8138465.2604908943 0 -8138465.2604908943 4327987.5734467506 0 0 0 0 194949.73431015015 -6626030.7246497869 0 -6626030.7246497869 8628212.4631433487 0 0 0 0 3747345.5816823095 -4888466.5132367536 0 -4888466.5132367536 2811768.9036191003 0 0 0 0 4597956.3886108398 -3835325.4719758034 0 -3835325.4719758034 3733160.2065858841 0 0 0 0 9328210.9672698975 -8795695.6806502342 0 -8795695.6806502342 6978185.8368186951 0 0 0 0 17918712.330764771 -11815494.490090132 0 -11815494.490090132 8637540.9357839227 0 0 0 0 10570484.788871765 -6493815.6040365696 0 -6493815.6040365696 5477933.4017577171 0 0 0 0 762608.44128400087 -670180.58486954123 0 -670180.58486954123 741397.26358433813 0 0 0 0 10494056.910179138 -8913952.423813343 0 -8913952.423813343 19751038.392245293 0 0 0 0 18172826.850417137 -16262814.045321316 0 -16262814.045321316 14918463.237416267 0 0 0 0 10739926.510482788 -8972658.2672724724 0 -8972658.2672724724 11305774.338848352 0 0 0 0 12612043.753845215 -7384236.0315439701 0 -7384236.0315439701 6580799.964625597 0 0 0 0 9552455.7226066589 -10362559.849599123 0 -10362559.849599123 10560572.660848618 0 0 0 0 12119920.670230865 -9474991.8665322065 0 -9474991.8665322065 4373414.3340811729 0 0 0 0 10939854.241134644 -11266512.486297131 0 -11266512.486297131 10883920.734156609 0 0 0 0 2431370.2154439986 -2481987.3896739408 0 -2481987.3896739408 2763159.413316384 0 0 0 0 9041085.1734924316 188200617.01076406 0 188200617.01076406 3074879.2629795521 0 0 0 0 103182367.33966064 39813017.878876746 0 39813017.878876746 53785145.922164023 0 0 0 0 573330774.15843582 100237293.20660716 0 100237293.20660716 -18366501.942042589 0 0 0 0 1843406.1077138186 33670.396329604089 0 33670.396329604089 -91652.189460709182 0 0 0 0 465713351.6578598 -129093168.06694242 0 -129093168.06694242 -31465216.803704482 0 0 0 0 430881891.71114349 192753930.07725194 0 192753930.07725194 -66867981.402222045 0 0 0 0 888151713.29943085 68823893.507757753 0 68823893.507757753 -343047.31939514284 0 0 0 0 853955657.44303513 -114512293.27217291 0 -114512293.27217291 -1746571.2080547102 0 0 0 0 968742223.40233612 10148027.763390005 0 10148027.763390005 -158606966.20249656 0 0 0 0 552601242.00287056 14884129.042087775 0 14884129.042087775 -137173424.53001493 0 0 0 0 925012989.94880676 -90193787.00937283 0 -90193787.00937283 -117897964.04295772 0 0 0 0 897525405.86691284 65833526.95880574 0 65833526.95880574 -134866422.31681588 0 0 0 0 472216633.46301079 -132789592.14721219 0 -132789592.14721219 -66468189.651958808 0 0 0 0 569108725.64437866 54705884.326726243 0 54705884.326726243 -90015327.327098697 0 0 0 0 611243303.12716675 56783910.393239453 0 56783910.393239453 103731385.88793418 0 0 0 0 621433562.31815147 4338092.2149658296 0 4338092.2149658296 -139438375.88893983 0 0 0 0 1380060.3429861516 -1683292.5914775915 0 -1683292.5914775915 2324342.5403498742 0 0 0 0 4644422.2742614746 -3565182.0648147846 0 -3565182.0648147846 5326.9926803868129 0 0 0 0 5138054.1181030273 -5497224.5169294486 0 -5497224.5169294486 5319182.057543111 0 0 0 0 41629304.170730591 66556690.412603676 0 66556690.412603676 -77678503.097871736 0 0 0 0 41564182.796333313 70451994.57809034 0 70451994.57809034 52746031.918616176 0 0 0 0 288742688.26396179 -46797229.812547803 0 -46797229.812547803 39896012.392329223 0 0 0 0 11717840.928436279 127792149.3619673 0 127792149.3619673 79774562.259969711 0 0 0 0 -35106237.744590759 -56001517.231442213 0 -56001517.231442213 -60946429.371878147 0 0 0 0 70320941.404579163 -147543126.64789188 0 -147543126.64789188 18511276.487969816 0 0 0 0 1943965.6008598059 747393.1939804703 0 747393.1939804703 652028.70207769889 0 0 0 0 585598270.46503448 439461982.8131969 0 439461982.8131969 -208699423.51679301 0 0 0 0 10999302.866271973 100048711.53097534 0 100048711.53097534 265322397.55908108 0 0 0 0 592665654.99241638 103503740.12723504 0 103503740.12723504 439604430.84775567 0 0 0 0 590739249.23278809 65446826.9032287 0 65446826.9032287 47503024.260292053 0 0 0 0 478754674.31646729 214582079.96470681 0 214582079.96470681 125964946.40976715 0 0 0 0 672775664.16981506 66139040.212258309 0 66139040.212258309 -97842902.938437462 0 0 0 0 398353278.40514374 -100844972.53294033 0 -100844972.53294033 -21498898.492382646 0 0 0 0 1150109029.3743362 -309761362.62586582 0 -309761362.62586582 -2166489.6864731312 0 0 0 0 1033092924.3174896 331238618.77911472 0 331238618.77911472 97021541.121527791 0 0 0 0 1380765305.2157288 -60995960.523810863 0 -60995960.523810863 -26677025.213552952 0 0 0 0 718226577.80767822 472744534.40566301 0 472744534.40566301 177516813.11144507 0 0 0 0 3169324.4891882837 -1475017.5407451689 0 -1475017.5407451689 88667.992717368761 0 0 0 0 1423030397.342288 113676899.56916004 0 113676899.56916004 224012526.00913382 0 0 0 0 49738494.562896729 60139481.579748213 0 60139481.579748213 -59264612.011104107 0 0 0 0 13909316.957344055 67751816.182928801 0 67751816.182928801 32438042.529334426 0 0 0 0 52875770.220100403 -222278877.03308856 0 -222278877.03308856 74067388.723064542 0 0 0 0 -6271684.2677612305 35839339.77998662 0 35839339.77998662 122936564.85272467 0 0 0 0 60478699.621795654 -68576473.666987658 0 -68576473.666987658 139442198.50698841 0 0 0 0 320779957.45960236 11801111.322326541 0 11801111.322326541 54004594.328194022 0 0 0 0 457723022.12535143 79065594.397137299 0 79065594.397137299 -140539164.54269028 0 0 0 0 457736821.04100037 78349566.634146452 0 78349566.634146452 -116257081.68252087 0 0 0 0 233219180.55565357 63665017.55349052 0 63665017.55349052 -14638210.440965176 0 0 0 0 279076896.14537621 292673466.66520071 0 292673466.66520071 190362634.30409622 0 0 0 0 754094559.86343384 88123691.551969528 0 88123691.551969528 -132033714.59527969 0 0 0 0 1235368453.3913193 257068114.02690864 0 257068114.02690864 -138796154.76451826 0 0 0 0 572485282.01290131 125590406.98286366 0 125590406.98286366 -139756476.25625241 0 0 0 0 651793780.28373718 -17449027.74292779 0 -17449027.74292779 -102089016.53011417 0 0 0 0 401718786.81531525 -155312876.36128187 0 -155312876.36128187 9080218.7746767998 0 0 0 0 996437563.67741966 -517186314.40547007 0 -517186314.40547007 210987209.97836065 0 0 0 0 201575849.99412537 -88921420.53644681 0 -88921420.53644681 32275897.939907551 0 0 0 0 220421158.59707642 -58192387.462169886 0 -58192387.462169886 9398277.3885314465 0 0 0 0 5157388.6789889485 901198.86573989689 0 901198.86573989689 989217.58096358599 0 0 0 0 2178073.5785397589 -1775490.6896948516 0 -1775490.6896948516 1065929.8456393089 0 0 0 0 79275073.991149902 -59265519.07948184 0 -59265519.07948184 54009946.762994289 0 0 0 0 242252157.15070343 21734402.41456449 0 21734402.41456449 -25219246.18371439 0 0 0 0 332788611.68829346 -51411944.038153172 0 -51411944.038153172 -7151255.335564971 0 0 0 0 774540.55855586007 -705340.10455965996 0 -705340.10455965996 395231.56671838369 0 0 0 0 25012655.22646904 22882095.007153213 0 22882095.007153213 26493768.997608185 0 0 0 0 172997041.33957672 214530739.04903483 0 214530739.04903483 2120010.1900639534 0 0 0 0 82522323.056541443 20851957.513682604 0 20851957.513682604 74715812.038998723 0 0 0 0 366308725.63218689 26981980.145529032 0 26981980.145529032 -107932572.97762537 0 0 0 0 366943474.84745026 -1050328.4332180023 0 -1050328.4332180023 66838385.486135483 0 0 0 0 546245144.10873795 120060305.46029943 0 120060305.46029943 -150937393.51223946 0 0 0 0 535638173.07378387 157700562.49994755 0 157700562.49994755 -29796866.466860294 0 0 0 0 406375433.52801514 26939578.1397264 0 26939578.1397264 88585840.92449379 0 0 0 0 698133005.29586792 106742722.26511812 0 106742722.26511812 -175863298.24742317 0 0 0 0 486653960.93395996 68589605.741012096 0 68589605.741012096 -182706703.1288178 0 0 0 0 421032835.32151031 96701450.839824915 0 96701450.839824915 -125823680.22436476 0 0 0 0 17550263.042615891 -22739339.437576175 0 -22739339.437576175 18837211.558278561 0 0 0 0 93320.499931007624 -210684.71135411412 0 -210684.71135411412 504980.91937307874 0 0 0 0 -6006302.5733032227 -23495170.4920187 0 -23495170.4920187 -16746625.241998196 0 0 0 0 26994539.707977295 -46131928.954122066 0 -46131928.954122066 -17078472.781733513 0 0 0 0 21583836.190139771 -25252805.561328411 0 -25252805.561328411 -48376669.699712276 0 0 0 0 734198.9967508316 12062628.310611397 0 12062628.310611397 2205392.5172290802 0 0 0 0 -8124905.7287139893 -45467568.157297134 0 -45467568.157297134 -6072966.1317305565 0 0 0 0 11633613.02545166 -9349903.720348835 0 -9349903.720348835 20967004.560524464 0 0 0 0 11653698.376663208 -4002329.5195260048 0 -4002329.5195260048 9734183.3468257189 0 0 0 0 7751971.6545257568 -6655643.6133058071 0 -6655643.6133058071 8136369.2195496559 0 0 0 0 6036177.1767807007 -3419846.1982018948 0 -3419846.1982018948 7719359.5427246988 0 0 0 0 875620.69082479179 -1288671.0315013565 0 -1288671.0315013565 1279564.400395893 0 0 0 0 4546433.7767562866 -5766459.189302206 0 -5766459.189302206 4695909.1094748974 0 0 0 0 -5946124.8812789917 1149225.1381053925 0 1149225.1381053925 12229257.916679859 0 0 0 0 5522297.8745002747 189134.70378369093 0 189134.70378369093 11572686.359606743 0 0 0 0 -38697508.725387573 -26583533.466165066 0 -26583533.466165066 28551683.280204296 0 0 0 0 1584101.1444396973 -6878156.7687081099 0 -6878156.7687081099 17513186.64511776 0 0 0 0 -25500421.39276123 -71169118.750131607 0 -71169118.750131607 -35958353.041207552 0 0 0 0 -26838137.898479462 -54348402.655585766 0 -54348402.655585766 76300275.851656914 0 0 0 0 -2530537.7225723267 -40979553.951021194 0 -40979553.951021194 11219352.689147711 0 0 0 0 -10265459.707878113 -20259473.745461226 0 -20259473.745461226 -28603795.138054371 0 0 0 0 -25200631.7663517 -51170548.633065462 0 -51170548.633065462 3446372.2337036133 0 0 0 0 7816191.9499816895 -44230835.440671444 0 -44230835.440671444 917061.36278486252 0 0 0 0 41639081.956253052 -47541197.880633354 0 -47541197.880633354 -15169102.849608898 0 0 0 0 25229486.906646729 -38431126.503829479 0 -38431126.503829479 -3089125.9657516479 0 0 0 0 49105125.051826477 -17294505.956822872 0 -17294505.956822872 2498676.5972495079 0 0 0 0 10217531.58240509 -48713104.171939731 0 -48713104.171939731 -1977386.3949661255 0 0 0 0 76574872.188552856 -1600753.8778500557 0 -1600753.8778500557 -110289278.20826197 0 0 0 0 20549457.055452511 -3591070.4564567432 0 -3591070.4564567432 -1584726.8444347158 0 0 0 0 159478099.6013031 -146328872.47344589 0 -146328872.47344589 -124433395.09798908 0 0 0 0 -641496.98521573097 -809777.58243474364 0 -809777.58243474364 1892655.5041113654 0 0 0 0 -31854426.852996826 -40379301.512106419 0 -40379301.512106419 8823201.5838532448 0 0 0 0 231525081.82622528 45026362.258485794 0 45026362.258485794 -21910961.197960854 0 0 0 0 -29357355.28162384 -43510012.912082195 0 -43510012.912082195 10089485.705440283 0 0 0 0 -11113121.406452179 -29571019.922586441 0 -29571019.922586441 -1714590.5822329521 0 0 0 0 8703862.8220787048 -39079294.641214132 0 -39079294.641214132 -150247309.00133181 0 0 0 0 15904763.036837131 -3310050.0750149973 0 -3310050.0750149973 -673019.45843339409 0 0 0 0 37470754.437679291 -19445080.456394315 0 -19445080.456394315 -14327646.913733959 0 0 0 0 -9934559.5571136475 -43499952.190800667 0 -43499952.190800667 37915241.724073231 0 0 0 0 -70602.860908508301 -36741669.85291481 0 -36741669.85291481 -26207679.368088245 0 0 0 0 22455.422698974609 -34011561.804330587 0 -34011561.804330587 -17077403.658551365 0 0 0 0 5093599.4123261869 -3667543.0325902514 0 -3667543.0325902514 -1921236.9558102158 0 0 0 0 5453416.5405492783 -15585895.534617305 0 -15585895.534617305 -53908678.536079884 0 0 0 0 74002944.686462402 11381565.670090199 0 11381565.670090199 -12154815.042247057 0 0 0 0 229561904.9672699 85236525.069750309 0 85236525.069750309 -24884196.676621437 0 0 0 0 240404.82984557748 -397844.63405194506 0 -397844.63405194506 -157130.01839178521 0 0 0 0 50908922.573791504 -49724760.566544771 0 -49724760.566544771 1781901.4920682907 0 0 0 0 53756193.691299438 -67873178.594458103 0 -67873178.594458103 -75916989.393424988 0 0 0 0 -30424636.597667694 -23862762.031956196 0 -23862762.031956196 -10760628.668047667 0 0 0 0 -562850.75919495523 -2622714.0498556346 0 -2622714.0498556346 3760518.0047805691 0 0 0 0 142398709.87923431 29753318.9874264 0 29753318.9874264 -44395117.777027607 0 0 0 0 145277258.89807892 37970199.860713959 0 37970199.860713959 -86338941.180871964 0 0 0 0 137914946.39383698 62158217.022347927 0 62158217.022347927 -23673611.950222969 0 0 0 0 -36116714.893859863 -18254035.499679327 0 -18254035.499679327 -6637172.1308505535 0 0 0 0 794294136.84610558 315002346.89427871 0 315002346.89427871 294738537.59589481 0 0 0 0 458847055.27669525 26669286.450869322 0 26669286.450869322 185848162.84803581 0 0 0 0 616303586.29846954 -178469246.429914 0 -178469246.429914 285297458.40602207 0 0 0 0 804478477.40772247 18547753.310012341 0 18547753.310012341 -105169738.47702503 0 0 0 0 546060103.58429909 378393139.46144867 0 378393139.46144867 -30718429.515598297 0 0 0 0 4077850.578336522 -608053.09541997965 0 -608053.09541997965 10543.407957684307 0 0 0 0 908441154.70847321 -136641320.64042878 0 -136641320.64042878 -153338005.17972946 0 0 0 0 125532454.86828613 -160474387.67329311 0 -160474387.67329311 350421395.06299257 0 0 0 0 30095476.020206451 19642505.218341589 0 19642505.218341589 89745967.640491486 0 0 0 0 10802378.070925027 -2154082.4449168695 0 -2154082.4449168695 -226009.61402582144 0 0 0 0 177114355.28879929 -44318373.439754009 0 -44318373.439754009 -254757897.41030502 0 0 0 0 -55488468.811904907 -28151520.672654629 0 -28151520.672654629 131173507.03486246 0 0 0 0 5036103.0671629608 -3120722.1870654877 0 -3120722.1870654877 -2200559.5722815408 0 0 0 0 37063192.975522995 -7572633.5580464602 0 -7572633.5580464602 -191012832.7766943 0 0 0 0 91108392.669570923 -210592789.30524445 0 -210592789.30524445 174681645.2462585 0 0 0 0 82823315.271972656 -143338433.05522513 0 -143338433.05522513 55140705.415612221 0 0 0 0 128959145.03436661 -165535563.56169021 0 -165535563.56169021 201144720.67634797 0 0 0 0 -100717017.48160553 -115348994.15707326 0 -115348994.15707326 48292710.804263473 0 0 0 0 303458987.9082222 228594564.73629713 0 228594564.73629713 -366272653.23951721 0 0 0 0 2382247.7124302387 -1422637.6480628364 0 -1422637.6480628364 -1067076.5510456846 0 0 0 0 256758723.61403275 -375366709.30552626 0 -375366709.30552626 504543379.21491623 0 0 0 0 711093933.65910339 -5421612.2641708851 0 -5421612.2641708851 121111537.36368251 0 0 0 0 72841658.432159424 -13900485.811475754 0 -13900485.811475754 132772627.14501965 0 0 0 0 480803306.12389755 219569643.06722021 0 219569643.06722021 131263508.84201527 0 0 0 0 -39286152.286672592 130940177.37928444 0 130940177.37928444 71863028.198490143 0 0 0 0 469973102.96274567 236772208.01397371 0 236772208.01397371 68457649.070385456 0 0 0 0 124941843.98034668 -219591590.55703291 0 -219591590.55703291 -317807674.36505318 0 0 0 0 231804052.67067719 12421541.663987994 0 12421541.663987994 -118993147.58049297 0 0 0 0 3497889.3090005517 -2494723.832635357 0 -2494723.832635357 335005.46475845564 0 0 0 0 -50640371.150024414 -46405361.390554428 0 -46405361.390554428 -81282963.081404507 0 0 0 0 73897169.447792053 55335911.218484163 0 55335911.218484163 -91216070.44410634 0 0 0 0 -95518510.764808655 -193752083.69990134 0 -193752083.69990134 206312739.66925812 0 0 0 0 1517138.5794416666 -1658269.9624692537 0 -1658269.9624692537 298517.31604819233 0 0 0 0 106201112.76654434 -326831966.57485723 0 -326831966.57485723 199022383.7276032 0 0 0 0 473351688.5178833 -285660520.65902662 0 -285660520.65902662 55211775.871296667 0 0 0 0 473758850.60528564 -269600090.93211126 0 -269600090.93211126 -30248576.354766846 0 0 0 0 257865426.24061584 -63396388.923636675 0 -63396388.923636675 -225420403.31801796 0 0 0 0 301031027.39868164 -7674404.4567070007 0 -7674404.4567070007 -60090071.551420689 0 0 0 0 235969430.22830963 -62851062.064614534 0 -62851062.064614534 -75090950.172207952 0 0 0 0 127103401.10761261 -86883459.425828457 0 -86883459.425828457 -41752033.788334846 0 0 0 0 58104065.113003731 -69867972.24292621 0 -69867972.24292621 -27674269.782942533 0 0 0 0 42010173.79335022 -30748180.231766641 0 -30748180.231766641 -60598214.314759746 0 0 0 0 22322234.160930634 25138117.733234376 0 25138117.733234376 -54727715.471150637 0 0 0 0 -61063966.281768799 -38971742.258271337 0 -38971742.258271337 -39042534.548180819 0 0 0 0 -9905881.4132385254 -12516893.609556437 0 -12516893.609556437 -53903167.742469072 0 0 0 0 -72637354.612617493 -42600820.830890417 0 -42600820.830890417 -34807805.128727436 0 0 0 0 -31183647.420150757 -60199935.289195061 0 -60199935.289195061 -180770316.32609689 0 0 0 0 2836872.7451553345 5509663.5669841766 0 5509663.5669841766 -115832264.07426071 0 0 0 0 104640951.82174683 -103785137.39214897 0 -103785137.39214897 -23555447.796336174 0 0 0 0 -10759025.072626114 -14891502.656755388 0 -14891502.656755388 -16628780.541699886 0 0 0 0 60546519.15303421 -34724334.068484426 0 -34724334.068484426 -8980049.0338697433 0 0 0 0 122806349.69077301 -22258308.674576163 0 -22258308.674576163 -55932217.878574848 0 0 0 0 132646049.60358429 33663092.494783401 0 33663092.494783401 -56469013.892768979 0 0 0 0 137232955.67393875 15705098.455745697 0 15705098.455745697 -23216671.300458431 0 0 0 0 183589300.04779625 18066988.925781131 0 18066988.925781131 -69297553.733126163 0 0 0 0 74110325.775924683 35504635.091121197 0 35504635.091121197 -15736164.275078177 0 0 0 0 78357824.532867432 19582917.578198433 0 19582917.578198433 -58629097.916088343 0 0 0 0 -57878017.29649353 -46115867.724910259 0 -46115867.724910259 -126907414.9696188 0 0 0 0 45269490.419113159 6661191.0453419685 0 6661191.0453419685 -53883344.100859165 0 0 0 0 -57691256.220413208 -61762480.969288826 0 -61762480.969288826 -77053737.568647385 0 0 0 0 1219285.0259480178 -377351.49923029542 0 -377351.49923029542 957572.53233968467 0 0 0 0 -89865647.324874878 -47736549.560681343 0 -47736549.560681343 6616277.4361094236 0 0 0 0 -34303623.642671585 -127559297.24155629 0 -127559297.24155629 -139035164.43108845 0 0 0 0 -8018987.633682251 -63214977.015715122 0 -63214977.015715122 -175296237.36654854 0 0 0 0 -28919361.354698181 -54128017.053509712 0 -54128017.053509712 -40968830.729838371 0 0 0 0 -25622666.065353394 65223154.807917118 0 65223154.807917118 16668500.203375578 0 0 0 0 460437854.88581848 -313605991.49623871 0 -313605991.49623871 142371330.9762764 0 0 0 0 284126213.98901367 147152979.84783363 0 147152979.84783363 -75321780.190839767 0 0 0 0 184924.29001748562 -314408.54959005862 0 -314408.54959005862 916094.01299753459 0 0 0 0 -112790344.99176025 -221488690.53577447 0 -221488690.53577447 113131483.73425007 0 0 0 0 156095228.96852112 -355775190.17514157 0 -355775190.17514157 128529269.39128608 0 0 0 0 46729012.108131409 -171547956.96980667 0 -171547956.96980667 24964724.951480389 0 0 0 0 458091527.18169785 -211543870.19749987 0 -211543870.19749987 -58167324.152722836 0 0 0 0 46734994.419769287 -18406089.108462811 0 -18406089.108462811 -28123349.876105785 0 0 0 0 -111061783.14860857 -30152970.930741016 0 -30152970.930741016 -28674327.631465912 0 0 0 0 2947132.9319610596 -144956741.84018207 0 -144956741.84018207 83769121.339953899 0 0 0 0 132630327.0983448 -185538858.03071153 0 -185538858.03071153 21561669.922959328 0 0 0 0 177176526.55264378 -48836635.333180517 0 -48836635.333180517 -17720351.588122368 0 0 0 0 169284921.93388367 -206051624.55643094 0 -206051624.55643094 -25114405.667355776 0 0 0 0 142315475.74334717 -159324107.05534065 0 -159324107.05534065 -53176894.500948831 0 0 0 0 307186488.28753662 -155787842.94328737 0 -155787842.94328737 -51835434.078772426 0 0 0 0 357460858.06442261 45192459.967038453 0 45192459.967038453 40758658.595380425 0 0 0 0 182619971.40763092 -53425730.242588401 0 -53425730.242588401 -13932162.029148817 0 0 0 0 169373497.41530848 60377595.397617459 0 60377595.397617459 55800633.476344347 0 0 0 0 104921374.78516388 -9091466.1436419487 0 -9091466.1436419487 -19041493.654515743 0 0 0 0 145027799.53392792 -50436292.232049584 0 -50436292.232049584 63977480.283812448 0 0 0 0 9923467.9810943604 -38184327.890110135 0 -38184327.890110135 52468519.071673989 0 0 0 0 -8427225.1673927307 -17500637.763592362 0 -17500637.763592362 36176856.806621552 0 0 0 0 8332564.7556390762 5892640.0889931321 0 5892640.0889931321 -44753016.23184967 0 0 0 0 12053809.554691315 -12085064.70926857 0 -12085064.70926857 -2871829.4838094711 0 0 0 0 79211027.633422852 24862418.5124228 0 24862418.5124228 7041088.207875371 0 0 0 0 58791338.76158905 -29101303.714939713 0 -29101303.714939713 -23954519.616371632 0 0 0 0 9374774.6057281494 22417956.031441927 0 22417956.031441927 -18839997.996883631 0 0 0 0 6118642.1233654022 14884751.444013 0 14884751.444013 -36065001.055896759 0 0 0 0 2266978.3979519457 -1279715.264783008 0 -1279715.264783008 -1226004.6418150617 0 0 0 0 155241815.42087746 -49651498.397603393 0 -49651498.397603393 -22191860.763048649 0 0 0 0 1141154.4280704409 -679548.10449502617 0 -679548.10449502617 -631370.16561347479 0 0 0 0 44697886.093372345 -7725221.5654432774 0 -7725221.5654432774 -53451549.647910118 0 0 0 0 26210206.982940674 -29390974.14740777 0 -29390974.14740777 -76635443.412312984 0 0 0 0 -1428923.4443664551 40059783.569224358 0 40059783.569224358 -110905083.23692465 0 0 0 0 -15623757.745399475 -10110691.403022528 0 -10110691.403022528 -45897782.292663574 0 0 0 0 -22636800.361991882 12031087.481501341 0 12031087.481501341 -23199510.560180902 0 0 0 0 5870817.1233520508 -20080872.601631165 0 -20080872.601631165 -92798360.365631104 0 0 0 0 2287972.9151206017 -1419015.9252231289 0 -1419015.9252231289 -1296250.6922854544 0 0 0 0 51065167.319519043 19294438.877841234 0 19294438.877841234 -88925704.618532717 0 0 0 0 -23982377.308876157 -39046029.159721009 0 -39046029.159721009 -104074984.40403461 0 0 0 0 -155758915.92290497 -69197581.590956807 0 -69197581.590956807 -27940378.592605114 0 0 0 0 2815636.9218579978 1042516.395320937 0 1042516.395320937 455152.07275438728 0 0 0 0 -12783259.878456116 -33365852.745075941 0 -33365852.745075941 -17870262.133816838 0 0 0 0 -63646233.756309509 -34407780.985996604 0 -34407780.985996604 4162892.2291093469 0 0 0 0 10480968.643281596 2653135.603582181 0 2653135.603582181 1226621.3143540723 0 0 0 0 -120744780.30212402 -52920174.523533821 0 -52920174.523533821 13293668.794973016 0 0 0 0 -63665555.646273613 -35405426.892122835 0 -35405426.892122835 -36692171.243249893 0 0 0 0 80186341.747455597 24718960.649262846 0 24718960.649262846 -13557560.836830378 0 0 0 0 88205030.444290161 118407.76136469841 0 118407.76136469841 59775531.283947468 0 0 0 0 40618728.207359314 -12241544.374845505 0 -12241544.374845505 -39886984.933352947 0 0 0 0 42876830.92766571 -23122986.611353397 0 -23122986.611353397 -45669638.632626534 0 0 0 0 91763293.905647278 69686224.12983942 0 69686224.12983942 -123581810.02278316 0 0 0 0 201814698.86600494 49029506.936988592 0 49029506.936988592 -71624972.717123985 0 0 0 0 68085457.921357632 -41797647.729578555 0 -41797647.729578555 -4656377.6487846375 0 0 0 0 17708772.655721664 -16526359.355638504 0 -16526359.355638504 7549568.6484670639 0 0 0 0 38559262.568489075 27976550.378338814 0 27976550.378338814 27789125.420463055 0 0 0 0 40653088.37092495 -12912865.631427303 0 -12912865.631427303 -28608563.564475775 0 0 0 0 32510535.332379766 -10553021.003666611 0 -10553021.003666611 -11530023.554186083 0 0 0 0 19709616.452969551 -4352360.6779857725 0 -4352360.6779857725 36601816.505345345 0 0 0 0 43726587.094749451 -30204336.719574451 0 -30204336.719574451 -22055754.54019475 0 0 0 0 51044870.844950475 -5677912.4154547937 0 -5677912.4154547937 10030521.018830299 0 0 0 0 20010500.990310669 -7437975.6567504406 0 -7437975.6567504406 -4885885.9417290688 0 0 0 0 15371048.138160706 8408479.878487587 0 8408479.878487587 -10461636.022739768 0 0 0 0 31211603.614889592 -8978234.2772228532 0 -8978234.2772228532 -12890717.889806351 0 0 0 0 33279104.602752686 -24537858.031442165 0 -24537858.031442165 -56217149.106132507 0 0 0 0 83660683.034790039 21138724.72969532 0 21138724.72969532 -14813116.570678234 0 0 0 0 128969278.7245903 -87959810.406908154 0 -87959810.406908154 -74257457.456558228 0 0 0 0 -797701.05669021606 -72244924.290124655 0 -72244924.290124655 -86114300.58434391 0 0 0 0 8092109.8014297485 -36567242.425614834 0 -36567242.425614834 -108593057.36658716 0 0 0 0 -28457675.544361115 -26639321.691699147 0 -26639321.691699147 -49746488.739655495 0 0 0 0 22665934.454063416 -6522920.0847024918 0 -6522920.0847024918 -85026047.888004005 0 0 0 0 25367589.391365051 -23736479.088853002 0 -23736479.088853002 -45922060.357431412 0 0 0 0 19775510.123764038 -98264914.586119175 0 -98264914.586119175 -35562383.889260292 0 0 0 0 88119095.859222412 -26886097.782927513 0 -26886097.782927513 44775651.558221579 0 0 0 0 37664200.442398071 28148533.578906059 0 28148533.578906059 1870890.2769756317 0 0 0 0 43032809.303115845 43210659.992104053 0 43210659.992104053 -41009586.288280487 0 0 0 0 -38356196.703033447 -112052856.60997772 0 -112052856.60997772 65453730.488493919 0 0 0 0 1141576.6532393247 -790275.41040382721 0 -790275.41040382721 -669712.50284797978 0 0 0 0 28112357.091320038 -182560742.44562483 0 -182560742.44562483 -31449664.032345295 0 0 0 0 -125535484.07074738 -182424781.19184923 0 -182424781.19184923 -19897674.947254658 0 0 0 0 184001214.18109131 17871958.089804649 0 17871958.089804649 -29431622.26288414 0 0 0 0 1356065.9364508539 154018.81922729686 0 154018.81922729686 -316842.16875603609 0 0 0 0 -52427946.842399597 -73194210.862982512 0 -73194210.862982512 -61976701.036699772 0 0 0 0 60597967.072807312 -4012177.7502846718 0 -4012177.7502846718 -4964735.4345455915 0 0 0 0 53551657.811721802 -26896405.680064201 0 -26896405.680064201 -25298375.011953354 0 0 0 0 118346420.95539856 22710291.466358662 0 22710291.466358662 -5720802.4264999926 0 0 0 0 78237388.661933899 -26118392.355072021 0 -26118392.355072021 -6014725.0069141388 0 0 0 0 64349508.936630249 1217131.8410072327 0 1217131.8410072327 -53576783.014101028 0 0 0 0 48500371.47933197 -23495179.422962189 0 -23495179.422962189 -4363412.1852331161 0 0 0 0 56653289.812774658 -26625152.430850506 0 -26625152.430850506 -21631464.823075294 0 0 0 0 75552925.039878845 -9393356.2637860775 0 -9393356.2637860775 -23492375.197792053 0 0 0 0 55279054.876296997 -32755888.387331724 0 -32755888.387331724 -8711871.5869503021 0 0 0 0 46083908.256507874 -4239158.4320759773 0 -4239158.4320759773 -5095836.0304698944 0 0 0 0 62968260.658241272 -2253945.2135117054 0 -2253945.2135117054 -6411927.1367540359 0 0 0 0 5594150.1762256995 -463129.70574688539 0 -463129.70574688539 -2257166.6378899626 0 0 0 0 14466382.158053622 1049150.7813880593 0 1049150.7813880593 -2459216.5824373402 0 0 0 0 16523473.470344543 -3124433.0235537291 0 -3124433.0235537291 -1237911.578368783 0 0 0 0 18788937.537464142 -1167626.1709332466 0 -1167626.1709332466 -2515449.6592512131 0 0 0 0 12076471.810678482 2464045.205957979 0 2464045.205957979 -5557374.4100933075 0 0 0 0 11452973.423965454 728559.78562736511 0 728559.78562736511 -4898265.6078724861 0 0 0 0 15052135.067913622 -1786867.1923138648 0 -1786867.1923138648 -4233882.2718940713 0 0 0 0 39202954.308708191 -19798746.389319897 0 -19798746.389319897 10170283.263782382 0 0 0 0 60733732.256118774 -28605153.106657028 0 -28605153.106657028 8194994.9020328522 0 0 0 0 35212606.639144897 -29451658.968103409 0 -29451658.968103409 33556116.774080276 0 0 0 0 53266482.573303223 -34382899.129122257 0 -34382899.129122257 8826440.4598197937 0 0 0 0 49843833.596893311 -27258474.539166451 0 -27258474.539166451 -4361400.7504734993 0 0 0 0 47635464.028282166 -29151155.904150486 0 -29151155.904150486 9075558.3611850739 0 0 0 0 2354990.4672470093 -58488639.636040211 0 -58488639.636040211 -76562513.395161986 0 0 0 0 17879879.60061264 -31160704.122159243 0 -31160704.122159243 -28772763.174649715 0 0 0 0 -47078907.930301666 -34366575.661561728 0 -34366575.661561728 6420483.47824049 0 0 0 0 2635902.3703611046 -798846.37221562117 0 -798846.37221562117 -1236008.1581182415 0 0 0 0 6588945.0927286893 -8067784.7817065492 0 -8067784.7817065492 1137021.220843018 0 0 0 0 5596866.6693649292 -16373778.030283928 0 -16373778.030283928 -10854008.148905039 0 0 0 0 -5866230.0437088013 -23362989.687515736 0 -23362989.687515736 53825.687876701355 0 0 0 0 10308331.204399109 -29992841.97958231 0 -29992841.97958231 -28940377.041597962 0 0 0 0 19189096.654060364 -8541784.4532887936 0 -8541784.4532887936 -15905.668880611658 0 0 0 0 10879170.92502594 -21986256.654936552 0 -21986256.654936552 -4749802.790415287 0 0 0 0 8082912.0553116798 -10977471.997739516 0 -10977471.997739516 1917664.4089656635 0 0 0 0 22637554.20665741 -5200248.1841341853 0 -5200248.1841341853 -5705844.413271904 0 0 0 0 18193737.929264069 -11864821.993475139 0 -11864821.993475139 -2026532.2833997011 0 0 0 0 29684817.303909302 -5901827.2183321714 0 -5901827.2183321714 -6277152.9503455162 0 0 0 0 -55992324.169921875 25986581.608685136 0 25986581.608685136 28471126.597399354 0 0 0 0 1645315.8390960693 54949672.502936125 0 54949672.502936125 38092788.424542189 0 0 0 0 1319655.8473672271 -343139.0877731666 0 -343139.0877731666 -877812.0104844647 0 0 0 0 29418286.607177734 -13594638.397255361 0 -13594638.397255361 -4003480.2421438694 0 0 0 0 25178883.008666992 -9467396.5018721819 0 -9467396.5018721819 -4877655.4919681549 0 0 0 0 25922445.483608246 -13583571.691568911 0 -13583571.691568911 -3732958.5351886749 0 0 0 0 33816606.766815186 -10884631.199201822 0 -10884631.199201822 -4940682.671339035 0 0 0 0 27429714.095855713 -15837608.332515717 0 -15837608.332515717 -617736.13900256157 0 0 0 0 2057526.2667612433 -1703101.0487684347 0 -1703101.0487684347 -1388752.0341644497 0 0 0 0 23543769.430618286 75450915.274183273 0 75450915.274183273 -31079424.856015205 0 0 0 0 9904218.98352696 -3632490.2660095841 0 -3632490.2660095841 -5113875.0072136531 0 0 0 0 -78854229.449726105 -52286694.761419058 0 -52286694.761419058 43711555.903496027 0 0 0 0 57408151.001163483 -78028502.858545035 0 -78028502.858545035 -31097519.110254765 0 0 0 0 10869382.241867065 4253620.3299620152 0 4253620.3299620152 -5107052.7195022106 0 0 0 0 6718090.3558807373 -402078.57402992249 0 -402078.57402992249 -2873158.8495893478 0 0 0 0 6528108.1349897236 307784.990878921 0 307784.990878921 -4363067.7436114987 0 0 0 0 5622474.1073303223 -571339.77057123184 0 -571339.77057123184 -4676619.5460739136 0 0 0 0 11582290.90265429 -929570.09644952416 0 -929570.09644952416 -5080326.5396848917 0 0 0 0 11751093.875900269 6009376.0298995972 0 6009376.0298995972 -7275667.51537323 0 0 0 0 13258245.998098575 -988430.49992694706 0 -988430.49992694706 -2481090.1440525241 0 0 0 0 3113468.430451382 -1204070.0851292461 0 -1204070.0851292461 -1784092.6126271654 0 0 0 0 70757325.462112427 -12786455.742790222 0 -12786455.742790222 -3456970.5008277893 0 0 0 0 -4392768.6732177734 -3808135.050329566 0 -3808135.050329566 -5561505.2167835236 0 0 0 0 16084661.321395874 -1822796.9605026245 0 -1822796.9605026245 -3884191.9955317974 0 0 0 0 20070722.993713379 877212.84084177017 0 877212.84084177017 -4520772.8750405312 0 0 0 0 23704549.238143921 -5666138.6879184246 0 -5666138.6879184246 -5626963.3261618614 0 0 0 0 21644028.057907104 411079.42848086357 0 411079.42848086357 -6355920.4631645679 0 0 0 0 1122405.6217956543 -10017838.444751993 0 -10017838.444751993 -27135817.416962996 0 0 0 0 -463766.001251176 -2649482.5208097156 0 -2649482.5208097156 -290420.93957216083 0 0 0 0 3437843.6873448044 -1811591.4186830223 0 -1811591.4186830223 -2359966.8801654149 0 0 0 0 15958397.796875 -12893609.804944374 0 -12893609.804944374 -39866640.401751362 0 0 0 0 -27669022.096702576 10769993.8898247 0 10769993.8898247 -24637042.864914171 0 0 0 0 34133838.412096024 -6328313.1243077591 0 -6328313.1243077591 -6642124.1795864105 0 0 0 0 28002058.09552002 -2263793.4453320503 0 -2263793.4453320503 -5244868.0650844574 0 0 0 0 83723789.945655823 -50361238.852387607 0 -50361238.852387607 -23030476.59829028 0 0 0 0 -14676467.307006836 -665929.08347041905 0 -665929.08347041905 -8775629.420450896 0 0 0 0 380197.53023254871 -948955.9032380376 0 -948955.9032380376 -510167.49963800865 0 0 0 0 15319516.506138504 -3722370.5334041533 0 -3722370.5334041533 -6172566.2195873074 0 0 0 0 5318531.6806266755 -3724579.436196899 0 -3724579.436196899 -4452694.2933830936 0 0 0 0 1429001.9679260254 -2577211.5780463219 0 -2577211.5780463219 -9053470.5367956161 0 0 0 0 15748630.337830186 -2298876.2132025063 0 -2298876.2132025063 -6690086.3484343272 0 0 0 0 15210513.779800124 992079.13727813959 0 992079.13727813959 -6303086.4422351839 0 0 0 0 9448124.7118225098 -916430.1153447628 0 -916430.1153447628 -8407667.1571965218 0 0 0 0 1211191.2602539062 -12671243.61725362 0 -12671243.61725362 -22247048.518884093 0 0 0 0 7738515.5379943848 813255.10689163208 0 813255.10689163208 -9664878.8358716965 0 0 0 0 7674588.2737296596 -3419894.0961271636 0 -3419894.0961271636 -440755.25572579727 0 0 0 0 8163374.9365005493 -254890.55709758401 0 -254890.55709758401 -8319561.0169734955 0 0 0 0 2076343.5302734375 3649739.5608882904 0 3649739.5608882904 -18510473.552482247 0 0 0 0 7023296.4197845459 -3158975.6109220982 0 -3158975.6109220982 -298877.9477519989 0 0 0 0 3045256.7434692383 1707910.75370121 0 1707910.75370121 -18663591.288359463 0 0 0 0 6650992.0085604191 566803.6706071943 0 566803.6706071943 -7374635.9864883423 0 0 0 0 15434680.948605835 -727436.95600623637 0 -727436.95600623637 -6242055.8641463863 0 0 0 0 3765796.4254464358 3261751.651925737 0 3261751.651925737 -4867095.4460361851 0 0 0 0 42174.536555983126 -42075.753761857748 0 -42075.753761857748 34974.806979965419 0 0 0 0 71426553.619438171 20488296.021190643 0 20488296.021190643 20769969.632045746 0 0 0 0 14020743.326516479 1712840.6453129053 0 1712840.6453129053 -4470388.2377630025 0 0 0 0 7040509.4415435791 -3206808.5853891373 0 -3206808.5853891373 -1119142.3986105919 0 0 0 0 133800698.20146179 -45120590.201634407 0 -45120590.201634407 -19673634.99810791 0 0 0 0 40148251.4662323 -101859458.97471714 0 -101859458.97471714 -49708652.887786865 0 0 0 0 1121487.2425139248 831111.58452744782 0 831111.58452744782 -991687.00045568403 0 0 0 0 40963283.446716309 -24769313.491922379 0 -24769313.491922379 -123219.15874481201 0 0 0 0 11749696.879720971 -7339689.7985046301 0 -7339689.7985046301 -3028503.4121524803 0 0 0 0 7075323.0951074585 -1785312.3793354407 0 -1785312.3793354407 -623813.6983274743 0 0 0 0 -5763100.0543823242 22912991.535298347 0 22912991.535298347 3714462.0287475586 0 0 0 0 30499854.101745605 31335458.40474987 0 31335458.40474987 5557300.2150735855 0 0 0 0 -11361190.075881958 18604347.04772377 0 18604347.04772377 21565407.484050751 0 0 0 0 102426405.64312744 21378767.453305244 0 21378767.453305244 1838371.6718502045 0 0 0 0 7243164.0885772705 1838535.4858417511 0 1838535.4858417511 -10443709.75725913 0 0 0 0 62020264.659646034 -36462008.353220284 0 -36462008.353220284 6911907.7058973312 0 0 0 0 -445293.24084472656 -7635526.5593395233 0 -7635526.5593395233 3050343.1940946579 0 0 0 0 2892794.7946308255 -5043908.9760233657 0 -5043908.9760233657 -2816502.7143257353 0 0 0 0 23955409.236265123 -3104480.319686681 0 -3104480.319686681 -5134782.6727592181 0 0 0 0 8355905.602142334 4271336.9984498024 0 4271336.9984498024 -18248435.264627934 0 0 0 0 3786095.8933258057 1214935.6326853037 0 1214935.6326853037 -8806828.3817453384 0 0 0 0 16477422.758528292 -1616191.5556535884 0 -1616191.5556535884 -5082161.3267952912 0 0 0 0 23611296.917516366 -2503983.3517372077 0 -2503983.3517372077 -3531933.6668668562 0 0 0 0 13957791.177368894 -8733274.6089316756 0 -8733274.6089316756 -5382792.676385154 0 0 0 0 -7008088.7825546265 -7358743.6865777969 0 -7358743.6865777969 -37896550.098287582 0 0 0 0 59081454.709312439 65287469.866821289 0 65287469.866821289 -151790977.0913558 0 0 0 0 26988697.583679199 -9602102.7783647776 0 -9602102.7783647776 -33445027.052165985 0 0 0 0 3263192.862487793 160307066.96963882 0 160307066.96963882 -38825083.038905144 0 0 0 0 -59384239.707984924 132542301.86017132 0 132542301.86017132 118279836.61953545 0 0 0 0 -38422814.529891968 -1901004.1216802597 0 -1901004.1216802597 211101640.49023533 0 0 0 0 13061914.542678833 27911838.911641121 0 27911838.911641121 7242012.4990575314 0 0 0 0 37214579.780960083 -17630272.294893742 0 -17630272.294893742 29250096.47985363 0 0 0 0 190091271.39875031 -100643140.42652225 0 -100643140.42652225 88090233.630821705 0 0 0 0 -2750092.3676681519 29657533.767958164 0 29657533.767958164 2757053.2026185989 0 0 0 0 -13868284.770027161 22205464.411846161 0 22205464.411846161 73633016.372898102 0 0 0 0 -12278689.232757568 9001926.1518144608 0 9001926.1518144608 34403694.316955566 0 0 0 0 -1450983.5555114746 1992294.8193244934 0 1992294.8193244934 32651470.272997975 0 0 0 0 7644613.0059280396 4382046.6870265007 0 4382046.6870265007 19084831.250236511 0 0 0 0 4511017.2407073975 -7785392.4477090836 0 -7785392.4477090836 18610190.788359433 0 0 0 0 46153780.595001221 1736309.0741996765 0 1736309.0741996765 24893370.217382431 0 0 0 0 32950666.347549438 29607265.375449657 0 29607265.375449657 -22771688.535456657 0 0 0 0 148036018.06742096 -14468850.54147023 0 -14468850.54147023 -6883084.6217107773 0 0 0 0 48883608.898895264 86254319.198149681 0 86254319.198149681 -109983661.34028077 0 0 0 0 -32905477.873386383 31335913.926236868 0 31335913.926236868 -29239164.235474586 0 0 0 0 44348562.800373077 9131846.9381626844 0 9131846.9381626844 -22857507.300189018 0 0 0 0 -17792094.14430809 -16099142.764981568 0 -16099142.764981568 -24933799.240058899 0 0 0 0 15065066.203163147 -7513059.1406924725 0 -7513059.1406924725 -82486873.935925007 0 0 0 0 11916831.078681946 1468898.5468251705 0 1468898.5468251705 -24968630.895104408 0 0 0 0 4309632.745010376 3830840.1663098335 0 3830840.1663098335 -13814020.69443655 0 0 0 0 18957315.135784149 -26432970.536072254 0 -26432970.536072254 -23380448.73917675 0 0 0 0 28891418.788345337 -8156779.6034607887 0 -8156779.6034607887 -50531040.888347149 0 0 0 0 29410140.712615967 -27603362.649060726 0 -27603362.649060726 -21336162.07715416 0 0 0 0 54290039.242279053 -33780116.997426033 0 -33780116.997426033 -25691002.903816938 0 0 0 0 54047581.421300888 -28137380.496727109 0 -28137380.496727109 -7787500.8104496002 0 0 0 0 31441482.153739929 -11733516.688930035 0 -11733516.688930035 -6150025.9058055878 0 0 0 0 54636962.748632193 -14446180.106904238 0 -14446180.106904238 20540074.389619827 0 0 0 0 49911098.492401123 -28351590.948620796 0 -28351590.948620796 -2479841.2787597179 0 0 0 0 55233469.269332886 -38967233.910329819 0 -38967233.910329819 12788718.305967331 0 0 0 0 61498847.870475769 -30319238.643015385 0 -30319238.643015385 -8209378.7285423279 0 0 0 0 53081167.843658447 -22107296.80345583 0 -22107296.80345583 32105548.205343246 0 0 0 0 28567610.864364624 -23751496.91828537 0 -23751496.91828537 36657888.259145737 0 0 0 0 11987955.133026123 -851829.83738708496 0 -851829.83738708496 5030339.0800485611 0 0 0 0 59043036.614685059 -56634667.535833359 0 -56634667.535833359 35069539.434959412 0 0 0 0 79449031.042617798 -45470530.15119648 0 -45470530.15119648 34472529.846357346 0 0 0 0 1894528.235753119 -296813.73811898381 0 -296813.73811898381 5913.4212150536478 0 0 0 0 52889598.157585144 -38572638.403423786 0 -38572638.403423786 -11715832.145801544 0 0 0 0 73484344.790122986 -16973439.60840416 0 -16973439.60840416 7447292.1758155823 0 0 0 0 25110730.643829346 5947790.6747751236 0 5947790.6747751236 3285672.3424882889 0 0 0 0 27039606.103439331 16973984.335453033 0 16973984.335453033 21632651.188811779 0 0 0 0 1174094.2193527222 1940243.2855980396 0 1940243.2855980396 15920917.857918739 0 0 0 0 5513453.6688766479 8785361.4686813354 0 8785361.4686813354 13806551.506373405 0 0 0 0 22498784.765319824 -12576525.478873253 0 -12576525.478873253 -5446144.7112460136 0 0 0 0 28042451.016685486 -3389422.2680447102 0 -3389422.2680447102 9778941.9752426147 0 0 0 0 2205976692.6477509 297327326.98156464 0 297327326.98156464 -125334660.1897649 0 0 0 0 1853233000.818634 94080595.829233393 0 94080595.829233393 -50360945.568652987 0 0 0 0 2708906.6293043755 -1207031.0640377849 0 -1207031.0640377849 -233500.92520033865 0 0 0 0 2058438617.0120506 199426105.58014357 0 199426105.58014357 -24799520.222423054 0 0 0 0 -45999814.261829376 -45212820.978584424 0 -45212820.978584424 52523730.996287882 0 0 0 0 80598124.352096558 13763085.689846873 0 13763085.689846873 -32676960.153181553 0 0 0 0 2011301058.7908249 191024370.64257324 0 191024370.64257324 -13498314.609062627 0 0 0 0 1869350013.2681637 72632052.45940502 0 72632052.45940502 -101247776.34957027 0 0 0 0 66157675.836532593 12875254.976728708 0 12875254.976728708 -9390740.0715186596 0 0 0 0 7410403.4799632616 -3050737.260383673 0 -3050737.260383673 -623880.71063849377 0 0 0 0 14573449.89979744 -12056955.649710096 0 -12056955.649710096 -3396946.8990560174 0 0 0 0 1022336512.2915993 -223011034.38851538 0 -223011034.38851538 205524595.73934245 0 0 0 0 12958331.704389755 -2922953.8239136785 0 -2922953.8239136785 -1711855.0001316089 0 0 0 0 -3032080.5955352783 -18532202.292013526 0 -18532202.292013526 14012064.65510416 0 0 0 0 14485602.945976257 -25379484.23313117 0 -25379484.23313117 1985068.4977593422 0 0 0 0 1998155155.8583069 178477769.32420444 0 178477769.32420444 -181147165.52876097 0 0 0 0 2147265054.1505432 276123965.81050718 0 276123965.81050718 -64346681.581326045 0 0 0 0 2092453013.4290161 91819307.905805409 0 91819307.905805409 -188603956.7297793 0 0 0 0 2022327946.1143398 175151725.76731765 0 175151725.76731765 -97784319.229329541 0 0 0 0 2136065056.9553375 143511622.72954383 0 143511622.72954383 126230971.81849796 0 0 0 0 2203570100.4294147 100808934.79405449 0 100808934.79405449 -49277783.450285636 0 0 0 0 2130744771.7642789 84217193.504074514 0 84217193.504074514 507325074.15390468 0 0 0 0 1986791744.078476 25936213.374518827 0 25936213.374518827 -85353.371465541481 0 0 0 0 1712857825.3475037 47236459.732651681 0 47236459.732651681 -82435134.423165113 0 0 0 0 1494530373.0372086 214806776.44664904 0 214806776.44664904 -44067142.407153413 0 0 0 0 45407240.825349808 6882106.641813729 0 6882106.641813729 -6075709.3589604981 0 0 0 0 7993319.2369241975 1792358.1834202707 0 1792358.1834202707 256123.4819479427 0 0 0 0 735116869.12380219 348602311.79766679 0 348602311.79766679 449115585.55779666 0 0 0 0 10806434.212002609 1769872.0335460529 0 1769872.0335460529 -791176.52370950882 0 0 0 0 32853074.721797943 2245845.3434974868 0 2245845.3434974868 -5430399.5726071894 0 0 0 0 23341400.165161133 5750853.8671000339 0 5750853.8671000339 467031.29895630322 0 0 0 0 2428973001.6730194 207868819.18634832 0 207868819.18634832 -206167986.24352303 0 0 0 0 1431086068.5211105 999106968.71683109 0 999106968.71683109 410270419.16968167 0 0 0 0 3549098.2832559645 -28074.539623446413 0 -28074.539623446413 63655.409033300239 0 0 0 0 2210946209.0445404 -713328660.75585389 0 -713328660.75585389 28266708.853414536 0 0 0 0 2335754478.1164551 381770491.42587304 0 381770491.42587304 -35084871.47044307 0 0 0 0 48576439.089752197 13363595.629610062 0 13363595.629610062 -17947007.180699348 0 0 0 0 25547648.091141552 4069212.5874969261 0 4069212.5874969261 -2738293.9870501594 0 0 0 0 -12252655.970336914 -45934432.617468119 0 -45934432.617468119 -56933593.786179066 0 0 0 0 355564654.88711548 15470009.018320799 0 15470009.018320799 -96537330.519765854 0 0 0 0 23941698.182739884 -590531.22597605293 0 -590531.22597605293 -1704213.9524872941 0 0 0 0 -7829279.0368270874 146634294.68809521 0 146634294.68809521 32567662.18024087 0 0 0 0 -44057009.060012817 13284315.826117575 0 13284315.826117575 44753797.637727737 0 0 0 0 -175267072.62205505 -108770215.1726234 0 -108770215.1726234 -66371925.707971096 0 0 0 0 2285186.3965312466 345420.05383305997 0 345420.05383305997 -895361.36372571765 0 0 0 0 -13659890.530792236 -64817135.125790514 0 -64817135.125790514 -8567731.580327969 0 0 0 0 15466445.433879852 1304207.22773128 0 1304207.22773128 -2366800.0249381363 0 0 0 0 9713863.4157309979 2302741.7007901296 0 2302741.7007901296 -1636199.901716951 0 0 0 0 30739910.614189148 14504585.631538004 0 14504585.631538004 -16594366.153476631 0 0 0 0 22931193.445983887 -3397560.6786310822 0 -3397560.6786310822 -1665741.3896899819 0 0 0 0 23858528.199005127 -302732.94066061359 0 -302732.94066061359 5109537.3281886782 0 0 0 0 21125310.791465759 5128101.7728624856 0 5128101.7728624856 -5242450.5065860059 0 0 0 0 54393758.203262329 28180277.386543792 0 28180277.386543792 1790415.7453316748 0 0 0 0 4440766.2227656245 1728534.0162375942 0 1728534.0162375942 384997.50415371911 0 0 0 0 11790755.328483582 -6669985.4401559904 0 -6669985.4401559904 -557428.64589158539 0 0 0 0 1911968.8090362549 -4677895.7151898146 0 -4677895.7151898146 -2188.0525611708222 0 0 0 0 13239716.150100708 5091267.5437685661 0 5091267.5437685661 -1926317.1332283609 0 0 0 0 24495615.176532745 -5708228.3935439335 0 -5708228.3935439335 11094.271399201885 0 0 0 0 51595170.994758606 -6864708.6051136516 0 -6864708.6051136516 -14922921.455163501 0 0 0 0 40531677.809654236 1728757.771666555 0 1728757.771666555 164173.65815295404 0 0 0 0 87969645.196472168 42647906.881728895 0 42647906.881728895 11510143.211089345 0 0 0 0 2704720.4494595975 1422444.506995365 0 1422444.506995365 689662.5274477097 0 0 0 0 32796323.68977356 391633.37113687396 0 391633.37113687396 -3506922.9394372478 0 0 0 0 50195556.802879333 827923.34072676674 0 827923.34072676674 -29911320.926175803 0 0 0 0 36760089.621988297 2370052.1764129661 0 2370052.1764129661 -10933822.488189876 0 0 0 0 30003526.213228226 -16832179.820101373 0 -16832179.820101373 -13620711.054168269 0 0 0 0 35343414.474884033 4294980.3454501405 0 4294980.3454501405 -36104063.740094408 0 0 0 0 16658112.779464722 -7219438.5657119304 0 -7219438.5657119304 -13925160.251412816 0 0 0 0 10587829.195541382 31632582.167014003 0 31632582.167014003 -31918172.189168267 0 0 0 0 21864210.352358773 2052794.2055421947 0 2052794.2055421947 -782618.34467736725 0 0 0 0 34523669.894641876 7432638.5395979434 0 7432638.5395979434 -7969219.9001910686 0 0 0 0 33815859.677391052 7224203.2787395716 0 7224203.2787395716 15209582.451287031 0 0 0 0 19337944.473384798 2330716.9123542374 0 2330716.9123542374 -94972.835825907721 0 0 0 0 -80193790.983276367 14745995.8978405 0 14745995.8978405 16235856.1349895 0 0 0 0 37142729.292457581 18185234.286160346 0 18185234.286160346 1940454.8321440332 0 0 0 0 26263077.372749329 -9509139.7070405707 0 -9509139.7070405707 -22246066.588417143 0 0 0 0 -15953203.941018499 -20733459.18445332 0 -20733459.18445332 -2271901.0690490603 0 0 0 0 2066476.2489637434 230441.6314471662 0 230441.6314471662 -1124108.3704835025 0 0 0 0 3748785.5444641113 8312609.033254385 0 8312609.033254385 1226809.7372682095 0 0 0 0 2492560.9079068713 -589912.28428009152 0 -589912.28428009152 -203028.08235358971 0 0 0 0 -3988554.3447494507 14135669.237531394 0 14135669.237531394 -1277903.1838134527 0 0 0 0 60289526.783248901 32592809.604619443 0 32592809.604619443 14738978.961384773 0 0 0 0 1356126.4868774414 -361139.20964193344 0 -361139.20964193344 5435639.8488383293 0 0 0 0 -1516517.9805603027 3227297.171872139 0 3227297.171872139 16995800.676050663 0 0 0 0 -16014683.98161602 -8674091.1689369567 0 -8674091.1689369567 5491257.0334830284 0 0 0 0 5039888.4503528625 1670633.1483285502 0 1670633.1483285502 -1407781.8979232046 0 0 0 0 -17342378.938453674 5301532.032044515 0 5301532.032044515 6691691.2287472188 0 0 0 0 -5880181.5263900757 9863656.3762085326 0 9863656.3762085326 13599256.461747352 0 0 0 0 36540789.724262238 21907726.98738125 0 21907726.98738125 -14962866.574639082 0 0 0 0 -35971989.770793915 26277317.194442309 0 26277317.194442309 8939330.0761010349 0 0 0 0 380782.45232224464 -184685.74653945863 0 -184685.74653945863 1174877.4225349671 0 0 0 0 285391235.06379318 19412949.515357226 0 19412949.515357226 -59106342.330348015 0 0 0 0 110634913.65045166 -27220780.338988423 0 -27220780.338988423 12755641.829054236 0 0 0 0 78619608.596954346 40862103.467066526 0 40862103.467066526 26411192.811193049 0 0 0 0 65314489.432357788 5703315.7521348596 0 5703315.7521348596 17075884.346678481 0 0 0 0 10778948.342689514 10835881.313574791 0 10835881.313574791 13439025.41466552 0 0 0 0 88294771.068338394 1647949.7548126876 0 1647949.7548126876 -5143788.1209247112 0 0 0 0 2377479.2572515905 739094.62930824608 0 739094.62930824608 2519712.6381066525 0 0 0 0 8696033.6873176023 -947481.76854554191 0 -947481.76854554191 -1869855.6564470455 0 0 0 0 85965394.755039215 25001524.453097284 0 25001524.453097284 -1067813.3485095743 0 0 0 0 77326834.278068542 10012471.420937501 0 10012471.420937501 242443.18021252751 0 0 0 0 16616515.903747559 12662279.343655407 0 12662279.343655407 10707992.130557775 0 0 0 0 8781208.4984207153 -2278408.6179060936 0 -2278408.6179060936 4022332.4293484688 0 0 0 0 -12937020.324985504 13431379.591454089 0 13431379.591454089 14466857.625123978 0 0 0 0 4171707.0834792666 5827579.0941508636 0 5827579.0941508636 7399350.2716142461 0 0 0 0 30696850.620567322 7233205.6536907405 0 7233205.6536907405 5575622.6096532345 0 0 0 0 31731154.094825745 11572503.847326994 0 11572503.847326994 3016383.5988125801 0 0 0 0 5882252.9617264718 234014.31010200083 0 234014.31010200083 8868558.6496588327 0 0 0 0 321273480.02110291 -102032493.86589622 0 -102032493.86589622 216700787.35578918 0 0 0 0 30503972.212112427 27456847.413377643 0 27456847.413377643 20173071.993633747 0 0 0 0 1302946.7971038818 9407664.3787310123 0 9407664.3787310123 12067408.066631556 0 0 0 0 57728569.569351196 -6175124.0332641602 0 -6175124.0332641602 10678406.411149502 0 0 0 0 -2159848.7393798828 10467593.855617046 0 10467593.855617046 27208390.342370033 0 0 0 0 2422186.3424072266 9084811.6787486076 0 9084811.6787486076 13312077.050035954 0 0 0 0 306308.76278686523 12597467.44405961 0 12597467.44405961 4799533.9128565788 0 0 0 0 -4012919.7532806396 -2903024.0849764347 0 -2903024.0849764347 -67868.584267497063 0 0 0 0 51852684.710083008 34908527.99187851 0 34908527.99187851 20442054.322219849 0 0 0 0 21244766.249450684 7125580.8803987503 0 7125580.8803987503 -85517349.254140615 0 0 0 0 11506629.39630416 -3478271.1747207679 0 -3478271.1747207679 -4278713.4287821166 0 0 0 0 285148606.25865555 238433964.30015802 0 238433964.30015802 226995897.46078682 0 0 0 0 158571088.69825745 -3591129.3707895279 0 -3591129.3707895279 -2937215.0912303925 0 0 0 0 37496573.011932373 24801309.992841721 0 24801309.992841721 -89763442.932696342 0 0 0 0 132461092.94342041 102324161.23070431 0 102324161.23070431 -10387374.98897934 0 0 0 0 24633071.504379272 -54814227.986638546 0 -54814227.986638546 -43609899.28185463 0 0 0 0 304221035.72589111 125125749.38578701 0 125125749.38578701 -36990530.475342751 0 0 0 0 354511679.08381653 86529801.387019157 0 86529801.387019157 -50763685.009109497 0 0 0 0 586261305.06643677 178501685.37720871 0 178501685.37720871 -92119303.880750358 0 0 0 0 617722398.81369019 232166071.21415758 0 232166071.21415758 -45122278.232872009 0 0 0 0 474235237.88348389 221140121.46753168 0 221140121.46753168 -8628467.4153156281 0 0 0 0 631555510.87713623 213841350.08784485 0 213841350.08784485 -77926756.434307098 0 0 0 0 633707577.71974182 266862415.85317135 0 266862415.85317135 -25280096.022805214 0 0 0 0 599225508.89280701 300196874.28904915 0 300196874.28904915 127526345.76427078 0 0 0 0 565404032.56903076 233975827.01235962 0 233975827.01235962 -7145521.8728201389 0 0 0 0 565180128.74163818 217778191.91711044 0 217778191.91711044 -7680108.6433143616 0 0 0 0 658564736.99349976 500210234.17276669 0 500210234.17276669 267704864.3125577 0 0 0 0 643834572.60298157 -177121778.54915714 0 -177121778.54915714 -59530178.428368092 0 0 0 0 46962473.535430908 -170073126.37848568 0 -170073126.37848568 -54760899.321833611 0 0 0 0 3991682.3350247741 -1159822.9364129752 0 -1159822.9364129752 -1277702.763761621 0 0 0 0 877590677.09056091 355998556.26491928 0 355998556.26491928 8910536.8627052307 0 0 0 0 997811070.37939453 -435695156.10518456 0 -435695156.10518456 101932394.96703529 0 0 0 0 12995380.59577179 46058932.699513435 0 46058932.699513435 -2184048.6322555542 0 0 0 0 44827350.659828782 50754318.440086491 0 50754318.440086491 -43882066.546546936 0 0 0 0 32879935.887008667 -15550417.172733784 0 -15550417.172733784 -68819149.844618976 0 0 0 0 15574380.264945984 29142290.717619896 0 29142290.717619896 -27724228.415359497 0 0 0 0 338888.02663101256 -558586.22422719747 0 -558586.22422719747 333.99968837760389 0 0 0 0 -1225904.0418643951 83662716.317845821 0 83662716.317845821 12129248.213101387 0 0 0 0 86491494.779525757 37452679.021541595 0 37452679.021541595 28616046.670144081 0 0 0 0 118457888.26098633 -31842193.588395119 0 -31842193.588395119 151420091.43765831 0 0 0 0 11302818.525222778 6430920.286896348 0 6430920.286896348 1871145.6268315315 0 0 0 0 135436526.80468369 -3276501.5622130632 0 -3276501.5622130632 -23539136.381858826 0 0 0 0 27152834.644363403 -7865625.1818928719 0 -7865625.1818928719 2227209.294137001 0 0 0 0 76758033.094863892 2948409.3172912598 0 2948409.3172912598 -6389495.3411073685 0 0 0 0 6500641.2355257226 275363.11905775964 0 275363.11905775964 -8096053.537515712 0 0 0 0 2072911.8952878043 -965051.00220895559 0 -965051.00220895559 -1020003.7098334767 0 0 0 0 11077112.47076416 -595945.38575363159 0 -595945.38575363159 1744045.7476806641 0 0 0 0 1090207.8782272339 -16890027.77580905 0 -16890027.77580905 -24716636.434473991 0 0 0 0 10877408.768798828 17681028.589285135 0 17681028.589285135 -53056213.897981644 0 0 0 0 15038358.674041748 -5454724.3456726074 0 -5454724.3456726074 23145628.165618896 0 0 0 0 -212425.52631157637 -111174.04064491019 0 -111174.04064491019 -498595.06630957965 0 0 0 0 41730673.397888184 -64752587.110706329 0 -64752587.110706329 -93511678.817991257 0 0 0 0 35797137.836914062 -27286387.836475372 0 -27286387.836475372 -69996251.825897217 0 0 0 0 -72087456.554870605 -53041576.508323669 0 -53041576.508323669 -53520825.19418335 0 0 0 0 69260473.621139526 -50215701.911017418 0 -50215701.911017418 -69852948.982969284 0 0 0 0 31130582.405090332 -74907827.920572281 0 -74907827.920572281 -129473670.29214573 0 0 0 0 41358469.189048767 3424089.957212925 0 3424089.957212925 -2992868.4178161621 0 0 0 0 -94998070.573669434 -119401025.13658524 0 -119401025.13658524 -89217914.150508881 0 0 0 0 9193948.7765719425 -3850555.44580134 0 -3850555.44580134 -3994493.0519286767 0 0 0 0 -177077610.79425049 -86598634.020862579 0 -86598634.020862579 -38121251.034923553 0 0 0 0 9290177.1998748779 -2136944.7267626524 0 -2136944.7267626524 -2077532.3324050903 0 0 0 0 12217534.162064299 -1023845.9642330669 0 -1023845.9642330669 -11219182.569168713 0 0 0 0 -75657614.057617188 -73329863.544582605 0 -73329863.544582605 -47287636.906082153 0 0 0 0 16084593.065233022 -4819005.4180628322 0 -4819005.4180628322 -8252906.4986959547 0 0 0 0 5219076.7259324193 1385653.1935100406 0 1385653.1935100406 -7268568.0568737052 0 0 0 0 9802020.2153774649 -4253374.6188124306 0 -4253374.6188124306 -3069990.2287683627 0 0 0 0 31966661.422325134 -11375177.977744877 0 -11375177.977744877 -21984840.664558172 0 0 0 0 15293429.217041016 7462728.4581879973 0 7462728.4581879973 13823610.318594456 0 0 0 0 84293474.214324951 8800390.6924495697 0 8800390.6924495697 -80821307.648975372 0 0 0 0 118816095.41999054 75759745.718449593 0 75759745.718449593 -27780074.718612671 0 0 0 0 7605716.80859375 -5016125.0648193359 0 -5016125.0648193359 -13439364.157926559 0 0 0 0 17455398.113815308 -14377975.001878262 0 -14377975.001878262 -6129732.8377603292 0 0 0 0 5357122.0973539352 -880931.78475647047 0 -880931.78475647047 -5496770.7478364483 0 0 0 0 -3230019.3368530273 -10865261.013478279 0 -10865261.013478279 -15314512.757389069 0 0 0 0 51870574.006652832 10742349.27185297 0 10742349.27185297 -508291.33065438271 0 0 0 0 22759403.919429779 8608949.0633736849 0 8608949.0633736849 3281485.369433403 0 0 0 0 27717989.213623047 -4772597.169482708 0 -4772597.169482708 -8764922.0651619434 0 0 0 0 -2510169.645652771 21897833.1684165 0 21897833.1684165 8578333.7627248764 0 0 0 0 351420.50810533017 16646.83170953393 0 16646.83170953393 -191389.15407582279 0 0 0 0 -3588543.1667480469 -11416109.878258944 0 -11416109.878258944 -19133797.928616524 0 0 0 0 4579532.0072183609 -28297121.992368661 0 -28297121.992368661 -29822843.858826399 0 0 0 0 3476432.7611541748 -18358180.6458202 0 -18358180.6458202 -7209393.1049089432 0 0 0 0 -4395179.049697876 -8509447.2227890491 0 -8509447.2227890491 -16183502.055773377 0 0 0 0 4280034.6151420474 -3804852.5755707696 0 -3804852.5755707696 437529.65662676189 0 0 0 0 27142641.24786377 -2777377.4651138783 0 -2777377.4651138783 -21117428.36176452 0 0 0 0 24059366.116592407 -29711654.95489198 0 -29711654.95489198 -13437061.476485848 0 0 0 0 -15919981.197570801 -21903945.683632612 0 -21903945.683632612 -17110747.465016723 0 0 0 0 6673814.2788467556 -1725688.5820446759 0 -1725688.5820446759 -11431133.759487791 0 0 0 0 47976214.058807373 -24054417.309135109 0 -24054417.309135109 -24372773.102868557 0 0 0 0 41703289.977279663 64902434.031087875 0 64902434.031087875 93207615.238289833 0 0 0 0 55560230.1588974 -7983856.3181197047 0 -7983856.3181197047 -30601718.590153456 0 0 0 0 3087827.961395517 2157039.2122828439 0 2157039.2122828439 2574249.5122979479 0 0 0 0 38842904.029491425 23933431.885284454 0 23933431.885284454 -69414781.483171463 0 0 0 0 174035888.03100586 -148950450.79647732 0 -148950450.79647732 101242140.44212914 0 0 0 0 957114643.71575928 -33492312.643431187 0 -33492312.643431187 -23018635.732857227 0 0 0 0 895929830.41505432 88773723.250658989 0 88773723.250658989 -48065262.697873116 0 0 0 0 532449371.93054199 -104129238.42970085 0 -104129238.42970085 -34212474.634400845 0 0 0 0 485206764.9208374 39565332.249763966 0 39565332.249763966 77819213.411499023 0 0 0 0 479144145.52227783 47067564.369171143 0 47067564.369171143 79668859.678639412 0 0 0 0 685216632.07330322 94141201.782270432 0 94141201.782270432 34512657.608968735 0 0 0 0 19351417.820266724 6531209.8843431473 0 6531209.8843431473 181899489.96153259 0 0 0 0 243132433.6651001 -9589339.215631485 0 -9589339.215631485 100439328.42925525 0 0 0 0 234953849.41647339 52186729.566420555 0 52186729.566420555 67029584.051485062 0 0 0 0 154409081.29782104 12831272.143774033 0 12831272.143774033 68023111.711043447 0 0 0 0 273974979.17384338 83281151.285263062 0 83281151.285263062 -18232925.609218597 0 0 0 0 468984476.7489624 56334917.907417297 0 56334917.907417297 23278517.190446854 0 0 0 0 460252240.76901245 57037490.053190947 0 57037490.053190947 130310926.51218605 0 0 0 0 282961665.44296265 54893327.591747284 0 54893327.591747284 42486847.272865295 0 0 0 0 456575804.95272827 40461761.129208565 0 40461761.129208565 -31697162.787021637 0 0 0 0 263645962.27093506 91750322.339683533 0 91750322.339683533 -24085392.562091827 0 0 0 0 504273760.92884064 142255350.76644564 0 142255350.76644564 -57976922.745515823 0 0 0 0 521470955.81045532 89862666.81520462 0 89862666.81520462 -60799102.276554108 0 0 0 0 404330416.3515625 150392554.23249722 0 150392554.23249722 -44903515.731182218 0 0 0 0 369309431.76504898 54086050.326931 0 54086050.326931 -70267876.622974396 0 0 0 0 137002379.04379272 51517775.329217911 0 51517775.329217911 -15149867.479365349 0 0 0 0 218917406.23883057 3562012.5377655029 0 3562012.5377655029 -29883356.19934082 0 0 0 0 56919807.688307762 9567734.9510828033 0 9567734.9510828033 5506886.9373517502 0 0 0 0 5261097.1853574887 -15419.862338289618 0 -15419.862338289618 5857180.3453256264 0 0 0 0 732261087.85705566 174127525.28806353 0 174127525.28806353 -96194794.544324875 0 0 0 0 652615716.08964539 224354049.98457718 0 224354049.98457718 -95296735.565152168 0 0 0 0 689668271.71520996 132338817.52750587 0 132338817.52750587 -110764907.48392487 0 0 0 0 576597251.79769897 202730033.18589973 0 202730033.18589973 -92921424.385653526 0 0 0 0 652545881.53063965 99186101.130169868 0 99186101.130169868 -53782550.949809074 0 0 0 0 670153055.81642151 42935466.242949724 0 42935466.242949724 101218049.8169632 0 0 0 0 542078017.6194458 110823038.17208481 0 110823038.17208481 -38404153.3151474 0 0 0 0 7929416.4925551713 -368516.16900814325 0 -368516.16900814325 64316.58695136453 0 0 0 0 30555915.134170532 6874745.6889429092 0 6874745.6889429092 5418582.1486181691 0 0 0 0 6286569.8477506414 309088.6757087633 0 309088.6757087633 3472130.5085371118 0 0 0 0 975499138.68411255 325052257.1744771 0 325052257.1744771 -8719236.8249607086 0 0 0 0 819226881.16657639 350940943.92064965 0 350940943.92064965 130684391.05249119 0 0 0 0 590070666.91213989 194354276.86017704 0 194354276.86017704 257547923.7702589 0 0 0 0 29701318.492578506 4256261.9481367171 0 4256261.9481367171 1464944.0906143188 0 0 0 0 -16116944.568983793 78560050.467947751 0 78560050.467947751 -6273673.958691597 0 0 0 0 979359589.22201538 301291765.71173573 0 301291765.71173573 63026648.421627998 0 0 0 0 17383525.488622054 2307604.9600452082 0 2307604.9600452082 539747.80381448392 0 0 0 0 31582054.064544678 5011990.6695290282 0 5011990.6695290282 105411.67568919651 0 0 0 0 -78414449.531211853 171973110.75922489 0 171973110.75922489 90481761.366875648 0 0 0 0 432683.8113957718 135030.9832662791 0 135030.9832662791 2005408.4991942761 0 0 0 0 1470350652.8404999 192682865.44308066 0 192682865.44308066 -123243095.96623802 0 0 0 0 1195807396.7994995 53981248.123731136 0 53981248.123731136 -4402160.9925942421 0 0 0 0 1081870254.1459656 623980179.23757267 0 623980179.23757267 305051768.08517075 0 0 0 0 61541.0572052598 145345.76700175717 0 145345.76700175717 190528.59903667914 0 0 0 0 1388917307.6021729 371880072.3105526 0 371880072.3105526 -504094854.01929754 0 0 0 0 1121462116.6094971 268437635.3656978 0 268437635.3656978 292083925.36415172 0 0 0 0 7789642.6199876741 -1468189.7484549582 0 -1468189.7484549582 2876184.8005547589 0 0 0 0 20226403.810577393 -746258.93265191279 0 -746258.93265191279 2584877.3409149945 0 0 0 0 1060574046.4684753 463773764.22072476 0 463773764.22072476 -52861426.610951483 0 0 0 0 409060228.70077515 371007354.78439784 0 371007354.78439784 167256597.74299049 0 0 0 0 29475749.461545944 -4874685.5071905619 0 -4874685.5071905619 176434.03703776747 0 0 0 0 10583254.572494507 -13290304.75429102 0 -13290304.75429102 -13796669.799976677 0 0 0 0 7548706.1731738001 378463.5764406994 0 378463.5764406994 -394426.65103523538 0 0 0 0 34988482.864250183 4537472.3971013688 0 4537472.3971013688 -3677131.4905620962 0 0 0 0 -3658140.7191619873 -30044037.845116187 0 -30044037.845116187 -15898196.796080545 0 0 0 0 59058453.57339859 13396480.310469881 0 13396480.310469881 -17645301.389833763 0 0 0 0 2304552.4210332483 174551.85985153168 0 174551.85985153168 -112904.60145131999 0 0 0 0 2727726.4891057462 -675663.67536235601 0 -675663.67536235601 416421.11958507169 0 0 0 0 -17355922.864555359 -69101837.205773741 0 -69101837.205773741 -40151201.560864888 0 0 0 0 -2893653.2765655518 -21570098.730505742 0 -21570098.730505742 -32702819.838663679 0 0 0 0 55581844.392456055 -6798849.2246462256 0 -6798849.2246462256 -44287010.753401048 0 0 0 0 98851781.077148438 17001415.234564856 0 17001415.234564856 -265760.33431837795 0 0 0 0 35863707.241027832 -75063262.327661932 0 -75063262.327661932 -80001667.698357478 0 0 0 0 614327800.06018066 -64916912.612237483 0 -64916912.612237483 -122657823.35849744 0 0 0 0 38535392.32371521 9688585.8278842345 0 9688585.8278842345 -18987414.216867089 0 0 0 0 26693421.069091797 -10503838.274057966 0 -10503838.274057966 -8857386.0635757037 0 0 0 0 156216315.69388962 -8403831.2379154954 0 -8403831.2379154954 9291813.4083044417 0 0 0 0 173764634.26702118 -68726742.11366798 0 -68726742.11366798 110983212.65596491 0 0 0 0 168064748.16938782 -10015065.422466731 0 -10015065.422466731 306373.3967915916 0 0 0 0 463363816.37897873 275069117.094226 0 275069117.094226 228180205.72316471 0 0 0 0 974509.96875344403 -407554.23027458787 0 -407554.23027458787 -1688942.6638142569 0 0 0 0 1095435388.2903023 262554110.42069584 0 262554110.42069584 -226799797.42475152 0 0 0 0 351528677.83589935 180614669.94797587 0 180614669.94797587 196148529.39646173 0 0 0 0 -57590860.670028687 66579029.654042833 0 66579029.654042833 27162663.771775335 0 0 0 0 97785263.077056885 127803641.35177548 0 127803641.35177548 -11140796.149685804 0 0 0 0 100965730.26149416 72556186.121393874 0 72556186.121393874 107593569.50635304 0 0 0 0 93728237.780071259 40204286.664896101 0 40204286.664896101 -33331727.832873523 0 0 0 0 43981092.25743103 14778909.483849704 0 14778909.483849704 -28171572.870261058 0 0 0 0 725557930.72394562 109571484.05810446 0 109571484.05810446 -32958224.450184584 0 0 0 0 140184281.12034607 -115639746.20737433 0 -115639746.20737433 38097020.644957185 0 0 0 0 3135293.4167122506 -999215.31632269174 0 -999215.31632269174 -6119900.6064893799 0 0 0 0 -6459036.5299301147 -34572497.229248524 0 -34572497.229248524 73112267.061672211 0 0 0 0 61233057.437007904 21975400.024766304 0 21975400.024766304 -22239796.555517793 0 0 0 0 17491709.875442505 -46730173.354156256 0 -46730173.354156256 -29343477.115828991 0 0 0 0 42034850.696632385 -2158084.1131496429 0 -2158084.1131496429 -46122726.817215681 0 0 0 0 34262378.552627563 5736272.4062312841 0 5736272.4062312841 -36701622.546451569 0 0 0 0 -101618.58775223792 -91611.858077395707 0 -91611.858077395707 -273456.97361230245 0 0 0 0 4315540.5572181493 -3070755.7336471304 0 -3070755.7336471304 189875.17924675636 0 0 0 0 -28140034.439117432 -59279590.020328641 0 -59279590.020328641 -54245403.879561305 0 0 0 0 -33864907.045547485 -41878786.095398784 0 -41878786.095398784 -24472258.616499424 0 0 0 0 -25704474.610115051 3499038.1916666031 0 3499038.1916666031 -9766216.5308183432 0 0 0 0 20598379.237861633 -23831125.699691951 0 -23831125.699691951 -61735335.542324305 0 0 0 0 19244740.692077637 -45848758.952552557 0 -45848758.952552557 -92084960.40937686 0 0 0 0 -13209422.170028687 -29359730.589653969 0 -29359730.589653969 -81099671.13141942 0 0 0 0 -66650237.762084961 -24686851.192420959 0 -24686851.192420959 -72930110.899151564 0 0 0 0 -11125976.075714111 -63088281.55927676 0 -63088281.55927676 -68847167.07708931 0 0 0 0 12095681.904800415 -23767723.635226965 0 -23767723.635226965 -55992457.380170643 0 0 0 0 1336103.1556444168 -222089.42801035196 0 -222089.42801035196 -684564.96930146357 0 0 0 0 6660477.1934661865 -17045606.523161054 0 -17045606.523161054 -3042239.4339540005 0 0 0 0 136010063.13021088 199248975.16880244 0 199248975.16880244 128017724.87273836 0 0 0 0 42247809.633026123 -1074258.8281778097 0 -1074258.8281778097 22099834.242298782 0 0 0 0 -16395746.254699707 20624988.377528667 0 20624988.377528667 15888111.573310614 0 0 0 0 70464636.748001099 -48044149.790169328 0 -48044149.790169328 5559611.0119773149 0 0 0 0 129748078.17016602 -54091003.209198058 0 -54091003.209198058 1220718.1678689718 0 0 0 0 143432214.95918274 -15117042.769685835 0 -15117042.769685835 2720125.8617729545 0 0 0 0 -90224320.533430099 -140264103.22008362 0 -140264103.22008362 -52517469.238553405 0 0 0 0 2088062.1279947311 -1827969.7551319972 0 -1827969.7551319972 945353.48538112105 0 0 0 0 -105539435.25108337 -38793364.604260862 0 -38793364.604260862 -45395086.156402946 0 0 0 0 -19808095.536153793 -123667753.20386688 0 -123667753.20386688 -83889397.603687763 0 0 0 0 54644104.803577423 -9724498.1169830859 0 -9724498.1169830859 -72909800.373613119 0 0 0 0 -70893647.4480896 -59833481.814740956 0 -59833481.814740956 -55480126.778242826 0 0 0 0 49304638.933792114 -70434119.540066123 0 -70434119.540066123 -67861014.46770671 0 0 0 0 -26185101.004814148 -85399396.330234006 0 -85399396.330234006 -46936017.758404613 0 0 0 0 48501752.581321716 -223862.15736225247 0 -223862.15736225247 -45532111.667336106 0 0 0 0 36152127.890975952 -601131.01476427913 0 -601131.01476427913 -43458438.899089217 0 0 0 0 126804171.65957642 -158716465.18285114 0 -158716465.18285114 61415932.632841989 0 0 0 0 109258395.55482483 19006457.505978316 0 19006457.505978316 -39728881.395048216 0 0 0 0 318380164.56565857 -3435549.7452624291 0 -3435549.7452624291 -39104489.641041197 0 0 0 0 130649788.9553833 -106102566.65980972 0 -106102566.65980972 -45110571.223321177 0 0 0 0 -53601142.774780273 -62523373.55988501 0 -62523373.55988501 -44645854.499321952 0 0 0 0 -77949517.891387939 -116814134.14797807 0 -116814134.14797807 166604510.85897204 0 0 0 0 -34592588.06350708 -113097176.27074444 0 -113097176.27074444 52442635.679956913 0 0 0 0 -143001333.00498009 -76458952.251312301 0 -76458952.251312301 76474188.065044686 0 0 0 0 -168015190.58874512 -22042058.877738237 0 -22042058.877738237 66981656.795463935 0 0 0 0 70364979.949806213 25317660.531549003 0 25317660.531549003 -30515854.658620466 0 0 0 0 1266234.397051543 -458556.04767615767 0 -458556.04767615767 21091.066039497469 0 0 0 0 225838990.06958008 -55072804.493797489 0 -55072804.493797489 -117318.37180592294 0 0 0 0 -88309943.81489563 26422974.726403166 0 26422974.726403166 182088.98602027638 0 0 0 0 327292216.00598145 -83997153.195852816 0 -83997153.195852816 -216951693.05249265 0 0 0 0 -59532698.192169189 21790125.659760561 0 21790125.659760561 -44820700.807667673 0 0 0 0 3101654.3536223024 -487518.98144205939 0 -487518.98144205939 -97973.194303966418 0 0 0 0 -16959994.635925293 -24621883.922365993 0 -24621883.922365993 -45295.71125234283 0 0 0 0 608820.74387649447 -595416.40997260064 0 -595416.40997260064 505926.77879929723 0 0 0 0 -149149742.30669594 -43635538.008447573 0 -43635538.008447573 30880798.729400128 0 0 0 0 617132.72508770414 -267834.23983711749 0 -267834.23983711749 108775.64902779181 0 0 0 0 485763744.19818115 12879738.639223218 0 12879738.639223218 -176142544.85750443 0 0 0 0 474406103.42597961 -226267793.58260971 0 -226267793.58260971 90952043.439740837 0 0 0 0 303575192.46389771 143938170.71122134 0 143938170.71122134 13567582.237396121 0 0 0 0 76292303.731086731 -82285246.321557194 0 -82285246.321557194 61206194.900363684 0 0 0 0 204556397.11578369 55345057.32501629 0 55345057.32501629 67395925.792771757 0 0 0 0 -169327876.06539845 11665677.115335241 0 11665677.115335241 -5731146.5660688281 0 0 0 0 -201441802.32061768 -241273674.33946747 0 -241273674.33946747 33724049.5018107 0 0 0 0 7003927.2269592285 -147593325.75156897 0 -147593325.75156897 74685647.608507872 0 0 0 0 -278918778.33439636 42290937.373589039 0 42290937.373589039 130202300.89691472 0 0 0 0 67160788.286834717 56506223.766693354 0 56506223.766693354 126076790.61923186 0 0 0 0 -78054138.574356079 -70987578.647509456 0 -70987578.647509456 138494660.83319509 0 0 0 0 19320324.530166626 -10987208.729615688 0 -10987208.729615688 141422226.91987973 0 0 0 0 22938132.624168396 -31811457.637976497 0 -31811457.637976497 14248437.21611774 0 0 0 0 12127870.709838867 48623100.457420349 0 48623100.457420349 23765960.151119672 0 0 0 0 131369415.00651169 18631110.675201312 0 18631110.675201312 -78917173.535864234 0 0 0 0 229835510.72470093 -47827006.307782054 0 -47827006.307782054 -46999920.727202117 0 0 0 0 246062484.83828735 156685360.40589613 0 156685360.40589613 24365733.77344197 0 0 0 0 1947840.8677849863 -786815.07839234918 0 -786815.07839234918 -460526.6516622135 0 0 0 0 -2439136.9093093872 23858340.301520258 0 23858340.301520258 -15380003.362395704 0 0 0 0 105571239.46316528 -14814222.999615312 0 -14814222.999615312 215841670.23525333 0 0 0 0 242119806.35991669 162311039.53645071 0 162311039.53645071 -82088348.187977076 0 0 0 0 28806853.070907593 11569501.047535002 0 11569501.047535002 12916612.818842888 0 0 0 0 12018534.92766571 -27045658.948318481 0 -27045658.948318481 -97925009.354824811 0 0 0 0 6661601.4445650876 -3787309.8731908575 0 -3787309.8731908575 754297.76227033022 0 0 0 0 9972816.7153549194 7519989.4383269958 0 7519989.4383269958 1498521.8619595766 0 0 0 0 95153553.103370667 -86563733.529177666 0 -86563733.529177666 -88882725.974075317 0 0 0 0 138345305.97103882 114344856.12519979 0 114344856.12519979 20113328.205259919 0 0 0 0 4283167.9312328249 -2181124.753656283 0 -2181124.753656283 -2614909.1301852334 0 0 0 0 7820524.3907138705 -5171786.3513808995 0 -5171786.3513808995 1104370.0678949184 0 0 0 0 20411653.501571655 -6288567.354227066 0 -6288567.354227066 -21123218.733457685 0 0 0 0 37875871.222154617 655541.06130570173 0 655541.06130570173 13684837.797632217 0 0 0 0 110238569.94953918 -8780702.8077356815 0 -8780702.8077356815 -38477131.559822202 0 0 0 0 78829658.058502197 40290196.331671953 0 40290196.331671953 88297290.958117664 0 0 0 0 117592763.71101379 58704916.884603024 0 58704916.884603024 21343896.613040447 0 0 0 0 2882207.8381226361 -1339807.09029698 0 -1339807.09029698 -1130985.7543799565 0 0 0 0 68080287.474151611 35154535.654483557 0 35154535.654483557 22521491.918933392 0 0 0 0 -6721054.5340881348 1686439.0743539929 0 1686439.0743539929 -12464103.486262798 0 0 0 0 -846804.4241027832 -9001848.1114120483 0 -9001848.1114120483 -7528053.365167141 0 0 0 0 77101558.614273071 26092933.671705008 0 26092933.671705008 23968636.062180996 0 0 0 0 4999498.4322613478 -442817.82047253102 0 -442817.82047253102 -4688638.4055057988 0 0 0 0 75655572.601394653 39981199.133157969 0 39981199.133157969 -1898633.2504415512 0 0 0 0 38812502.792572021 31898016.626233578 0 31898016.626233578 23145435.777801931 0 0 0 0 76437131.197924614 33682212.54634054 0 33682212.54634054 7746288.8016858101 0 0 0 0 47124969.452947617 28592763.919163585 0 28592763.919163585 3721379.8795280457 0 0 0 0 77538972.895011902 30215994.353117228 0 30215994.353117228 6547364.4073472023 0 0 0 0 85527785.364318848 24540189.138446569 0 24540189.138446569 6118814.4945071936 0 0 0 0 89979087.733154297 42647109.684821367 0 42647109.684821367 12998565.798146605 0 0 0 0 15992501.870285034 -29407730.646035671 0 -29407730.646035671 -172069916.63729095 0 0 0 0 7690950.2387681901 -3497869.3464191407 0 -3497869.3464191407 -793728.77227401081 0 0 0 0 75900944.360076904 35315360.972895145 0 35315360.972895145 6609993.0551981926 0 0 0 0 77889274.91053772 29435247.907943726 0 29435247.907943726 6222031.4694218636 0 0 0 0 79294872.996538162 70281943.102281213 0 70281943.102281213 49704464.684603214 0 0 0 0 70994503.538803101 35549778.409368753 0 35549778.409368753 25552446.628943443 0 0 0 0 77462988.790967345 42381673.916684061 0 42381673.916684061 4135302.7894468307 0 0 0 0 -69822953.649703979 -179695555.37112808 0 -179695555.37112808 -120310729.42298412 0 0 0 0 180899295.70161438 88349537.34783268 0 88349537.34783268 33510370.537105083 0 0 0 0 4404634.3929353058 -2012375.849602323 0 -2012375.849602323 -358004.70991076343 0 0 0 0 -111011661.84658051 -130935031.36430645 0 -130935031.36430645 -34307672.76759243 0 0 0 0 -32841991.71321106 -148239195.88974476 0 -148239195.88974476 -148089299.14426804 0 0 0 0 -70486705.357841492 -104584727.13144875 0 -104584727.13144875 14626003.736352086 0 0 0 0 184438679.81250381 34362487.430465341 0 34362487.430465341 -157904539.19448948 0 0 0 0 181082185.51193237 34725931.984017372 0 34725931.984017372 -36494061.141248703 0 0 0 0 420587566.83892059 -42176420.887055397 0 -42176420.887055397 -42577366.471207619 0 0 0 0 117274256.6986084 8129347.2520475388 0 8129347.2520475388 -53674798.794609308 0 0 0 0 269296967.74768829 -100275787.27866006 0 -100275787.27866006 -154666836.74820995 0 0 0 0 -129946164.22437286 -197994109.21205187 0 -197994109.21205187 -162482136.83458042 0 0 0 0 1871169.6701102667 -1478689.780871138 0 -1478689.780871138 -1055128.2790216859 0 0 0 0 391905651.79216003 151995346.27514958 0 151995346.27514958 100717929.1656661 0 0 0 0 120191505.84254074 -24993986.645970225 0 -24993986.645970225 241187956.50792408 0 0 0 0 98743918.282264709 39846971.044193506 0 39846971.044193506 53218034.232839823 0 0 0 0 -9735846.9758148193 -65661065.138048172 0 -65661065.138048172 -38179261.439495891 0 0 0 0 19533156.469696045 -101684823.52867091 0 -101684823.52867091 4572442.5936317444 0 0 0 0 -51630268.171485901 -92909991.943102837 0 -92909991.943102837 -169742334.04764557 0 0 0 0 -133198729.94015503 -28178563.5198946 0 -28178563.5198946 -71152398.153231621 0 0 0 0 -70065195.289863586 -115182764.22840738 0 -115182764.22840738 -41976957.082454681 0 0 0 0 -82050198.402633667 -30160488.114706993 0 -30160488.114706993 -24198328.412109494 0 0 0 0 -32820388.364517212 -60977166.110399246 0 -60977166.110399246 -5193603.8843789101 0 0 0 0 -81462892.674995601 -84192398.334543973 0 -84192398.334543973 -21376725.478954315 0 0 0 0 -78097922.116226196 -20464061.13851738 0 -20464061.13851738 61435321.114887238 0 0 0 0 -66483080.931125641 -51089988.265433908 0 -51089988.265433908 4898170.1691446304 0 0 0 0 -108798957.02612305 -46762968.651198387 0 -46762968.651198387 7392410.7252531052 0 0 0 0 -37467661.560089111 -33096089.393235683 0 -33096089.393235683 122691517.422575 0 0 0 0 37145923.605064392 65389726.54233551 0 65389726.54233551 86771099.615996718 0 0 0 0 -1118308.2557296753 -11218782.904699326 0 -11218782.904699326 13606658.782352448 0 0 0 0 48938878.314395905 74977682.615449429 0 74977682.615449429 78872730.183143616 0 0 0 0 699325.48846189212 607839.91124747694 0 607839.91124747694 -133649.1289715711 0 0 0 0 29023817.274174213 -61454.204615712166 0 -61454.204615712166 -19991653.749145508 0 0 0 0 -69339950.588226318 36636840.366172791 0 36636840.366172791 58273837.542974949 0 0 0 0 18674107.782821655 19891213.450445414 0 19891213.450445414 -7599817.0988068581 0 0 0 0 -8083719.8361434937 30135455.118139744 0 30135455.118139744 -10091134.618556619 0 0 0 0 273947023.14575195 -16575356.819604874 0 -16575356.819604874 -102498294.2053982 0 0 0 0 60260761.662094116 -86542257.980302095 0 -86542257.980302095 -113004064.05307692 0 0 0 0 153698271.10121918 1460796.6245417595 0 1460796.6245417595 47767347.262375832 0 0 0 0 161093969.52584171 56699781.126275212 0 56699781.126275212 145827119.27990055 0 0 0 0 437911074.15042114 174632228.72460318 0 174632228.72460318 8720296.418466568 0 0 0 0 427968389.72315979 170042786.41531873 0 170042786.41531873 113272519.58264637 0 0 0 0 530993054.65393829 173527591.03343892 0 173527591.03343892 109815302.33316934 0 0 0 0 585120928.34896851 161043459.40009129 0 161043459.40009129 -59822520.111448288 0 0 0 0 396921916.69933319 364885998.35338283 0 364885998.35338283 263327732.26360846 0 0 0 0 843800.17645536363 -171166.45830882341 0 -171166.45830882341 297205.07450960716 0 0 0 0 183417795.44108582 168404055.9623723 0 168404055.9623723 172191934.61320019 0 0 0 0 260615533.34289551 175865307.41481757 0 175865307.41481757 75203319.086808681 0 0 0 0 252938437.49947357 42335295.878150702 0 42335295.878150702 68473994.396617889 0 0 0 0 706347528.21179199 175934035.90072441 0 175934035.90072441 425636016.35905457 0 0 0 0 1127307819.3793564 136831140.02263713 0 136831140.02263713 -195963413.2902317 0 0 0 0 239390543.59838867 153610073.45994616 0 153610073.45994616 54293783.276144028 0 0 0 0 653069.47661271691 -101511.20711568743 0 -101511.20711568743 405935.15876328293 0 0 0 0 700512446.46928406 331068261.91473019 0 331068261.91473019 -149749471.62457275 0 0 0 0 330184046.06443787 -229786778.99751282 0 -229786778.99751282 82809267.773743391 0 0 0 0 1914574.2217092663 -1055638.810265536 0 -1055638.810265536 140872.29371087882 0 0 0 0 111451433.43425751 -141541801.5136776 0 -141541801.5136776 57375575.927240849 0 0 0 0 427703844.64847565 7398124.7442879677 0 7398124.7442879677 -138118925.021029 0 0 0 0 784358.67463503033 -8603.6684141010046 0 -8603.6684141010046 628768.22158034984 0 0 0 0 300246378.03812218 96459177.370183229 0 96459177.370183229 -99526810.080807686 0 0 0 0 305896887.26785278 109947933.94355655 0 109947933.94355655 -160780895.99154127 0 0 0 0 237550392.15579224 155098917.95606661 0 155098917.95606661 55097041.759654999 0 0 0 0 274915998.64263153 68439114.41814971 0 68439114.41814971 -65949352.711038113 0 0 0 0 200299851.59699249 -4616523.5789074898 0 -4616523.5789074898 -118486286.79510379 0 0 0 0 231556558.70251846 -32389104.768770695 0 -32389104.768770695 -142136831.16006565 0 0 0 0 220014916.43538666 86334744.502750874 0 86334744.502750874 130956506.37351418 0 0 0 0 209787966.45330811 60158190.096225381 0 60158190.096225381 64912611.090073586 0 0 0 0 89870287.412841797 113281431.98561859 0 113281431.98561859 147705087.27461147 0 0 0 0 109365966.19789124 35028801.798110962 0 35028801.798110962 60567407.53010869 0 0 0 0 234311144.10418701 92947377.435973167 0 92947377.435973167 80290917.595569193 0 0 0 0 232481937.00045395 121096257.60690689 0 121096257.60690689 60292117.638902664 0 0 0 0 266262336.94831848 149537165.72327518 0 149537165.72327518 54126860.719597816 0 0 0 0 226781136.94743347 138408788.68655682 0 138408788.68655682 59536193.874601364 0 0 0 0 264447461.58123779 109316952.45936847 0 109316952.45936847 81263976.594455719 0 0 0 0 244026300.25843048 149059656.9561739 0 149059656.9561739 51325564.462967873 0 0 0 0 222691442.45361328 127007366.72448921 0 127007366.72448921 56718245.943818688 0 0 0 0 223346634.38400269 131648529.99925232 0 131648529.99925232 35066252.482561111 0 0 0 0 143756317.29321289 93217000.058912277 0 93217000.058912277 42908870.423068047 0 0 0 0 159442139.72314453 13000431.45614624 0 13000431.45614624 -12464064.849228859 0 0 0 0 198145897.61257935 90660962.081694126 0 90660962.081694126 34987177.243397713 0 0 0 0 228398016.84710693 99009646.637455463 0 99009646.637455463 933417.14946079254 0 0 0 0 207321305.22494507 129019859.35045767 0 129019859.35045767 58088272.496356964 0 0 0 0 225760080.7474823 140719582.92891598 0 140719582.92891598 136300747.10334349 0 0 0 0 -58078946.935217381 -24194857.167553816 0 -24194857.167553816 82915982.941760063 0 0 0 0 376800766.67359924 79549795.931200027 0 79549795.931200027 14501642.186058044 0 0 0 0 56654.28252601414 298451.84113323689 0 298451.84113323689 231996.64291040879 0 0 0 0 342926410.76586914 156946891.38104153 0 156946891.38104153 39247021.582976341 0 0 0 0 -1000052.9042740166 1712897.7904309481 0 1712897.7904309481 532605.03269325942 0 0 0 0 326386616.64660645 77448294.419421196 0 77448294.419421196 -124766984.64101028 0 0 0 0 49715.033408172429 22961.557876832783 0 22961.557876832783 -56954.294190605171 0 0 0 0 2038308.9499423814 47787.488988883793 0 47787.488988883793 -815630.58706731442 0 0 0 0 1291160.2743917704 782197.37598313019 0 782197.37598313019 -435183.45189476013 0 0 0 0 162285885.00151062 93815998.362291813 0 93815998.362291813 60059075.535260499 0 0 0 0 61980786.499450684 59780806.8168962 0 59780806.8168962 65900474.383149147 0 0 0 0 5938006.4364725947 1516462.4700240418 0 1516462.4700240418 -79819.359002054669 0 0 0 0 126868037.89634705 110044239.58347464 0 110044239.58347464 63216814.645339012 0 0 0 0 183317702.82043457 89236701.125377655 0 89236701.125377655 33503600.048881054 0 0 0 0 202605050.59727478 136120369.76223516 0 136120369.76223516 54596880.832997918 0 0 0 0 178115949.05305481 109043763.633187 0 109043763.633187 53341798.74154377 0 0 0 0 206376204.6464386 129322805.18119717 0 129322805.18119717 65152444.173138618 0 0 0 0 156817831.098526 92557446.67876339 0 92557446.67876339 76715775.9836092 0 0 0 0 154049799.2808075 125387322.49985719 0 125387322.49985719 113064802.69304609 0 0 0 0 232186158.35085678 166268825.68553555 0 166268825.68553555 81138556.898524284 0 0 0 0 19636740.899965763 4200537.4976790324 0 4200537.4976790324 -1059500.656496048 0 0 0 0 2568421.7772023026 1237121.9981868118 0 1237121.9981868118 -421620.57395533007 0 0 0 0 2939488.1201332659 -290861.27474435046 0 -290861.27474435046 60472.733762647491 0 0 0 0 1047163.8873044252 15948001.270676937 0 15948001.270676937 -29845603.865247726 0 0 0 0 4801795.2021507025 6772990.2766707018 0 6772990.2766707018 992866.9486713931 0 0 0 0 11966093.565170288 2249708.6469883919 0 2249708.6469883919 2276.0963152945042 0 0 0 0 15446026.305511475 5068964.3243846893 0 5068964.3243846893 -103915.29762384295 0 0 0 0 27153350.641273499 27725865.648651302 0 27725865.648651302 -9153093.5962842107 0 0 0 0 19725573.815532684 -7232878.615753293 0 -7232878.615753293 9916378.0842146873 0 0 0 0 -11939642.707710266 28827874.052440405 0 28827874.052440405 30402401.752684593 0 0 0 0 118691575.97597504 52210525.867162704 0 52210525.867162704 -15447117.328206301 0 0 0 0 -16030279.842666626 -7746754.9920973778 0 -7746754.9920973778 -8661381.0226683617 0 0 0 0 -35617106.797851562 -6195666.361700058 0 -6195666.361700058 12441471.687584639 0 0 0 0 632280.80298995972 83231951.730727017 0 83231951.730727017 31014500.642294884 0 0 0 0 -14672507.887313843 17733937.244486451 0 17733937.244486451 1285765.0641283989 0 0 0 0 9951260.4432983398 3547854.285779953 0 3547854.285779953 971249.45294952393 0 0 0 0 10671401.58366394 5092134.0641551018 0 5092134.0641551018 1552709.2020130157 0 0 0 0 14398745.727264404 741513.98801088333 0 741513.98801088333 341699.86324501038 0 0 0 0 10042857.104034424 1987304.7771086693 0 1987304.7771086693 1879153.021009922 0 0 0 0 634611.83960290253 7382.8354243412614 0 7382.8354243412614 -180344.5405788254 0 0 0 0 -11628021.687316895 282570.59056520462 0 282570.59056520462 4369190.6145761609 0 0 0 0 1840009.9741735011 2491073.6825277135 0 2491073.6825277135 210089.68110838905 0 0 0 0 3368815.1872651577 3733210.9051996507 0 3733210.9051996507 -997073.81715247501 0 0 0 0 2982933.6875457764 1015387.3590271473 0 1015387.3590271473 -1197917.1587190628 0 0 0 0 -610212.24923238158 3353985.6965356246 0 3353985.6965356246 1176716.8486147709 0 0 0 0 -7255009.4920654297 35200909.780328274 0 35200909.780328274 -7925369.4956731796 0 0 0 0 4952857.3173828125 -15705640.883200943 0 -15705640.883200943 -40427585.058597565 0 0 0 0 19302530.349334717 46224069.183734894 0 46224069.183734894 -4414643.7427351475 0 0 0 0 29390001.413276672 44622988.544528902 0 44622988.544528902 95665775.783592224 0 0 0 0 17839155.231079102 82097200.856865406 0 82097200.856865406 171134991.99017143 0 0 0 0 10805985.240030289 9721432.1535826325 0 9721432.1535826325 77111496.79133606 0 0 0 0 -7886420.8645973206 11867760.538588047 0 11867760.538588047 139973181.74510574 0 0 0 0 8499845.5231628418 24872754.588483334 0 24872754.588483334 71716939.062398672 0 0 0 0 31171268.697311401 38610944.193268299 0 38610944.193268299 -14100695.887050629 0 0 0 0 2073022.6615687683 3339600.819096148 0 3339600.819096148 -1747035.8885999927 0 0 0 0 1478959.6028346121 1772873.8214503601 0 1772873.8214503601 -1449292.0167049011 0 0 0 0 -86737930.350708008 -35275999.041564226 0 -35275999.041564226 -17716662.172445774 0 0 0 0 -120380216.88400269 76681167.438555241 0 76681167.438555241 -34482452.07889986 0 0 0 0 -168465609.10525131 56416406.84708035 0 56416406.84708035 28112979.351871967 0 0 0 0 -39125156.077552795 -161506169.30655289 0 -161506169.30655289 53082741.947561264 0 0 0 0 134349150.64430237 -117373936.93345785 0 -117373936.93345785 1694908.1298527718 0 0 0 0 -243350169.93268585 7343648.5488722324 0 7343648.5488722324 150595391.41432285 0 0 0 0 181541402.85015869 -137758073.73514009 0 -137758073.73514009 -20581089.023221731 0 0 0 0 109246707.85444641 33975755.70582819 0 33975755.70582819 68032874.895759583 0 0 0 0 14953340.822616577 11077231.357363701 0 11077231.357363701 99324868.830937386 0 0 0 0 71097948.179531097 44554957.019946277 0 44554957.019946277 119228959.83488369 0 0 0 0 5847859.0491027832 26649524.5363307 0 26649524.5363307 144473834.60738659 0 0 0 0 5713645.5867156982 7174245.7419121265 0 7174245.7419121265 157259732.2172575 0 0 0 0 453154007.37580872 300047206.74620843 0 300047206.74620843 -22465680.855148315 0 0 0 0 156038346.55616188 169838955.85200047 0 169838955.85200047 1072514.4547157288 0 0 0 0 337570890.04502869 171181714.23987007 0 171181714.23987007 -16203531.143529415 0 0 0 0 322918816.83171082 16829186.861546516 0 16829186.861546516 -94397393.996265888 0 0 0 0 223064060.36347198 -241952270.19511259 0 -241952270.19511259 110952378.04474783 0 0 0 0 652104830.50415039 11673825.176688671 0 11673825.176688671 -101041919.77197421 0 0 0 0 1624772239.7992134 -242739189.73835564 0 -242739189.73835564 -314514009.23394275 0 0 0 0 443713720.45527649 335572789.27553225 0 335572789.27553225 441281427.74403524 0 0 0 0 248243636.87637329 -24993450.048401117 0 -24993450.048401117 -184175824.45486403 0 0 0 0 -111447820.15974426 177661740.95049119 0 177661740.95049119 281495754.46395111 0 0 0 0 943654.18026229367 1175923.1878003255 0 1175923.1878003255 2498900.364602264 0 0 0 0 -462108722.85232925 162595237.7133444 0 162595237.7133444 27043604.616947651 0 0 0 0 77776736.823059082 298967587.68932188 0 298967587.68932188 -11849757.407991529 0 0 0 0 25390207.600372314 -8453050.0292730331 0 -8453050.0292730331 -272930610.87603062 0 0 0 0 564379610.65785217 124240514.55261517 0 124240514.55261517 136119611.7545566 0 0 0 0 180123418.0893631 229031296.27831346 0 229031296.27831346 -339823605.80138457 0 0 0 0 1408893.139623573 972190.05093530566 0 972190.05093530566 -1282316.9383622231 0 0 0 0 -60292266.579612732 60046033.887780428 0 60046033.887780428 222582186.49746895 0 0 0 0 724157602.67479706 108852272.87018037 0 108852272.87018037 -445807606.3738637 0 0 0 0 600559006.27105713 -330901841.48170066 0 -330901841.48170066 219132673.67609835 0 0 0 0 271096452.93023682 111305722.19795799 0 111305722.19795799 -33491473.237724781 0 0 0 0 358861665.05960846 -126592205.76322818 0 -126592205.76322818 -68054623.62919426 0 0 0 0 4582754.7695539417 3719912.7302869856 0 3719912.7302869856 -4414204.3441421278 0 0 0 0 -19072563.042640686 4190871.4439148903 0 4190871.4439148903 85177859.752736092 0 0 0 0 536728711.43429565 -64288296.689853668 0 -64288296.689853668 -50870410.165781975 0 0 0 0 885147009.36386871 -216289470.65086007 0 -216289470.65086007 -62657947.582824707 0 0 0 0 3412822.5001163259 4907165.0654263273 0 4907165.0654263273 6398547.9119589841 0 0 0 0 -187898770.01898956 328342245.46840817 0 328342245.46840817 378071506.63389969 0 0 0 0 467291674.05160522 -137876455.02543449 0 -137876455.02543449 114788420.61492872 0 0 0 0 476794048.9490509 -22192077.414481163 0 -22192077.414481163 36464761.100540161 0 0 0 0 463013659.84611511 -60903641.422606945 0 -60903641.422606945 -44547041.983800888 0 0 0 0 486601027.92080688 -34545239.641770363 0 -34545239.641770363 -48578323.392708302 0 0 0 0 492146220.80527878 -55569178.559049487 0 -55569178.559049487 -72612498.608766556 0 0 0 0 307880683.59339905 -85690129.633246899 0 -85690129.633246899 24377004.311510086 0 0 0 0 549027291.83017349 -74116044.845978737 0 -74116044.845978737 -72722344.864052773 0 0 0 0 467191240.21509933 -176923421.75345016 0 -176923421.75345016 71116758.107458115 0 0 0 0 4583703.8304396123 6234581.0687021762 0 6234581.0687021762 -54670.199577823281 0 0 0 0 7496220.2517242432 752523.24550056458 0 752523.24550056458 -50972124.653697968 0 0 0 0 282262798.08944893 14432184.922275603 0 14432184.922275603 -14831181.49443531 0 0 0 0 263702862.69655228 -60637015.742906332 0 -60637015.742906332 -24689460.779380798 0 0 0 0 368116446.17579651 33844288.044021606 0 33844288.044021606 -18903507.159109831 0 0 0 0 6525618.1099658608 8799814.8067942783 0 8799814.8067942783 214060.49111074023 0 0 0 0 9680727.2433929443 5194743.5238497257 0 5194743.5238497257 -2227080.4043455124 0 0 0 0 12935456.411758423 234453.31230258942 0 234453.31230258942 -4091398.1035599709 0 0 0 0 14611513.762001038 5325712.0428693295 0 5325712.0428693295 2633837.4621448517 0 0 0 0 13081483.747253418 -701473.59731578827 0 -701473.59731578827 1863484.3658237457 0 0 0 0 -18317086.320518494 59124062.071438074 0 59124062.071438074 -67153112.878874779 0 0 0 0 27632194.041549683 991159.60711526871 0 991159.60711526871 -10904355.95996809 0 0 0 0 5423034.5289346101 5327911.0291957781 0 5327911.0291957781 -6907077.9863179447 0 0 0 0 262680639.91708374 -224648532.68763685 0 -224648532.68763685 216219455.14790058 0 0 0 0 191603646.13920593 49501031.445214272 0 49501031.445214272 -176543508.60110378 0 0 0 0 1015149.6653900146 -47310870.001853704 0 -47310870.001853704 -78927720.804560184 0 0 0 0 -17774018.388381958 -17895310.835781097 0 -17895310.835781097 18351992.03615284 0 0 0 0 -47735803.969787598 -129725474.06062412 0 -129725474.06062412 -41230504.826339483 0 0 0 0 145413552.07605648 -127724456.8466962 0 -127724456.8466962 -43433681.848340988 0 0 0 0 -117933282.67347717 -129551961.68974829 0 -129551961.68974829 -33132716.715042114 0 0 0 0 1389210.4937214553 -609329.26147118211 0 -609329.26147118211 -89588.932171843946 0 0 0 0 48726297.854537964 266678561.38920832 0 266678561.38920832 176518975.43359184 0 0 0 0 107458583.54144287 180621131.24849129 0 180621131.24849129 71965826.95857048 0 0 0 0 37748351.561260223 27815164.187795699 0 27815164.187795699 121899003.35118675 0 0 0 0 212059829.5859375 207116259.75717926 0 207116259.75717926 11349860.089208603 0 0 0 0 4217319.1047499087 2989492.4227833822 0 2989492.4227833822 -6610903.7422632873 0 0 0 0 165542203.49771118 72609174.682631016 0 72609174.682631016 -58931673.832991719 0 0 0 0 -18954034.022759438 -11632867.687221587 0 -11632867.687221587 76757252.91601181 0 0 0 0 60167414.63659668 -7970365.1830177307 0 -7970365.1830177307 813617.6887383461 0 0 0 0 65535432.906848907 12186209.3740592 0 12186209.3740592 9688312.7820510864 0 0 0 0 637698555.92247009 119165754.73900318 0 119165754.73900318 -8367019.0135803223 0 0 0 0 956400081.47718048 -373492.87728452682 0 -373492.87728452682 -241882491.47782707 0 0 0 0 733492235.22044373 90288062.711634636 0 90288062.711634636 -272988971.83661079 0 0 0 0 66221361.078674316 155494190.71473503 0 155494190.71473503 43408678.433808327 0 0 0 0 800798408.76316833 -345556611.67231083 0 -345556611.67231083 -13672332.417967081 0 0 0 0 -25168406.714653015 119660849.46704197 0 119660849.46704197 29727384.017709732 0 0 0 0 1992218.0998137742 2060314.5796689242 0 2060314.5796689242 -128751.30759682879 0 0 0 0 2424388.4172058105 -10417149.408854485 0 -10417149.408854485 -34989701.662722588 0 0 0 0 116225943.20133209 26100935.637318611 0 26100935.637318611 -24317751.683387756 0 0 0 0 7599421.7540740967 5056700.8343803883 0 5056700.8343803883 10193917.152812243 0 0 0 0 735696769.08025789 175431360.7329607 0 175431360.7329607 -73799341.951305389 0 0 0 0 7284658.7095721439 4705801.0717521459 0 4705801.0717521459 10790436.228100471 0 0 0 0 -206499552.09586716 12597069.544987202 0 12597069.544987202 214148918.19604111 0 0 0 0 259841544.57867432 -222469319.76284409 0 -222469319.76284409 199986240.97608805 0 0 0 0 612408700.17263794 442697346.84718418 0 442697346.84718418 -295591560.94495964 0 0 0 0 2576099.6636847109 5197955.4592507184 0 5197955.4592507184 9776298.9087443259 0 0 0 0 9561452.1795043945 13527760.917785645 0 13527760.917785645 5545354.13504152 0 0 0 0 2254947.2981796265 10745922.425963104 0 10745922.425963104 15610206.478463888 0 0 0 0 11278116.271209717 3684276.0559334755 0 3684276.0559334755 9989756.6341235563 0 0 0 0 28409812.708183289 15023334.335868478 0 15023334.335868478 14542361.257995844 0 0 0 0 29312761.687898636 27131099.337919913 0 27131099.337919913 21242701.679178953 0 0 0 0 7655354.0639561787 -1812074.6278745756 0 -1812074.6278745756 -2120828.4375876007 0 0 0 0 17347064.816444397 901384.05989426374 0 901384.05989426374 13793615.91548562 0 0 0 0 17833633.042251587 19077539.351226866 0 19077539.351226866 27332712.647069931 0 0 0 0 7702211.1956863403 5806039.895845294 0 5806039.895845294 11601738.252233267 0 0 0 0 9986866.4981079102 3348987.9013718367 0 3348987.9013718367 14243385.236588836 0 0 0 0 8560516.3761177063 4914519.2360334098 0 4914519.2360334098 5776218.0317493677 0 0 0 0 8131021.206741333 3644246.7199414372 0 3644246.7199414372 10255155.800422728 0 0 0 0 14056229.273410797 15479139.306130797 0 15479139.306130797 -11603836.233765244 0 0 0 0 33926983.068702698 16587855.076191783 0 16587855.076191783 -11968963.749228507 0 0 0 0 -10867295.187618256 8789585.8045177013 0 8789585.8045177013 7876929.6760599613 0 0 0 0 7060024.2561130524 38717367.035855435 0 38717367.035855435 -26350507.456093848 0 0 0 0 56556304.337226868 -43183287.52349031 0 -43183287.52349031 -122192677.80480146 0 0 0 0 26289200.347763062 -51999644.977615356 0 -51999644.977615356 -68204010.106492877 0 0 0 0 34344416.245111465 45358531.906247556 0 45358531.906247556 20888492.718505144 0 0 0 0 8027146.9299468994 5254087.4593536854 0 5254087.4593536854 9812223.211160183 0 0 0 0 5877020.6852688938 4532012.683714807 0 4532012.683714807 480165.78780048527 0 0 0 0 4992234.598874893 9846627.6132685542 0 9846627.6132685542 15211004.854017826 0 0 0 0 105037063.35396576 126765435.65735006 0 126765435.65735006 57919166.773333073 0 0 0 0 500258752.91363525 -35667104.752184153 0 -35667104.752184153 -46975738.759529114 0 0 0 0 5080071.0533355512 8275521.90586254 0 8275521.90586254 10410999.151738651 0 0 0 0 -45599780.337997437 35348778.113364935 0 35348778.113364935 38966571.186538815 0 0 0 0 -44851721.320777893 48305254.886189401 0 48305254.886189401 -100553768.14415312 0 0 0 0 9505046.559677124 -17703327.013504684 0 -17703327.013504684 -224636145.54987037 0 0 0 0 -113949468.73332214 -88943227.287225544 0 -88943227.287225544 -162012554.90883875 0 0 0 0 2941473.7044372559 -24637139.014727205 0 -24637139.014727205 -127287865.20179582 0 0 0 0 7857565.6164855957 -14929296.318517804 0 -14929296.318517804 -117876923.20254564 0 0 0 0 58565435.42227459 -37254065.012876011 0 -37254065.012876011 -156070876.25995502 0 0 0 0 2060090.5075756796 579793.11582672596 0 579793.11582672596 -666842.60502294963 0 0 0 0 62547509.556381226 -24070819.338888463 0 -24070819.338888463 -173470063.46531865 0 0 0 0 46181136.667251587 -14695020.153154016 0 -14695020.153154016 -172658057.99288726 0 0 0 0 62116269.402191162 -21842649.179290548 0 -21842649.179290548 -182173288.54099047 0 0 0 0 73450907.991744995 57002979.009341717 0 57002979.009341717 169849716.12387788 0 0 0 0 113478432.28341675 127122713.75728059 0 127122713.75728059 -62959107.716852903 0 0 0 0 63329787.360523224 14969958.76712203 0 14969958.76712203 21825751.032790422 0 0 0 0 3107450.9827165306 1597107.1103131333 0 1597107.1103131333 -779137.27643042966 0 0 0 0 19535462.351852417 228866318.86673379 0 228866318.86673379 260599561.86469105 0 0 0 0 178049999.20350647 307355631.24167782 0 307355631.24167782 -156248924.16164732 0 0 0 0 93209924.255378723 266159838.57768297 0 266159838.57768297 172008101.97309959 0 0 0 0 28184690.384857178 87909308.435289621 0 87909308.435289621 8265329.7286179066 0 0 0 0 103248834.66007996 25111484.193612576 0 25111484.193612576 -111142953.88678932 0 0 0 0 104178044.74661136 50818740.428337678 0 50818740.428337678 -1329808.3424785137 0 0 0 0 -74279247.255512238 54282458.152153254 0 54282458.152153254 22731480.795365334 0 0 0 0 114167326.15096378 35636015.544949666 0 35636015.544949666 9427494.4477863312 0 0 0 0 114885252.01353455 45532318.821665049 0 45532318.821665049 -17490471.767122269 0 0 0 0 102813266.18118286 18063442.426383257 0 18063442.426383257 44008587.741618156 0 0 0 0 90716278.562004089 36972898.067831993 0 36972898.067831993 14466210.046375275 0 0 0 0 107529453.95696259 68023327.90930748 0 68023327.90930748 25993659.168321609 0 0 0 0 133852281.01955414 21694120.853248119 0 21694120.853248119 -2349959.0289077759 0 0 0 0 172390022.9441185 118724769.66182649 0 118724769.66182649 39353648.447155952 0 0 0 0 41213225.203144073 31099418.424209118 0 31099418.424209118 29244124.18816781 0 0 0 0 46275027.23411274 8251061.2653805241 0 8251061.2653805241 13509315.164703369 0 0 0 0 85909350.393875122 19862171.530857086 0 19862171.530857086 25219414.380578041 0 0 0 0 48471700.746963501 38040091.839755774 0 38040091.839755774 21067491.779344559 0 0 0 0 37940684.873973846 37163871.68460691 0 37163871.68460691 7482379.4634393454 0 0 0 0 70716494.910610199 22663490.480993867 0 22663490.480993867 9984175.9580769539 0 0 0 0 81652860.212905884 44479601.710892916 0 44479601.710892916 24161941.519281864 0 0 0 0 -6935913.456741333 9434660.0445765257 0 9434660.0445765257 24173377.608900547 0 0 0 0 -11068195.461414337 42551064.967457801 0 42551064.967457801 -31096627.969907641 0 0 0 0 8531175.2241967991 2594687.7481361646 0 2594687.7481361646 -1107415.9315878293 0 0 0 0 67526841.253498077 21686130.156633675 0 21686130.156633675 -2626494.9294626713 0 0 0 0 53912663.813613892 -44556577.373447299 0 -44556577.373447299 -144545773.97265321 0 0 0 0 -74935477.724365234 -46018246.580852479 0 -46018246.580852479 -96208381.573220551 0 0 0 0 -29780085.654449463 28563599.832005784 0 28563599.832005784 -10977154.261847004 0 0 0 0 815790.55169487 61412431.582619205 0 61412431.582619205 -116590752.50917342 0 0 0 0 38938459.200126648 -3278738.6358754635 0 -3278738.6358754635 -13364783.295888305 0 0 0 0 133022187.91807747 68712921.198782191 0 68712921.198782191 -100700195.34667778 0 0 0 0 -8217097.4370193481 -130523281.28712144 0 -130523281.28712144 -192834471.80097574 0 0 0 0 1361981.1407788917 970143.81016496941 0 970143.81016496941 -526460.46975690662 0 0 0 0 44323803.567062378 82688998.339323997 0 82688998.339323997 143739816.04199526 0 0 0 0 145087070.54929352 -177209499.82198861 0 -177209499.82198861 -139043587.26297644 0 0 0 0 -41061069.716842651 11005011.833466679 0 11005011.833466679 -32746094.288608119 0 0 0 0 33475735.061767578 -10181818.235369563 0 -10181818.235369563 -29156818.61035426 0 0 0 0 3721957.9352416992 2921986.8012630902 0 2921986.8012630902 -1067307.5119096914 0 0 0 0 -4730443.2302932739 94041279.35950616 0 94041279.35950616 50564091.395889491 0 0 0 0 -5726092.9507141113 -18774655.241786957 0 -18774655.241786957 -15550653.264599562 0 0 0 0 80133708.927261353 -5784565.2172581553 0 -5784565.2172581553 -88951102.648389518 0 0 0 0 57771178.994934082 10852619.282076433 0 10852619.282076433 -67348377.204871714 0 0 0 0 -18902717.980987549 28190719.196083188 0 28190719.196083188 -70414436.007571578 0 0 0 0 14227913.841295213 4271634.2905596709 0 4271634.2905596709 -1094316.3919490799 0 0 0 0 16973243.042915344 -9796764.8704657555 0 -9796764.8704657555 -10650937.335915327 0 0 0 0 1850110.8234156594 -133318.61050795019 0 -133318.61050795019 -168816.04661499406 0 0 0 0 21642937.416381836 -8920235.5704923868 0 -8920235.5704923868 -14397330.164291859 0 0 0 0 9358145.9157227036 1525517.2471295483 0 1525517.2471295483 4063935.0456588375 0 0 0 0 25410148.31004715 -11679822.737424493 0 -11679822.737424493 13127208.560758114 0 0 0 0 30537093.831382751 9378898.0663360357 0 9378898.0663360357 56856291.89416194 0 0 0 0 24588679.237937927 7562908.8709702492 0 7562908.8709702492 1952698.7929954529 0 0 0 0 -1990242.459444046 398239.01489463449 0 398239.01489463449 14871559.274170876 0 0 0 0 1731825018.9729919 -707210161.68663812 0 -707210161.68663812 37069642.143576115 0 0 0 0 1234603208.899437 -786401998.37367249 0 -786401998.37367249 249182753.14490587 0 0 0 0 1571250081.3479767 -588432575.7513845 0 -588432575.7513845 -48515241.50173261 0 0 0 0 3690941.7934026122 -295511.63731260598 0 -295511.63731260598 -1796122.9377380288 0 0 0 0 40131748.251750946 5765046.2937964201 0 5765046.2937964201 -466135.41566669941 0 0 0 0 1162137395.2158966 -601550451.16665363 0 -601550451.16665363 92192729.626815528 0 0 0 0 41402565.416400909 -7910194.9353246093 0 -7910194.9353246093 -5979089.8570541143 0 0 0 0 18429469.624378949 -2461455.6839623656 0 -2461455.6839623656 419762.10498043103 0 0 0 0 30150126.286392212 -3749265.9123194218 0 -3749265.9123194218 -13504476.942783982 0 0 0 0 -2206975.8897399902 -3342510.8724775314 0 -3342510.8724775314 -1562496.1156296134 0 0 0 0 41029132.849182129 -3591133.7847239971 0 -3591133.7847239971 -22814788.048440456 0 0 0 0 45361087.768829346 11890933.312227011 0 11890933.312227011 -4338042.5982670188 0 0 0 0 11780210.059410095 -1144004.15107131 0 -1144004.15107131 -7751145.7772623301 0 0 0 0 9082695.3949299678 3005681.3790700398 0 3005681.3790700398 2834953.9271583222 0 0 0 0 678066962.25693512 -507336099.95975089 0 -507336099.95975089 793094674.52139974 0 0 0 0 702214.32307434082 14224017.734323233 0 14224017.734323233 10864573.627953529 0 0 0 0 2202504613.5464516 -1322940714.2741327 0 -1322940714.2741327 284986404.96213973 0 0 0 0 1059461815.2044525 -1079023633.3477972 0 -1079023633.3477972 488569663.14705497 0 0 0 0 1594489984.8338242 -1027856827.872419 0 -1027856827.872419 407226399.38240063 0 0 0 0 8104877.7310590446 -586616.06731275842 0 -586616.06731275842 -4028148.6090756287 0 0 0 0 563754956.89254189 -1218609055.2117398 0 -1218609055.2117398 1731394151.0019226 0 0 0 0 7641673.0589303896 5346432.2555686776 0 5346432.2555686776 -239688.33934652866 0 0 0 0 2198356798.2616348 1142289.5481319851 0 1142289.5481319851 -3761915.6198313395 0 0 0 0 8558853.3036270142 29277109.738704532 0 29277109.738704532 753753285.91211331 0 0 0 0 4049464.1941855624 545905.86155148223 0 545905.86155148223 1197966.354924663 0 0 0 0 752362679.54920197 1097909216.862715 0 1097909216.862715 695021522.2695936 0 0 0 0 5151475.202834703 6585161.7153459806 0 6585161.7153459806 -1855099.9054934252 0 0 0 0 20513501.991271973 25467663.950454265 0 25467663.950454265 12339014.53089308 0 0 0 0 55529951.703872681 7054181.0654080808 0 7054181.0654080808 -20322247.710842423 0 0 0 0 51279008.152664185 18167348.368963629 0 18167348.368963629 -9701101.5482761562 0 0 0 0 2202086594.5376701 1010173960.0003263 0 1010173960.0003263 -9704851.3745777085 0 0 0 0 1905980624.8946648 652675394.57724273 0 652675394.57724273 46556294.670776978 0 0 0 0 3295182.8949518949 -586366.90127456188 0 -586366.90127456188 -1257186.726846959 0 0 0 0 81631064.562568665 33038968.239606738 0 33038968.239606738 -65228661.56196779 0 0 0 0 36160522.856311798 9856599.5318219587 0 9856599.5318219587 -111944875.94605625 0 0 0 0 -33152387.094657898 -18800588.3672418 0 -18800588.3672418 28995829.280433774 0 0 0 0 6698410.6953506917 -1580107.4950510636 0 -1580107.4950510636 -2096935.4247863709 0 0 0 0 42761578.633087158 46236599.652543545 0 46236599.652543545 23313588.405608818 0 0 0 0 1339724958.0043354 289325729.49860358 0 289325729.49860358 4362922.1960262805 0 0 0 0 252827941.14195991 -153632229.6672354 0 -153632229.6672354 21217628.352863371 0 0 0 0 257460010.79932404 85549166.121973708 0 85549166.121973708 24477061.815875679 0 0 0 0 1031549200.3751678 293004434.38031614 0 293004434.38031614 4931717.3568786606 0 0 0 0 1255799015.8699036 60739037.063732408 0 60739037.063732408 -39564363.141711593 0 0 0 0 1368404497.8436785 348137664.46699405 0 348137664.46699405 -89982737.035917655 0 0 0 0 1938862692.7695007 440730686.39559227 0 440730686.39559227 -121178006.04640061 0 0 0 0 1694503466.3830605 395098323.78778917 0 395098323.78778917 -90471450.427660197 0 0 0 0 110596209.78696823 -425342592.68730104 0 -425342592.68730104 627552681.87347746 0 0 0 0 3150689.3356142933 2162501.8463406861 0 2162501.8463406861 -205336.83773221192 0 0 0 0 1462771492.9219284 -737794784.05082917 0 -737794784.05082917 192870495.52529287 0 0 0 0 1354056975.9064407 -1190895039.5624247 0 -1190895039.5624247 721657233.33090782 0 0 0 0 236486396.05537415 -258149253.51776052 0 -258149253.51776052 547003653.42345977 0 0 0 0 952300994.2465744 -294167659.47035396 0 -294167659.47035396 10610655.880104303 0 0 0 0 350117270.57881737 -425739292.13688219 0 -425739292.13688219 125334310.9374938 0 0 0 0 241261008.12805939 -390307479.71711731 0 -390307479.71711731 743644266.40501285 0 0 0 0 651492537.8355751 -813742260.98994565 0 -813742260.98994565 842467463.68211985 0 0 0 0 584133548.92655373 -783225280.53128493 0 -783225280.53128493 947158355.47292709 0 0 0 0 502311899.27397156 -882077350.93025267 0 -882077350.93025267 1022589184.2876372 0 0 0 0 1449163961.6154709 -1621426619.6864476 0 -1621426619.6864476 1465359692.5263619 0 0 0 0 1878223360.5136261 -1334293160.3859611 0 -1334293160.3859611 689791424.74991131 0 0 0 0 2224944233.4927101 -1819422336.5617931 0 -1819422336.5617931 820071463.48053539 0 0 0 0 2206145876.2842941 -1170115545.6593301 0 -1170115545.6593301 685044398.84848607 0 0 0 0 2928170347.816246 -512700616.73227781 0 -512700616.73227781 1278843597.4494607 0 0 0 0 2103867624.9988651 -1115536957.740911 0 -1115536957.740911 825298270.04747188 0 0 0 0 1979894363.3419209 -1391558767.7729168 0 -1391558767.7729168 479497170.99925613 0 0 0 0 1821533248.7365513 -1182162984.4166956 0 -1182162984.4166956 1008545898.293339 0 0 0 0 2371039521.4216061 -1155530935.3751569 0 -1155530935.3751569 556140700.15147495 0 0 0 0 1604733989.8887882 -1320139573.0398216 0 -1320139573.0398216 1008763258.337799 0 0 0 0 2014375107.1310539 -1068267669.9287343 0 -1068267669.9287343 89757721.70896183 0 0 0 0 1343124858.5911255 -405058715.95693445 0 -405058715.95693445 19233235.562502146 0 0 0 0 117533819.85925484 394623142.31133986 0 394623142.31133986 1025713279.9387422 0 0 0 0 2686428.0187112982 538601.97454731539 0 538601.97454731539 7967253.7344864365 0 0 0 0 222898436.26541376 534415703.88336825 0 534415703.88336825 400597934.72542953 0 0 0 0 80506974.952003479 192280895.77725792 0 192280895.77725792 243180548.73479176 0 0 0 0 225547576.36264038 101220691.90909386 0 101220691.90909386 -204702745.49247169 0 0 0 0 262526626.96883583 363388224.73260272 0 363388224.73260272 107453398.88580704 0 0 0 0 -127104782.45311451 472548170.44916868 0 472548170.44916868 1122888282.7622604 0 0 0 0 9792620.0453338623 309603457.19713783 0 309603457.19713783 470426876.468153 0 0 0 0 123271385.77419853 247697039.78529739 0 247697039.78529739 227076833.51220322 0 0 0 0 -171962379.76408577 190501340.72885513 0 190501340.72885513 682829813.25375748 0 0 0 0 -171516870.98157883 186679724.01255655 0 186679724.01255655 615725822.14406157 0 0 0 0 -70655398.238342285 40424119.173855782 0 40424119.173855782 237481432.60879517 0 0 0 0 -46107152.362203598 35480959.176477432 0 35480959.176477432 148903148.84130669 0 0 0 0 -27210021.716213226 124799833.81672096 0 124799833.81672096 387897366.47255707 0 0 0 0 27992492.845393181 26367191.792841911 0 26367191.792841911 124515318.22811127 0 0 0 0 -7169066.4107284546 -62001279.380613327 0 -62001279.380613327 43668194.050460815 0 0 0 0 -4238329.8908901215 -86036928.36493206 0 -86036928.36493206 72671703.712142944 0 0 0 0 -18641357.069583893 -14233400.598335266 0 -14233400.598335266 249813510.49167824 0 0 0 0 1041590.9155006409 -23774183.539027601 0 -23774183.539027601 77403631.6895051 0 0 0 0 185288884.72634506 330531510.29535645 0 330531510.29535645 76808478.659126773 0 0 0 0 8758125.0267569534 59304.487417493947 0 59304.487417493947 19076417.060034361 0 0 0 0 -302282120.31276512 -115873855.60225868 0 -115873855.60225868 95947581.373970032 0 0 0 0 -48604707.152736664 -189188674.6257534 0 -189188674.6257534 -65505638.494727135 0 0 0 0 -38177183.201789856 -99337310.208361626 0 -99337310.208361626 -26564200.78761673 0 0 0 0 18861881.691153716 -2831717.8935692161 0 -2831717.8935692161 24467589.055648517 0 0 0 0 91172734.896297455 66416591.578029156 0 66416591.578029156 -20638052.21059227 0 0 0 0 -88982297.112953186 -24678525.226898193 0 -24678525.226898193 -14021579.386386871 0 0 0 0 -35223145.838914871 -96855416.721837997 0 -96855416.721837997 -30556833.07030344 0 0 0 0 -8373595.4190849066 -85182983.519010544 0 -85182983.519010544 72523994.181335449 0 0 0 0 -75762624.871109962 -59953796.553575516 0 -59953796.553575516 67530577.743919373 0 0 0 0 -18486289.60285759 -123867641.6625576 0 -123867641.6625576 11237030.868749619 0 0 0 0 50872336.84978117 -7325710.3574558981 0 -7325710.3574558981 11137531.261336615 0 0 0 0 78565050.621555328 51976913.433038712 0 51976913.433038712 -37254244.011423111 0 0 0 0 26697346.780364037 -89215908.426169395 0 -89215908.426169395 -109202391.46115494 0 0 0 0 36095117.848798752 13485459.386118293 0 13485459.386118293 23084054.121117592 0 0 0 0 11782927.023185875 3941335.061105879 0 3941335.061105879 10693084.858925251 0 0 0 0 15868626.212055588 4448807.3214107491 0 4448807.3214107491 11986275.199487783 0 0 0 0 37108544.244651794 -45993681.888206482 0 -45993681.888206482 -1111057.5504150391 0 0 0 0 28758283.089333534 -5588718.5957883997 0 -5588718.5957883997 16733357.523723895 0 0 0 0 2884096.0491065979 -421085.05842494965 0 -421085.05842494965 -3149559.1658477783 0 0 0 0 25522575.670284104 -908509.24856716022 0 -908509.24856716022 1610644.854556324 0 0 0 0 20043001.985976323 4814809.6180847054 0 4814809.6180847054 13765379.433762934 0 0 0 0 -1703260.1459197998 -2799071.087471962 0 -2799071.087471962 6034190.6726932526 0 0 0 0 17416086.955000736 -1375677.1891388521 0 -1375677.1891388521 21996584.417110451 0 0 0 0 -1565702.61353302 -4965059.6859209538 0 -4965059.6859209538 5139647.1353187561 0 0 0 0 323797080.020401 165188296.28946161 0 165188296.28946161 2123375.2985296529 0 0 0 0 11348957.586669505 2042676.689827096 0 2042676.689827096 17619989.906569347 0 0 0 0 69839628.281959534 21146156.481547326 0 21146156.481547326 -11941027.840115739 0 0 0 0 -32381252.398521423 29900754.381308604 0 29900754.381308604 33006142.564969599 0 0 0 0 10213888.38123183 6463355.5535189062 0 6463355.5535189062 -1774172.9100814741 0 0 0 0 11804032.509976991 -1813547.7833347805 0 -1813547.7833347805 7932682.9594814619 0 0 0 0 -51694985.334396362 167564081.24898458 0 167564081.24898458 -249612484.19658542 0 0 0 0 42487406.005844116 -47755346.414747834 0 -47755346.414747834 27962697.530787565 0 0 0 0 10759542.145788193 -4883383.3462166442 0 -4883383.3462166442 243085546.78913677 0 0 0 0 -120799227.35651588 100631144.43823421 0 100631144.43823421 654540070.0669136 0 0 0 0 166164161.37087059 375601401.80443323 0 375601401.80443323 -69231289.373795509 0 0 0 0 2202636357.2379169 -619032805.7482388 0 -619032805.7482388 -139038698.28525534 0 0 0 0 2347186468.343895 -1142255785.3106601 0 -1142255785.3106601 1448533401.5203137 0 0 0 0 2357270128.9429665 29468482.173760843 0 29468482.173760843 -98441829.587668777 0 0 0 0 4038777.4158899486 -1322592.8224132201 0 -1322592.8224132201 3572625.2499088324 0 0 0 0 303290273.72397232 -714006037.17029428 0 -714006037.17029428 1399369495.0398407 0 0 0 0 4824510.9119208604 1905440.3089478943 0 1905440.3089478943 15038947.193307893 0 0 0 0 1645817027.7661057 -1013117515.609275 0 -1013117515.609275 404857630.16428429 0 0 0 0 173618284.9705658 145847630.20811614 0 145847630.20811614 124965222.05479287 0 0 0 0 711154525.07759476 1186360475.1172431 0 1186360475.1172431 1287103279.6950073 0 0 0 0 2201292275.1287003 952386306.19082928 0 952386306.19082928 -85270623.055638939 0 0 0 0 50525215.224647522 57311810.860233441 0 57311810.860233441 205188923.86077613 0 0 0 0 301868807.83033943 124740636.87692544 0 124740636.87692544 182298463.41510397 0 0 0 0 525441546.19519043 444129819.41575378 0 444129819.41575378 360384570.1150977 0 0 0 0 454151981.28072262 -15422084.101595361 0 -15422084.101595361 -68945316.373544037 0 0 0 0 1319973104.9327774 409272413.62581837 0 409272413.62581837 -140049836.64458692 0 0 0 0 671221898.68141556 291460008.72762549 0 291460008.72762549 -59750410.045279622 0 0 0 0 778799201.93525124 152068637.65976965 0 152068637.65976965 -134646529.13516432 0 0 0 0 2205169079.141922 376499198.57358778 0 376499198.57358778 -462449833.07036948 0 0 0 0 1315386465.1382713 519278335.87319469 0 519278335.87319469 -272900294.1263184 0 0 0 0 1388114019.4150124 -53772089.175520852 0 -53772089.175520852 -433553775.06902069 0 0 0 0 865805612.51285744 -127410321.60564487 0 -127410321.60564487 -133053038.23454195 0 0 0 0 1298798460.3696518 241713863.66138151 0 241713863.66138151 -189601237.97762364 0 0 0 0 1262417266.0402527 -606878853.02519059 0 -606878853.02519059 88957655.669295788 0 0 0 0 608936237.53497505 31747808.405850664 0 31747808.405850664 10510159.756352484 0 0 0 0 2204405463.7802963 -234899561.83483934 0 -234899561.83483934 -422074964.78161621 0 0 0 0 1310187943.0654831 -502902968.20804334 0 -502902968.20804334 -57691756.82790827 0 0 0 0 24594491.317817688 3063607.1038143635 0 3063607.1038143635 22390488.997794151 0 0 0 0 48330032.595287323 32672079.844768047 0 32672079.844768047 23711106.246505737 0 0 0 0 7129397.0110305259 1747194.1988930255 0 1747194.1988930255 10760277.233364308 0 0 0 0 2949520.5914001465 6144164.0295815468 0 6144164.0295815468 25558014.88769722 0 0 0 0 372767849.41145706 -173776328.34058988 0 -173776328.34058988 64248321.578187227 0 0 0 0 28898102.659671783 5824334.8703255653 0 5824334.8703255653 7094687.2974414825 0 0 0 0 51363393.12512207 35511087.763568878 0 35511087.763568878 22157014.881533146 0 0 0 0 56742951.159740925 35771571.904847562 0 35771571.904847562 17805140.928190231 0 0 0 0 88759361.347518921 62046970.698578835 0 62046970.698578835 36951276.631757736 0 0 0 0 4032089.7663650513 -3724425.2942905426 0 -3724425.2942905426 30624548.873806 0 0 0 0 305761932.99431992 76046378.765778407 0 76046378.765778407 116122817.9282915 0 0 0 0 8307128.5592781631 1392682.3648225144 0 1392682.3648225144 15971128.252978751 0 0 0 0 117921926.00421906 -23847681.820442915 0 -23847681.820442915 1106436.0255737305 0 0 0 0 60485765.102081299 26925527.720724106 0 26925527.720724106 13522238.66115436 0 0 0 0 7141315.1538841408 2558686.6613775194 0 2558686.6613775194 953128.02473466471 0 0 0 0 31851653.057346344 52631999.860877037 0 52631999.860877037 45989996.254114151 0 0 0 0 86254820.152900696 16595890.385099411 0 16595890.385099411 -1536651.9695031345 0 0 0 0 13225247.947239492 1616307.2153970562 0 1616307.2153970562 18989633.914268501 0 0 0 0 18769690.329893388 10149841.240175508 0 10149841.240175508 -2370954.9942123834 0 0 0 0 61499169.37023735 19416286.88458246 0 19416286.88458246 22347544.036945343 0 0 0 0 48732525.99005127 44958584.987146378 0 44958584.987146378 55914689.668524742 0 0 0 0 5917617.8326353207 3127759.7783713117 0 3127759.7783713117 -1007103.4759787396 0 0 0 0 -1840718.9118652344 15474010.278629303 0 15474010.278629303 29912340.970280409 0 0 0 0 125141194.34413147 138025502.64932156 0 138025502.64932156 47965934.01387465 0 0 0 0 83968164.430106163 13631952.394200563 0 13631952.394200563 8401424.4036083221 0 0 0 0 42611824.119537354 72227895.30568409 0 72227895.30568409 -40161663.51743412 0 0 0 0 60973217.749614716 95558311.534250259 0 95558311.534250259 64669152.504105568 0 0 0 0 42991279.492383957 29115294.432875872 0 29115294.432875872 33546440.558986664 0 0 0 0 56323560.643927574 38387960.383459449 0 38387960.383459449 34120619.364618301 0 0 0 0 88221992.621116638 50616699.596419811 0 50616699.596419811 30911387.237793922 0 0 0 0 52249560.074165344 25613727.195029259 0 25613727.195029259 36414750.286891699 0 0 0 0 91718069.189538002 81111237.395480871 0 81111237.395480871 65858627.357133865 0 0 0 0 69062691.701522827 45841153.310727119 0 45841153.310727119 58750066.198697805 0 0 0 0 62536243.897756577 42472303.525564313 0 42472303.525564313 56737667.421011925 0 0 0 0 77262921.851966858 43836789.268149376 0 43836789.268149376 40800343.456988335 0 0 0 0 55230318.857406616 21196737.442687988 0 21196737.442687988 28724967.149069786 0 0 0 0 74678106.919155121 47622581.327152014 0 47622581.327152014 37342792.451493263 0 0 0 0 169734411.86417389 50004651.358571053 0 50004651.358571053 79996186.248974323 0 0 0 0 134221665.98958588 21597427.060247898 0 21597427.060247898 87678778.197338104 0 0 0 0 268647815.03819275 64991384.339672089 0 64991384.339672089 25982241.032027483 0 0 0 0 132478331.64056396 33028984.384866714 0 33028984.384866714 39244234.550751925 0 0 0 0 77248744.832373992 39480920.251836471 0 39480920.251836471 93329429.689912796 0 0 0 0 94408092.885444641 79958623.641890526 0 79958623.641890526 89554210.393144608 0 0 0 0 115704732.04564667 15224712.71367836 0 15224712.71367836 99584646.002120972 0 0 0 0 303471767.07250214 79430793.477351665 0 79430793.477351665 115162898.51621246 0 0 0 0 201587593.63057327 -3415549.8772306442 0 -3415549.8772306442 168591779.65872765 0 0 0 0 123200047.46881104 -2598648.8770475388 0 -2598648.8770475388 107756198.38700104 0 0 0 0 252757329.77023315 20167719.247076035 0 20167719.247076035 30676731.270679474 0 0 0 0 121510745.89093781 71332495.408118248 0 71332495.408118248 41630357.899339676 0 0 0 0 58052262.343048096 46293814.970973969 0 46293814.970973969 59060813.731290817 0 0 0 0 47999129.664108276 -5103079.2593946457 0 -5103079.2593946457 -110218495.75724316 0 0 0 0 83253703.410430908 106525122.81306267 0 106525122.81306267 -1019650.929898262 0 0 0 0 118136372.11151695 4508408.1907019615 0 4508408.1907019615 -82797309.728034973 0 0 0 0 20779256.870586395 53148409.933945656 0 53148409.933945656 -89387076.254360199 0 0 0 0 -11446491.365300655 95737406.520779133 0 95737406.520779133 -168937125.70311356 0 0 0 0 277926701.4711113 214159559.69615746 0 214159559.69615746 12678272.294908524 0 0 0 0 203280805.36859322 72496290.382165909 0 72496290.382165909 -167141228.00962448 0 0 0 0 392896728.6322403 -70131956.544555664 0 -70131956.544555664 -211595059.5362407 0 0 0 0 -1703811.4424185753 40185075.570869446 0 40185075.570869446 -202723766.07708168 0 0 0 0 222767665.80762917 -119005007.67378163 0 -119005007.67378163 1468976.0318565369 0 0 0 0 283877440.55984664 -3755183.4745745659 0 -3755183.4745745659 -615991890.7080574 0 0 0 0 79491103.500653014 -3153358.1815770734 0 -3153358.1815770734 -1537498.1132728502 0 0 0 0 123965736.52810287 54331257.903208733 0 54331257.903208733 -252470046.34823227 0 0 0 0 66280590.481820017 -4650987.2469636314 0 -4650987.2469636314 3417529.5114312256 0 0 0 0 96812084.337605 -249913609.68795967 0 -249913609.68795967 -177845068.94747925 0 0 0 0 125012490.67311859 25725949.633437157 0 25725949.633437157 -163800981.95557594 0 0 0 0 159790697.38568592 -73461851.162111282 0 -73461851.162111282 -447445412.26049149 0 0 0 0 6908958.3576581478 -116181322.01639843 0 -116181322.01639843 -53297892.083490372 0 0 0 0 56004299.256519318 -142425735.69205093 0 -142425735.69205093 -52894386.847478956 0 0 0 0 1849341.92085886 -214630871.2631197 0 -214630871.2631197 163308913.23917007 0 0 0 0 141695551.02966106 -145654459.37161827 0 -145654459.37161827 -139283727.21381855 0 0 0 0 87700297.922315121 -231111364.96413422 0 -231111364.96413422 126774130.87894058 0 0 0 0 250056237.24160624 -264791647.55712318 0 -264791647.55712318 125139110.84108162 0 0 0 0 -23524049.181720197 -279465898.00721091 0 -279465898.00721091 514365772.75305748 0 0 0 0 -17661833.145277619 -230778794.19852114 0 -230778794.19852114 435584043.47314453 0 0 0 0 167592219.86554241 -369899861.81646347 0 -369899861.81646347 496055206.19408512 0 0 0 0 -25239168.673447609 -119135094.02228165 0 -119135094.02228165 200014342.39377213 0 0 0 0 -37696464.537370682 -105230234.00658798 0 -105230234.00658798 325034802.57334518 0 0 0 0 -189497747.79689956 -135572381.53602886 0 -135572381.53602886 519845092.69824004 0 0 0 0 -84212354.657377481 53206350.564063787 0 53206350.564063787 446459517.52811813 0 0 0 0 -340200883.24729156 167083447.65701962 0 167083447.65701962 868650375.51951885 0 0 0 0 -223051629.87345505 8972078.2013492584 0 8972078.2013492584 523605040.86005211 0 0 0 0 -212588652.23343694 -44029892.020128965 0 -44029892.020128965 790039048.20025444 0 0 0 0 -457908011.43347979 33487177.49720192 0 33487177.49720192 780810716.52365518 0 0 0 0 -279257690.88738227 -150313454.78006077 0 -150313454.78006077 847168306.94518137 0 0 0 0 -114091691.09651184 -321040238.22540665 0 -321040238.22540665 926514773.96476364 0 0 0 0 -357486530.78279781 -133813933.73879957 0 -133813933.73879957 958834534.05954075 0 0 0 0 -264574425.49825162 -320957563.98082078 0 -320957563.98082078 1335671578.3563843 0 0 0 0 1514166397.7615156 -27711976.50698185 0 -27711976.50698185 138236641.35288429 0 0 0 0 61679708.566245079 -626587724.99704933 0 -626587724.99704933 1620501181.4215946 0 0 0 0 823649973.85289288 -1027882455.1306248 0 -1027882455.1306248 1140037834.9479828 0 0 0 0 533027300.82147217 -648172608.70605278 0 -648172608.70605278 673617164.09136391 0 0 0 0 283805419.09446716 351157238.27058363 0 351157238.27058363 416388295.47215176 0 0 0 0 890702342.27002716 -746801950.50841522 0 -746801950.50841522 -49241384.60033083 0 0 0 0 356574944.90252113 102749931.64378548 0 102749931.64378548 195045335.45308113 0 0 0 0 398724331.65688133 76460800.311222076 0 76460800.311222076 40910957.096479416 0 0 0 0 761550645.94524193 -22638041.111639023 0 -22638041.111639023 9434085.6541223526 0 0 0 0 399748823.38652182 -460307931.1473732 0 -460307931.1473732 378035669.04785728 0 0 0 0 163424092.13493311 -355496109.7933991 0 -355496109.7933991 506578832.94308853 0 0 0 0 -27583085.500117302 81539212.764308929 0 81539212.764308929 70581645.457183838 0 0 0 0 462035.09560012817 63841702.650821686 0 63841702.650821686 3045394.9520206451 0 0 0 0 121023864.17994261 278383932.64160204 0 278383932.64160204 278339945.19109726 0 0 0 0 -56144018.203853607 98496436.364678383 0 98496436.364678383 97159540.808380127 0 0 0 0 -52352346.327809334 -60267366.576784134 0 -60267366.576784134 -9132813.0480136871 0 0 0 0 8007285.4299295712 -4855298.4770442583 0 -4855298.4770442583 975542.0805045953 0 0 0 0 -181097097.3513546 -11803375.333416939 0 -11803375.333416939 295068779.83564156 0 0 0 0 -17521872.963935852 14069584.93898201 0 14069584.93898201 90640104.518663168 0 0 0 0 11256676.227225943 1299546.6328509841 0 1299546.6328509841 -1874318.3813775834 0 0 0 0 -10221619.129128933 13173787.343176365 0 13173787.343176365 10006457.965026855 0 0 0 0 411817857.58588791 112579882.42167664 0 112579882.42167664 -521145120.38159561 0 0 0 0 331108289.99449539 192650376.32151318 0 192650376.32151318 133680928.65912437 0 0 0 0 707202014.99607658 -85083.804970741272 0 -85083.804970741272 -321994803.00231171 0 0 0 0 48875039.38199234 -36063668.971225739 0 -36063668.971225739 -51535282.050678253 0 0 0 0 3481061.12771047 -664581.5972266458 0 -664581.5972266458 -1296383.8954653814 0 0 0 0 575326349.16199493 -504339641.65134811 0 -504339641.65134811 -218843811.21946049 0 0 0 0 -1089393.3540626206 -5881361.4268175438 0 -5881361.4268175438 1823270.6515802159 0 0 0 0 465028541.55028605 -564612460.92385674 0 -564612460.92385674 248240769.43910789 0 0 0 0 -13927060.055410385 -121888178.04305744 0 -121888178.04305744 442322730.51867676 0 0 0 0 36741706.783937439 -7326417.9848279655 0 -7326417.9848279655 -2110931.6227296218 0 0 0 0 977975242.99519539 1034336611.0909429 0 1034336611.0909429 1152530993.5933533 0 0 0 0 661768115.97827148 581001354.01396561 0 581001354.01396561 -140625205.7054615 0 0 0 0 15260904.854503632 31631266.452989578 0 31631266.452989578 22800644.942968369 0 0 0 0 21820566.402511597 33233139.198016167 0 33233139.198016167 11670597.766822815 0 0 0 0 21454608.021469116 38673684.353014946 0 38673684.353014946 -4129807.7534389496 0 0 0 0 13421214.50353241 41466043.375099182 0 41466043.375099182 15857664.785120964 0 0 0 0 63890918.19770702 -12786879.690291516 0 -12786879.690291516 -11605024.844914703 0 0 0 0 27088127.223367691 47338956.209575653 0 47338956.209575653 -7651336.4302091599 0 0 0 0 89055668.982609749 35512064.285460472 0 35512064.285460472 -59519655.273551941 0 0 0 0 -100057404.01648903 -212274179.62970805 0 -212274179.62970805 -133152059.59972954 0 0 0 0 594025668.03960228 268539104.55867672 0 268539104.55867672 -249053899.77365112 0 0 0 0 1289857335.6515274 515995997.42489243 0 515995997.42489243 -552142460.97369003 0 0 0 0 563002109.18989563 139337673.4093895 0 139337673.4093895 -662635860.9867382 0 0 0 0 338985202.74476242 -565135686.93529701 0 -565135686.93529701 -691718234.7202425 0 0 0 0 1647869586.6294403 -313493769.2349987 0 -313493769.2349987 -1164776635.5767117 0 0 0 0 352741570.88000107 168356283.15552807 0 168356283.15552807 -274734196.80083084 0 0 0 0 424087568.66186905 97039290.041267872 0 97039290.041267872 -211224864.6265583 0 0 0 0 466764510.93454838 42347464.216083527 0 42347464.216083527 -358048412.6472168 0 0 0 0 19881476.210174281 -4203939.0868069082 0 -4203939.0868069082 -10941952.144262018 0 0 0 0 137998208.88895416 -9731971.8945043087 0 -9731971.8945043087 -148784017.5581913 0 0 0 0 122904548.28339863 -14452427.042677999 0 -14452427.042677999 8390123.4700136185 0 0 0 0 58340353.570758983 -10364486.893100791 0 -10364486.893100791 -6415451.5718223844 0 0 0 0 72873855.375786975 1527431.3448576196 0 1527431.3448576196 -14307483.305410795 0 0 0 0 36342273.226211548 -1142495.441947937 0 -1142495.441947937 -16190421.978708223 0 0 0 0 97787485.282995969 -216364.93968357518 0 -216364.93968357518 -13311728.152487602 0 0 0 0 107923812.39471436 -41185038.727369308 0 -41185038.727369308 -149869256.3114863 0 0 0 0 74149648.115784645 68982937.847561836 0 68982937.847561836 -115885566.91133499 0 0 0 0 91453671.22869119 -19375225.331560407 0 -19375225.331560407 -15620161.603498161 0 0 0 0 37225188.874445915 84876295.798699379 0 84876295.798699379 -47131629.145305634 0 0 0 0 31633211.977497101 63988777.184486389 0 63988777.184486389 3045977.3316871822 0 0 0 0 57348983.291778564 229916272.73739815 0 229916272.73739815 73862094.535562754 0 0 0 0 37284048.902176738 83107016.317306876 0 83107016.317306876 -133246287.08803368 0 0 0 0 89744333.600088775 -2010148.8467738107 0 -2010148.8467738107 -6184145.172416416 0 0 0 0 179681695.77666473 -32567332.14010334 0 -32567332.14010334 -300252857.95250469 0 0 0 0 167028104.63379669 142949856.05093956 0 142949856.05093956 -380967324.92307574 0 0 0 0 122652172.35076141 41908882.45820713 0 41908882.45820713 -142131545.41275024 0 0 0 0 210887110.06920624 -92653879.758990288 0 -92653879.758990288 -70549203.692790985 0 0 0 0 94205975.464698792 -123874554.50193167 0 -123874554.50193167 -50705965.495958328 0 0 0 0 76610541.567485809 -114025940.04973364 0 -114025940.04973364 -22699517.488100052 0 0 0 0 89516413.691322327 -85954153.310764313 0 -85954153.310764313 2159528.2393655777 0 0 0 0 18659327.837799072 -66843083.02658844 0 -66843083.02658844 168530231.60086441 0 0 0 0 182100170.04547882 -184497205.75245571 0 -184497205.75245571 74526062.864242554 0 0 0 0 515093.71428233385 -741146.73633280396 0 -741146.73633280396 -512775.36200039275 0 0 0 0 97003208.527732849 23887288.5487113 0 23887288.5487113 -22913618.026233196 0 0 0 0 19152887.592512526 -7246925.7996571958 0 -7246925.7996571958 -4691160.7475623935 0 0 0 0 252036163.66259766 -4277239.7390604019 0 -4277239.7390604019 32401542.171211243 0 0 0 0 416049654.05284119 -169435744.49918461 0 -169435744.49918461 62782658.801288605 0 0 0 0 350056957.0682373 -177857728.90303516 0 -177857728.90303516 153966185.91474247 0 0 0 0 243067348.64767456 19153257.041535378 0 19153257.041535378 50777097.610466003 0 0 0 0 504375321.62435913 -68392202.053685188 0 -68392202.053685188 78708621.493240356 0 0 0 0 22628905.582321167 93466117.896391869 0 93466117.896391869 51655982.523208618 0 0 0 0 480587148.05684853 -171248863.11840963 0 -171248863.11840963 62112258.680856705 0 0 0 0 1047221.6750417426 484141.62543887645 0 484141.62543887645 -179428.3015944697 0 0 0 0 155129209.54183197 562165.02505159378 0 562165.02505159378 -15704112.326722741 0 0 0 0 8487612.9052639231 4190923.5916407853 0 4190923.5916407853 -13278124.841445068 0 0 0 0 -1369032.1813669205 -46614279.127161562 0 -46614279.127161562 -1316202.9304504395 0 0 0 0 174358634.69485474 16187026.639293671 0 16187026.639293671 -110104878.86267948 0 0 0 0 97213848.211992264 102117368.67658675 0 102117368.67658675 -57973974.643094063 0 0 0 0 242301317.18311691 114165408.43459225 0 114165408.43459225 -48813863.122808456 0 0 0 0 450544194.20969391 16930068.90996933 0 16930068.90996933 -18657196.155060768 0 0 0 0 269590168.15524292 183519909.75636387 0 183519909.75636387 -8854967.0062785149 0 0 0 0 173751253.05601501 35466849.493658245 0 35466849.493658245 -88221478.200565815 0 0 0 0 679048.61596679688 149402592.07784271 0 149402592.07784271 -79040523.620054245 0 0 0 0 110470429.62713623 -18174745.823008299 0 -18174745.823008299 -2751582.6107115746 0 0 0 0 8048155.3883245923 -1403716.6390979514 0 -1403716.6390979514 -1315506.6558198072 0 0 0 0 67744194.239688873 105523447.62060624 0 105523447.62060624 -237956235.02690506 0 0 0 0 3658679.4165159091 3920080.849905245 0 3920080.849905245 -6915046.2037501223 0 0 0 0 9311204.4745874405 224913875.17752051 0 224913875.17752051 -186227654.78592825 0 0 0 0 10578778.019744873 280312921.60014486 0 280312921.60014486 -302082008.39562035 0 0 0 0 -181171342.11100769 181970398.09537077 0 181970398.09537077 -26326908.077795267 0 0 0 0 168511480.32949448 7639453.5045952797 0 7639453.5045952797 105231728.84292889 0 0 0 0 152859122.73425198 -38890985.350575179 0 -38890985.350575179 -2998117.8016052246 0 0 0 0 29905108.388420105 82067383.043514907 0 82067383.043514907 -70870698.470779181 0 0 0 0 -21903931.01077652 41232638.159053504 0 41232638.159053504 -39584771.140563011 0 0 0 0 42094086.327384949 44667403.552579403 0 44667403.552579403 -62740337.724572062 0 0 0 0 46622040.790031433 34145029.792415857 0 34145029.792415857 -41836794.88143529 0 0 0 0 56655859.337356567 33601207.440725684 0 33601207.440725684 -61815170.751365781 0 0 0 0 29253457.932180844 -6840407.5651594996 0 -6840407.5651594996 -3439584.0309364358 0 0 0 0 121895389.91103745 -43099107.233135462 0 -43099107.233135462 -10415745.102313042 0 0 0 0 90178561.247595787 -21914029.527520031 0 -21914029.527520031 -2019910.8296985626 0 0 0 0 92264259.321929932 -91581920.406906128 0 -91581920.406906128 14834569.497016907 0 0 0 0 35563524.204281121 -12093919.676448204 0 -12093919.676448204 -13914165.754047051 0 0 0 0 104090013.87975311 -97235854.373744011 0 -97235854.373744011 -40135555.759864807 0 0 0 0 43473047.652414322 -69055227.850069761 0 -69055227.850069761 8839057.2222518921 0 0 0 0 -2024355.7780148685 -3579318.1279665669 0 -3579318.1279665669 761903.61991158966 0 0 0 0 40701860.124267578 57417704.934862733 0 57417704.934862733 -15308782.366173744 0 0 0 0 53311980.169593811 37962715.091118157 0 37962715.091118157 -67485075.79548943 0 0 0 0 33766771.317390695 11597944.311596213 0 11597944.311596213 -12567731.716581965 0 0 0 0 102362232.41277695 2363387.5990299582 0 2363387.5990299582 -167303724.06785971 0 0 0 0 69222856.758769989 67104624.371863902 0 67104624.371863902 -69395882.388759851 0 0 0 0 30535511.123905182 112138919.27149725 0 112138919.27149725 84237377.626172304 0 0 0 0 112041478.0305748 8246946.5197739601 0 8246946.5197739601 -103454361.24595928 0 0 0 0 17475816.976419494 2430837.1220995821 0 2430837.1220995821 -4138222.0693646385 0 0 0 0 -1873273.2359199524 -38154027.685057819 0 -38154027.685057819 -71686306.678512573 0 0 0 0 128624499.6781311 -117598407.52567303 0 -117598407.52567303 -133327300.22282255 0 0 0 0 83612646.258972168 -132349749.34552026 0 -132349749.34552026 -117307570.83137846 0 0 0 0 193250.3404352814 139207.94243477285 0 139207.94243477285 255607.78708591592 0 0 0 0 307792908.66212463 183772789.00857151 0 183772789.00857151 61869087.601681679 0 0 0 0 292272908.97759247 114720427.24540365 0 114720427.24540365 -50939594.019129992 0 0 0 0 221493594.09952927 -11605942.731732845 0 -11605942.731732845 -197663599.33614039 0 0 0 0 378993857.13143921 -28145218.013421178 0 -28145218.013421178 -196778592.78466034 0 0 0 0 111243558.45527649 -31697561.689338088 0 -31697561.689338088 -135852869.8764472 0 0 0 0 95366663.521627426 -88968972.14652665 0 -88968972.14652665 -118308262.2752583 0 0 0 0 204519549.99193573 -22295768.304852366 0 -22295768.304852366 -93452652.022668004 0 0 0 0 227337900.5191803 -96332512.256799281 0 -96332512.256799281 -171284708.73433352 0 0 0 0 189710250.86319733 -65628821.128702879 0 -65628821.128702879 -121757524.79963163 0 0 0 0 22808779.306510925 116242257.46127152 0 116242257.46127152 -105201841.74435365 0 0 0 0 609084645.8564682 -156862319.47769332 0 -156862319.47769332 -164607737.96213841 0 0 0 0 545460098.06175041 250328221.93541861 0 250328221.93541861 -77035246.768971443 0 0 0 0 596656507.26873112 -474494439.43843031 0 -474494439.43843031 -397297921.50425196 0 0 0 0 733668981.21009827 137591515.54193926 0 137591515.54193926 -33985544.229673386 0 0 0 0 5821709.7141955942 774068.43902309798 0 774068.43902309798 -1168841.4779694995 0 0 0 0 160251922.46709061 -204989925.81117603 0 -204989925.81117603 -48523666.669465899 0 0 0 0 254345603.31488037 440385289.09400463 0 440385289.09400463 494584467.52883124 0 0 0 0 42119760.80128479 121239038.04113483 0 121239038.04113483 308018964.4073 0 0 0 0 218461879.83430481 212160338.81678486 0 212160338.81678486 -123589442.06975842 0 0 0 0 -3384306.9973907471 11123530.543514252 0 11123530.543514252 -209749893.39070487 0 0 0 0 -43609695.996086121 -571179278.71776104 0 -571179278.71776104 -152252177.43177748 0 0 0 0 24836573.919034272 5622929.5412902441 0 5622929.5412902441 -5757299.7840277832 0 0 0 0 -230852040.63890839 -55363918.052223682 0 -55363918.052223682 -74912653.030612946 0 0 0 0 23407693.693848558 5904814.7783148736 0 5904814.7783148736 -8169620.4327086667 0 0 0 0 80112087.402481079 -193296214.22328377 0 -193296214.22328377 -167727778.49883056 0 0 0 0 71792178.83472608 -11782916.164933003 0 -11782916.164933003 -661412.32100509026 0 0 0 0 55662009.281267762 -83716526.297572732 0 -83716526.297572732 240980206.211761 0 0 0 0 56711232.548538208 -10879104.308442354 0 -10879104.308442354 -112852521.137779 0 0 0 0 -9388891.9322280884 93680171.140436172 0 93680171.140436172 -658479199.55759048 0 0 0 0 69284552.202182248 34194384.20044256 0 34194384.20044256 -31641559.506728001 0 0 0 0 104716451.52763009 29526738.306298256 0 29526738.306298256 501134081.46459579 0 0 0 0 125779736.16997552 63764695.919998646 0 63764695.919998646 -106861910.15791512 0 0 0 0 19003440.075698376 -12954314.500867248 0 -12954314.500867248 188220003.39120102 0 0 0 0 -31788041.618155479 123122419.0203476 0 123122419.0203476 -86270325.080475569 0 0 0 0 135544867.20746565 -71808426.472677231 0 -71808426.472677231 125503060.09056854 0 0 0 0 93401991.766008139 116203902.96600509 0 116203902.96600509 64411480.633655548 0 0 0 0 126570437.59151936 63415399.53775692 0 63415399.53775692 -80429717.63243103 0 0 0 0 -49301841.797023773 25229775.733634949 0 25229775.733634949 130191095.47149563 0 0 0 0 88240693.671188891 17039264.288807016 0 17039264.288807016 -2613034.465303007 0 0 0 0 148382725.22473812 -27304564.7717309 0 -27304564.7717309 260868632.40255928 0 0 0 0 99442486.182599068 146616364.18763781 0 146616364.18763781 180599634.36473465 0 0 0 0 174843349.29995728 131226940.31355715 0 131226940.31355715 -311494649.85335732 0 0 0 0 282834758.61403513 -120858949.24491119 0 -120858949.24491119 130582779.78997993 0 0 0 0 296466007.12665176 45529837.307358742 0 45529837.307358742 85170429.876932144 0 0 0 0 9729488.3804910779 5192297.7372735068 0 5192297.7372735068 -6676214.0268810177 0 0 0 0 -23193845.832715988 48693207.564834595 0 48693207.564834595 285600020.14205432 0 0 0 0 126364100.83618927 57121837.817418337 0 57121837.817418337 67670480.906391144 0 0 0 0 90590642.909012929 3521230.5845725294 0 3521230.5845725294 -1299296.0887038328 0 0 0 0 211629011.34756088 36951997.026814461 0 36951997.026814461 29300273.465438128 0 0 0 0 85383881.281755447 127340184.3972826 0 127340184.3972826 -22153937.766382694 0 0 0 0 72298868.749593735 58799470.682398558 0 58799470.682398558 -120651259.38439322 0 0 0 0 101155749.36590672 254285002.41284561 0 254285002.41284561 -136202859.35820198 0 0 0 0 339785500.97330093 123269082.2153492 0 123269082.2153492 -117453297.16517639 0 0 0 0 231260723.72553635 192331173.22458076 0 192331173.22458076 -129876423.78928971 0 0 0 0 259844855.96818924 376769028.26956177 0 376769028.26956177 -232068653.07451439 0 0 0 0 9669342.477519989 175947647.74540806 0 175947647.74540806 -12369592.595227242 0 0 0 0 -159571091.89333534 106646511.93976021 0 106646511.93976021 -33082519.549170494 0 0 0 0 16777962.397461951 7536051.3560511973 0 7536051.3560511973 718186.02331578545 0 0 0 0 82995810.313302517 72924809.507236481 0 72924809.507236481 -349521805.7524929 0 0 0 0 164959305.37319684 161882022.39402008 0 161882022.39402008 -657992073.91254425 0 0 0 0 -429107210.36274147 68433992.280938148 0 68433992.280938148 -161316458.37423992 0 0 0 0 5767180.2801928967 3496704.6651261207 0 3496704.6651261207 900319.528601069 0 0 0 0 578446335.34155846 -285164023.54026413 0 -285164023.54026413 158571165.86574364 0 0 0 0 355889836.60116577 413529929.26403618 0 413529929.26403618 -98573906.938873291 0 0 0 0 551889454.25911331 -291578095.23473454 0 -291578095.23473454 -50746951.182623863 0 0 0 0 85224344.35267067 -160176328.36952353 0 -160176328.36952353 228611723.87119675 0 0 0 0 136393051.48594022 -16560457.204156637 0 -16560457.204156637 -61083559.984937668 0 0 0 0 60996498.775568008 -47797664.909677505 0 -47797664.909677505 6603033.054104805 0 0 0 0 25537570.782654274 9257045.482180357 0 9257045.482180357 -1013999.2422452942 0 0 0 0 35452030.867454529 29941677.750192165 0 29941677.750192165 -74954224.066862106 0 0 0 0 90263017.158782721 110754322.11172009 0 110754322.11172009 -466923750.96680737 0 0 0 0 152925794.01464748 -34016838.050148964 0 -34016838.050148964 -237145789.38821888 0 0 0 0 -63236591.206631184 -2831736.6461048126 0 -2831736.6461048126 -238561107.60853577 0 0 0 0 -46735539.792351723 248995477.54623508 0 248995477.54623508 -335904840.94921875 0 0 0 0 127820788.39679337 33246865.219575882 0 33246865.219575882 -32630306.779928207 0 0 0 0 51653068.671081543 31547855.890028954 0 31547855.890028954 -12429367.269945145 0 0 0 0 18096059.261753082 20190158.401340485 0 20190158.401340485 -5229529.9392442703 0 0 0 0 51828333.367801666 12928260.105660439 0 12928260.105660439 -22813344.229790688 0 0 0 0 18280325.673553944 21023184.636555493 0 21023184.636555493 -27203157.477626801 0 0 0 0 24076882.560623169 44049859.567846775 0 44049859.567846775 -15337703.997837067 0 0 0 0 67893908.398323059 3163098.410431385 0 3163098.410431385 -22602953.45122242 0 0 0 0 235717665.4161644 -56226222.259850979 0 -56226222.259850979 -94542521.453893661 0 0 0 0 231805917.00400925 -58674474.554944038 0 -58674474.554944038 -40721779.671587944 0 0 0 0 300221363.86787033 -109797351.89407921 0 -109797351.89407921 -148213013.43489933 0 0 0 0 393372802.02214241 -52223169.318911552 0 -52223169.318911552 -136865350.15922737 0 0 0 0 312343995.21273422 -43210520.562110901 0 -43210520.562110901 -115033625.64288712 0 0 0 0 312438123.6522727 -41603933.044066191 0 -41603933.044066191 -93541201.649044037 0 0 0 0 355067887.72176361 10863244.776705742 0 10863244.776705742 -93816710.079914093 0 0 0 0 245685725.72008133 -38403015.635375977 0 -38403015.635375977 -91222438.904001236 0 0 0 0 135419618.6514132 -17280785.623296976 0 -17280785.623296976 -50159875.464862823 0 0 0 0 275238876.10483932 -20751317.932086945 0 -20751317.932086945 -101929447.18781281 0 0 0 0 272383580.73681641 28758149.04915905 0 28758149.04915905 -60821001.06272316 0 0 0 0 166867297.34477234 32044770.069233894 0 32044770.069233894 -39862908.490098953 0 0 0 0 333463045.89772034 106511856.34057713 0 106511856.34057713 -29630022.203449249 0 0 0 0 407042830.41024208 -20460403.963432312 0 -20460403.963432312 -74984589.862361908 0 0 0 0 187942373.51854706 23292759.892724991 0 23292759.892724991 43167464.447264671 0 0 0 0 279462759.25806999 -412505653.59932709 0 -412505653.59932709 21063781.259748459 0 0 0 0 556193692.19930649 -137971516.02906036 0 -137971516.02906036 -91571409.121179581 0 0 0 0 349502813.41889191 -101412588.84273338 0 -101412588.84273338 -70091072.290401459 0 0 0 0 454524227.97008896 -16576038.417823792 0 -16576038.417823792 -145290578.76332283 0 0 0 0 4480586.4000294358 4113613.1687026527 0 4113613.1687026527 4209716.2027207855 0 0 0 0 757559576.69132233 -444883743.45279312 0 -444883743.45279312 -35933477.717697144 0 0 0 0 318325540.61977482 324374874.02513671 0 324374874.02513671 636755322.42925453 0 0 0 0 1165098093.9747238 -36065177.585965157 0 -36065177.585965157 -165664012.75495243 0 0 0 0 316338635.41055679 -123938646.75021648 0 -123938646.75021648 -50172710.066547155 0 0 0 0 543823009.80333138 628823633.87457657 0 628823633.87457657 307520382.14946747 0 0 0 0 1966700.4189932235 -1293097.7636432182 0 -1293097.7636432182 -533916.00813851133 0 0 0 0 211377072.16740799 -713135138.57732582 0 -713135138.57732582 783605194.44426155 0 0 0 0 167146795.06069374 60533695.969167709 0 60533695.969167709 -21595823.114183426 0 0 0 0 3265615.152640678 -7550794.2724298798 0 -7550794.2724298798 -2658704.3182010408 0 0 0 0 6633369.5111836717 3700245.296114061 0 3700245.296114061 -2702351.0630978988 0 0 0 0 4229210.7919692993 -2807943.8294725418 0 -2807943.8294725418 -23132019.258172274 0 0 0 0 7722318.0576133728 46787910.379375458 0 46787910.379375458 18242006.314310074 0 0 0 0 159857362.89910555 56665949.240388513 0 56665949.240388513 -23475083.918697357 0 0 0 0 7897495.0923042297 -23836713.357141495 0 -23836713.357141495 -64011196.184778214 0 0 0 0 7930705.7494272068 2027365.7531054839 0 2027365.7531054839 -4367186.6768441638 0 0 0 0 6168829.5679459572 -9802049.765884161 0 -9802049.765884161 -34553592.757781982 0 0 0 0 11341376.819061279 12064258.687176704 0 12064258.687176704 -4502617.1878814697 0 0 0 0 -2426405.5194158554 -33128519.471579731 0 -33128519.471579731 -44560308.351028442 0 0 0 0 7730897.6038551331 -2724759.5465435982 0 -2724759.5465435982 -19716831.023108959 0 0 0 0 4152844.2653560638 -3469011.4250705242 0 -3469011.4250705242 -18912692.956476212 0 0 0 0 7427532.9070300832 -6167928.1513399947 0 -6167928.1513399947 -4184253.1589242602 0 0 0 0 69714879.704727173 43299709.751214266 0 43299709.751214266 -58169676.865327835 0 0 0 0 -30268093.576004028 -13825157.078658581 0 -13825157.078658581 154717854.57521534 0 0 0 0 14685454.852959633 -83123974.286777377 0 -83123974.286777377 181129646.42585373 0 0 0 0 475133633.76122665 43265826.332941055 0 43265826.332941055 214005244.43547153 0 0 0 0 152591939.11107492 -196407865.06861669 0 -196407865.06861669 505756156.13522053 0 0 0 0 109352584.23422241 -62121549.061651468 0 -62121549.061651468 163296627.26556969 0 0 0 0 23510810.588920593 -114832559.85142231 0 -114832559.85142231 156820218.91312027 0 0 0 0 48303633.189785004 -136994973.14868569 0 -136994973.14868569 238802660.06747365 0 0 0 0 345204879.41077423 -220020144.73295736 0 -220020144.73295736 50720789.036882401 0 0 0 0 342628045.46908188 -175939574.09785461 0 -175939574.09785461 12239637.725368261 0 0 0 0 148745485.79078889 -101297298.83496895 0 -101297298.83496895 -10689029.306628704 0 0 0 0 430978083.01742172 -12222698.711626053 0 -12222698.711626053 -4482696.1309169531 0 0 0 0 457102583.14467669 -237810534.86495233 0 -237810534.86495233 -43102044.794948578 0 0 0 0 601359826.47011948 -385995836.37918615 0 -385995836.37918615 137851674.78204083 0 0 0 0 262146586.95115852 -167016132.66038418 0 -167016132.66038418 117386245.71818209 0 0 0 0 602987321.03700221 123638005.30945858 0 123638005.30945858 360839306.0234766 0 0 0 0 2531041.5417218916 1879589.5054180436 0 1879589.5054180436 1189027.656797573 0 0 0 0 451813140.9074707 -444476668.37516975 0 -444476668.37516975 322389311.5586462 0 0 0 0 733388502.65400124 -215634729.69242382 0 -215634729.69242382 -97425468.430441856 0 0 0 0 529242664.37813568 -398649252.33077621 0 -398649252.33077621 -134040541.12452126 0 0 0 0 106931009.92157364 -337006834.93603706 0 -337006834.93603706 226145868.16007233 0 0 0 0 852741375.52487183 -595001043.29912806 0 -595001043.29912806 -21021713.094486237 0 0 0 0 735068098.31158257 -451049057.01426435 0 -451049057.01426435 118544674.73126554 0 0 0 0 320139836.87029457 -275419412.38336611 0 -275419412.38336611 249315325.53012824 0 0 0 0 5357658.7826328278 24906003.567002535 0 24906003.567002535 324827649.9310751 0 0 0 0 592299.9897817875 1112883.0824775584 0 1112883.0824775584 3853484.709805863 0 0 0 0 1475383.6773253856 1160547.6991402619 0 1160547.6991402619 8915178.564645838 0 0 0 0 -47347613.651632309 -61724272.708020449 0 -61724272.708020449 282576089.69423914 0 0 0 0 403897625.71921158 -194706931.87273622 0 -194706931.87273622 -23565315.060475349 0 0 0 0 283880163.5533545 -13033443.382212877 0 -13033443.382212877 -77680888.042651176 0 0 0 0 1054136121.5444412 -400667711.33721858 0 -400667711.33721858 -157971444.09541136 0 0 0 0 -18161053.698188603 8005116.3155939616 0 8005116.3155939616 346386478.63462305 0 0 0 0 489486260.71243668 -533994426.49181718 0 -533994426.49181718 558144704.80988657 0 0 0 0 3070098.7996704993 -240779.35532453284 0 -240779.35532453284 7710196.3998143962 0 0 0 0 323341395.117342 46470349.090298146 0 46470349.090298146 17354553.69307068 0 0 0 0 -91459522.187973022 6342430.0302695036 0 6342430.0302695036 73088275.962247372 0 0 0 0 -27180333.325839996 56092559.276361465 0 56092559.276361465 62775890.599353313 0 0 0 0 147408064.13773727 64284098.187345028 0 64284098.187345028 6327260.6481389999 0 0 0 0 5690917.6867419854 -4392353.7136392761 0 -4392353.7136392761 -35256.423836060174 0 0 0 0 1649896820.7051668 -995513330.30482936 0 -995513330.30482936 588232264.6043216 0 0 0 0 865345231.77215958 186107697.5869579 0 186107697.5869579 -261739447.90679124 0 0 0 0 1347147282.4167442 -1154554102.9140058 0 -1154554102.9140058 699029163.01473463 0 0 0 0 1104302244.7339821 -179794848.10775104 0 -179794848.10775104 724815696.83108234 0 0 0 0 1232988287.3670025 -99657300.603155434 0 -99657300.603155434 312098057.66815805 0 0 0 0 1701191148.5687494 -952902786.82915187 0 -952902786.82915187 587752912.64259291 0 0 0 0 759739276.13545418 -334720322.59614134 0 -334720322.59614134 230099036.4943831 0 0 0 0 858154162.38367081 -89616768.925708413 0 -89616768.925708413 -117710480.94992638 0 0 0 0 367692532.18944931 133246837.45124412 0 133246837.45124412 9391325.8044900894 0 0 0 0 998367970.54887772 -280835895.17772126 0 -280835895.17772126 18237830.005643368 0 0 0 0 577471011.3022356 -287567255.1939218 0 -287567255.1939218 44595229.564112186 0 0 0 0 485714577.17094517 -350806491.08289909 0 -350806491.08289909 86308172.825404167 0 0 0 0 607750971.76635933 -325213745.98536062 0 -325213745.98536062 91029338.028577089 0 0 0 0 504721920.06353378 -318650250.57121158 0 -318650250.57121158 134866427.89174175 0 0 0 0 313265394.79794121 -344409506.9927454 0 -344409506.9927454 132523658.01210433 0 0 0 0 352406522.16019821 -247376322.42467642 0 -247376322.42467642 178852082.24074841 0 0 0 0 352543456.28183365 -283256164.79294968 0 -283256164.79294968 186908960.89497352 0 0 0 0 383410112.54350471 -223609599.2027986 0 -223609599.2027986 124238643.41990137 0 0 0 0 668411953.19966507 -163059208.63818502 0 -163059208.63818502 134846853.4992857 0 0 0 0 332261771.86407471 -284255759.31345606 0 -284255759.31345606 498073414.72053289 0 0 0 0 284862318.58369827 -621540041.18997955 0 -621540041.18997955 432583452.5647459 0 0 0 0 116738146.77139664 -264105957.4689436 0 -264105957.4689436 267469163.26938391 0 0 0 0 282199561.66116142 279116078.81924343 0 279116078.81924343 229066317.90787828 0 0 0 0 109997891.73125076 -182260986.57038522 0 -182260986.57038522 86292675.090471268 0 0 0 0 4222997.6783621199 3923072.1375609301 0 3923072.1375609301 3779225.6851762589 0 0 0 0 458939919.44690323 -346791382.10663414 0 -346791382.10663414 106693152.97257233 0 0 0 0 446501637.49138451 -222169840.30588388 0 -222169840.30588388 -75608120.307463646 0 0 0 0 2182724.4421208892 1681504.2996090204 0 1681504.2996090204 800424.88754963316 0 0 0 0 284448229.91919088 -251811344.34791613 0 -251811344.34791613 45768330.70822525 0 0 0 0 330423565.82183456 -69461639.958545685 0 -69461639.958545685 7822587.3159198761 0 0 0 0 232953917.42275739 -106813408.40915638 0 -106813408.40915638 115331543.02791023 0 0 0 0 154275164.49068451 -8036330.4360952377 0 -8036330.4360952377 18651692.415622711 0 0 0 0 177654402.22730637 18040593.783865929 0 18040593.783865929 31837279.928646088 0 0 0 0 353035793.6648798 78952604.180268288 0 78952604.180268288 -304628244.7219429 0 0 0 0 -115791870.87973022 240048017.01230812 0 240048017.01230812 -136027078.01585197 0 0 0 0 391598683.06244612 143562849.39514101 0 143562849.39514101 -648295062.81746674 0 0 0 0 367109258.74109268 -8730601.722284317 0 -8730601.722284317 -176851265.983284 0 0 0 0 -109080303.3301295 -181061409.23181677 0 -181061409.23181677 141983035.76474953 0 0 0 0 -122208603.13903856 311180569.01541793 0 311180569.01541793 -218356801.94935417 0 0 0 0 118370926.53049088 -335995011.36402607 0 -335995011.36402607 -316145847.3058424 0 0 0 0 279167148.07936859 -37728939.616770744 0 -37728939.616770744 193097976.12825483 0 0 0 0 -131089187.0951767 -210404045.00727367 0 -210404045.00727367 193918533.1715374 0 0 0 0 2064646.5295658112 -54003254.41639328 0 -54003254.41639328 88443456.09070015 0 0 0 0 -88100905.974794626 -291188929.84222245 0 -291188929.84222245 556740784.48655701 0 0 0 0 195519812.66421223 -424355642.51083088 0 -424355642.51083088 152191659.82853413 0 0 0 0 192629360.20123672 -377803388.40426254 0 -377803388.40426254 276947455.20339537 0 0 0 0 455165576.73266697 -449100511.05550146 0 -449100511.05550146 154316884.36223793 0 0 0 0 350389623.5012846 -275929529.93132424 0 -275929529.93132424 167384124.99380493 0 0 0 0 91889207.215449333 -217635402.48228407 0 -217635402.48228407 178690533.34292221 0 0 0 0 -176353934.90769196 130785258.22118664 0 130785258.22118664 -173038534.49756813 0 0 0 0 685788150.5207901 -541290429.63568592 0 -541290429.63568592 -122731720.93303204 0 0 0 0 533743572.04769325 -367288757.02479935 0 -367288757.02479935 -36519975.407410383 0 0 0 0 542634381.01174355 -763029596.56204987 0 -763029596.56204987 457840882.50931931 0 0 0 0 183159778.78129578 -735479444.50050831 0 -735479444.50050831 1249523755.7554359 0 0 0 0 1179717860.7652617 -1055024868.6378374 0 -1055024868.6378374 318268372.78463078 0 0 0 0 3046701.5892080702 -3123964.0331284972 0 -3123964.0331284972 985776.85120108677 0 0 0 0 990495856.8470794 -202141721.49012017 0 -202141721.49012017 -557700551.76114845 0 0 0 0 -852071.29777273396 -3689355.3095374098 0 -3689355.3095374098 7439546.8914133012 0 0 0 0 779315207.07091677 -1127663756.1883624 0 -1127663756.1883624 462193373.4254818 0 0 0 0 -415268530.5112834 306221505.60265326 0 306221505.60265326 829741857.46243858 0 0 0 0 -343409402.03862411 23598962.429268122 0 23598962.429268122 1355195674.0401907 0 0 0 0 -238463202.13883209 70919521.608150482 0 70919521.608150482 -26710622.240839198 0 0 0 0 -387842286.87371492 -53916233.347392797 0 -53916233.347392797 851283337.66208363 0 0 0 0 -445635.09721775958 -7644469.3627462722 0 -7644469.3627462722 13639885.320006128 0 0 0 0 -579669263.09048128 -772797047.1972506 0 -772797047.1972506 -43858938.829131722 0 0 0 0 -475640379.84663922 -468030453.81291604 0 -468030453.81291604 -41370794.949375153 0 0 0 0 -1476864.2716975212 -245208988.76669741 0 -245208988.76669741 -82468355.179573596 0 0 0 0 -271380981.55782872 -35226296.576790214 0 -35226296.576790214 436543687.20785618 0 0 0 0 -162957973.94233322 -548910198.19368219 0 -548910198.19368219 915497759.53186226 0 0 0 0 274712816.36647797 -372041560.97163486 0 -372041560.97163486 355928764.00191212 0 0 0 0 -71852149.937963009 -85323192.392306924 0 -85323192.392306924 158986089.04531479 0 0 0 0 585391276.10121632 -205904932.96648169 0 -205904932.96648169 -107549821.93626404 0 0 0 0 515735127.21349001 -393569991.44865108 0 -393569991.44865108 39367350.024998665 0 0 0 0 489126988.22319412 -335970605.50982189 0 -335970605.50982189 35090215.043738067 0 0 0 0 283101219.17506909 -388714780.44936746 0 -388714780.44936746 172665917.38089848 0 0 0 0 491081043.81063461 -493313118.99682045 0 -493313118.99682045 223042379.23634052 0 0 0 0 703091297.15356064 -701557294.74087417 0 -701557294.74087417 186384357.1403867 0 0 0 0 402376898.09271812 -537267858.38301206 0 -537267858.38301206 203603041.9739787 0 0 0 0 262709098.60698247 -680280383.25864816 0 -680280383.25864816 500862353.08100092 0 0 0 0 -72401083.089793682 -633061961.34761143 0 -633061961.34761143 545186030.0463233 0 0 0 0 1345094158.1090949 -776237123.03529394 0 -776237123.03529394 161589203.59683371 0 0 0 0 469991635.94975853 -1114664877.274909 0 -1114664877.274909 673350093.38275456 0 0 0 0 -287364445.43268394 -264308837.28534222 0 -264308837.28534222 716630938.23688865 0 0 0 0 111706529.99026585 -337219652.41008353 0 -337219652.41008353 -469886528.74744177 0 0 0 0 9100041.7173601165 -15446391.349584531 0 -15446391.349584531 1915073.7106135553 0 0 0 0 2578425.1394772846 -2975461.0868736114 0 -2975461.0868736114 2177266.3215149087 0 0 0 0 184628312.26519966 -416152593.11790526 0 -416152593.11790526 -1019181035.2719858 0 0 0 0 12577068.362675469 -12087990.491248645 0 -12087990.491248645 -108309.92662571295 0 0 0 0 -167880656.51550016 -250625802.57630634 0 -250625802.57630634 98437483.935695171 0 0 0 0 -54721002.775767207 -752002828.40143204 0 -752002828.40143204 562060954.1329267 0 0 0 0 40311792.790046692 -647459934.60942388 0 -647459934.60942388 56361542.479036249 0 0 0 0 -154328778.69637489 -456450161.51250684 0 -456450161.51250684 414633531.97642642 0 0 0 0 -16700613.087431788 -665145579.06642294 0 -665145579.06642294 562705536.92811453 0 0 0 0 206644742.3759011 -1127659311.3824818 0 -1127659311.3824818 1226594923.4579954 0 0 0 0 1172751819.0538006 -121215961.55497646 0 -121215961.55497646 243067511.25077558 0 0 0 0 1087571853.313412 -950710243.50430965 0 -950710243.50430965 396400455.15778995 0 0 0 0 1355050325.0875278 -362200979.09203118 0 -362200979.09203118 -84504635.054453403 0 0 0 0 206769140.67699134 -394072973.88284385 0 -394072973.88284385 44961288.783811212 0 0 0 0 -137006919.36449778 -53935856.29492265 0 -53935856.29492265 -619587154.4289186 0 0 0 0 482790744.34068036 -648225337.43118858 0 -648225337.43118858 -325632440.64498234 0 0 0 0 312742700.72382325 154515724.95242324 0 154515724.95242324 -340526905.85613227 0 0 0 0 955102159.89169025 -21122266.789501548 0 -21122266.789501548 -704241822.64006853 0 0 0 0 -453368535.25578022 148358479.73956609 0 148358479.73956609 -675349489.6146636 0 0 0 0 380959568.82733011 -436596626.25954413 0 -436596626.25954413 -1785455091.4928753 0 0 0 0 12733359.966423081 -8304073.7134707598 0 -8304073.7134707598 -1026565.1780361059 0 0 0 0 2177449824.0354309 -188150695.76249626 0 -188150695.76249626 -458402484.11095768 0 0 0 0 2183409947.2519517 120910409.70240825 0 120910409.70240825 -1234381582.9144845 0 0 0 0 1207297656.5655332 703876269.82048607 0 703876269.82048607 -1552428161.2461789 0 0 0 0 5913935.3901820537 -2904632.5173587566 0 -2904632.5173587566 -595982.9489213333 0 0 0 0 305290597.3704071 -411907230.66692019 0 -411907230.66692019 422073229.68673205 0 0 0 0 1031993163.6992083 602832411.34707701 0 602832411.34707701 -901441772.83953464 0 0 0 0 1955567683.2446136 90104605.269443139 0 90104605.269443139 -664348155.17010999 0 0 0 0 2205295680.7846518 190570122.05372828 0 190570122.05372828 -941528471.40290082 0 0 0 0 1477644745.9136839 239220956.42644426 0 239220956.42644426 -510796087.21715999 0 0 0 0 2204131812.3205829 -281742004.71356487 0 -281742004.71356487 -155972221.07824025 0 0 0 0 1570097621.0375395 -199209252.62026799 0 -199209252.62026799 151739906.22240451 0 0 0 0 2205075158.6610088 -558994324.42338443 0 -558994324.42338443 308459591.63946563 0 0 0 0 1702180497.8824492 -750565614.60110545 0 -750565614.60110545 499990525.86769092 0 0 0 0 1392852000.2834415 -511863625.48482835 0 -511863625.48482835 749972388.5984621 0 0 0 0 1255059168.1146243 -1063391144.8227525 0 -1063391144.8227525 645990919.04791415 0 0 0 0 1274318107.5755982 -704143855.39596033 0 -704143855.39596033 -695075255.6361953 0 0 0 0 -385422954.11863863 -327145395.15926754 0 -327145395.15926754 1588526594.9274817 0 0 0 0 -346560.46085399901 -3842325.3920858763 0 -3842325.3920858763 7159055.0558677539 0 0 0 0 1699611011.2964945 -780439080.26870251 0 -780439080.26870251 697320197.27998626 0 0 0 0 2071949570.0110016 -772843917.73292947 0 -772843917.73292947 57720280.048851609 0 0 0 0 -595452842.62684906 -240621350.12400568 0 -240621350.12400568 788201420.37647295 0 0 0 0 414595332.06026888 -345039066.7749002 0 -345039066.7749002 995393372.29756451 0 0 0 0 -3645145.9333000183 159035771.33149004 0 159035771.33149004 497704308.77429128 0 0 0 0 127044260.53128624 -773920279.33919799 0 -773920279.33919799 2422457584.5117459 0 0 0 0 1656584632.1289577 -1242335005.98527 0 -1242335005.98527 1814251727.2267487 0 0 0 0 1953799011.5412779 -476384651.27511525 0 -476384651.27511525 1400323174.2942216 0 0 0 0 2204066981.24471 -906819584.77438414 0 -906819584.77438414 1085242969.3461752 0 0 0 0 1829981351.9911575 -1156681267.4597554 0 -1156681267.4597554 921891742.20411015 0 0 0 0 2068119156.6898465 -599878943.89780688 0 -599878943.89780688 524436254.60577816 0 0 0 0 67291070.247261047 -31482161.928694725 0 -31482161.928694725 45601708.232320458 0 0 0 0 64987412.894035339 -39628448.796539783 0 -39628448.796539783 34405522.930026054 0 0 0 0 57728170.478126526 -43323709.817745686 0 -43323709.817745686 34497095.210927337 0 0 0 0 109115806.62901306 -37324043.795969009 0 -37324043.795969009 14924791.553372383 0 0 0 0 118995698.78726864 -17209123.030576468 0 -17209123.030576468 14122079.454393387 0 0 0 0 119080611.81121826 -26206182.862226963 0 -26206182.862226963 10699953.101771355 0 0 0 0 103932932.76469421 -18592388.976103306 0 -18592388.976103306 10396368.731552124 0 0 0 0 89011269.154624939 -26044294.919745445 0 -26044294.919745445 28250669.620944023 0 0 0 0 67333003.311323971 -35067287.443920776 0 -35067287.443920776 24606175.728061676 0 0 0 0 111986136.82142639 -17884517.718269348 0 -17884517.718269348 6407322.9119234085 0 0 0 0 27718049.54101944 -10824116.351080894 0 -10824116.351080894 -20658752.738399029 0 0 0 0 53764103.707359806 -2830663.7616697117 0 -2830663.7616697117 -5427384.7179209739 0 0 0 0 91935875.665435791 -13422087.370241165 0 -13422087.370241165 8857893.0272293091 0 0 0 0 61435670.384162903 -39389645.237786293 0 -39389645.237786293 -25449584.479670525 0 0 0 0 34024228.540237427 -266526.05555438995 0 -266526.05555438995 -30822365.767902374 0 0 0 0 -25570744.075027466 29427971.690109253 0 29427971.690109253 -41329322.482243299 0 0 0 0 -18471098.854129791 -44814924.587112427 0 -44814924.587112427 -33217710.416407466 0 0 0 0 -22773450.819070816 -28590048.646091938 0 -28590048.646091938 -93216510.643728256 0 0 0 0 -44150557.23614502 -54120601.245930672 0 -54120601.245930672 -106425336.38524628 0 0 0 0 54733693.591204643 -43246995.918909013 0 -43246995.918909013 -46914849.601154327 0 0 0 0 -1192465.841003418 -97113920.375341415 0 -97113920.375341415 -215877237.22574615 0 0 0 0 12168568.608810425 49119628.083208084 0 49119628.083208084 -82934060.665973186 0 0 0 0 73613136.489151001 15455977.960899353 0 15455977.960899353 -179179731.80421591 0 0 0 0 62677171.8359375 -14303281.486822128 0 -14303281.486822128 46039129.39111042 0 0 0 0 65773797.283058167 -13240263.504770279 0 -13240263.504770279 21642659.582345963 0 0 0 0 53872537.281532891 -20887736.545461703 0 -20887736.545461703 -9661168.1870521195 0 0 0 0 45131457.117544174 -27805601.311286926 0 -27805601.311286926 90959325.079959869 0 0 0 0 60960187.537640244 -6961073.0696423128 0 -6961073.0696423128 -13268902.225872993 0 0 0 0 42307300.593114853 -26558228.438828945 0 -26558228.438828945 -52377739.398912668 0 0 0 0 95029567.927276611 -77607445.863455713 0 -77607445.863455713 -152313109.3646971 0 0 0 0 45250862.246704742 -26394914.604415856 0 -26394914.604415856 -7193950.2071396541 0 0 0 0 70003033.977954164 -5244225.7467393242 0 -5244225.7467393242 -23506703.157639928 0 0 0 0 65592534.875079155 79833232.217887655 0 79833232.217887655 138469344.90663528 0 0 0 0 54485627.608947754 -57250957.825072289 0 -57250957.825072289 48585588.525701523 0 0 0 0 49800636.214874268 -44714680.75387001 0 -44714680.75387001 77830228.666791916 0 0 0 0 68999351.877227783 -41590510.404316902 0 -41590510.404316902 18652525.813821793 0 0 0 0 3273059.2704620361 -59431442.062684059 0 -59431442.062684059 15220075.227143288 0 0 0 0 -156736907.86089802 94533335.24888742 0 94533335.24888742 8195720.1321020126 0 0 0 0 107259016.40041161 3142205.813334465 0 3142205.813334465 32189776.755515575 0 0 0 0 104499140.44370842 61758725.158792496 0 61758725.158792496 -312046588.13059044 0 0 0 0 65125167.010921478 -395429.58309316635 0 -395429.58309316635 -203701950.19331169 0 0 0 0 -63248357.908324718 -159540832.48639786 0 -159540832.48639786 -130648770.66273975 0 0 0 0 61707294.970626831 541561.80711364746 0 541561.80711364746 -34993167.622541428 0 0 0 0 108607305.06772041 -56395679.493359089 0 -56395679.493359089 -103852493.22260952 0 0 0 0 75436411.546421051 -60722508.239875317 0 -60722508.239875317 -947085.32032012939 0 0 0 0 136314326.20423889 -44726063.040055275 0 -44726063.040055275 -28076545.122123241 0 0 0 0 113926058.89043427 -34699976.998180866 0 -34699976.998180866 -17668677.922940254 0 0 0 0 156934752.280653 -48678004.914887905 0 -48678004.914887905 -34268271.125404358 0 0 0 0 188234774.51877213 13549110.048053265 0 13549110.048053265 -3137846.4072909355 0 0 0 0 154922876.68046188 74946268.550815582 0 74946268.550815582 26219511.116877913 0 0 0 0 59775379.985109329 1988255.0779924393 0 1988255.0779924393 10867137.11837852 0 0 0 0 139493341.51644325 -9432589.8728926182 0 -9432589.8728926182 -3480160.8671998978 0 0 0 0 18594470.973609451 473586.84864683822 0 473586.84864683822 -3217170.8121027146 0 0 0 0 134922377.45943832 -15668405.885239124 0 -15668405.885239124 -11810692.726273298 0 0 0 0 147135525.00138855 -23548518.822300076 0 -23548518.822300076 -12563320.745171547 0 0 0 0 26631958.671837799 24322598.779298086 0 24322598.779298086 7306090.6569914157 0 0 0 0 27706224.660175323 149729587.75628138 0 149729587.75628138 96192204.713251114 0 0 0 0 150887574.32172775 -43335851.821056366 0 -43335851.821056366 -58634449.752628326 0 0 0 0 187255941.87564421 -74687008.004517436 0 -74687008.004517436 -63899738.339302063 0 0 0 0 11354489.270856628 68608.347260717303 0 68608.347260717303 -2406732.5967971198 0 0 0 0 1205279.7888565063 70474665.444487333 0 70474665.444487333 -9422366.7000284195 0 0 0 0 13445271.034528732 40185391.170230389 0 40185391.170230389 -27264339.653078079 0 0 0 0 21022080.614082336 61143254.393204689 0 61143254.393204689 20249746.023112297 0 0 0 0 -46012609.120256424 35564655.410347939 0 35564655.410347939 43825522.104751587 0 0 0 0 -14020050.744529724 28725746.984165668 0 28725746.984165668 85694556.145337105 0 0 0 0 -14401394.49332428 22195771.675424099 0 22195771.675424099 15305841.062110901 0 0 0 0 29923696.520175859 21132891.358050607 0 21132891.358050607 3134157.6540066767 0 0 0 0 71871327.093200684 13337008.14367795 0 13337008.14367795 19005611.324554443 0 0 0 0 -46926141.807365775 45780324.124039292 0 45780324.124039292 21748176.429398537 0 0 0 0 -12716973.160591125 69115145.761044979 0 69115145.761044979 -49906722.599733353 0 0 0 0 965577.02809828892 17516666.326579027 0 17516666.326579027 2386925.3474712763 0 0 0 0 -27506053.245132446 35943803.320113659 0 35943803.320113659 1021393.8375062943 0 0 0 0 18892079.494370461 20290649.611428976 0 20290649.611428976 -4318143.7738428116 0 0 0 0 11782505.151855469 31351354.329630852 0 31351354.329630852 -11204012.883361816 0 0 0 0 -86044839.376720428 59994194.108995438 0 59994194.108995438 25725324.93123889 0 0 0 0 -63862535.185222626 -82191109.840788364 0 -82191109.840788364 50042108.421531677 0 0 0 0 95734500.75610733 1311706.7083513737 0 1311706.7083513737 -5341446.5982952118 0 0 0 0 60957610.854255676 -22569715.552780628 0 -22569715.552780628 9520355.9265408516 0 0 0 0 124349723.31540966 -18113220.990775585 0 -18113220.990775585 5617874.3327331543 0 0 0 0 11692091.192328695 292950.67381335981 0 292950.67381335981 -5162307.6395483185 0 0 0 0 122291631.12964725 -47233117.446239471 0 -47233117.446239471 14839705.219390869 0 0 0 0 156660162.17473602 -30682545.68792057 0 -30682545.68792057 -14337633.097790718 0 0 0 0 29606016.812344898 -5348318.2212704709 0 -5348318.2212704709 1670744.9845514093 0 0 0 0 65228406.807312012 6896416.7604441643 0 6896416.7604441643 7429234.0000710487 0 0 0 0 86978436.245285034 3009918.1603651047 0 3009918.1603651047 983161.56769943237 0 0 0 0 34451730.83622624 4186821.6665803231 0 4186821.6665803231 -3815425.5429881541 0 0 0 0 15732901.377641439 -366906.12033545971 0 -366906.12033545971 -3690898.0845451355 0 0 0 0 23590585.436904855 5074884.8199311048 0 5074884.8199311048 -244283.25032915734 0 0 0 0 13024942.955030441 -2908300.0683822632 0 -2908300.0683822632 -6348621.1841902733 0 0 0 0 15264543.37946558 951042.35087633133 0 951042.35087633133 -10062693.213222995 0 0 0 0 17793529.531464577 5223103.5584826469 0 5223103.5584826469 -11932494.63997364 0 0 0 0 18604475.81733942 2253925.3504018784 0 2253925.3504018784 -16614506.725294113 0 0 0 0 11942302.664011521 -3604473.0135902939 0 -3604473.0135902939 -763659.7939090369 0 0 0 0 32686163.682191063 30345557.226309314 0 30345557.226309314 -6529616.1294160085 0 0 0 0 17339453.867426395 7124124.5119361877 0 7124124.5119361877 -8068451.7898653746 0 0 0 0 53504531.444126129 -19903644.515739918 0 -19903644.515739918 37850430.682072639 0 0 0 0 34467518.799337499 -6169484.8144292794 0 -6169484.8144292794 -6792581.5228000768 0 0 0 0 32902602.401533686 -5846400.7387139639 0 -5846400.7387139639 -9430711.7472789194 0 0 0 0 71212472.938140869 -2222525.4115858078 0 -2222525.4115858078 -11126058.427829742 0 0 0 0 10606144.956270933 -1537382.7069206238 0 -1537382.7069206238 -9876772.0363960266 0 0 0 0 33577154.700501606 -1726484.3833425078 0 -1726484.3833425078 96337.769951169379 0 0 0 0 82301554.015640259 -26732158.701713562 0 -26732158.701713562 -39427011.509333611 0 0 0 0 113869675.78008461 -39395868.329633594 0 -39395868.329633594 -45426063.086601257 0 0 0 0 62729490.832794189 -845803.8753361702 0 -845803.8753361702 -3832704.6541595459 0 0 0 0 107873731.38258743 -64576328.984253407 0 -64576328.984253407 -25809377.097000599 0 0 0 0 21238682.244299043 -2435096.5632426394 0 -2435096.5632426394 -4711634.0344709046 0 0 0 0 51647851.101997375 -5039438.2786598206 0 -5039438.2786598206 -4031911.6961519122 0 0 0 0 62636041.916325182 -5813987.1277065352 0 -5813987.1277065352 -1852140.6687717438 0 0 0 0 29612517.207805932 -3157031.0524574779 0 -3157031.0524574779 -1741724.708940383 0 0 0 0 22562048.82573662 2932358.141988894 0 2932358.141988894 -4061699.9821876716 0 0 0 0 98659224.38338089 -20591289.408075333 0 -20591289.408075333 -8785554.2093403339 0 0 0 0 5569435.6078481823 536567.47082944959 0 536567.47082944959 -1981413.5575709604 0 0 0 0 74149946.384883881 -7536584.0144677162 0 -7536584.0144677162 -24294673.655745506 0 0 0 0 44932712.457384109 60241.751336097717 0 60241.751336097717 -25960583.250874519 0 0 0 0 18209641.104557037 -6274092.1039090157 0 -6274092.1039090157 10738519.36258316 0 0 0 0 110508172.21679878 -35889589.125144005 0 -35889589.125144005 -20685282.845705032 0 0 0 0 110570783.19206238 -4095305.715731144 0 -4095305.715731144 -61598456.281814575 0 0 0 0 70729683.642841339 -4203735.2809391022 0 -4203735.2809391022 -56710533.655330658 0 0 0 0 58722997.744607925 13373159.593034267 0 13373159.593034267 -80864609.3449049 0 0 0 0 30337645.318406105 17978904.285778105 0 17978904.285778105 -23615583.978630066 0 0 0 0 75215892.945146561 8835822.4042410851 0 8835822.4042410851 -33383344.076791763 0 0 0 0 69719983.641605377 -8020368.754565239 0 -8020368.754565239 -30878847.842599869 0 0 0 0 10827689.662952423 18409517.973724365 0 18409517.973724365 34643913.12878561 0 0 0 0 5235735.0757789612 -2774399.9296884537 0 -2774399.9296884537 12809772.551219463 0 0 0 0 3383406.3226089478 1385938.0809211731 0 1385938.0809211731 47007619.041666985 0 0 0 0 8112977.0505218506 -2257756.7382164001 0 -2257756.7382164001 16015672.836789131 0 0 0 0 394658.81872177124 9569421.9602832794 0 9569421.9602832794 7306725.3314065933 0 0 0 0 -4247282.9531517029 21996275.830107689 0 21996275.830107689 -135296.68517065048 0 0 0 0 -3276775.5706710815 16449929.783102036 0 16449929.783102036 31489018.287302971 0 0 0 0 -27838263.598899841 41689874.474836826 0 41689874.474836826 14108361.00019455 0 0 0 0 -6894455.4277114868 -3563905.1714601517 0 -3563905.1714601517 1590015.95033288 0 0 0 0 3599711.1490345001 8625390.7605586052 0 8625390.7605586052 259139.22281360626 0 0 0 0 15563347.477514263 3418569.3399544489 0 3418569.3399544489 -2287610.9072874952 0 0 0 0 12865811.304927826 -26091039.796670914 0 -26091039.796670914 -1339964.1949272156 0 0 0 0 16406454.394081116 6218370.7505779266 0 6218370.7505779266 -27417929.189333439 0 0 0 0 12846926.030564308 20176102.906545281 0 20176102.906545281 28440072.13164711 0 0 0 0 -166693059.51716232 40672366.545430183 0 40672366.545430183 -31292154.323678017 0 0 0 0 4124334.0091812089 4551080.3529336806 0 4551080.3529336806 1162345.6993771894 0 0 0 0 -28491484.604629517 145054673.56666112 0 145054673.56666112 -107373288.9946804 0 0 0 0 13318162.351634979 -16763388.248854399 0 -16763388.248854399 -120880570.19599724 0 0 0 0 13442461.843166351 -16048457.291964054 0 -16048457.291964054 -2493173.921005249 0 0 0 0 22627118.789115906 4373309.4674751759 0 4373309.4674751759 -75273265.618024826 0 0 0 0 1704786.4585050121 462214.2216116786 0 462214.2216116786 -843074.15308861993 0 0 0 0 3364697.5225223601 -2267151.6744694342 0 -2267151.6744694342 -2006648.0921780663 0 0 0 0 -19867448.65530014 372171.47767353058 0 372171.47767353058 26254931.429313779 0 0 0 0 -56061177.039039612 55624046.84961319 0 55624046.84961319 -42723392.006175041 0 0 0 0 65727056.223571777 -40144584.966047287 0 -40144584.966047287 -4870407.5184227228 0 0 0 0 -64910044.787132025 -93629116.133647799 0 -93629116.133647799 13110212.830322266 0 0 0 0 1117868.1867446899 30985057.887085438 0 30985057.887085438 -126052940.73179245 0 0 0 0 -7711178.5844333172 -53188868.606884062 0 -53188868.606884062 -60185557.839738846 0 0 0 0 276510359.46705151 -28844887.042313814 0 -28844887.042313814 -70219742.482524872 0 0 0 0 190060414.62468719 161185737.04274845 0 161185737.04274845 -51986830.744811893 0 0 0 0 5210487.4887061119 65651964.510844231 0 65651964.510844231 22986161.322200775 0 0 0 0 106031387.11236382 -39844836.218469143 0 -39844836.218469143 -28372215.597686768 0 0 0 0 40646591.346759796 -42590303.922470093 0 -42590303.922470093 17933709.358719826 0 0 0 0 132400615.34710503 -125595828.60172677 0 -125595828.60172677 83410719.047115326 0 0 0 0 952831.35559315234 -394005.78880793275 0 -394005.78880793275 -433174.73731400399 0 0 0 0 42834265.799953461 -12673155.358878613 0 -12673155.358878613 -64067941.243346214 0 0 0 0 55489850.483778 58132529.398607016 0 58132529.398607016 -69103944.555623055 0 0 0 0 176902345.21909714 -43071206.412147522 0 -43071206.412147522 -29507056.35206604 0 0 0 0 33912707.845431961 -12180639.236443192 0 -12180639.236443192 -10083497.027882557 0 0 0 0 51473221.234886169 -30094875.462467909 0 -30094875.462467909 3734027.9816596508 0 0 0 0 67384221.108253479 47645133.898770496 0 47645133.898770496 25320277.626322031 0 0 0 0 148624049.37533569 35289639.643657506 0 35289639.643657506 -19103371.34431386 0 0 0 0 -72648839.045837402 -27698811.644254029 0 -27698811.644254029 -27448808.095921636 0 0 0 0 -60159332.642629623 -60835331.725646883 0 -60835331.725646883 27060816.283759117 0 0 0 0 -47599917.997627258 -51259586.103833139 0 -51259586.103833139 -10513406.543815613 0 0 0 0 -16311533.588050842 -58137862.746202886 0 -58137862.746202886 -20387968.504958749 0 0 0 0 34039351.450274795 -13435157.918802068 0 -13435157.918802068 -8209999.5621364294 0 0 0 0 -60111023.20753479 -61829023.721161515 0 -61829023.721161515 -556500.12716442347 0 0 0 0 97532951.678153992 8368077.4182901978 0 8368077.4182901978 -7008575.6038199961 0 0 0 0 -25701979.38243103 -46215847.845678329 0 -46215847.845678329 -50358932.117767334 0 0 0 0 24197365.214323789 5436188.4862688147 0 5436188.4862688147 2404200.5551294675 0 0 0 0 30671903.110451877 30734003.864110172 0 30734003.864110172 -50360524.825660706 0 0 0 0 29638101.035106659 -122187036.40693426 0 -122187036.40693426 2788733.7650580406 0 0 0 0 5527710.2365682982 -1222705.8187168622 0 -1222705.8187168622 -689213.45119429938 0 0 0 0 18327776.46179755 3227409.9999299403 0 3227409.9999299403 -502789.70505873859 0 0 0 0 -33535518.349988937 -90254977.200131893 0 -90254977.200131893 19637392.59478569 0 0 0 0 29706635.943569183 -57845810.878808975 0 -57845810.878808975 -52139046.866140366 0 0 0 0 -665364.59795379639 -81331897.745150596 0 -81331897.745150596 -41776515.257340133 0 0 0 0 45385953.04218331 -10077320.842779253 0 -10077320.842779253 -4700398.9301650925 0 0 0 0 85965659.548144817 -5925910.0351798534 0 -5925910.0351798534 -9040065.6322689056 0 0 0 0 150136387.0996623 45507711.16581893 0 45507711.16581893 -29017335.497605324 0 0 0 0 -162169415.96191025 -125346772.14453077 0 -125346772.14453077 -51380832.003008842 0 0 0 0 5699373.3567222971 1068225.5645175148 0 1068225.5645175148 -129097.48519611359 0 0 0 0 -143332455.30579853 -61446294.677001238 0 -61446294.677001238 14087785.959728241 0 0 0 0 87370642.714157104 -13654092.42875576 0 -13654092.42875576 -38496651.613840103 0 0 0 0 -23670309.454742432 -67985130.931415081 0 -67985130.931415081 72042403.940012932 0 0 0 0 -29964407.510906219 -36413485.987802029 0 -36413485.987802029 -51093033.629441261 0 0 0 0 55132960.378929138 -71663700.672359452 0 -71663700.672359452 -94044142.627977461 0 0 0 0 69194374.373168945 -105664435.02790189 0 -105664435.02790189 -86123988.728825241 0 0 0 0 608313.614112854 -75872795.174067676 0 -75872795.174067676 -25077557.07698077 0 0 0 0 40210403.830666542 -90246423.591942579 0 -90246423.591942579 48070917.102492452 0 0 0 0 40633343.67080307 -90941138.596419156 0 -90941138.596419156 -20712544.238054216 0 0 0 0 -15699524.116018772 -65149319.132466123 0 -65149319.132466123 45381639.706793547 0 0 0 0 33544809.598686218 -32899395.874774158 0 -32899395.874774158 6994068.8263883591 0 0 0 0 47222212.069389343 -54896781.427051723 0 -54896781.427051723 26973773.819504797 0 0 0 0 74029550.792150497 -6558795.1959627867 0 -6558795.1959627867 101206774.37176502 0 0 0 0 154715074.08763123 -112617104.27166551 0 -112617104.27166551 6004993.3604520559 0 0 0 0 83482892.890197754 -127222626.27844912 0 -127222626.27844912 79665956.408779651 0 0 0 0 132224591.722229 -24713851.343214184 0 -24713851.343214184 94983834.401175231 0 0 0 0 474648274.59658051 -93128353.599403292 0 -93128353.599403292 77047752.418313742 0 0 0 0 161184975.35413933 6507308.4737173021 0 6507308.4737173021 263677319.53434491 0 0 0 0 1442208.6028170586 -652086.74596659839 0 -652086.74596659839 794040.26155990339 0 0 0 0 446446079.72190857 302494158.79259938 0 302494158.79259938 261752568.42749989 0 0 0 0 22506315.798400879 -253078990.73363841 0 -253078990.73363841 -30899128.720847815 0 0 0 0 137140991.18869781 175162141.96961492 0 175162141.96961492 155105855.69997254 0 0 0 0 90575286.412185669 82030857.516482025 0 82030857.516482025 153875807.10865849 0 0 0 0 308699110.77008438 -36109972.307043746 0 -36109972.307043746 -47121893.963370025 0 0 0 0 46089690.652130127 -74839077.453936532 0 -74839077.453936532 -131711029.0276272 0 0 0 0 150158845.29017639 -107617948.04701266 0 -107617948.04701266 -143059425.67634454 0 0 0 0 112208086.30305099 -77367911.000642627 0 -77367911.000642627 -23206555.744142115 0 0 0 0 61507679.783372879 -103824553.91765893 0 -103824553.91765893 -27911755.862121701 0 0 0 0 88722553.362365723 12092268.238640845 0 12092268.238640845 -57603421.640918344 0 0 0 0 -472270748.34739685 -292874625.7508409 0 -292874625.7508409 9583943.6725231409 0 0 0 0 -1732303.9617586136 -47643844.605427176 0 -47643844.605427176 -170967745.23861873 0 0 0 0 116002070.79259491 -59754560.592036009 0 -59754560.592036009 -149380646.35750622 0 0 0 0 -222444111.03286743 -216526800.27234054 0 -216526800.27234054 -168111580.89950264 0 0 0 0 -107613427.55126953 1962723.6485546231 0 1962723.6485546231 -115453919.16217452 0 0 0 0 64830921.834270477 -90703432.421783075 0 -90703432.421783075 -175303390.87325996 0 0 0 0 115757443.25110626 178124675.84874329 0 178124675.84874329 87041444.288189024 0 0 0 0 100566168.89076996 -119716195.97609365 0 -119716195.97609365 -181726884.71691987 0 0 0 0 1150345.6995506883 783941.12926828489 0 783941.12926828489 429459.96074901684 0 0 0 0 4810044.6927182674 -1352623.1293320432 0 -1352623.1293320432 1342731.857182519 0 0 0 0 106180547.35460281 18915506.317678273 0 18915506.317678273 -2878666.2779335976 0 0 0 0 16522802.200942993 74042698.203420818 0 74042698.203420818 -26236160.055420339 0 0 0 0 129277486.78668213 16147191.310518146 0 16147191.310518146 -22441942.735048592 0 0 0 0 -1223314.7990188599 73449313.591594934 0 73449313.591594934 -43434922.951765239 0 0 0 0 70204981.278871059 178664298.22074863 0 178664298.22074863 168398554.09165174 0 0 0 0 8583342.7684663087 -1091222.7007093877 0 -1091222.7007093877 1057048.1608117456 0 0 0 0 7165104.8664763272 2377809.9616729356 0 2377809.9616729356 -595157.81034875149 0 0 0 0 125135286.6659236 184945775.71853533 0 184945775.71853533 -31841771.349632699 0 0 0 0 14068984.047734216 697610.93672111258 0 697610.93672111258 -360956.59648729995 0 0 0 0 67604740.749720573 160703498.99585998 0 160703498.99585998 62597802.38943994 0 0 0 0 -1626171.1547470093 -33989628.148059607 0 -33989628.148059607 17546331.774919361 0 0 0 0 114938885.39743042 -116447792.13443738 0 -116447792.13443738 -29591472.504840452 0 0 0 0 68895757.802963257 98341731.929226145 0 98341731.929226145 -23415314.574584518 0 0 0 0 -253636381.30387115 232141500.08885443 0 232141500.08885443 381701519.9437809 0 0 0 0 120198013.4823277 -18777785.670853138 0 -18777785.670853138 -104229554.04592609 0 0 0 0 84782437.070701599 77840336.68003881 0 77840336.68003881 -87904556.282796621 0 0 0 0 32402910.509403229 -3948507.1696953773 0 -3948507.1696953773 183699102.19831419 0 0 0 0 140143560.40022278 45542531.356363118 0 45542531.356363118 -234156044.19795799 0 0 0 0 67173348.540599272 -1561972.8626192538 0 -1561972.8626192538 -607137.63205464894 0 0 0 0 48557524.692954063 -89180992.982727051 0 -89180992.982727051 44269701.178119659 0 0 0 0 54454201.111850977 -69242908.904621243 0 -69242908.904621243 75601581.698302269 0 0 0 0 130490202.13976669 14318436.360620141 0 14318436.360620141 -299955037.84058774 0 0 0 0 62522020.851973653 -654932.83190360595 0 -654932.83190360595 -1086834.9261269916 0 0 0 0 65443336.591804504 -6042821.4648571014 0 -6042821.4648571014 -3432490.9165554047 0 0 0 0 80760828.169116974 -15829720.453695297 0 -15829720.453695297 -78195816.41264534 0 0 0 0 44959049.73810482 -62677352.769782543 0 -62677352.769782543 -19440323.191619873 0 0 0 0 66136045.088215113 -11790323.888499737 0 -11790323.888499737 -86161272.892166138 0 0 0 0 56782315.552942276 -13194290.397644043 0 -13194290.397644043 -72427820.44479084 0 0 0 0 71998688.871155739 19355770.136494637 0 19355770.136494637 -184473690.41673374 0 0 0 0 53241218.090294838 10853282.16803503 0 10853282.16803503 -185171699.16237831 0 0 0 0 122879214.10097647 -39247454.893071175 0 -39247454.893071175 -96971515.45268631 0 0 0 0 36375093.684812546 -10339651.772360802 0 -10339651.772360802 -87737321.479711056 0 0 0 0 73559514.080733299 -19104643.784929276 0 -19104643.784929276 -217986499.93693542 0 0 0 0 80267672.681565523 18836005.524154902 0 18836005.524154902 -254160768.89377594 0 0 0 0 -8643314.2846221924 45204371.585211754 0 45204371.585211754 -162933530.50222015 0 0 0 0 11602722.321293592 89212462.82811594 0 89212462.82811594 -247099206.66320419 0 0 0 0 90333735.266248941 84247927.514728546 0 84247927.514728546 -359617904.85470009 0 0 0 0 33504602.336334661 9295888.2031912059 0 9295888.2031912059 -5118306.5571917612 0 0 0 0 9984106.1660060883 33300618.079172134 0 33300618.079172134 -94748442.142326355 0 0 0 0 7942791.14706707 -51605037.125490189 0 -51605037.125490189 -234804321.82820511 0 0 0 0 21183894.335199356 -48633728.644640923 0 -48633728.644640923 -55685957.631093621 0 0 0 0 33848137.543338776 -18501902.88455677 0 -18501902.88455677 -50108623.44809711 0 0 0 0 6548229.6073970795 -43733893.845825911 0 -43733893.845825911 -53511039.977468967 0 0 0 0 30986305.172683716 -49820506.945985727 0 -49820506.945985727 -136720357.62503871 0 0 0 0 33233520.134368896 -31801212.328383207 0 -31801212.328383207 -16903188.714816093 0 0 0 0 51305248.875263877 -6684020.7889739163 0 -6684020.7889739163 -3579351.9761622371 0 0 0 0 142854031.6203804 -38463629.611798957 0 -38463629.611798957 -302486220.88645411 0 0 0 0 156252533.28535843 19223991.104976401 0 19223991.104976401 -304570449.18603832 0 0 0 0 57245809.070158459 -2054331.9149397877 0 -2054331.9149397877 -1948179.4733691621 0 0 0 0 62622266.986522675 -44134732.374482155 0 -44134732.374482155 14750217.111367077 0 0 0 0 59335258.252250671 -14010156.102223873 0 -14010156.102223873 -32856976.120062828 0 0 0 0 62297031.253389359 -29053101.748249054 0 -29053101.748249054 -47360283.977261543 0 0 0 0 67325754.026023865 -36559863.743556976 0 -36559863.743556976 -43981874.703065395 0 0 0 0 63222087.429531097 -16834210.957603455 0 -16834210.957603455 -53088654.660535812 0 0 0 0 53774340.619472504 -23072848.267498493 0 -23072848.267498493 -56828894.144528389 0 0 0 0 49672972.965021923 -3705391.0286569977 0 -3705391.0286569977 -20977029.504520141 0 0 0 0 245104733.48061562 15842636.86217165 0 15842636.86217165 -57365701.766701698 0 0 0 0 36380263.113294601 -21222260.217483044 0 -21222260.217483044 -46143443.965052605 0 0 0 0 49103332.970759869 -34091398.861648798 0 -34091398.861648798 -57063987.199754715 0 0 0 0 160380519.86740112 235028457.0849452 0 235028457.0849452 56347032.450199127 0 0 0 0 54244046.568746895 -5530253.98749418 0 -5530253.98749418 -19724853.212125342 0 0 0 0 235733956.79031944 67792468.422278643 0 67792468.422278643 -215127785.774786 0 0 0 0 80585817.851057053 24085984.765612602 0 24085984.765612602 15865235.625697017 0 0 0 0 -78147042.042636871 181994911.29287791 0 181994911.29287791 51305654.259677887 0 0 0 0 85420127.953065872 1823051.5215013027 0 1823051.5215013027 -125453827.31143665 0 0 0 0 163157056.70092392 126682293.44432354 0 126682293.44432354 -236358573.01351929 0 0 0 0 -154437668.70403099 -341777621.99943876 0 -341777621.99943876 29907480.664779782 0 0 0 0 3602293.8914581481 1982511.2515520863 0 1982511.2515520863 -6848389.1137486221 0 0 0 0 101313381.48743439 -65340545.325397015 0 -65340545.325397015 -284831542.07535791 0 0 0 0 102357398.95349789 -109891540.62352228 0 -109891540.62352228 466919911.63611412 0 0 0 0 422900402.99782562 155629794.59140444 0 155629794.59140444 -79868827.993820131 0 0 0 0 369597670.87734222 -249712542.70700598 0 -249712542.70700598 -46025754.140249252 0 0 0 0 19730904.726783752 -68822841.328688145 0 -68822841.328688145 -78819343.797520161 0 0 0 0 429760025.95836174 -299504357.71398091 0 -299504357.71398091 -38777499.574099541 0 0 0 0 458460732.54784775 209583168.13432932 0 209583168.13432932 -36786923.101182938 0 0 0 0 63628484.560728073 3868574.1152038574 0 3868574.1152038574 -61147146.976576328 0 0 0 0 4615919.4663903117 -8168623.3844011305 0 -8168623.3844011305 -7184262.8961099461 0 0 0 0 50008888.800908625 410444.63093361445 0 410444.63093361445 -21926905.188536428 0 0 0 0 20842215.894874573 -53530352.063824177 0 -53530352.063824177 -31782157.629309654 0 0 0 0 68252919.549119949 6503860.210051775 0 6503860.210051775 -95990210.132232666 0 0 0 0 10788380.652226448 -21912794.299945116 0 -21912794.299945116 -76109183.731432915 0 0 0 0 8135733.6962550581 -4395744.1447641049 0 -4395744.1447641049 -10306255.65083929 0 0 0 0 30513349.964188434 12971662.656031039 0 12971662.656031039 -14472045.048549518 0 0 0 0 44139831.662979126 -22069456.64051199 0 -22069456.64051199 -49551506.963972092 0 0 0 0 55218982.554836035 -41162460.916885942 0 -41162460.916885942 -26400241.065635681 0 0 0 0 200397837.61130142 228168197.86249733 0 228168197.86249733 139366219.20517159 0 0 0 0 -101382729.0244751 -40440068.356071472 0 -40440068.356071472 -59881803.100121975 0 0 0 0 58506808.649490356 -11040253.74825573 0 -11040253.74825573 -137385624.5431385 0 0 0 0 3167601.660711199 -530463.9682749944 0 -530463.9682749944 -3259474.7923061466 0 0 0 0 67447392.10848999 81001021.941467762 0 81001021.941467762 12278067.434728622 0 0 0 0 224514780.50493622 119816418.07204819 0 119816418.07204819 -35921290.815659285 0 0 0 0 219654841.72790718 76982215.589036703 0 76982215.589036703 -84478844.872170448 0 0 0 0 148095263.55984879 -60261058.034648716 0 -60261058.034648716 9448759.8995146751 0 0 0 0 231717476.98018265 39201328.356190205 0 39201328.356190205 -35978039.422046185 0 0 0 0 44304074.965583801 28203525.647482157 0 28203525.647482157 -110139919.56161916 0 0 0 0 10205166.516782567 -344023.88445417956 0 -344023.88445417956 -9388476.2376500219 0 0 0 0 29226885.036073685 3057452.8688765764 0 3057452.8688765764 -41872446.705962181 0 0 0 0 26895986.698806763 -932395.72548675537 0 -932395.72548675537 -1556613.89529562 0 0 0 0 113124187.07685852 590219514.15578508 0 590219514.15578508 -331713563.96134502 0 0 0 0 -203793957.84979057 -73554669.761562526 0 -73554669.761562526 107277351.9489634 0 0 0 0 832421.65298640728 780167.95800195355 0 780167.95800195355 -1704288.9497661334 0 0 0 0 148680294.97744751 152769669.61153293 0 152769669.61153293 49968476.411100864 0 0 0 0 232239851.06346869 110664367.19532853 0 110664367.19532853 -50070415.892409325 0 0 0 0 436442512.95186234 89654390.148383796 0 89654390.148383796 -81634086.441177428 0 0 0 0 394309899.63396835 429665913.59971452 0 429665913.59971452 34403511.105264544 0 0 0 0 354856670.90960312 -116196675.68802002 0 -116196675.68802002 -4318761.5532270372 0 0 0 0 1171272.5694461577 169721.83330563642 0 169721.83330563642 -614977.19727825699 0 0 0 0 173946260.07566833 73386776.108087659 0 73386776.108087659 -68670327.466478825 0 0 0 0 102533035.68178558 -17266763.601994634 0 -17266763.601994634 -181443824.43624389 0 0 0 0 123702285.83703613 -102220617.21854126 0 -102220617.21854126 141850339.37281454 0 0 0 0 213675303.4947319 224429149.17247742 0 224429149.17247742 163094317.27896929 0 0 0 0 8145185.5295355171 4777041.7096774578 0 4777041.7096774578 -12190849.675020795 0 0 0 0 -77501898.04983139 26074944.248894215 0 26074944.248894215 101237628.2642808 0 0 0 0 -76576538.745029449 -108738608.33861423 0 -108738608.33861423 -28920098.930085659 0 0 0 0 66727059.581404686 14048125.904855609 0 14048125.904855609 -22416340.965630531 0 0 0 0 132296773.7541666 -9395202.8379127383 0 -9395202.8379127383 -59717883.082525253 0 0 0 0 10568185.838020325 -39392992.233428955 0 -39392992.233428955 38211899.409020424 0 0 0 0 45259889.046276093 -42356215.911269665 0 -42356215.911269665 -1061233.7745676041 0 0 0 0 29991738.197933197 -22348892.415685654 0 -22348892.415685654 -24785710.148645401 0 0 0 0 31855324.118268967 49120795.179219723 0 49120795.179219723 54663337.01762116 0 0 0 0 -151975062.27932739 -28014994.491325855 0 -28014994.491325855 9581907.3205580711 0 0 0 0 64579841.645187378 135127538.78369999 0 135127538.78369999 -161696428.61687088 0 0 0 0 227176255.8701992 131114123.1068337 0 131114123.1068337 -117863315.10809708 0 0 0 0 107249972.50291824 67356969.333697796 0 67356969.333697796 -77146259.807269901 0 0 0 0 123451637.61376953 23558380.624756336 0 23558380.624756336 -101916096.78952789 0 0 0 0 131135460.32332611 14166640.859321594 0 14166640.859321594 -249921083.59903097 0 0 0 0 20483585.799419403 16414347.767605782 0 16414347.767605782 -35379917.607017517 0 0 0 0 9364178.7014541626 8317464.3951587677 0 8317464.3951587677 -16300169.995105743 0 0 0 0 12533351.152496338 1965541.879981041 0 1965541.879981041 -48833180.063362122 0 0 0 0 14683449.389034271 17842220.573547363 0 17842220.573547363 -30002796.813657761 0 0 0 0 16994251.756276131 37884427.008909941 0 37884427.008909941 -25852073.406504631 0 0 0 0 13780700.96396637 35669317.258312225 0 35669317.258312225 -25937700.416880608 0 0 0 0 -17225562.594566345 42965963.219406128 0 42965963.219406128 -43481549.815300733 0 0 0 0 12058628.856164455 -34902898.686697006 0 -34902898.686697006 -22048079.601585388 0 0 0 0 37451484.188117981 31851044.70758152 0 31851044.70758152 -43684189.730831146 0 0 0 0 20379220.262302399 11886713.155826569 0 11886713.155826569 -91016409.70906353 0 0 0 0 2036941.5376491547 -20424722.35287571 0 -20424722.35287571 -43139465.853997231 0 0 0 0 3485062.6619892549 3506727.8991964925 0 3506727.8991964925 -3005986.1748428382 0 0 0 0 6976815.308506012 22953848.922552109 0 22953848.922552109 -34047175.295918465 0 0 0 0 -25999462.40139389 61072100.382775307 0 61072100.382775307 -50635422.596678734 0 0 0 0 45392422.020804405 1478391.8769379854 0 1478391.8769379854 -49540461.14270401 0 0 0 0 27865603.468925476 48360502.377726555 0 48360502.377726555 -81691894.948217392 0 0 0 0 22531249.272876408 17794005.110106319 0 17794005.110106319 -1128401.2085770918 0 0 0 0 16541312.384313583 15485592.934111595 0 15485592.934111595 -42499871.282572746 0 0 0 0 24560681.969827846 -1885783.4009693386 0 -1885783.4009693386 -12306881.378150474 0 0 0 0 -42036648.902177334 -30235326.396670341 0 -30235326.396670341 -16083595.50412941 0 0 0 0 41143763.700562932 7708874.9839884806 0 7708874.9839884806 -13637118.634988582 0 0 0 0 9169152.7679328918 5326091.1670837402 0 5326091.1670837402 -17201044.625711918 0 0 0 0 23546561.350830078 13990905.881646156 0 13990905.881646156 -35719036.850445986 0 0 0 0 22533343.837355386 -2299411.1629909263 0 -2299411.1629909263 -17578830.006164789 0 0 0 0 25075114.032258987 -2448833.1267061234 0 -2448833.1267061234 -22498084.633519173 0 0 0 0 27848436.029335022 7734606.5106101036 0 7734606.5106101036 -32467370.247052431 0 0 0 0 19195074.588767521 6046026.4039538484 0 6046026.4039538484 -11807613.412882984 0 0 0 0 33929302.761160612 -26744822.08906877 0 -26744822.08906877 -28053850.922378778 0 0 0 0 10457513.021286011 5168778.993183136 0 5168778.993183136 -9653122.5485534668 0 0 0 0 1517043.1503360942 -2645639.3939525625 0 -2645639.3939525625 -7456870.5259879353 0 0 0 0 130352304.03418732 -95060546.608946249 0 -95060546.608946249 -784368617.29310369 0 0 0 0 -135603858.02204895 765906245.81242108 0 765906245.81242108 322356058.81792843 0 0 0 0 1048994592.7251415 -779293054.40932989 0 -779293054.40932989 -415238939.31422246 0 0 0 0 -633049134.96358871 -405520316.09021479 0 -405520316.09021479 848222973.88270736 0 0 0 0 -769984373.85329819 -25881604.645829439 0 -25881604.645829439 186543293.84692001 0 0 0 0 9980634.5511722565 -1179074.3326151371 0 -1179074.3326151371 -8349156.1992082596 0 0 0 0 17977003.075138018 -3100328.2687935308 0 -3100328.2687935308 -9908725.7841800414 0 0 0 0 -168619496.77537537 -64051369.102862746 0 -64051369.102862746 -248391988.42526484 0 0 0 0 4092220.5296525955 -824962.33631837368 0 -824962.33631837368 -12569556.635343552 0 0 0 0 17473241.05160084 -1183557.7949636132 0 -1183557.7949636132 -7998757.1408352302 0 0 0 0 5711244.7442626953 230989.69005870819 0 230989.69005870819 -6053491.3435516357 0 0 0 0 5096369.834707275 718821.59480616613 0 718821.59480616613 -12106836.07963009 0 0 0 0 10467155.700596645 2653886.674082052 0 2653886.674082052 -8518247.1737855226 0 0 0 0 13975154.784507822 1866904.6925324164 0 1866904.6925324164 -6660983.6777661778 0 0 0 0 10260414.496875763 5557454.9162628651 0 5557454.9162628651 -9544220.6271438599 0 0 0 0 10659404.23815155 5177606.2610359192 0 5177606.2610359192 -9746110.6839456558 0 0 0 0 7787870.0473929271 8756699.5616583899 0 8756699.5616583899 -14949262.977120636 0 0 0 0 11147622.997211456 3510727.509373188 0 3510727.509373188 -5832012.9120688438 0 0 0 0 5477203.7808734626 -3080480.1068036365 0 -3080480.1068036365 -7983498.8420728417 0 0 0 0 5194976.8439738601 2145289.4825805519 0 2145289.4825805519 -4610749.9447472412 0 0 0 0 3895190.8165850639 -590890.9202324152 0 -590890.9202324152 -9787153.8635087013 0 0 0 0 2869415.1056690216 -3179794.4643144608 0 -3179794.4643144608 -25709374.595654488 0 0 0 0 8565125.9057197571 -1916033.132381916 0 -1916033.132381916 -16547299.182979584 0 0 0 0 8745607.4967618659 1262869.0314810276 0 1262869.0314810276 -6185852.7752319556 0 0 0 0 6991025.1222572327 -2600794.2934333086 0 -2600794.2934333086 -14805354.22327137 0 0 0 0 922473.99590950459 -2107063.7316287784 0 -2107063.7316287784 -2387263.1732086493 0 0 0 0 10138351.334789276 -6370919.5374679565 0 -6370919.5374679565 -42860372.000320435 0 0 0 0 13686274.684642792 -4363807.1925592422 0 -4363807.1925592422 -52927176.562589645 0 0 0 0 -34849674.048770905 -73779797.917456627 0 -73779797.917456627 187822574.97002912 0 0 0 0 -8018943.4996299744 -95589659.679629326 0 -95589659.679629326 75185173.120214462 0 0 0 0 2355644.0262737274 15296138.52199626 0 15296138.52199626 -52799625.001409531 0 0 0 0 15058115.668792725 10864942.47803688 0 10864942.47803688 -60200010.872406006 0 0 0 0 10585154.964813329 -4612257.8719313974 0 -4612257.8719313974 -6416092.3199662641 0 0 0 0 -22891074.069366455 -61330446.416661263 0 -61330446.416661263 80263395.088722229 0 0 0 0 20052722.412147522 2052054.3591547012 0 2052054.3591547012 -66863808.682584763 0 0 0 0 -23888593.316055298 -57688908.13142395 0 -57688908.13142395 -95940845.416290283 0 0 0 0 2454991.2384451702 -15338.02292329818 0 -15338.02292329818 -2592621.1510842498 0 0 0 0 17477369.946960449 -17886004.078598976 0 -17886004.078598976 -17787784.193492889 0 0 0 0 146272251.46026611 -66014205.922186852 0 -66014205.922186852 -8706083.2678050995 0 0 0 0 7869708.3084983826 -116912054.04408407 0 -116912054.04408407 98665634.467594147 0 0 0 0 146246370.07975769 -199649466.69427299 0 -199649466.69427299 122307618.02069068 0 0 0 0 38972629.486429214 45271134.569375277 0 45271134.569375277 40544310.328992844 0 0 0 0 -16299692.356784821 4433367.4918813705 0 4433367.4918813705 10398728.108072281 0 0 0 0 48861074.889640808 6709532.4752044678 0 6709532.4752044678 -78555433.153671265 0 0 0 0 11473359.771699429 -6289274.9553836556 0 -6289274.9553836556 -11080959.801501002 0 0 0 0 84683724.277591705 6471290.967361927 0 6471290.967361927 -80885908.942550659 0 0 0 0 1775997395.4125824 832918708.43632507 0 832918708.43632507 -866429989.77763188 0 0 0 0 54101826.340435028 -13888564.98837924 0 -13888564.98837924 -33404569.747676075 0 0 0 0 16984129.125711583 -4136297.6131409509 0 -4136297.6131409509 -8146894.8090858292 0 0 0 0 27985594.903850555 12929774.221657634 0 12929774.221657634 36169441.742559433 0 0 0 0 9838005.3797518685 -5898655.0341012552 0 -5898655.0341012552 -18787028.953886949 0 0 0 0 4323159.7491617426 -4419815.5533082038 0 -4419815.5533082038 -13064234.024532635 0 0 0 0 193242441.82876778 -61051545.198885858 0 -61051545.198885858 -79290333.630247116 0 0 0 0 45883487.807285309 -106304721.30387819 0 -106304721.30387819 69170807.539403915 0 0 0 0 174061565.31308746 -146153809.10827804 0 -146153809.10827804 43588875.996017933 0 0 0 0 164723541.56354141 -91912599.202771902 0 -91912599.202771902 -57034755.843300343 0 0 0 0 201113348.31015778 36170686.018330574 0 36170686.018330574 30685731.493996382 0 0 0 0 99784484.61252594 -186010142.39967036 0 -186010142.39967036 169585539.55742931 0 0 0 0 -51673927.291927338 -184378086.57813692 0 -184378086.57813692 233154793.78171873 0 0 0 0 -1125720.378629297 237993.77527588606 0 237993.77527588606 2624842.0843082592 0 0 0 0 -224756232.95384598 -126734718.11857915 0 -126734718.11857915 214730766.79831159 0 0 0 0 269543120.83376503 -166526581.07572293 0 -166526581.07572293 -13935313.749879837 0 0 0 0 148264090.29553223 -92322775.578950167 0 -92322775.578950167 -104901213.49512362 0 0 0 0 -129249093.71356964 24325146.004822731 0 24325146.004822731 68738809.223666191 0 0 0 0 -103749229.84986877 -97361986.625331402 0 -97361986.625331402 200160422.23175454 0 0 0 0 39135379.667931557 -81129600.317784905 0 -81129600.317784905 134601474.48612881 0 0 0 0 -31550615.582378387 79940771.540058017 0 79940771.540058017 -100785043.73809099 0 0 0 0 -43323902.90057373 36812919.651128531 0 36812919.651128531 -17263978.226369858 0 0 0 0 2835113.4379190356 3440418.7605383731 0 3440418.7605383731 -3688654.9536752589 0 0 0 0 13558598.061390609 130447.31497708336 0 130447.31497708336 -1783307.2148181903 0 0 0 0 12092576.423210144 1342961.4334135056 0 1342961.4334135056 -15036899.957194805 0 0 0 0 12418518.056129456 2254289.9113912582 0 2254289.9113912582 -13132621.273507118 0 0 0 0 12485250.683044434 -2407327.9007348418 0 -2407327.9007348418 -17471658.156309128 0 0 0 0 13093078.735469818 -1583367.0147609711 0 -1583367.0147609711 -8387916.6389908791 0 0 0 0 14979277.024674647 -5377717.960867838 0 -5377717.960867838 -4066033.5076054009 0 0 0 0 12601349.801063538 -3250937.0040559769 0 -3250937.0040559769 -11501077.903678417 0 0 0 0 10389651.988220215 -2897134.9133520126 0 -2897134.9133520126 -15543349.916740417 0 0 0 0 15451855.224064142 -3049272.5247394554 0 -3049272.5247394554 -5095877.7473808657 0 0 0 0 9914031.8743133545 1852354.2295999527 0 1852354.2295999527 -15129566.205275536 0 0 0 0 8703835.5750961304 5296002.7930829525 0 5296002.7930829525 -24920599.762212753 0 0 0 0 12111465.377609253 -9441265.1877555847 0 -9441265.1877555847 -29849823.676765919 0 0 0 0 616056.58730804175 -68368.209436625242 0 -68368.209436625242 -233991.97601001244 0 0 0 0 122302647.4597702 -60155830.945901632 0 -60155830.945901632 -201217316.19400239 0 0 0 0 9789682.6534767151 10079023.014356136 0 10079023.014356136 -26614122.053659439 0 0 0 0 8749976.5232028961 4838528.7011291981 0 4838528.7011291981 -26614420.923893929 0 0 0 0 17085909.04872562 -2596873.7887256779 0 -2596873.7887256779 -3085284.5449895002 0 0 0 0 12011671.0307182 12827563.487683108 0 12827563.487683108 -7619222.705359919 0 0 0 0 81926541.976070404 71601393.557411969 0 71601393.557411969 -103874617.05599773 0 0 0 0 46539273.727981567 -29617722.775508583 0 -29617722.775508583 -68921169.520469189 0 0 0 0 -266954037.56953049 24703774.911067069 0 24703774.911067069 125763375.6520915 0 0 0 0 -702489191.16038513 822059163.74083233 0 822059163.74083233 -608277738.97055411 0 0 0 0 -275970.69940315187 1323667.7443436109 0 1323667.7443436109 -478102.35923443048 0 0 0 0 458615133.68122864 286495625.13790989 0 286495625.13790989 92488888.559525013 0 0 0 0 -386205932.76029968 -727788539.04932225 0 -727788539.04932225 51976857.21365881 0 0 0 0 1154694375.9401245 -327663719.20027733 0 -327663719.20027733 65669923.633049011 0 0 0 0 -168907695.16234207 224369485.21457243 0 224369485.21457243 471301398.3970508 0 0 0 0 98181775.9921875 -171207819.24917603 0 -171207819.24917603 396145635.10932732 0 0 0 0 6732489.2120899186 -1503283.2626023497 0 -1503283.2626023497 -2637697.8599849562 0 0 0 0 10628291.084913634 4540503.7998691909 0 4540503.7998691909 -1310088.5975202322 0 0 0 0 107412609.80444336 67470545.540461421 0 67470545.540461421 9157385.7115237713 0 0 0 0 -1047754209.5518036 -2338552994.0177989 0 -2338552994.0177989 1300308132.3206329 0 0 0 0 1485265844.6122894 -203030382.65983582 0 -203030382.65983582 -122280597.34407902 0 0 0 0 146336954.06278992 183176798.88732767 0 183176798.88732767 102315896.26643276 0 0 0 0 240031031.23880386 8660540.6521849632 0 8660540.6521849632 -39995772.946378827 0 0 0 0 509702395.83193207 58269207.778365374 0 58269207.778365374 -112636898.90397787 0 0 0 0 244558368.64440918 -139750368.30664349 0 -139750368.30664349 -122257438.99279743 0 0 0 0 254375631.12585831 -46352749.169458747 0 -46352749.169458747 -143552581.5571804 0 0 0 0 241313386.1149826 -11663234.85605526 0 -11663234.85605526 -119092794.60014902 0 0 0 0 13253248.807044983 95007257.115279198 0 95007257.115279198 -130423647.52278352 0 0 0 0 116946626.61397552 -47386715.266833186 0 -47386715.266833186 -97172342.874999762 0 0 0 0 185647308.21357536 -33036613.099304318 0 -33036613.099304318 -107994225.59992027 0 0 0 0 180627312.15319824 -71950212.261733055 0 -71950212.261733055 -105280309.15531811 0 0 0 0 191226244.60101318 -25901370.204071164 0 -25901370.204071164 -134562035.72580576 0 0 0 0 191065313.50273514 -135959621.98468769 0 -135959621.98468769 -151654809.49826524 0 0 0 0 193874217.40077591 -84316534.992289126 0 -84316534.992289126 -14578957.149145365 0 0 0 0 123581252.48379898 -39370652.576644927 0 -39370652.576644927 42584688.201447718 0 0 0 0 142894081.7877512 17455503.034898028 0 17455503.034898028 1566621.6926934719 0 0 0 0 113196102.5997591 45076762.686322503 0 45076762.686322503 -303141024.49098349 0 0 0 0 -56845678.24041748 -150016689.56767106 0 -150016689.56767106 -138824130.23647022 0 0 0 0 48669573.943986893 112837402.38018149 0 112837402.38018149 -237365584.18775749 0 0 0 0 21518298.296797752 118298022.51366362 0 118298022.51366362 -175904071.27097702 0 0 0 0 120062194.35594559 -71010736.331308961 0 -71010736.331308961 -434925487.15108109 0 0 0 0 209936525.68968582 277719949.52334559 0 277719949.52334559 227522137.14200214 0 0 0 0 269257216.02164078 154021615.74075225 0 154021615.74075225 87995083.751120478 0 0 0 0 96608184.771564007 127368801.08843055 0 127368801.08843055 241966884.35986996 0 0 0 0 115578397.30231476 -33922547.903606653 0 -33922547.903606653 -27009863.445554137 0 0 0 0 38168087.567680359 -18407718.612018108 0 -18407718.612018108 -48479947.651426077 0 0 0 0 25623536.273460388 12026121.182421446 0 12026121.182421446 -37735601.629405797 0 0 0 0 -1799650.6095428467 -33589672.195577383 0 -33589672.195577383 -35629549.558346748 0 0 0 0 232576611.08557129 -121637381.05991077 0 -121637381.05991077 40703580.221306801 0 0 0 0 9909448.4787329733 -1000256.4152726717 0 -1000256.4152726717 -4885832.405094265 0 0 0 0 271581919.18656921 205851648.10275173 0 205851648.10275173 156376514.4438839 0 0 0 0 20939550.411499023 44855893.1309762 0 44855893.1309762 -41486995.841396332 0 0 0 0 281537924.78320312 150319037.77310419 0 150319037.77310419 -47717004.209877968 0 0 0 0 229503.37313112617 -308980.79308427451 0 -308980.79308427451 -28742.948179786094 0 0 0 0 455050837.76989174 -346296488.98126167 0 -346296488.98126167 260762431.65396118 0 0 0 0 -29668502.556602478 233346352.93424177 0 233346352.93424177 -242658778.53023124 0 0 0 0 10227130.11088562 522896120.75099897 0 522896120.75099897 -227670823.19007778 0 0 0 0 208774793.74513245 -49193145.062094927 0 -49193145.062094927 -104088919.33324623 0 0 0 0 307270157.52555275 121053805.32122076 0 121053805.32122076 -361126601.11623383 0 0 0 0 263031472.64861298 99801440.434989929 0 99801440.434989929 -136326370.4436574 0 0 0 0 254352971.29360199 275524369.21030855 0 275524369.21030855 35690520.921260834 0 0 0 0 231836256.30097198 174170098.42661905 0 174170098.42661905 94656664.284843445 0 0 0 0 294091733.52839661 219409049.46928978 0 219409049.46928978 -98591296.064947128 0 0 0 0 64874377.123245239 32299015.936389089 0 32299015.936389089 -10661826.918055713 0 0 0 0 12128786.264879227 17881307.018871367 0 17881307.018871367 4978831.3240423203 0 0 0 0 11854380.38407135 -7480006.5095992088 0 -7480006.5095992088 -2130343.4199682474 0 0 0 0 25177995.152023315 -7508212.5713329315 0 -7508212.5713329315 -39427599.062146902 0 0 0 0 -47343865.236625671 86540152.807756424 0 86540152.807756424 -96876142.11849165 0 0 0 0 21974028.310230255 -13598799.058629751 0 -13598799.058629751 -22479459.136167526 0 0 0 0 11460223.722451389 82346.961455963319 0 82346.961455963319 -3037001.7799548204 0 0 0 0 12093834.551738739 5458457.3194827437 0 5458457.3194827437 -24159754.857912064 0 0 0 0 2595822.0487086214 1006566.1172527615 0 1006566.1172527615 -3060815.2672040481 0 0 0 0 7181715.3336666413 2903772.2573458962 0 2903772.2573458962 -8738405.2429844253 0 0 0 0 26957618.195293903 13947639.100813001 0 13947639.100813001 -16872707.014741898 0 0 0 0 71099759.418109894 4659810.0654525757 0 4659810.0654525757 -5470602.5391016006 0 0 0 0 13226389.463143334 -424870.41802536929 0 -424870.41802536929 -3352170.4580986369 0 0 0 0 82431942.392150879 -60587093.936273575 0 -60587093.936273575 -403324430.61278725 0 0 0 0 96380741.321811676 13430082.896173477 0 13430082.896173477 -383986259.15148163 0 0 0 0 145487141.18283844 4185598.1383800507 0 4185598.1383800507 -387461329.02708626 0 0 0 0 122500135.41288757 36069808.522415161 0 36069808.522415161 -584434421.62673569 0 0 0 0 142762328.65847778 -62260736.015766144 0 -62260736.015766144 -426847327.32086563 0 0 0 0 99407776.883106232 48066147.624781132 0 48066147.624781132 -176111084.92670441 0 0 0 0 114787048.92441177 -38100487.079061985 0 -38100487.079061985 -385909171.37329769 0 0 0 0 -16463595.424728394 -77549491.25837326 0 -77549491.25837326 -178791011.8545475 0 0 0 0 65202363.3568573 -1978349.5456609726 0 -1978349.5456609726 -394997038.62722778 0 0 0 0 54042133.729949951 -124689764.0159359 0 -124689764.0159359 -290619678.6755085 0 0 0 0 151738295.08997345 132435807.24301243 0 132435807.24301243 -369796657.39536667 0 0 0 0 -35014223.980247498 214056625.20070934 0 214056625.20070934 -115456290.42108345 0 0 0 0 265496566.62535858 112483450.6825738 0 112483450.6825738 -81465507.823665619 0 0 0 0 82868422.24328804 -52547689.580122471 0 -52547689.580122471 249956711.62328339 0 0 0 0 69896306.628959656 102907306.29298687 0 102907306.29298687 -17112695.098739624 0 0 0 0 245945135.43396759 317722302.11470985 0 317722302.11470985 140404389.11441803 0 0 0 0 -33224267.240268707 311941054.41792727 0 311941054.41792727 506223035.35301256 0 0 0 0 80187550.067016602 14445176.410181999 0 14445176.410181999 -149651616.39124966 0 0 0 0 7437401.0170288086 122187090.74409771 0 122187090.74409771 175980007.62807465 0 0 0 0 9305581.1795959473 285933611.52248001 0 285933611.52248001 209415588.36029601 0 0 0 0 128547336.72859192 326010194.10791779 0 326010194.10791779 6677301.0231201649 0 0 0 0 35663439.137418747 81468044.518144608 0 81468044.518144608 -23332065.124534607 0 0 0 0 39351077.441078186 190243072.82159805 0 190243072.82159805 -187687164.33519936 0 0 0 0 2628085.7021582276 -2180571.5509876125 0 -2180571.5509876125 -1328745.3697256614 0 0 0 0 -73362312.960906982 189663530.36431408 0 189663530.36431408 -30731936.599967957 0 0 0 0 12558310.66569519 1067890.0478954017 0 1067890.0478954017 -6042181.0963001251 0 0 0 0 16682275.215694956 2522373.0465276353 0 2522373.0465276353 -7791398.9135586293 0 0 0 0 1272790.4983356521 -1327342.3501328267 0 -1327342.3501328267 -413889.34281264339 0 0 0 0 -102492832.38843536 -21502742.718334198 0 -21502742.718334198 -6390690.0861325264 0 0 0 0 79863401.781269073 149424705.72202134 0 149424705.72202134 -205972080.3877964 0 0 0 0 137244683.20450115 -21635727.863904476 0 -21635727.863904476 12221212.762671471 0 0 0 0 175670362.05525208 38218807.804112434 0 38218807.804112434 60941900.232966065 0 0 0 0 136592899.51734161 141143507.81619644 0 141143507.81619644 -68173190.541833878 0 0 0 0 267968957.07435226 7559214.6131058931 0 7559214.6131058931 -207388839.82687378 0 0 0 0 143492372.18170929 229093508.68831444 0 229093508.68831444 57165901.980903625 0 0 0 0 7934322.7308585867 -1424940.9250510456 0 -1424940.9250510456 -4033112.3518243078 0 0 0 0 2918098.6644287109 -4109970.7215385437 0 -4109970.7215385437 -2807638.045955658 0 0 0 0 7208903.6311969757 -7961880.0587730408 0 -7961880.0587730408 -19248605.089790344 0 0 0 0 4398908.9994506836 -11419361.157533646 0 -11419361.157533646 -1928848.7557635307 0 0 0 0 16722079.896480728 -4243455.2406939715 0 -4243455.2406939715 -5100242.4402834401 0 0 0 0 13974603.585906982 -1751671.7339410782 0 -1751671.7339410782 -10219136.589942455 0 0 0 0 6816756.2199325562 -2291184.6166276932 0 -2291184.6166276932 -12663913.189117432 0 0 0 0 -11958417.678844452 -14908788.979786873 0 -14908788.979786873 12051994.549255371 0 0 0 0 22659161.773174286 6186533.4482392073 0 6186533.4482392073 -42754873.040260315 0 0 0 0 7284195.7275422215 -1894013.5371546112 0 -1894013.5371546112 -1831761.9248840436 0 0 0 0 2312037.099915944 -429707.86295310594 0 -429707.86295310594 -674326.25254815258 0 0 0 0 -48910347.438673019 101984552.0265069 0 101984552.0265069 -109445306.11654282 0 0 0 0 -6316252.5606231689 45644569.372716904 0 45644569.372716904 -35308197.74082756 0 0 0 0 -5023358.0949554443 29307013.025440216 0 29307013.025440216 -24507716.617251396 0 0 0 0 24576023.291790009 39312560.9289608 0 39312560.9289608 -72376792.661050797 0 0 0 0 687684.53362846375 55476439.784333229 0 55476439.784333229 -66405974.914554596 0 0 0 0 7488698.4387817383 35339340.436139107 0 35339340.436139107 -50928228.496228218 0 0 0 0 11020448.372257233 34361379.593970299 0 34361379.593970299 -71967450.012277603 0 0 0 0 13647339.922311231 -137395.58153880062 0 -137395.58153880062 -3864826.1283134641 0 0 0 0 4393662.7509231567 20315858.916227341 0 20315858.916227341 -53571887.199411392 0 0 0 0 9421411.5982208252 19118400.070992947 0 19118400.070992947 -55353617.545330048 0 0 0 0 10061222.579551697 -14688395.344718933 0 -14688395.344718933 -21096452.307226658 0 0 0 0 5271782.8758087158 -19742800.889269829 0 -19742800.889269829 -8263933.6392145157 0 0 0 0 8935157.3251974657 -791028.85316355992 0 -791028.85316355992 -1489485.4467931055 0 0 0 0 25144193.439918518 8891592.0425927639 0 8891592.0425927639 -51293994.31101799 0 0 0 0 -1561672.5034255981 -33252012.518379211 0 -33252012.518379211 -59745194.16369772 0 0 0 0 -29224446.952037811 3348499.3304166794 0 3348499.3304166794 9427968.0195617676 0 0 0 0 74296110.085571289 9537913.2035884857 0 9537913.2035884857 -190370498.50089645 0 0 0 0 3139494.7567251772 563283.20104084816 0 563283.20104084816 -2035230.8446335988 0 0 0 0 -110760693.96446991 -77056433.650753021 0 -77056433.650753021 36316431.993743896 0 0 0 0 42340276.811487198 -6099161.7349843979 0 -6099161.7349843979 -51663350.132097483 0 0 0 0 112836930.69353104 -49599394.929694653 0 -49599394.929694653 -79220843.707937241 0 0 0 0 -119042056.4326973 14369306.718402863 0 14369306.718402863 -94703865.930772781 0 0 0 0 7945616.5170574188 38460765.62028265 0 38460765.62028265 -75009870.081504822 0 0 0 0 36896210.393463135 -14460392.221144676 0 -14460392.221144676 -147235142.34708214 0 0 0 0 -3181971.0827980042 -466968.64497971535 0 -466968.64497971535 -81095376.838010788 0 0 0 0 39447148.780735016 14605254.61132431 0 14605254.61132431 -94162702.455479622 0 0 0 0 19230506.091417313 39063152.360548973 0 39063152.360548973 -581578.65059947968 0 0 0 0 51365896.404647827 38025442.258969784 0 38025442.258969784 -67491013.79829216 0 0 0 0 31015542.834859848 29718062.84562397 0 29718062.84562397 -1256999.1271591187 0 0 0 0 135187383.53708267 49324220.10045433 0 49324220.10045433 -25550393.638170242 0 0 0 0 95405956.804597855 -23134711.440465212 0 -23134711.440465212 9008406.4592008591 0 0 0 0 171324845.15609932 13500274.560138226 0 13500274.560138226 -31131686.418065071 0 0 0 0 68400894.077254295 37278765.979889035 0 37278765.979889035 -59681086.783511162 0 0 0 0 11462893.908372879 72337486.75011158 0 72337486.75011158 -93180358.129814148 0 0 0 0 -282460351.51423073 -197764872.91589451 0 -197764872.91589451 -161514033.67710006 0 0 0 0 -11634689.858974457 96689444.796470642 0 96689444.796470642 117617538.1743679 0 0 0 0 -7769912.4104635715 75448465.773692489 0 75448465.773692489 17237017.113168716 0 0 0 0 800683.14484969154 638723.27706854045 0 638723.27706854045 -2006558.9168937802 0 0 0 0 40758838.114818573 -147167732.98764515 0 -147167732.98764515 100000648.67334497 0 0 0 0 34571037.370558739 -12876619.313234091 0 -12876619.313234091 -199427545.30271149 0 0 0 0 22428288.151082993 -19400048.41286993 0 -19400048.41286993 -10486762.285135269 0 0 0 0 20484496.605035782 23486374.927258492 0 23486374.927258492 -99856180.63837862 0 0 0 0 20522980.806962967 18812246.209621429 0 18812246.209621429 -51725926.530866623 0 0 0 0 220814075.15539169 44943200.728785515 0 44943200.728785515 -96989238.684772968 0 0 0 0 178737190.81887245 146681938.93404341 0 146681938.93404341 6960797.6153106689 0 0 0 0 202144240.21948242 45711561.429317474 0 45711561.429317474 -95470774.915400505 0 0 0 0 42390228.840965271 59263493.460176468 0 59263493.460176468 -41028864.480288982 0 0 0 0 45843896.996128082 83586820.432713509 0 83586820.432713509 -61837569.687644958 0 0 0 0 147516189.52556992 70197597.742036819 0 70197597.742036819 -67399331.740055561 0 0 0 0 -66340442.819774628 112101648.70077324 0 112101648.70077324 -26604815.391931534 0 0 0 0 -22897113.862236977 -637414.51192784309 0 -637414.51192784309 -33832667.301919937 0 0 0 0 218240913.20736408 48167214.271541595 0 48167214.271541595 -95346438.256496429 0 0 0 0 168106154.66670513 23687377.859123468 0 23687377.859123468 -94117261.936300278 0 0 0 0 223101980.17821503 1633451.153526783 0 1633451.153526783 -73946691.236400127 0 0 0 0 8098381.2757524326 1342892.8833985776 0 1342892.8833985776 -1416088.9069564994 0 0 0 0 80883253.850521088 -8116238.3982005119 0 -8116238.3982005119 -55376582.33489418 0 0 0 0 276259207.41047096 6410953.4534733295 0 6410953.4534733295 -32828942.004965782 0 0 0 0 183434553.10609436 -13895795.047714233 0 -13895795.047714233 22167545.132227898 0 0 0 0 2237808.6375901941 705492.16395124234 0 705492.16395124234 -385098.28263151087 0 0 0 0 188101925.71758032 -116318382.63108981 0 -116318382.63108981 -68560155.658777237 0 0 0 0 413559817.50346184 64980420.966675282 0 64980420.966675282 -42638420.708830118 0 0 0 0 -87881846.82649231 -176114428.84811497 0 -176114428.84811497 -67891586.549718857 0 0 0 0 364707748.30182981 239111365.40598106 0 239111365.40598106 143840413.55369568 0 0 0 0 526221545.07203674 -173475981.54649043 0 -173475981.54649043 -234609830.56101227 0 0 0 0 109235200.94868851 -150636843.28529644 0 -150636843.28529644 -53041718.939571381 0 0 0 0 53088305.416160583 -127912587.18154716 0 -127912587.18154716 -46811683.021972656 0 0 0 0 -4297950.2839584351 -89395192.201698303 0 -89395192.201698303 -66530626.476224184 0 0 0 0 190266972.14057922 279167576.41954231 0 279167576.41954231 486610250.86664772 0 0 0 0 3356628.6150199398 -278183.48151627509 0 -278183.48151627509 -328027.7104755356 0 0 0 0 240829042.8851738 339665000.72303867 0 339665000.72303867 520251219.1544838 0 0 0 0 184180849.6673317 126202856.34950399 0 126202856.34950399 224726452.20755005 0 0 0 0 130210846.57228851 179090929.63682175 0 179090929.63682175 555315951.80816269 0 0 0 0 242446199.08992767 52111832.846282959 0 52111832.846282959 270097281.86971855 0 0 0 0 585896474.63498116 36585622.701877594 0 36585622.701877594 89091872.317243576 0 0 0 0 351174306.76476669 -214452039.48717833 0 -214452039.48717833 153359637.51354027 0 0 0 0 307723431.77403641 297968271.87377834 0 297968271.87377834 412037321.11687279 0 0 0 0 296842428.18906975 -89622896.613603592 0 -89622896.613603592 -103159112.41005516 0 0 0 0 256132747.55017471 -71033741.536429405 0 -71033741.536429405 77977834.706820488 0 0 0 0 184522624.92284775 -39695949.410083771 0 -39695949.410083771 372903784.51455212 0 0 0 0 171239640.04701757 39515577.178153992 0 39515577.178153992 28311069.973075867 0 0 0 0 82195223.617294312 37402900.762170792 0 37402900.762170792 83962283.968349934 0 0 0 0 37142105.701560974 113318741.70454121 0 113318741.70454121 34691895.245746613 0 0 0 0 3275625.443939209 70970818.029955864 0 70970818.029955864 15401510.263623238 0 0 0 0 17983695.437023163 41927190.141819954 0 41927190.141819954 64548294.133043766 0 0 0 0 50911961.805210114 64586925.493187904 0 64586925.493187904 -2697381.7656078339 0 0 0 0 163926998.38373756 62960898.403063774 0 62960898.403063774 -25721737.447305679 0 0 0 0 445284096.22338486 114159450.67348003 0 114159450.67348003 -11077537.911906242 0 0 0 0 46442652.246471405 245785204.47674561 0 245785204.47674561 215623933.68222046 0 0 0 0 421852426.39699936 -164803414.71991253 0 -164803414.71991253 -374413206.19742775 0 0 0 0 475384830.86532593 -37207669.548962116 0 -37207669.548962116 -92334655.251099586 0 0 0 0 3906030.6288175955 1875028.8219237686 0 1875028.8219237686 -1716085.4338399675 0 0 0 0 263646592.12395096 531557471.66649485 0 531557471.66649485 781387123.16567421 0 0 0 0 738374330.83165073 426112905.15141308 0 426112905.15141308 107016956.03118706 0 0 0 0 645125582.27230835 -82829120.938274384 0 -82829120.938274384 -3777756.6759576797 0 0 0 0 96371823.075401306 48790619.022324562 0 48790619.022324562 -11336723.495821953 0 0 0 0 -39022345.912818909 -62254326.049512863 0 -62254326.049512863 128283383.56510067 0 0 0 0 174057607.61950302 -127937355.18482685 0 -127937355.18482685 300814445.08350468 0 0 0 0 88247618.724594116 34678940.335036278 0 34678940.335036278 -272871456.90051079 0 0 0 0 -30072861.385028839 149673717.85875702 0 149673717.85875702 -40535584.583637238 0 0 0 0 192992970.71606064 200974854.57594585 0 200974854.57594585 73339335.176410675 0 0 0 0 161768878.78164339 83397458.822999418 0 83397458.822999418 -17648024.897865295 0 0 0 0 82053268.908348083 68043104.375763893 0 68043104.375763893 231571673.84772527 0 0 0 0 132768273.72397232 83183143.488897324 0 83183143.488897324 -282518494.47127914 0 0 0 0 55505300.404914856 -122683999.01005363 0 -122683999.01005363 -196372506.94337749 0 0 0 0 262339740.85354424 52323483.430824757 0 52323483.430824757 -107682117.58049583 0 0 0 0 96217952.837802887 -103316271.04602623 0 -103316271.04602623 58028149.189743042 0 0 0 0 78955012.328754425 -363134773.76462364 0 -363134773.76462364 -484363401.42416382 0 0 0 0 106164313.61745083 83748925.573089123 0 83748925.573089123 -427070341.31718445 0 0 0 0 10366588.976002067 4872339.5315271728 0 4872339.5315271728 -5080426.3077717554 0 0 0 0 22329895.360183716 11583891.76452446 0 11583891.76452446 -724567115.05812979 0 0 0 0 131315241.25534439 -113836943.69504547 0 -113836943.69504547 -728560757.24411964 0 0 0 0 130440917.84857178 185650361.2255106 0 185650361.2255106 167235187.71795702 0 0 0 0 -207738383.47592926 43789221.576506615 0 43789221.576506615 -419171829.65546036 0 0 0 0 -40194802.323974609 -132335334.39185715 0 -132335334.39185715 -439574778.93874741 0 0 0 0 1611732.9419584535 74262.726935865358 0 74262.726935865358 -1412265.9852135163 0 0 0 0 -162306772.92571259 -376773181.14289474 0 -376773181.14289474 -874628962.26705551 0 0 0 0 -32838265.490608215 -7466834.1910867691 0 -7466834.1910867691 -399546216.99288177 0 0 0 0 -5508907.1781463623 125459118.58677673 0 125459118.58677673 -802157421.45262194 0 0 0 0 30277459.236587524 -77167352.933139801 0 -77167352.933139801 -358337920.07801628 0 0 0 0 -91820897.302932739 185393120.61176682 0 185393120.61176682 -395946598.89943314 0 0 0 0 96412301.309127808 153921243.3206526 0 153921243.3206526 142017472.71590805 0 0 0 0 140774765.64553833 149234090.33776188 0 149234090.33776188 87633222.409502029 0 0 0 0 238147680.97210693 204181747.00791645 0 204181747.00791645 46487058.922773838 0 0 0 0 217174399.77183533 229314807.81619501 0 229314807.81619501 30206449.262402534 0 0 0 0 175443100.62477875 187763901.55409908 0 187763901.55409908 130033688.0660038 0 0 0 0 146310474.68439102 213488959.65195966 0 213488959.65195966 196711451.88881683 0 0 0 0 279455277.72291946 311881581.54518843 0 311881581.54518843 132603990.16027355 0 0 0 0 234782957.27622223 190973858.86276424 0 190973858.86276424 149846246.19272614 0 0 0 0 260206504.95028687 218633434.26964855 0 218633434.26964855 32622422.981567383 0 0 0 0 226521783.97328758 212711228.79720199 0 212711228.79720199 135618350.57612658 0 0 0 0 272558102.90958405 216011810.3299799 0 216011810.3299799 15706201.47313714 0 0 0 0 167556599.77420807 169213081.22866631 0 169213081.22866631 49322803.503863335 0 0 0 0 103336635.88149643 -104256679.84664059 0 -104256679.84664059 -69345105.096735597 0 0 0 0 79844148.21308136 46816089.802871227 0 46816089.802871227 -185918670.60778952 0 0 0 0 101959582.45347595 -62915705.626283646 0 -62915705.626283646 -60254777.270832062 0 0 0 0 26626706.616188049 -131432557.19850731 0 -131432557.19850731 22245008.883693695 0 0 0 0 100780832.59161377 -164962604.46307564 0 -164962604.46307564 36635489.818141937 0 0 0 0 177926033.08448792 -105597253.72489643 0 -105597253.72489643 -39294880.341629028 0 0 0 0 147473433.86734009 -53487821.06947422 0 -53487821.06947422 81909773.978868484 0 0 0 0 101629569.45406723 222333751.49605274 0 222333751.49605274 131910814.91381407 0 0 0 0 355069420.25890541 282725220.09077144 0 282725220.09077144 -94772272.347313881 0 0 0 0 277361937.20439148 -95858431.824005604 0 -95858431.824005604 -89751913.020125389 0 0 0 0 771404.83645161055 1495313.4352317732 0 1495313.4352317732 -60049.180953855626 0 0 0 0 93138548.714279175 105312073.55319458 0 105312073.55319458 8034064.143951416 0 0 0 0 185552249.61250305 93143495.618838549 0 93143495.618838549 -43167785.624980092 0 0 0 0 9518606.233631067 14489008.688495213 0 14489008.688495213 -19574338.533300661 0 0 0 0 -45859302.04958725 72328443.213347435 0 72328443.213347435 -30347198.197254181 0 0 0 0 20601856.242660522 162640086.52049446 0 162640086.52049446 122276359.43703699 0 0 0 0 102664397.68075275 180606351.01744604 0 180606351.01744604 124278360.54057312 0 0 0 0 6601932.6560845152 15415116.373925682 0 15415116.373925682 -16429170.839494647 0 0 0 0 42739294.810493469 111507046.30000687 0 111507046.30000687 185902289.771492 0 0 0 0 95450192.86102438 85408105.988332033 0 85408105.988332033 -34850290.82901001 0 0 0 0 87231457.064441681 -82430388.258828163 0 -82430388.258828163 -98857141.030133247 0 0 0 0 71637348.351806641 201046422.6847086 0 201046422.6847086 -114292779.02648354 0 0 0 0 139457331.93394852 65173729.200138748 0 65173729.200138748 -198247724.82913589 0 0 0 0 61188496.261961937 12046238.46297574 0 12046238.46297574 -32524784.224172592 0 0 0 0 84071434.002342224 48976165.892311096 0 48976165.892311096 -28400551.379021645 0 0 0 0 143623902.31573105 37421105.866043091 0 37421105.866043091 -53294997.014879227 0 0 0 0 96528855.620999336 21496334.151131392 0 21496334.151131392 -57863508.184112549 0 0 0 0 98593486.61634922 12229400.347724319 0 12229400.347724319 -41122825.370296478 0 0 0 0 133981633.36283016 -36893079.46951437 0 -36893079.46951437 -133814694.62930584 0 0 0 0 97854353.018310547 -28016365.883975506 0 -28016365.883975506 17125505.59796524 0 0 0 0 211260059.8003521 155859976.19489801 0 155859976.19489801 320139057.56473112 0 0 0 0 297091110.07574463 201515520.06950533 0 201515520.06950533 137016950.04934806 0 0 0 0 71868157.935138702 -10606304.271854639 0 -10606304.271854639 -44179202.526017904 0 0 0 0 2582041.3838222958 10124019.912524525 0 10124019.912524525 -19657146.938824691 0 0 0 0 243705040.86141586 251811520.24422181 0 251811520.24422181 172172085.57848066 0 0 0 0 15809307.127591513 908706.84845643863 0 908706.84845643863 -9270819.711259082 0 0 0 0 43347751.823360443 34474135.69377327 0 34474135.69377327 -5215231.3550214767 0 0 0 0 -185538244.49069214 27907535.108169436 0 27907535.108169436 108892313.25761533 0 0 0 0 -267345645.66267395 78021188.56918788 0 78021188.56918788 94355496.825016081 0 0 0 0 439029243.61027527 -153996276.48884404 0 -153996276.48884404 -40297464.695364475 0 0 0 0 -133733123.92660904 -70646788.769920081 0 -70646788.769920081 -52316681.374254942 0 0 0 0 -222568296.7126255 -107224401.77624089 0 -107224401.77624089 157753035.56287956 0 0 0 0 302842444.35411072 -32624874.862433612 0 -32624874.862433612 -30863848.337766886 0 0 0 0 451925546.74972534 -15196369.893921614 0 -15196369.893921614 -144172203.54745969 0 0 0 0 -81531286.879180908 245472831.75265396 0 245472831.75265396 -113705185.45460796 0 0 0 0 1255826.0288288146 6193973.3561421037 0 6193973.3561421037 -15279883.623973649 0 0 0 0 -2922262.3290100098 188283078.13184929 0 188283078.13184929 -349630728.46750164 0 0 0 0 10634943.936325073 -12190518.551659107 0 -12190518.551659107 17321109.424716949 0 0 0 0 64752692.096237183 10994500.145185471 0 10994500.145185471 -16415889.629201889 0 0 0 0 70327499.587059021 75685761.934726715 0 75685761.934726715 39918265.446769714 0 0 0 0 55297736.135177612 83657824.560728312 0 83657824.560728312 136402117.65301132 0 0 0 0 50726234.788444519 69234687.521773815 0 69234687.521773815 87677100.647695541 0 0 0 0 42332607.659698486 87098668.813316822 0 87098668.813316822 51781665.366493225 0 0 0 0 62954040.229705811 91666508.816293716 0 91666508.816293716 28358809.507214546 0 0 0 0 -321951068.27510071 -50968426.327952027 0 -50968426.327952027 150595614.68445969 0 0 0 0 3997.4611655697227 866512.20730249956 0 866512.20730249956 -2110183.9827340944 0 0 0 0 754187.93633178249 2997752.8562755361 0 2997752.8562755361 -9262568.3714598417 0 0 0 0 37547771.179931641 42922790.62183848 0 42922790.62183848 70813105.801012993 0 0 0 0 85287746.907487392 118850797.39926779 0 118850797.39926779 229398880.10161686 0 0 0 0 118854203.48875809 21523981.624272346 0 21523981.624272346 80811191.702186108 0 0 0 0 97995825.770370483 44799078.332878113 0 44799078.332878113 61070626.68194294 0 0 0 0 75744974.450996399 1181514.0644369125 0 1181514.0644369125 28900413.205677032 0 0 0 0 60590124.119893551 50353410.886491895 0 50353410.886491895 80910305.222425461 0 0 0 0 119930691.73410797 135809794.61274719 0 135809794.61274719 148716474.68550897 0 0 0 0 81304988.011001587 79409881.874564528 0 79409881.874564528 189090871.026474 0 0 0 0 89160603.400375366 59569875.468741894 0 59569875.468741894 69686216.843333244 0 0 0 0 112338363.3559761 112710247.36758018 0 112710247.36758018 306451208.29397488 0 0 0 0 192945821.37286186 251902282.63215351 0 251902282.63215351 239785120.2761898 0 0 0 0 211883552.88022518 209403406.77332747 0 209403406.77332747 146273192.38606691 0 0 0 0 133096843.91863441 199661524.03938198 0 199661524.03938198 198212559.31457955 0 0 0 0 134396414.87290192 199779319.75500739 0 199779319.75500739 168580532.6502164 0 0 0 0 111993260.78927135 174810782.51916751 0 174810782.51916751 153896645.63007951 0 0 0 0 88573050.510250092 115370858.91199207 0 115370858.91199207 199807753.41160679 0 0 0 0 97416550.77942276 129800385.1483314 0 129800385.1483314 115331862.68762958 0 0 0 0 76178418.891109467 103608668.57104802 0 103608668.57104802 116574490.37260389 0 0 0 0 90927277.907577515 103212042.97176027 0 103212042.97176027 95166022.55359602 0 0 0 0 102575697.57029724 148677785.87759161 0 148677785.87759161 150421807.51243305 0 0 0 0 77104512.049320221 73846654.789349556 0 73846654.789349556 74673427.825191498 0 0 0 0 105409739.31922913 45457396.448989868 0 45457396.448989868 39157476.231010437 0 0 0 0 136199696.06912231 75253651.349378586 0 75253651.349378586 46100986.858573675 0 0 0 0 121831664.82268524 111862024.1452713 0 111862024.1452713 94786060.037809372 0 0 0 0 102224407.98773193 121621705.1938262 0 121621705.1938262 91101499.032397747 0 0 0 0 188138071.90833282 110572158.5589664 0 110572158.5589664 53560106.501980782 0 0 0 0 186322290.85922253 159878995.34986269 0 159878995.34986269 16315319.676283836 0 0 0 0 160962145.02518463 186512617.26335859 0 186512617.26335859 71240111.002691031 0 0 0 0 138283901.0164032 146667839.09130526 0 146667839.09130526 108083842.69008064 0 0 0 0 127464449.0791893 180197605.25539088 0 180197605.25539088 81700844.912469864 0 0 0 0 141374693.73484039 145833300.32598352 0 145833300.32598352 28630059.017091751 0 0 0 0 141764493.30938721 193959970.42445791 0 193959970.42445791 92348786.135293007 0 0 0 0 98220012.542190552 257651831.66904879 0 257651831.66904879 83646654.385195315 0 0 0 0 161581813.64739954 217086695.37002993 0 217086695.37002993 -61957247.03443861 0 0 0 0 107201522.70613575 199579224.08956933 0 199579224.08956933 178454452.13110495 0 0 0 0 117982185.63895416 173312994.65860224 0 173312994.65860224 127029182.64812636 0 0 0 0 120893811.41952896 178379835.07529736 0 178379835.07529736 134553016.66775608 0 0 0 0 109529529.39778137 206968814.00753325 0 206968814.00753325 121970225.97669291 0 0 0 0 81063544.420783997 220976727.87387222 0 220976727.87387222 214183234.0270586 0 0 0 0 107446169.17899895 217320457.26519087 0 217320457.26519087 171520342.52842951 0 0 0 0 67033262.82635498 246810011.26904893 0 246810011.26904893 169995478.27932858 0 0 0 0 60040284.798156261 199945551.25932917 0 199945551.25932917 255470669.00130862 0 0 0 0 97655426.498687744 267227846.10308051 0 267227846.10308051 157952916.76388884 0 0 0 0 105034475.74547195 221698033.89794642 0 221698033.89794642 171694072.6916849 0 0 0 0 81044916.100410461 155617601.15082669 0 155617601.15082669 163235790.41065502 0 0 0 0 59421240.320674896 184671948.18097353 0 184671948.18097353 238926666.36570585 0 0 0 0 145450096.0272274 157326298.40374517 0 157326298.40374517 156550226.14558458 0 0 0 0 123828718.33426285 162459728.08632851 0 162459728.08632851 155333481.1074959 0 0 0 0 228387622.20959616 210423619.6369105 0 210423619.6369105 146061972.42585438 0 0 0 0 141706461.34201431 193938003.7803964 0 193938003.7803964 178642944.00443953 0 0 0 0 382844930.31781197 205276345.25757796 0 205276345.25757796 31019589.055602074 0 0 0 0 447814193.43476677 208281566.40635896 0 208281566.40635896 5795247.9650850296 0 0 0 0 398394973.72383881 177456266.04066157 0 177456266.04066157 8400115.0327618122 0 0 0 0 397102993.01948547 139479064.78060859 0 139479064.78060859 23095695.352079213 0 0 0 0 397471436.28193665 99404586.217921972 0 99404586.217921972 -35544041.601486921 0 0 0 0 459587521.64292145 131241874.40588999 0 131241874.40588999 -22918437.44595778 0 0 0 0 457252266.64473677 73040884.030809477 0 73040884.030809477 -91555911.905994892 0 0 0 0 462504762.05737305 146615272.63252449 0 146615272.63252449 -45202426.355095387 0 0 0 0 539951592.93871307 192880234.97639203 0 192880234.97639203 -18801666.281708717 0 0 0 0 480916980.81441498 205048811.29840064 0 205048811.29840064 26241242.855124474 0 0 0 0 505571454.36001587 118543852.14554834 0 118543852.14554834 -35867830.764209747 0 0 0 0 569139102.51182175 223668416.0333271 0 223668416.0333271 151419883.27943039 0 0 0 0 607619589.90888977 155399313.30569935 0 155399313.30569935 36594026.394842148 0 0 0 0 558138267.66607666 188614368.68750238 0 188614368.68750238 15558554.252992153 0 0 0 0 604447073.73469543 220530030.94176865 0 220530030.94176865 28173116.506405354 0 0 0 0 365465693.41907072 184891464.48124897 0 184891464.48124897 28791974.807121754 0 0 0 0 533035050.30162811 261031770.58766127 0 261031770.58766127 67601065.684844971 0 0 0 0 80309986.052879333 147701323.18674684 0 147701323.18674684 208487662.69720697 0 0 0 0 369222018.91148376 266327942.24361372 0 266327942.24361372 82096629.313924313 0 0 0 0 487622274.18194962 212823335.95319402 0 212823335.95319402 3912862.4366135597 0 0 0 0 519302604.12232208 250399887.724545 0 250399887.724545 223680517.11925745 0 0 0 0 1468905.1516048871 -30603.527994140983 0 -30603.527994140983 -2779812.4579085913 0 0 0 0 244006205.06716537 123086236.84578255 0 123086236.84578255 193124587.19044811 0 0 0 0 113149313.37462616 160251767.20905733 0 160251767.20905733 317267732.97316337 0 0 0 0 168121193.57836914 244815901.3608731 0 244815901.3608731 268465359.86961889 0 0 0 0 432110569.51436996 223026551.0719198 0 223026551.0719198 104935043.57457227 0 0 0 0 322887853.72055435 -25060051.794640779 0 -25060051.794640779 -72086225.77776432 0 0 0 0 -48095485.851318359 288426138.77768159 0 288426138.77768159 198819322.396644 0 0 0 0 1531788.6329544447 1384312.8147897869 0 1384312.8147897869 -6190439.5561296809 0 0 0 0 346065970.3721962 202793805.89131445 0 202793805.89131445 87314391.8257792 0 0 0 0 345353955.11167908 195497434.48811686 0 195497434.48811686 52238312.537726402 0 0 0 0 321304261.36647797 172053080.51252735 0 172053080.51252735 88919597.368232489 0 0 0 0 333287978.60774803 164151615.02260947 0 164151615.02260947 120288504.23856211 0 0 0 0 329640309.52513123 176602916.9688977 0 176602916.9688977 77891350.790280819 0 0 0 0 -742911856.0697937 255181903.19993281 0 255181903.19993281 449393580.83166981 0 0 0 0 -602846371.17552567 -560724308.13168263 0 -560724308.13168263 -194528305.10198879 0 0 0 0 79133066.126922607 370757361.20199537 0 370757361.20199537 10455120.994777203 0 0 0 0 86638917.490226746 64765970.021418095 0 64765970.021418095 -219081464.22246552 0 0 0 0 621411.7764262259 505509.33467661217 0 505509.33467661217 -3267225.1430179775 0 0 0 0 414607333.69992352 211146708.14713261 0 211146708.14713261 25289355.276128441 0 0 0 0 314819.41060805693 2181794.4290459491 0 2181794.4290459491 -5665047.0499118827 0 0 0 0 389892331.55760193 149129477.15960717 0 149129477.15960717 64536191.137711406 0 0 0 0 300615230.21738434 174664272.95711869 0 174664272.95711869 57896027.494062901 0 0 0 0 315208994.41413879 153524628.24478656 0 153524628.24478656 85817489.033152461 0 0 0 0 353220793.49761963 188492037.36825481 0 188492037.36825481 36055063.204845071 0 0 0 0 320837567.30252075 180030958.63785058 0 180030958.63785058 37806221.395134509 0 0 0 0 316921346.98246765 188811730.36476555 0 188811730.36476555 18196638.319725439 0 0 0 0 254874496.31243896 162132125.31148359 0 162132125.31148359 55376540.706362322 0 0 0 0 221330982.97856903 154655361.45460683 0 154655361.45460683 61150460.49459146 0 0 0 0 258946202.79602051 152355763.37104747 0 152355763.37104747 26472523.31523788 0 0 0 0 212790337.66439056 122127853.8083609 0 122127853.8083609 71866056.484692633 0 0 0 0 221355605.20452118 105665577.87404315 0 105665577.87404315 33181535.318705559 0 0 0 0 316093246.40615845 84313848.70020324 0 84313848.70020324 80671593.43633604 0 0 0 0 287237240.53015137 128882998.2769895 0 128882998.2769895 71059524.604861975 0 0 0 0 350615615.38618279 131314663.98291448 0 131314663.98291448 65476356.55348897 0 0 0 0 269568136.98576355 122475119.82917988 0 122475119.82917988 76607912.14326489 0 0 0 0 464064578.50653076 30587112.404994249 0 30587112.404994249 799341.49866366386 0 0 0 0 417355559.30327606 77316267.772534609 0 77316267.772534609 -11007546.866711855 0 0 0 0 309096193.32169342 515330.69168996811 0 515330.69168996811 111968356.87409163 0 0 0 0 225800052.86666107 34729604.725844562 0 34729604.725844562 104090126.42850199 0 0 0 0 249010855.16109467 48719589.467131466 0 48719589.467131466 52042037.890411623 0 0 0 0 321164496.81004524 -237124177.16912737 0 -237124177.16912737 204516060.49855882 0 0 0 0 138820541.79050446 174318406.69304717 0 174318406.69304717 -239284988.40257671 0 0 0 0 -134594431.59628296 89745852.222928688 0 89745852.222928688 135349149.82653055 0 0 0 0 163597230.16196442 -45133375.819093585 0 -45133375.819093585 -333842012.93120432 0 0 0 0 110367495.88722229 20441227.217774332 0 20441227.217774332 52961761.338011831 0 0 0 0 151140251.05747223 96662861.914414763 0 96662861.914414763 37765059.917136833 0 0 0 0 178297692.0017662 118294455.43912908 0 118294455.43912908 -81143504.359295905 0 0 0 0 248255738.85921478 160687582.1715014 0 160687582.1715014 -31327567.21054709 0 0 0 0 170317301.79937744 162043066.36787984 0 162043066.36787984 25460902.62697877 0 0 0 0 109354843.44526291 98259159.0842067 0 98259159.0842067 -7186210.6164138317 0 0 0 0 160900773.36626434 77071592.596958995 0 77071592.596958995 -106927370.24100614 0 0 0 0 38123246.042144775 27210236.500729561 0 27210236.500729561 -53923566.883992523 0 0 0 0 -37667009.488197327 15653048.096939325 0 15653048.096939325 -43149770.509204865 0 0 0 0 95553890.704242706 15561444.459579349 0 15561444.459579349 -104027667.42315006 0 0 0 0 5108541.5806890875 1622825.62529212 0 1622825.62529212 -1905159.3310097528 0 0 0 0 -69085523.136077881 -186047978.57593751 0 -186047978.57593751 -184715731.81451762 0 0 0 0 -3997261.3539199829 58010022.080785632 0 58010022.080785632 102278904.32538569 0 0 0 0 -53150.715484619141 19571312.363281548 0 19571312.363281548 -14017759.598809004 0 0 0 0 5754319.1006537899 749805.31753327604 0 749805.31753327604 -1501498.0038876187 0 0 0 0 1549823.5816255361 1290823.8302172534 0 1290823.8302172534 -2701664.3154930896 0 0 0 0 319843357.0847702 118462307.68280429 0 118462307.68280429 -814123.27176403999 0 0 0 0 423545789.55220222 91601870.278605223 0 91601870.278605223 -71429953.363945484 0 0 0 0 373692854.9864502 164413583.02848077 0 164413583.02848077 33148222.849648565 0 0 0 0 360714834.29579163 206298444.57485646 0 206298444.57485646 48264408.317694001 0 0 0 0 464376951.50450134 196338003.31724226 0 196338003.31724226 -38247877.255460501 0 0 0 0 372781156.13924789 185896545.89797026 0 185896545.89797026 -38002513.89532423 0 0 0 0 222182070.78256989 184075722.52539265 0 184075722.52539265 11340613.670918524 0 0 0 0 327550142.46257019 219713971.30734777 0 219713971.30734777 -4581841.8883622885 0 0 0 0 369903658.50946426 202203377.83764833 0 202203377.83764833 -1714329.6623024046 0 0 0 0 358009711.24168015 184156680.23260826 0 184156680.23260826 6139938.9015870392 0 0 0 0 234274167.07183075 170465705.67190564 0 170465705.67190564 23961948.053118005 0 0 0 0 227143873.2850647 179104407.56220078 0 179104407.56220078 12053245.366502762 0 0 0 0 20632262.284713745 14728730.035501719 0 14728730.035501719 44561811.586626589 0 0 0 0 123946237.7714386 210623804.8319304 0 210623804.8319304 210928316.20406103 0 0 0 0 417149550.90584564 326367548.62386143 0 326367548.62386143 71883459.82551074 0 0 0 0 467380706.3723793 504878669.10464466 0 504878669.10464466 415214428.34165072 0 0 0 0 525433501.19773865 196150777.54462671 0 196150777.54462671 -61066373.209747076 0 0 0 0 511932315.40172195 179644110.18914831 0 179644110.18914831 -58452015.181013584 0 0 0 0 921100558.85866547 31559377.89176631 0 31559377.89176631 -246275973.79038405 0 0 0 0 897736097.0281601 358168847.31957173 0 358168847.31957173 -53823453.928653449 0 0 0 0 443834388.17353058 -10038118.259122491 0 -10038118.259122491 -62482459.01362431 0 0 0 0 589067825.48332214 110406503.23325169 0 110406503.23325169 -76997336.822523355 0 0 0 0 2501721.9813296273 887726.08063287893 0 887726.08063287893 -735906.89098963607 0 0 0 0 5137305.4725744054 283985.95155438222 0 283985.95155438222 -2556024.3341764612 0 0 0 0 498323952.49812317 -4071629.9241740704 0 -4071629.9241740704 -690643891.37952971 0 0 0 0 1251410120.869873 131154384.00184011 0 131154384.00184011 -679280272.09878922 0 0 0 0 663487197.52249146 779188234.28855252 0 779188234.28855252 502252837.27549839 0 0 0 0 1301947524.7290611 394921911.64186513 0 394921911.64186513 -36425022.011175156 0 0 0 0 -271972252.43972778 20885571.45307982 0 20885571.45307982 164269854.55789781 0 0 0 0 518786164.40403748 -505031606.07020354 0 -505031606.07020354 -166630467.40142453 0 0 0 0 504303252.89784241 -38790952.042100668 0 -38790952.042100668 -75457588.724673033 0 0 0 0 30107131.722084045 -189747854.24794972 0 -189747854.24794972 24637170.653716087 0 0 0 0 5206657.9379759543 1175775.3440519385 0 1175775.3440519385 -5547154.8590823123 0 0 0 0 434352893.19771576 535867557.93078423 0 535867557.93078423 573921143.1372745 0 0 0 0 298855953.61946106 20830855.655146122 0 20830855.655146122 101487909.73146307 0 0 0 0 208734764.50266266 285502066.21989465 0 285502066.21989465 205195082.07427907 0 0 0 0 28386494.368865967 20984291.337957174 0 20984291.337957174 35508421.265094578 0 0 0 0 35633922.670352936 66471698.858452916 0 66471698.858452916 -86756081.905307472 0 0 0 0 46172803.89163208 67473856.954777986 0 67473856.954777986 2638759.2151193023 0 0 0 0 4808141.432989873 968570.75219301134 0 968570.75219301134 -4016677.3034542468 0 0 0 0 -246078643.66497803 58478742.423294187 0 58478742.423294187 -17170199.440397799 0 0 0 0 42805479.363197327 -10589656.264540076 0 -10589656.264540076 -14497254.789391279 0 0 0 0 10882215.231735229 908614.37781780958 0 908614.37781780958 15231416.919819415 0 0 0 0 4047916.5455436707 14019224.744381696 0 14019224.744381696 -8788329.5539429188 0 0 0 0 -7396816.2507958412 -53938909.540743768 0 -53938909.540743768 -114226760.82612014 0 0 0 0 5801248.8969330862 -318563.34713670984 0 -318563.34713670984 -3211992.0891908263 0 0 0 0 -41658360.861606598 71868490.774268508 0 71868490.774268508 40226876.01484853 0 0 0 0 28445923.232223511 14061031.974430621 0 14061031.974430621 66665535.555315793 0 0 0 0 645488012.70478821 180687561.12307316 0 180687561.12307316 95685488.137826443 0 0 0 0 11767409.744704247 -277597606.04996777 0 -277597606.04996777 -112695470.10458243 0 0 0 0 2258587.6508919001 -150455.30248546228 0 -150455.30248546228 -1224276.1181828682 0 0 0 0 208944168.59474564 51474299.693943486 0 51474299.693943486 120739437.14553815 0 0 0 0 254537553.39931488 -130665756.6194948 0 -130665756.6194948 -17956113.400107745 0 0 0 0 75778327.526550293 -135470246.54391664 0 -135470246.54391664 76182384.160833985 0 0 0 0 2569547.2527750582 -2393321.7455411255 0 -2393321.7455411255 -8555789.2971234061 0 0 0 0 305930476.27363968 -120832524.22641015 0 -120832524.22641015 32557040.793403931 0 0 0 0 400999449.80642319 -27863166.158989906 0 -27863166.158989906 -44453173.793130398 0 0 0 0 38691135.275592804 19229937.570231199 0 19229937.570231199 162393737.13552496 0 0 0 0 2323362.3749520406 -155243.30013122782 0 -155243.30013122782 -4460898.2725472115 0 0 0 0 331377999.41189957 -123183407.66070575 0 -123183407.66070575 -13243184.008717299 0 0 0 0 380872161.88913155 -129674903.87920064 0 -129674903.87920064 -17823418.862263441 0 0 0 0 2020363.8122415878 1053306.5871122889 0 1053306.5871122889 -1109381.6243277597 0 0 0 0 222056224.1845665 57001066.651491269 0 57001066.651491269 1191966.2878445983 0 0 0 0 324859813.722435 113348845.80442151 0 113348845.80442151 -8798523.5461006761 0 0 0 0 278187510.20805359 84376946.926256552 0 84376946.926256552 -21275221.075750187 0 0 0 0 377094216.22112274 50758477.891279206 0 50758477.891279206 -69965989.428720295 0 0 0 0 315108525.92053223 1460962.8160624504 0 1460962.8160624504 -44756946.010385849 0 0 0 0 374848428.43752289 -189196379.10284075 0 -189196379.10284075 -132664668.72022998 0 0 0 0 602272460.72466278 -122799117.86076939 0 -122799117.86076939 -114331237.99669579 0 0 0 0 236546129.83328247 -159744777.05868155 0 -159744777.05868155 -84473890.649798244 0 0 0 0 228251071.90778351 -344409621.60299301 0 -344409621.60299301 -194103161.99266753 0 0 0 0 333385994.37971497 -367784249.8109414 0 -367784249.8109414 -312210615.41841316 0 0 0 0 244391104.67584229 -389247538.1175046 0 -389247538.1175046 -113027629.60953312 0 0 0 0 252535768.59580994 -125665000.35503936 0 -125665000.35503936 -448202621.36005914 0 0 0 0 244109456.72779846 -193446031.91619694 0 -193446031.91619694 -77750333.361903906 0 0 0 0 1877760.7561034262 23162.880535816774 0 23162.880535816774 -346315.01454824384 0 0 0 0 90097308.847118378 -130636952.7393517 0 -130636952.7393517 208427466.88817251 0 0 0 0 89445163.513671875 127305646.70018515 0 127305646.70018515 227431611.58404988 0 0 0 0 366767447.9792366 -292649081.3327682 0 -292649081.3327682 1279907.630464077 0 0 0 0 2824575.1591949463 22297836.574140549 0 22297836.574140549 -42866363.224197268 0 0 0 0 637699126.37149811 -133438794.18714321 0 -133438794.18714321 -123282227.04514232 0 0 0 0 401208532.44770759 -77625534.637933016 0 -77625534.637933016 304141670.69321609 0 0 0 0 541861893.34371185 70860617.476335943 0 70860617.476335943 -24171274.105707645 0 0 0 0 -82933461.451654434 -123835574.94300413 0 -123835574.94300413 4884542.5818748474 0 0 0 0 -1439315.9940752611 -38933.535662278533 0 -38933.535662278533 4406918.3197303712 0 0 0 0 -76232769.669187546 -192562716.23183882 0 -192562716.23183882 -11820806.108513355 0 0 0 0 -27357079.518438339 -51597479.270629764 0 -51597479.270629764 165700.91100168228 0 0 0 0 -43274325.094306946 -62274171.113374829 0 -62274171.113374829 -15661410.867994487 0 0 0 0 144341951.49880981 -99569654.897957802 0 -99569654.897957802 -35182519.522788763 0 0 0 0 143966442.59379196 -110266515.63280141 0 -110266515.63280141 56685300.212033272 0 0 0 0 232349885.79403305 -109190279.89628816 0 -109190279.89628816 -39785259.832534552 0 0 0 0 248399474.33844376 -145543812.85942101 0 -145543812.85942101 31024853.011424541 0 0 0 0 269647417.06719208 -69680726.438682318 0 -69680726.438682318 16927446.660582155 0 0 0 0 228542974.64692879 -138740305.68133998 0 -138740305.68133998 13181652.810629368 0 0 0 0 207731564.38737679 -80555505.321038395 0 -80555505.321038395 4572852.4521446228 0 0 0 0 261958368.54925156 -186560187.49620244 0 -186560187.49620244 60231492.518550515 0 0 0 0 2427718.2792288885 353897.68385554478 0 353897.68385554478 342654.73101006565 0 0 0 0 78950546.105232239 -69974632.361158818 0 -69974632.361158818 65781489.595242739 0 0 0 0 477596.32749938965 -16959964.431731761 0 -16959964.431731761 -15781719.192215472 0 0 0 0 -37350537.367633939 -40181633.058877513 0 -40181633.058877513 -20606891.084354639 0 0 0 0 803481.8810610855 665667.62890409306 0 665667.62890409306 115434.18882074766 0 0 0 0 273399339.48754883 -116402204.29821754 0 -116402204.29821754 24059664.258593798 0 0 0 0 -28205236.867385864 -127163531.7517004 0 -127163531.7517004 30181178.255043983 0 0 0 0 849837.64231300354 -43480029.670311347 0 -43480029.670311347 -94360187.581132174 0 0 0 0 -6596046.4153594971 -21595783.756476421 0 -21595783.756476421 -9393477.9957045428 0 0 0 0 6268080.9392160699 -3627982.0998560451 0 -3627982.0998560451 -1745067.2606203221 0 0 0 0 134992252.23963928 -22275587.238494754 0 -22275587.238494754 17031332.258627295 0 0 0 0 -142626447.90398026 -177269987.03449333 0 -177269987.03449333 -209940079.94798338 0 0 0 0 -172758265.20255661 -118383525.32208765 0 -118383525.32208765 -24622508.015203953 0 0 0 0 346506621.66527367 -223380800.33119535 0 -223380800.33119535 215016430.32814625 0 0 0 0 373026399.48707771 -206887305.66236374 0 -206887305.66236374 79864389.481635213 0 0 0 0 335877468.06162643 -261184496.57581353 0 -261184496.57581353 134849513.61519313 0 0 0 0 13219780.268924713 -85917729.255072743 0 -85917729.255072743 129528126.69835556 0 0 0 0 80583827.155062675 25571396.326537251 0 25571396.326537251 -58926558.725546837 0 0 0 0 5765361.9409504533 -5472719.0843693856 0 -5472719.0843693856 -2042521.2529537457 0 0 0 0 -43761331.626621246 -16215210.841151714 0 -16215210.841151714 114667108.19479084 0 0 0 0 3895314.1801654627 -4291406.636422053 0 -4291406.636422053 -2225281.0804247558 0 0 0 0 -23175951.352298856 -42060512.164623894 0 -42060512.164623894 -41449957.108202219 0 0 0 0 125219052.63683319 -129373101.85616314 0 -129373101.85616314 77355125.790922195 0 0 0 0 10171057.269945383 -1269406.3636203576 0 -1269406.3636203576 -2627531.1135319723 0 0 0 0 159874532.8708992 -93518019.222932398 0 -93518019.222932398 59548040.640557408 0 0 0 0 20179303.660175323 -76759208.789922506 0 -76759208.789922506 -20941571.243118763 0 0 0 0 204651073.35458374 -60099004.317013264 0 -60099004.317013264 -43224622.307152331 0 0 0 0 -200313407.83419764 -95953627.584226504 0 -95953627.584226504 16952939.186459422 0 0 0 0 231840910.42422867 -208316364.64356172 0 -208316364.64356172 -63893085.802968264 0 0 0 0 1798330.5384700254 -4506270.0634375289 0 -4506270.0634375289 1439502.0359822072 0 0 0 0 131790144.40410781 -142544897.78833565 0 -142544897.78833565 168661928.90323773 0 0 0 0 279016606.64473343 -275822250.86494339 0 -275822250.86494339 215204162.51471257 0 0 0 0 212401631.73519135 -51340535.761243485 0 -51340535.761243485 -18302370.349490494 0 0 0 0 504915836.08996201 -238933874.0969404 0 -238933874.0969404 37599684.601458743 0 0 0 0 553653925.40872955 -473498497.70322752 0 -473498497.70322752 249443245.23974502 0 0 0 0 373234471.28577232 -206500800.13372788 0 -206500800.13372788 227487689.25532424 0 0 0 0 458212632.93852234 -77184635.072346449 0 -77184635.072346449 -306328901.42273957 0 0 0 0 189039084.09909058 65440609.115170047 0 65440609.115170047 -230807211.35952666 0 0 0 0 389883883.31690598 109365532.52880934 0 109365532.52880934 22451529.119303465 0 0 0 0 247230615.78070068 82292686.399635315 0 82292686.399635315 17450891.441509545 0 0 0 0 -171241581.20892715 -467500537.38588208 0 -467500537.38588208 -92413898.282864064 0 0 0 0 703880202.8014183 76250320.845950186 0 76250320.845950186 -19932306.005377054 0 0 0 0 1592184.12690413 -1431457.0257840045 0 -1431457.0257840045 347115.85160776717 0 0 0 0 -258436290.48039436 -175102760.70869175 0 -175102760.70869175 48542071.781080745 0 0 0 0 29560362.811462402 -249306529.20071498 0 -249306529.20071498 -110221065.31214635 0 0 0 0 202698438.9438591 17583660.771629959 0 17583660.771629959 -54022792.244879127 0 0 0 0 -176259659.95580292 -28126479.065298229 0 -28126479.065298229 -7620281.3101652265 0 0 0 0 242953943.20835114 -24483998.519124299 0 -24483998.519124299 -78796359.094179511 0 0 0 0 288949972.98355865 54622368.541469187 0 54622368.541469187 55449414.822622627 0 0 0 0 239839141.82388687 -196850517.16966307 0 -196850517.16966307 69751329.975903839 0 0 0 0 171386947.77480316 161979318.02448523 0 161979318.02448523 -50714206.43098934 0 0 0 0 487711059.59029388 -487685796.38465333 0 -487685796.38465333 426897037.59855765 0 0 0 0 3527914.4460286498 -260463.09152726363 0 -260463.09152726363 -697603.84180755273 0 0 0 0 1062687417.834465 115953678.30602592 0 115953678.30602592 -381436498.87115228 0 0 0 0 200511110.21338654 -29724063.884884596 0 -29724063.884884596 -153455069.03162277 0 0 0 0 638082737.89727783 36756477.030242801 0 36756477.030242801 -148069389.20592099 0 0 0 0 509587018.8646965 -245633614.98322046 0 -245633614.98322046 -211495023.01912987 0 0 0 0 65107187.578310013 2049922.3511427641 0 2049922.3511427641 2331502.5116854906 0 0 0 0 498413181.22260284 -626428436.57471395 0 -626428436.57471395 444359349.13404918 0 0 0 0 637406.93595159054 244323.15265410393 0 244323.15265410393 422477.39655492798 0 0 0 0 554298019.28377438 -35977187.288697675 0 -35977187.288697675 -138940955.81339347 0 0 0 0 217166468.69245911 63671146.235735297 0 63671146.235735297 -119615944.4848015 0 0 0 0 510783208.66145611 -169463299.69950348 0 -169463299.69950348 -120950933.36153901 0 0 0 0 785233378.75056028 -379767002.06776536 0 -379767002.06776536 -18653445.217649937 0 0 0 0 242863587.66058731 -67082623.181213975 0 -67082623.181213975 -62724037.042728424 0 0 0 0 876672316.4702034 192535887.2013557 0 192535887.2013557 -115521217.40242408 0 0 0 0 -111464988.84776789 -396782069.07782125 0 -396782069.07782125 108352661.64854193 0 0 0 0 1796725.2266625054 -1496751.7916455269 0 -1496751.7916455269 273600.24756262032 0 0 0 0 -108547916.17042923 83980316.156461477 0 83980316.156461477 67166546.940819263 0 0 0 0 -35138408.65700531 4144789.6875088215 0 4144789.6875088215 81871843.303411961 0 0 0 0 253502878.03105927 -106014700.4407481 0 -106014700.4407481 92598632.269584656 0 0 0 0 99005024.588546753 151919176.00646758 0 151919176.00646758 -177812980.3338542 0 0 0 0 299227449.98126221 -18112228.05589056 0 -18112228.05589056 -68049023.080244541 0 0 0 0 3325007.0340876766 -2932805.6913294941 0 -2932805.6913294941 637075.65174307697 0 0 0 0 305795650.86906433 9746781.9063735008 0 9746781.9063735008 -216488767.37569499 0 0 0 0 154494233.71263123 -84745689.873935461 0 -84745689.873935461 -83456224.80656147 0 0 0 0 109294183.29676056 -163929016.21454233 0 -163929016.21454233 128696978.66556668 0 0 0 0 410735795.20228577 87457382.693692684 0 87457382.693692684 -81770313.026489288 0 0 0 0 399573740.30399323 43219705.891681731 0 43219705.891681731 -76283164.282470703 0 0 0 0 295274168.4416275 -18425946.380867958 0 -18425946.380867958 -105954792.59276152 0 0 0 0 429728472.37831116 61993163.696984768 0 61993163.696984768 -142214422.83989477 0 0 0 0 505043374.35575867 134279855.5658145 0 134279855.5658145 -77848217.737210989 0 0 0 0 417063670.2816391 51738721.369855881 0 51738721.369855881 -72367073.834895134 0 0 0 0 490562274.04667664 128852602.72798061 0 128852602.72798061 -46107115.110227108 0 0 0 0 305437923.05610466 70086652.485176161 0 70086652.485176161 -60628367.882878304 0 0 0 0 452585743.98680115 129851529.29384041 0 129851529.29384041 -6880029.6277492046 0 0 0 0 412520445.42181396 22846653.471601486 0 22846653.471601486 -51225376.94888258 0 0 0 0 508166155.98733521 91522401.220693111 0 91522401.220693111 2799085.8627157211 0 0 0 0 585215715.05557251 162276082.12882996 0 162276082.12882996 29879238.303224325 0 0 0 0 671843118.08589172 211052624.83010483 0 211052624.83010483 147814508.50162601 0 0 0 0 553157553.16691589 119807001.17989492 0 119807001.17989492 214402162.56989288 0 0 0 0 588047343.89144897 119959371.01807404 0 119959371.01807404 115963094.38227189 0 0 0 0 463059728.75708008 76907498.695092201 0 76907498.695092201 113301769.9394474 0 0 0 0 599165697.56190872 54404977.243626356 0 54404977.243626356 265423992.78308201 0 0 0 0 430292296.63091278 101975654.66806984 0 101975654.66806984 258302609.31801748 0 0 0 0 777362990.22306824 193033746.37784243 0 193033746.37784243 214105212.10239682 0 0 0 0 762668725.99898529 165578549.32048655 0 165578549.32048655 431638645.87215185 0 0 0 0 725562620.97519684 219843385.74061084 0 219843385.74061084 356320143.84219873 0 0 0 0 665096157.55662537 -71169811.471818924 0 -71169811.471818924 246398674.20299423 0 0 0 0 563809171.87418175 -4950851.3346039653 0 -4950851.3346039653 400605868.89439678 0 0 0 0 342662512.77488327 -42543458.265567422 0 -42543458.265567422 269242749.96821427 0 0 0 0 518142817.6807003 -30657142.672771513 0 -30657142.672771513 103624152.27740908 0 0 0 0 461057576.15312195 -310224179.87167239 0 -310224179.87167239 32078421.447228432 0 0 0 0 302789197.1656723 60723274.273451686 0 60723274.273451686 184363703.11488307 0 0 0 0 604871234.57077789 -174343383.96200657 0 -174343383.96200657 116150019.20573235 0 0 0 0 590055416.00601959 -59435582.649890661 0 -59435582.649890661 26724851.110785365 0 0 0 0 591399392.97180557 103921977.58986729 0 103921977.58986729 224889863.86273372 0 0 0 0 571362175.9414978 151051882.41985595 0 151051882.41985595 146274918.22337121 0 0 0 0 381934599.55740356 9274419.0015320331 0 9274419.0015320331 240010682.79304594 0 0 0 0 627653090.95872879 -7088692.5517286956 0 -7088692.5517286956 141603133.18946034 0 0 0 0 805692714.743927 254385093.37013501 0 254385093.37013501 229863401.40111876 0 0 0 0 877614303.47468185 284372668.98639506 0 284372668.98639506 97200233.811455101 0 0 0 0 894958621.49897766 318681989.73837656 0 318681989.73837656 152253752.78111219 0 0 0 0 1233558757.0421677 645323905.08983374 0 645323905.08983374 356091319.05603158 0 0 0 0 1434396879.5871277 71183529.985187769 0 71183529.985187769 443063639.26724076 0 0 0 0 702967029.23699188 227457726.63674998 0 227457726.63674998 759710749.67343616 0 0 0 0 766182493.48803329 240204907.97714305 0 240204907.97714305 326261321.39203644 0 0 0 0 666304458.94789505 -513754747.73580861 0 -513754747.73580861 202947500.82903209 0 0 0 0 547885716.68792439 -464184438.489811 0 -464184438.489811 182199715.95167005 0 0 0 0 467714161.53177261 -423122547.51744354 0 -423122547.51744354 256224386.52137262 0 0 0 0 630682874.84286118 -366817133.78935719 0 -366817133.78935719 137542673.79227364 0 0 0 0 443942.60040215286 -1002504.9084888995 0 -1002504.9084888995 1348403.4027748841 0 0 0 0 611914856.80702209 -347620925.62636006 0 -347620925.62636006 147901760.12752819 0 0 0 0 945509.93244493473 -3240393.172011409 0 -3240393.172011409 2774943.6306226905 0 0 0 0 -500526688.89250946 -42047311.56378901 0 -42047311.56378901 158806432.07411909 0 0 0 0 -623687973.75749588 -8521372.3713131547 0 -8521372.3713131547 220257822.93711686 0 0 0 0 213991282.85756302 -207239654.66736454 0 -207239654.66736454 -89169998.675571203 0 0 0 0 533539239.65631104 -320547390.84979928 0 -320547390.84979928 184439812.19491208 0 0 0 0 653124291.93442154 -320792786.43225753 0 -320792786.43225753 95474927.261827499 0 0 0 0 653355540.55080414 -327911733.66603482 0 -327911733.66603482 118869891.85882339 0 0 0 0 1476788974.549613 -628912529.51435339 0 -628912529.51435339 110467034.75255418 0 0 0 0 568294175.53226471 -582436727.34682083 0 -582436727.34682083 326778044.57111889 0 0 0 0 546649092.94319725 -377259165.30180752 0 -377259165.30180752 96142660.536897644 0 0 0 0 507607194.98761749 -260646364.78438431 0 -260646364.78438431 -212011289.00635707 0 0 0 0 299822970.0832634 -433549033.61667758 0 -433549033.61667758 72784984.53688556 0 0 0 0 556801086.46115196 -359295406.79314917 0 -359295406.79314917 65410512.931831002 0 0 0 0 413807902.13054276 -517381903.13415033 0 -517381903.13415033 295305415.78257781 0 0 0 0 51480133.295451164 -23674399.811332047 0 -23674399.811332047 1236872.4977369308 0 0 0 0 4398571.2948899306 -295023.84960838035 0 -295023.84960838035 -706836.18525489373 0 0 0 0 40510326.614661217 7422331.842735745 0 7422331.842735745 6475265.0256307125 0 0 0 0 302549616.78833008 -28346954.947730348 0 -28346954.947730348 -7702026.9611598253 0 0 0 0 258084818.27379608 -166200050.18028283 0 -166200050.18028283 -60957.356169939041 0 0 0 0 560615839.98529053 -388790148.26253849 0 -388790148.26253849 -10030151.116988182 0 0 0 0 413494499.79550552 -259008357.18602651 0 -259008357.18602651 21110271.332221985 0 0 0 0 484230427.35678864 -211735326.38840234 0 -211735326.38840234 -17755527.361600719 0 0 0 0 166384144.08535004 -131580124.5200423 0 -131580124.5200423 141709968.9725312 0 0 0 0 531501826.1577673 -358074902.16716921 0 -358074902.16716921 80929438.00394845 0 0 0 0 715397950.94022369 -261355350.55446208 0 -261355350.55446208 59279980.815304846 0 0 0 0 734064044.84770584 -304805634.5837611 0 -304805634.5837611 18866225.403922439 0 0 0 0 864620807.94033051 -259684747.77365625 0 -259684747.77365625 62409407.426221222 0 0 0 0 734062574.0625627 -317199590.01109904 0 -317199590.01109904 58471183.748818755 0 0 0 0 1148646147.1876526 -278611995.40497136 0 -278611995.40497136 23769287.07823807 0 0 0 0 746486556.40175152 -370621846.67321211 0 -370621846.67321211 105843065.55590439 0 0 0 0 1739559007.541893 -370398951.3120715 0 -370398951.3120715 41017684.285408258 0 0 0 0 7088022.6609083638 -1772570.2180294339 0 -1772570.2180294339 -933712.18423682544 0 0 0 0 439401177.87655258 -641104699.21016121 0 -641104699.21016121 637142894.38325453 0 0 0 0 368612215.51571655 -402391938.34828353 0 -402391938.34828353 224819503.87080646 0 0 0 0 11851988.014924392 1078749.4768125713 0 1078749.4768125713 -5701666.8824525606 0 0 0 0 8805570.328830719 546348.68371391296 0 546348.68371391296 -3126160.8154153824 0 0 0 0 11335337.83062619 -1589721.0865525007 0 -1589721.0865525007 -4821763.4144907976 0 0 0 0 14755134.17540741 -1280707.3247255683 0 -1280707.3247255683 -11691247.512970686 0 0 0 0 149371855.03953552 45187172.581175327 0 45187172.581175327 142366616.01485306 0 0 0 0 13850702.87297821 -4044202.7838903368 0 -4044202.7838903368 -10043952.04949078 0 0 0 0 13195989.250396729 -741442.6468527168 0 -741442.6468527168 -5838223.2915167212 0 0 0 0 15919203.669872284 -3720553.8683056831 0 -3720553.8683056831 -4402792.9245987236 0 0 0 0 12063913.278261088 2187365.1915800087 0 2187365.1915800087 -5460811.4392123669 0 0 0 0 723683004.53976822 198843370.01061028 0 198843370.01061028 71399797.96658355 0 0 0 0 938130616.81808853 365400339.95210618 0 365400339.95210618 50459648.325729653 0 0 0 0 946593163.67191315 289052142.13164264 0 289052142.13164264 -18541955.795078605 0 0 0 0 953197830.0665741 259387768.14836341 0 259387768.14836341 97485138.656339586 0 0 0 0 865194391.7265017 -8311932.0548067568 0 -8311932.0548067568 123889398.8388533 0 0 0 0 1045544335.3337326 19762155.083623946 0 19762155.083623946 40385472.64492631 0 0 0 0 1200752471.0186234 50907069.079766273 0 50907069.079766273 43008523.262432098 0 0 0 0 1189541915.7026749 186867114.41908741 0 186867114.41908741 57955149.865722992 0 0 0 0 911875231.54803848 219337455.03716278 0 219337455.03716278 59810091.410311699 0 0 0 0 1078383959.8205013 63167773.078529656 0 63167773.078529656 96577189.064587593 0 0 0 0 1433410423.0572891 130726357.03342485 0 130726357.03342485 108894588.89372945 0 0 0 0 1497184891.4143925 313175728.98267734 0 313175728.98267734 492023571.84883261 0 0 0 0 1280370265.7671814 -139226141.96778274 0 -139226141.96778274 1051990439.0197976 0 0 0 0 1146520426.8042746 168940256.6560877 0 168940256.6560877 132901290.37955523 0 0 0 0 1272308569.6261139 -26139044.698040485 0 -26139044.698040485 282098328.25931406 0 0 0 0 1130377395.9631958 83732105.133580565 0 83732105.133580565 504184818.89585972 0 0 0 0 1103796652.5669632 31122135.627877235 0 31122135.627877235 307807496.78001428 0 0 0 0 1015344402.9957466 167213534.87701726 0 167213534.87701726 228257277.31587029 0 0 0 0 979180355.45040894 188186553.35311067 0 188186553.35311067 222978130.64935875 0 0 0 0 985367301.6950841 248907853.59589082 0 248907853.59589082 13978778.978498697 0 0 0 0 3973787.3608029075 1588599.6394011453 0 1588599.6394011453 10626934.786721051 0 0 0 0 686253150.09607697 181119672.5915494 0 181119672.5915494 191797846.17780089 0 0 0 0 1231859547.9133987 367098682.91617322 0 367098682.91617322 -25165935.694133759 0 0 0 0 5890558.3637657166 8105577.8526512384 0 8105577.8526512384 7068550.4056744576 0 0 0 0 11508288.542178154 5033983.1925981939 0 5033983.1925981939 8585465.6492209435 0 0 0 0 11688828.067276001 4485333.1969940662 0 4485333.1969940662 1764988.1812720299 0 0 0 0 15178512.175109863 6285621.7503247261 0 6285621.7503247261 2106608.6401388645 0 0 0 0 21390047.849971771 7773461.8054862022 0 7773461.8054862022 -6314100.2710609436 0 0 0 0 18418882.159339905 8034687.0423536301 0 8034687.0423536301 167186.25456285477 0 0 0 0 14554260.979171753 13333214.573414087 0 13333214.573414087 8440044.9034810066 0 0 0 0 37285772.457027435 72393942.970420003 0 72393942.970420003 5146804.2341165543 0 0 0 0 -32766299.695068359 9691974.930337429 0 9691974.930337429 20995671.873499155 0 0 0 0 3667243.3971479684 1931461.150766924 0 1931461.150766924 10175624.544493292 0 0 0 0 49572670.654029846 -61415118.121252537 0 -61415118.121252537 31550386.32918644 0 0 0 0 1587436.4823924899 327035.24786414951 0 327035.24786414951 368368.44821592141 0 0 0 0 92498867.986501694 -8824625.6508796215 0 -8824625.6508796215 -5316853.0624914169 0 0 0 0 89144668.758422852 85697882.562300682 0 85697882.562300682 -53623498.702251434 0 0 0 0 4751754.4442722723 3959099.4041672647 0 3959099.4041672647 8941664.8346299846 0 0 0 0 -46601804.118537903 -66356421.418386698 0 -66356421.418386698 60417459.889517188 0 0 0 0 10811451.125196524 12736544.107884981 0 12736544.107884981 12722456.631940207 0 0 0 0 22153923.51966095 32689610.711767197 0 32689610.711767197 -43125419.308017492 0 0 0 0 -65849643.624305725 12197517.119702101 0 12197517.119702101 61040310.51955986 0 0 0 0 -38195828.947273254 -53991007.856332302 0 -53991007.856332302 78428224.285431385 0 0 0 0 -33541823.238584518 45456299.325897455 0 45456299.325897455 -502996.17944049835 0 0 0 0 33851246.521224976 9776880.9053530693 0 9776880.9053530693 10594226.195531845 0 0 0 0 -15798714.889358521 8711582.7663807869 0 8711582.7663807869 27955833.503637314 0 0 0 0 -18362259.324249268 1749184.992603302 0 1749184.992603302 14213188.935877323 0 0 0 0 2799043.5249465331 1992652.1812708527 0 1992652.1812708527 1114797.085895068 0 0 0 0 23967529.457431793 13030627.736035347 0 13030627.736035347 -2045482.609539032 0 0 0 0 31558180.484128006 4834579.4503394291 0 4834579.4503394291 593648.92908741627 0 0 0 0 34006347.774463654 -8976902.8368651867 0 -8976902.8368651867 7240906.7057418823 0 0 0 0 285789508.48590088 -175837518.52761269 0 -175837518.52761269 5817786.1279768348 0 0 0 0 -14925983.873451233 45903320.080106735 0 45903320.080106735 4502243.2832902372 0 0 0 0 -35748014.261703491 -49883757.076340556 0 -49883757.076340556 -13552093.814050198 0 0 0 0 22830567.088647798 2938426.9947481677 0 2938426.9947481677 2168736.1015338046 0 0 0 0 198852483.17417908 178216016.27229762 0 178216016.27229762 -81098152.448331356 0 0 0 0 -31308879.649047852 87278474.478832603 0 87278474.478832603 37930947.630413771 0 0 0 0 27346580.982368469 866851.17184495926 0 866851.17184495926 -2117350.7127203941 0 0 0 0 37426656.452667236 -5811748.6089262962 0 -5811748.6089262962 -8534896.3862271309 0 0 0 0 6434866.8370864168 1997683.8089153916 0 1997683.8089153916 -88161.108699213713 0 0 0 0 7893069.9764116555 3389840.1657247581 0 3389840.1657247581 4443221.8742059842 0 0 0 0 6533065.3729286194 -537295.98437422514 0 -537295.98437422514 -3523807.9012305737 0 0 0 0 14697627.128166199 -712836.43901109695 0 -712836.43901109695 -1372329.9972169399 0 0 0 0 14450871.741391897 -3782595.8791854978 0 -3782595.8791854978 -8030061.9658132307 0 0 0 0 158847814.40310669 42808900.494619489 0 42808900.494619489 -26689621.139228582 0 0 0 0 188161802.62265587 71252732.486095399 0 71252732.486095399 -42071489.893154621 0 0 0 0 189882401.78317642 33008222.145879067 0 33008222.145879067 -33508320.422646999 0 0 0 0 24778055.821655273 14820759.22004199 0 14820759.22004199 -7889272.6825940013 0 0 0 0 13856998.658859253 -26895766.519672126 0 -26895766.519672126 -16117251.051011264 0 0 0 0 -20499840.412857056 11108875.654308945 0 11108875.654308945 7295156.1910377145 0 0 0 0 -13943576.482910156 -48759415.470652103 0 -48759415.470652103 14547902.21680237 0 0 0 0 62270305.233779907 -33287816.637194574 0 -33287816.637194574 -2842150.8639698029 0 0 0 0 29536888.325439453 -9874282.7453799248 0 -9874282.7453799248 2291613.4157853127 0 0 0 0 196941888.01493835 -26361772.340207577 0 -26361772.340207577 -61381705.719381809 0 0 0 0 290762469.10198975 -34620292.584310055 0 -34620292.584310055 -77217906.035820007 0 0 0 0 259117952.52288818 -65373124.728498459 0 -65373124.728498459 -94704555.669348121 0 0 0 0 176996850.47576904 -99351847.680510044 0 -99351847.680510044 12357906.809644699 0 0 0 0 390552406.57998657 -9456022.8959726095 0 -9456022.8959726095 -135436629.58899689 0 0 0 0 31453345.372093201 -88745945.954639316 0 -88745945.954639316 -103073608.41885018 0 0 0 0 399115653.42863369 109858686.95737566 0 109858686.95737566 -93161026.257438183 0 0 0 0 4224435.3219797835 2520081.7335981652 0 2520081.7335981652 650182.21644621016 0 0 0 0 408462703.15859985 -207514495.56504625 0 -207514495.56504625 -101768338.87837729 0 0 0 0 289151616.81292725 -98870236.570568323 0 -98870236.570568323 -147090265.61703444 0 0 0 0 308910263.83135986 -73128674.793962002 0 -73128674.793962002 -128080796.1289525 0 0 0 0 307830468.55857849 68407002.552776217 0 68407002.552776217 -56605610.172929764 0 0 0 0 72834833.883018494 6712126.1543565392 0 6712126.1543565392 -39039607.171531975 0 0 0 0 235270048.88418579 -7339654.5797904134 0 -7339654.5797904134 -181430240.28261375 0 0 0 0 117561401.12052917 65352489.26782316 0 65352489.26782316 14145875.475299478 0 0 0 0 50291015.602294922 23307827.284698009 0 23307827.284698009 -27794730.484571129 0 0 0 0 79603658.619522095 55277673.1076217 0 55277673.1076217 1169951.6797215939 0 0 0 0 107504894.53483582 27804522.23285234 0 27804522.23285234 -69010143.369386286 0 0 0 0 48918216.967086792 29696456.623051882 0 29696456.623051882 -23309722.613835871 0 0 0 0 64073454.779734612 22846548.321277846 0 22846548.321277846 -29455813.440507293 0 0 0 0 64322446.093772888 14806564.817754388 0 14806564.817754388 -26272740.09507817 0 0 0 0 65449275.121060371 14500819.714113571 0 14500819.714113571 -26195744.222539663 0 0 0 0 13983236.383614786 7792327.2804738432 0 7792327.2804738432 1985539.4382732427 0 0 0 0 117822198.97507477 -12018209.146528363 0 -12018209.146528363 60962182.979995728 0 0 0 0 8188341.5997996628 4622546.0474592298 0 4622546.0474592298 -1187474.1830200509 0 0 0 0 295585854.96524048 28194284.438172936 0 28194284.438172936 -24322702.995241165 0 0 0 0 290384321.47412109 28476786.135370255 0 28476786.135370255 28861070.847545624 0 0 0 0 299081888.41439819 110623411.33491349 0 110623411.33491349 -77120686.653223515 0 0 0 0 300318027.63029861 98935876.851526141 0 98935876.851526141 18634295.041937828 0 0 0 0 21386150.323905945 19001506.899217129 0 19001506.899217129 -1692677.915150106 0 0 0 0 3799397.3117990494 34286362.092555434 0 34286362.092555434 -13527386.621669531 0 0 0 0 20982636.223833561 13577210.495125443 0 13577210.495125443 -438523.97280597687 0 0 0 0 18406837.168937273 11767099.983149413 0 11767099.983149413 1113399.8688445021 0 0 0 0 4943386.1243786812 45193211.983649634 0 45193211.983649634 15668005.90957427 0 0 0 0 27687857.211204223 10912996.911759045 0 10912996.911759045 -3382545.6472872533 0 0 0 0 20726878.026992798 15926050.431599855 0 15926050.431599855 11310039.708742142 0 0 0 0 13953911.459861755 4621430.0863103867 0 4621430.0863103867 1825741.5458077192 0 0 0 0 10039693.298606873 -3520992.9641578197 0 -3520992.9641578197 10950694.623526573 0 0 0 0 11149679.41103363 -6131108.2793395519 0 -6131108.2793395519 -6718487.4709014893 0 0 0 0 13000596.255180359 -3011766.7416803837 0 -3011766.7416803837 -5046803.9278688431 0 0 0 0 9740986.4123768806 5359316.4176889956 0 5359316.4176889956 -12949660.056773186 0 0 0 0 9888057.8151664734 7183202.4646773338 0 7183202.4646773338 4189553.4843540192 0 0 0 0 9187795.849105835 -8836547.5706615448 0 -8836547.5706615448 -10645063.105578423 0 0 0 0 129827513.11193085 95571562.697571754 0 95571562.697571754 12320199.591868877 0 0 0 0 11354135.018109933 5289103.2758711837 0 5289103.2758711837 -1289048.9547011685 0 0 0 0 35717843.58651337 7450107.7144541778 0 7450107.7144541778 -8166444.7638917994 0 0 0 0 6835101.8747711182 -7653861.623673439 0 -7653861.623673439 -4328770.6995539665 0 0 0 0 4814653.614364624 -38893751.345850468 0 -38893751.345850468 -37413619.182456017 0 0 0 0 8418807.3347854614 -4670110.2382836342 0 -4670110.2382836342 -2892841.7650508881 0 0 0 0 32949262.75044404 -3419305.3464879841 0 -3419305.3464879841 -8394148.6545268223 0 0 0 0 50190041.073493958 12654603.292898178 0 12654603.292898178 1877546.1145553589 0 0 0 0 75970644.580352783 9302394.1275551319 0 9302394.1275551319 44357287.597934291 0 0 0 0 38551366.810565948 26652308.22475338 0 26652308.22475338 20602791.736320496 0 0 0 0 15785242.653022766 168229193.67832279 0 168229193.67832279 45908271.08744812 0 0 0 0 30294894.057819232 9078962.465831507 0 9078962.465831507 -3565821.4682871327 0 0 0 0 48011414.50793457 12029439.808446884 0 12029439.808446884 3428153.6341884136 0 0 0 0 31464292.469423473 4093179.1911196671 0 4093179.1911196671 -7855565.7975473274 0 0 0 0 67039090.736373901 40817165.201714039 0 40817165.201714039 20719411.24852562 0 0 0 0 61614175.775115967 29732499.831983566 0 29732499.831983566 22526085.748600006 0 0 0 0 18383997.528929092 17945305.030450583 0 17945305.030450583 9054537.6961954981 0 0 0 0 16021720.038604736 5578509.6635818481 0 5578509.6635818481 -5074634.9430732727 0 0 0 0 29548301.510993436 16845024.217089724 0 16845024.217089724 2873338.872973742 0 0 0 0 27677299.378946111 16273523.708558969 0 16273523.708558969 614405.28512056358 0 0 0 0 18012834.555776633 3883862.963430997 0 3883862.963430997 1418503.3561259694 0 0 0 0 52591117.850830078 27726920.487255096 0 27726920.487255096 22638902.657112122 0 0 0 0 90687166.463447571 28353451.836904526 0 28353451.836904526 22067336.769126892 0 0 0 0 3813049.0574356392 309738.2483984828 0 309738.2483984828 -3009874.8081121892 0 0 0 0 62942475.01675415 37646008.821853638 0 37646008.821853638 41882597.95459938 0 0 0 0 125012746.31387329 52166529.872359276 0 52166529.872359276 8982790.6350402832 0 0 0 0 16547290.243606567 4328170.3369894028 0 4328170.3369894028 -4419616.4301834106 0 0 0 0 20831319.215617616 14954980.843033638 0 14954980.843033638 11960053.262389487 0 0 0 0 33161745.01289393 5882470.3401239067 0 5882470.3401239067 -7195802.2261816822 0 0 0 0 14098564.523206919 5901418.7994936816 0 5901418.7994936816 883516.26528222859 0 0 0 0 51372997.729011536 21804968.280519485 0 21804968.280519485 22040626.117630005 0 0 0 0 50149269.066135406 26630447.205542564 0 26630447.205542564 17891559.276329041 0 0 0 0 23851102.725357056 3838302.6034923494 0 3838302.6034923494 -35623010.220169067 0 0 0 0 71001373.352416992 62062307.618578434 0 62062307.618578434 31293741.783126831 0 0 0 0 90288199.944732666 34221144.688545227 0 34221144.688545227 5745562.4700746536 0 0 0 0 19412870.133987427 13378375.043448448 0 13378375.043448448 -3350639.0229129791 0 0 0 0 45082588.204090118 2609045.975019455 0 2609045.975019455 -37830440.009559631 0 0 0 0 125406663.04230881 22949558.020497322 0 22949558.020497322 68127288.10688591 0 0 0 0 102007259.7488327 72542674.31611824 0 72542674.31611824 20012826.279413223 0 0 0 0 120070129.0941925 38682900.066975117 0 38682900.066975117 33515124.760254622 0 0 0 0 125654739.07035065 61675733.883749127 0 61675733.883749127 20759845.31023407 0 0 0 0 10892676.8049739 362500.07581378892 0 362500.07581378892 -3080708.9171903133 0 0 0 0 61525699.633750916 7722504.6054124832 0 7722504.6054124832 -36461840.593519688 0 0 0 0 7545342.8457756042 -47110397.115836143 0 -47110397.115836143 3162213.6275787354 0 0 0 0 40435049.772624969 -4904600.615655899 0 -4904600.615655899 91245679.368419647 0 0 0 0 72074099.840177536 23251097.704998016 0 23251097.704998016 40547846.315723419 0 0 0 0 38698349.715606689 -12745960.943587303 0 -12745960.943587303 31953260.520593643 0 0 0 0 123297758.92183876 65482064.029548645 0 65482064.029548645 1110921.8920469284 0 0 0 0 37088579.715973899 -1381387.2203569897 0 -1381387.2203569897 -6980728.7941859737 0 0 0 0 52332235.142966747 -20647961.968184233 0 -20647961.968184233 22771668.745025635 0 0 0 0 76218917.77870369 39473016.254106998 0 39473016.254106998 24261684.059526443 0 0 0 0 138770386.66458893 33297048.609552383 0 33297048.609552383 17149804.60899353 0 0 0 0 6391974.0263952035 -40527.848837371916 0 -40527.848837371916 -690959.33566135727 0 0 0 0 201416661.67676926 148621670.89459682 0 148621670.89459682 -3017397.6636123657 0 0 0 0 123526453.87378311 38076224.459490776 0 38076224.459490776 18160515.748066902 0 0 0 0 128781743.82526016 50285367.112236977 0 50285367.112236977 13989837.213847637 0 0 0 0 140756708.57768297 49518966.964409411 0 49518966.964409411 13379810.10684967 0 0 0 0 124166633.45409012 52700829.823954701 0 52700829.823954701 1314743.6635837555 0 0 0 0 134573425.10404587 90405657.577616692 0 90405657.577616692 63573584.333852768 0 0 0 0 152425981.45441055 99316339.272835732 0 99316339.272835732 40206139.037607193 0 0 0 0 148756986.30971336 99154983.668768406 0 99154983.668768406 47611956.003899097 0 0 0 0 8060512.1334169358 -1465739.2824405432 0 -1465739.2824405432 -3852492.6637164094 0 0 0 0 173664003.12183762 104316952.97075605 0 104316952.97075605 34409368.60727644 0 0 0 0 185315247.58293533 53122077.248221397 0 53122077.248221397 91071167.805403709 0 0 0 0 122348848.94120145 153314456.44251007 0 153314456.44251007 149959815.95042944 0 0 0 0 3865295.9659356177 -1079307.0344588012 0 -1079307.0344588012 -2460466.4354438083 0 0 0 0 199371287.42287445 126427312.48772812 0 126427312.48772812 33990243.833070755 0 0 0 0 40831552.727333069 40726373.689466476 0 40726373.689466476 201715169.86111867 0 0 0 0 46213061.375133514 77837743.355528831 0 77837743.355528831 96341444.805938721 0 0 0 0 5013884.2860603333 26791788.649959564 0 26791788.649959564 107508893.84847546 0 0 0 0 17528291.916759491 70995016.520079136 0 70995016.520079136 60626390.838841438 0 0 0 0 34736878.856257439 35167053.18761766 0 35167053.18761766 120268737.81182861 0 0 0 0 60459630.561962128 114247931.99710202 0 114247931.99710202 165493557.47601342 0 0 0 0 55265044.361934662 60523953.459017277 0 60523953.459017277 72306179.880702734 0 0 0 0 61241753.737377167 170360945.84512424 0 170360945.84512424 210718760.667696 0 0 0 0 61059288.616614208 198924808.99269187 0 198924808.99269187 299434618.88875008 0 0 0 0 29194265.709339142 112138868.76596165 0 112138868.76596165 233970100.43493271 0 0 0 0 55822366.136497498 123661051.93495703 0 123661051.93495703 200786894.50256044 0 0 0 0 50074685.698188782 92084944.647899389 0 92084944.647899389 297261155.29973125 0 0 0 0 188786423.47429657 242585795.97604251 0 242585795.97604251 321269582.08090496 0 0 0 0 80656617.590499878 119469474.86566448 0 119469474.86566448 425550295.91412163 0 0 0 0 103954842.14901733 123729501.7133956 0 123729501.7133956 266584557.77282715 0 0 0 0 61836476.137947083 39016620.869153023 0 39016620.869153023 269923243.4142884 0 0 0 0 55722689.759819031 83140535.017258167 0 83140535.017258167 356280609.4362812 0 0 0 0 144229862.26134872 138671712.1699543 0 138671712.1699543 322500063.1616888 0 0 0 0 100884055.7986145 76872498.467144489 0 76872498.467144489 220438913.90627289 0 0 0 0 104219198.82828522 -2395879.5727558136 0 -2395879.5727558136 157704888.44258118 0 0 0 0 68968627.052074432 74461637.328958035 0 74461637.328958035 159520415.29779816 0 0 0 0 -21302930.719650269 -22599973.576142311 0 -22599973.576142311 342466173.04461956 0 0 0 0 88017113.247276306 -49286463.37280941 0 -49286463.37280941 99914613.695741653 0 0 0 0 59682959.970069885 12272785.875922203 0 12272785.875922203 267072132.45000458 0 0 0 0 83159924.787467957 56467139.315348625 0 56467139.315348625 260668778.67217827 0 0 0 0 80266484.038467407 180238821.61389446 0 180238821.61389446 488449032.40911055 0 0 0 0 2081633.3216247559 5695397.6542520523 0 5695397.6542520523 433176179.61705971 0 0 0 0 -135668604.20611572 -8573899.3409347534 0 -8573899.3409347534 604331072.1425581 0 0 0 0 43214625.775005341 65736590.019790649 0 65736590.019790649 385249700.12092972 0 0 0 0 -36204635.333709717 265256543.1837759 0 265256543.1837759 875217975.23259163 0 0 0 0 49843922.106185913 454259398.83543205 0 454259398.83543205 663116930.09135246 0 0 0 0 121777430.3320694 442143615.71042252 0 442143615.71042252 654203441.88029575 0 0 0 0 597037313.33760643 581044556.49852669 0 581044556.49852669 418929099.11422539 0 0 0 0 308814328.98805237 297713272.76067019 0 297713272.76067019 413030005.7938447 0 0 0 0 50362081.436485291 168627410.78911877 0 168627410.78911877 510232942.21293449 0 0 0 0 164799780.97343826 277701638.82271504 0 277701638.82271504 487161467.44470787 0 0 0 0 225157136.63508606 448462715.86258984 0 448462715.86258984 371487686.88831139 0 0 0 0 780857792.74595261 589989181.78877401 0 589989181.78877401 279527771.60224915 0 0 0 0 528952212.79032898 292229602.73884892 0 292229602.73884892 597600765.46778297 0 0 0 0 623636710.44062805 460836869.13231659 0 460836869.13231659 707926418.99703979 0 0 0 0 1181837258.5904846 160395770.34921265 0 160395770.34921265 398037860.99976873 0 0 0 0 364765074.04989624 877874438.17215919 0 877874438.17215919 1224115417.0259514 0 0 0 0 640104552.99420166 293681770.47850847 0 293681770.47850847 303892386.62635326 0 0 0 0 541878407.55745697 150577422.13457251 0 150577422.13457251 144319775.72217846 0 0 0 0 512690640.40055084 226846555.36446846 0 226846555.36446846 175811946.25547695 0 0 0 0 596118897.52171326 173476925.27128935 0 173476925.27128935 178676271.7724247 0 0 0 0 638097911.31811523 309850961.08044338 0 309850961.08044338 229589262.04794884 0 0 0 0 736479160.69165039 455707334.38530016 0 455707334.38530016 531056951.47481012 0 0 0 0 649357999.9919281 379999890.06100655 0 379999890.06100655 552737379.39771938 0 0 0 0 595180590.30278397 204092089.21607971 0 204092089.21607971 310258913.0915451 0 0 0 0 597139612.18713379 351881785.2236371 0 351881785.2236371 619566997.24453259 0 0 0 0 617880985.52148438 232926297.80641228 0 232926297.80641228 416695597.2297163 0 0 0 0 702697247.30968475 344139601.1557461 0 344139601.1557461 379732916.26145363 0 0 0 0 604036708.06175232 195803928.20208645 0 195803928.20208645 270245717.21010113 0 0 0 0 824003720.11540604 761679864.57265115 0 761679864.57265115 386721920.27688313 0 0 0 0 668239187.57422638 342168196.33946037 0 342168196.33946037 397369097.78524446 0 0 0 0 1119723077.7684479 561660224.91997337 0 561660224.91997337 473374784.26583338 0 0 0 0 606162072.79937744 517242515.07308984 0 517242515.07308984 906981524.54319382 0 0 0 0 807262437.6733017 858616415.86341715 0 858616415.86341715 661755004.33961391 0 0 0 0 1619629.4613276422 -1182226.3848283589 0 -1182226.3848283589 3054464.7704625921 0 0 0 0 837640962.55467987 996971524.04480791 0 996971524.04480791 1038635910.4533901 0 0 0 0 -401194737.67372513 -183309848.50005531 0 -183309848.50005531 498302066.42050457 0 0 0 0 -219666697.51983643 168361353.32816792 0 168361353.32816792 1143653090.293205 0 0 0 0 621074338.72525024 283043571.23215914 0 283043571.23215914 1329076345.8482418 0 0 0 0 -33239797.143226624 -106470235.81430149 0 -106470235.81430149 -28534066.856613159 0 0 0 0 3547190.8574254103 -1338989.2191799246 0 -1338989.2191799246 8443648.8250849489 0 0 0 0 -19581382.448509216 120843885.27845097 0 120843885.27845097 -47409113.292867661 0 0 0 0 -166027368.37430191 49949798.866132259 0 49949798.866132259 8697280.426738739 0 0 0 0 69507905.230278015 217886937.89565134 0 217886937.89565134 750233709.12843943 0 0 0 0 1147638171.5345192 737227343.16373956 0 737227343.16373956 348740403.46521187 0 0 0 0 1604954.2371876836 1826061.0660256781 0 1826061.0660256781 3368847.0228828187 0 0 0 0 1412300898.3264227 1713526.9338240176 0 1713526.9338240176 -38837468.170673847 0 0 0 0 526199361.35912323 -79498509.112199247 0 -79498509.112199247 89389893.909384489 0 0 0 0 -25512447.947629929 66524265.824631929 0 66524265.824631929 -14714296.308353424 0 0 0 0 4300181.3272737339 8673958.7481619082 0 8673958.7481619082 14427492.54840257 0 0 0 0 25888285.869522095 16759962.864754677 0 16759962.864754677 -17264309.028453827 0 0 0 0 -10613933.771877289 88334103.851599693 0 88334103.851599693 -7570149.3978538513 0 0 0 0 49697908.520835876 25570877.969603539 0 25570877.969603539 -42577044.380782366 0 0 0 0 33313167.925411224 15652372.439248085 0 15652372.439248085 -19385290.52116394 0 0 0 0 78501896.127288818 7943164.9331541061 0 7943164.9331541061 -18086090.348189354 0 0 0 0 55942085.004558563 45400817.632214546 0 45400817.632214546 9552888.624704361 0 0 0 0 62224267.400138855 -10010361.12219429 0 -10010361.12219429 122941498.32881308 0 0 0 0 77646987.210952759 49180726.179052949 0 49180726.179052949 122604847.59712791 0 0 0 0 90838409.667297363 -8692496.0590553284 0 -8692496.0590553284 38305272.292238235 0 0 0 0 59147428.203193665 68955581.621704102 0 68955581.621704102 79390451.261093855 0 0 0 0 31324884.326969147 19454859.241517305 0 19454859.241517305 -559177.10348701477 0 0 0 0 1067422414.8378685 -660368980.27823687 0 -660368980.27823687 -293869514.31041586 0 0 0 0 585507190.36791611 -657909614.58261311 0 -657909614.58261311 128569571.51469815 0 0 0 0 2199090118.7984819 -1039156707.0626384 0 -1039156707.0626384 -313775766.03079683 0 0 0 0 1049737158.1670303 -571751640.89670539 0 -571751640.89670539 -498954412.14183009 0 0 0 0 1392783445.1547747 -591503188.84398103 0 -591503188.84398103 -568628738.13856375 0 0 0 0 1121875689.0055714 -330465970.13550305 0 -330465970.13550305 -814919006.71945643 0 0 0 0 2205806849.8081322 398294814.42787004 0 398294814.42787004 -1176180555.1911533 0 0 0 0 739505412.94823837 -446602945.61706901 0 -446602945.61706901 -322226257.38079286 0 0 0 0 753287530.71552467 -436005230.03836179 0 -436005230.03836179 -384190241.36677408 0 0 0 0 571355069.76625252 -386750810.60531217 0 -386750810.60531217 -112003584.13590769 0 0 0 0 746083246.33073425 -421984924.93054748 0 -421984924.93054748 -200366755.12279844 0 0 0 0 551171830.90940559 -205779587.90021479 0 -205779587.90021479 -152431277.0239923 0 0 0 0 305148789.02087402 -395919241.18743944 0 -395919241.18743944 78278114.3734622 0 0 0 0 560215730.52769089 -484146870.47247386 0 -484146870.47247386 28019195.761925183 0 0 0 0 106574164.19408226 -195269587.92713347 0 -195269587.92713347 261126828.73061347 0 0 0 0 449717442.28354073 -545668757.13155282 0 -545668757.13155282 188164506.25489533 0 0 0 0 160000196.29230499 -68118634.14712882 0 -68118634.14712882 -96418507.367670447 0 0 0 0 505997746.84613991 -261166116.30218473 0 -261166116.30218473 -74696972.059279203 0 0 0 0 176254300.09806538 28677287.871044286 0 28677287.871044286 -27937368.029112585 0 0 0 0 135238437.83218765 -14323805.981097698 0 -14323805.981097698 -296147922.59609985 0 0 0 0 162530636.26306915 -142101949.42205071 0 -142101949.42205071 -259748075.41092181 0 0 0 0 56882322.734260559 -134216567.45934582 0 -134216567.45934582 -202454217.04037657 0 0 0 0 326557508.64866447 -205495632.05364662 0 -205495632.05364662 -206695606.87576151 0 0 0 0 149652838.99480343 -77479458.191191435 0 -77479458.191191435 -226950404.46304655 0 0 0 0 280127284.70598221 -199858070.09240007 0 -199858070.09240007 -418188053.05154872 0 0 0 0 430132055.70965385 -587254031.61604047 0 -587254031.61604047 109228749.98290236 0 0 0 0 938650114.40501261 -1408565118.4495955 0 -1408565118.4495955 602808967.90964758 0 0 0 0 2202841645.2423439 1183547154.7867701 0 1183547154.7867701 455250351.10535818 0 0 0 0 -370422640.31423569 -715827379.41297841 0 -715827379.41297841 896915333.52133226 0 0 0 0 5443337.5587342028 -2827833.0380668696 0 -2827833.0380668696 2756734.964615874 0 0 0 0 1137828441.1048803 502720602.79333425 0 502720602.79333425 29409826.543558806 0 0 0 0 -122930427.52660561 -338677288.38107347 0 -338677288.38107347 -372123876.47452402 0 0 0 0 12372398.996902395 -8840365.2516194563 0 -8840365.2516194563 4837761.7758119898 0 0 0 0 1142247723.0545464 287646929.10952914 0 287646929.10952914 -5750824.0223177671 0 0 0 0 366160669.67072868 254149804.91949344 0 254149804.91949344 90771039.186461329 0 0 0 0 2204919649.2515755 453214241.54401779 0 453214241.54401779 -343525000.70037335 0 0 0 0 1530306524.3315554 122260402.10518926 0 122260402.10518926 -288304088.21951663 0 0 0 0 1538875436.6731553 75686421.525256693 0 75686421.525256693 -145131771.57912254 0 0 0 0 385771636.00948191 -236669359.93165451 0 -236669359.93165451 -1454332.0277534723 0 0 0 0 1778648434.6384065 -564448308.11583006 0 -564448308.11583006 52875809.804002464 0 0 0 0 3372743.153130549 -2551409.4174293252 0 -2551409.4174293252 -2073906.1384957349 0 0 0 0 243437118.36740017 -1444469.8741838932 0 -1444469.8741838932 -168048331.85183418 0 0 0 0 1856780212.6158199 -907265198.38115954 0 -907265198.38115954 -299146227.69577312 0 0 0 0 1914275522.2065446 133686042.40752622 0 133686042.40752622 -288153072.41056752 0 0 0 0 2204740062.1788588 206928113.48799095 0 206928113.48799095 -38432855.31911879 0 0 0 0 3002920049.3426089 -266406376.90158081 0 -266406376.90158081 -548203329.17882204 0 0 0 0 43581736.092593193 -11006365.656466246 0 -11006365.656466246 -112835024.52398384 0 0 0 0 45389493.233545303 -74131305.457940102 0 -74131305.457940102 1682494.0706260204 0 0 0 0 -60158044.490094185 -8635667.8678034544 0 -8635667.8678034544 55975853.762202263 0 0 0 0 -30390524.007635117 -83113492.708446026 0 -83113492.708446026 185727196.44645643 0 0 0 0 -1074759.7338428497 -57699453.388123512 0 -57699453.388123512 82850697.011122227 0 0 0 0 223189253.76586246 131283965.93441275 0 131283965.93441275 4267692.1750985384 0 0 0 0 8430772.8534544762 -8314985.8236819692 0 -8314985.8236819692 -5792908.195313043 0 0 0 0 12092539.852914095 8145766.7023257017 0 8145766.7023257017 114443007.28416967 0 0 0 0 61742091.054083824 7710568.1126914024 0 7710568.1126914024 -16686739.515561581 0 0 0 0 3711610.7887452533 17200.650401653256 0 17200.650401653256 -3014276.2878351519 0 0 0 0 24897836.342875123 -23698536.622576311 0 -23698536.622576311 -80465388.393911362 0 0 0 0 22809150.986810669 -4979137.1348900851 0 -4979137.1348900851 -9447804.6288271062 0 0 0 0 24786755.330341339 107808069.98652363 0 107808069.98652363 -244630576.98851538 0 0 0 0 212369660.24078846 -160649530.80875927 0 -160649530.80875927 46762294.513925865 0 0 0 0 23993863.559758186 -40894371.463876225 0 -40894371.463876225 -221566359.01671934 0 0 0 0 17247343.735419478 -12757932.677055229 0 -12757932.677055229 3335774.461687854 0 0 0 0 103201279.77020264 -67504854.21010375 0 -67504854.21010375 -224977522.07899109 0 0 0 0 131249891.20424461 16401129.704633355 0 16401129.704633355 -304586890.28874111 0 0 0 0 109568296.88010025 -20927188.363423824 0 -20927188.363423824 -338955575.09581661 0 0 0 0 200443916.86075211 -67165886.772041559 0 -67165886.772041559 -333273531.71203566 0 0 0 0 97628679.083503723 -81651992.180579901 0 -81651992.180579901 -405743036.88850319 0 0 0 0 119109263.0157547 62518702.259820938 0 62518702.259820938 -379412505.87807298 0 0 0 0 -128389148.70857239 -38498745.475630522 0 -38498745.475630522 -421389697.42267799 0 0 0 0 -156175066.44008255 296830363.21525812 0 296830363.21525812 -217865724.58263397 0 0 0 0 3182419.2457557246 -378218.32793623395 0 -378218.32793623395 -2747840.2420637207 0 0 0 0 115987361.54968262 37985074.092067719 0 37985074.092067719 -572043593.72104979 0 0 0 0 -443776721.69382858 -136359852.71493268 0 -136359852.71493268 2221032.4842953682 0 0 0 0 -125923613.23102188 174230993.60345674 0 174230993.60345674 -432632958.35804689 0 0 0 0 -37567756.297775269 -148962.55329179764 0 -148962.55329179764 -786927820.85950601 0 0 0 0 3088027.555937469 -2714802.5695946403 0 -2714802.5695946403 -2030792.503973701 0 0 0 0 19626631.741950989 59152511.383826852 0 59152511.383826852 -776947194.62401891 0 0 0 0 -109119492.30387115 -216856832.13909698 0 -216856832.13909698 -541517722.53439426 0 0 0 0 -209453684.38838005 -86277681.475232363 0 -86277681.475232363 -27684232.577917576 0 0 0 0 9038861.6798219681 -28237666.602279156 0 -28237666.602279156 5688203.1999664307 0 0 0 0 8143650.2222139761 -12526913.966148932 0 -12526913.966148932 8378727.5721048545 0 0 0 0 25502335.6994133 32246545.190948486 0 32246545.190948486 -158357859.83158815 0 0 0 0 20098536.397260502 -4464088.6295597404 0 -4464088.6295597404 -8535767.3085138109 0 0 0 0 11585034.097506046 -16119737.968312323 0 -16119737.968312323 -5382824.6877641678 0 0 0 0 22949050.888036728 -23801908.904321671 0 -23801908.904321671 -2828493.7627561092 0 0 0 0 1078561.3614196777 -32127710.171319008 0 -32127710.171319008 63535552.504722118 0 0 0 0 45917603.750805616 -46962726.017391324 0 -46962726.017391324 19138369.407974243 0 0 0 0 -7958277.777179718 -7451613.8719060421 0 -7451613.8719060421 7619647.5129842758 0 0 0 0 -13618489.669851303 -7846006.0618673563 0 -7846006.0618673563 24548860.213125527 0 0 0 0 15334418.348331928 -34731726.442731857 0 -34731726.442731857 9826035.5215015411 0 0 0 0 -2374879.2925033569 4010999.116242826 0 4010999.116242826 7065884.2950720787 0 0 0 0 15154614.633544445 47485176.122281075 0 47485176.122281075 24963295.127702951 0 0 0 0 17686322.720153809 3569375.4755382538 0 3569375.4755382538 -67656427.261685863 0 0 0 0 -331871266.08260345 -224215143.64606121 0 -224215143.64606121 59359923.539555654 0 0 0 0 378935007.40046883 59755945.61147704 0 59755945.61147704 -82912320.633821651 0 0 0 0 11709293.885603964 -5564180.9600072615 0 -5564180.9600072615 -1723940.559003789 0 0 0 0 6507842.8048095703 -1656610.9346212149 0 -1656610.9346212149 -23032623.579216503 0 0 0 0 8441131.66382223 -8722910.2209094483 0 -8722910.2209094483 5311013.5884222519 0 0 0 0 -295848130.60609245 -228901364.48390555 0 -228901364.48390555 -37601026.419085026 0 0 0 0 -230805127.70914316 -32317117.466339782 0 -32317117.466339782 71793068.915904403 0 0 0 0 390435753.87745285 -166371083.51841894 0 -166371083.51841894 -86010927.491302013 0 0 0 0 34124570.357479095 82492226.556575894 0 82492226.556575894 -26787301.096934676 0 0 0 0 -213246363.1693573 -93943713.352579713 0 -93943713.352579713 -40801082.244931191 0 0 0 0 -43143620.054048538 -187018235.63934174 0 -187018235.63934174 -108788816.82915044 0 0 0 0 134824477.37616158 -44937160.710664392 0 -44937160.710664392 -387557780.27711225 0 0 0 0 -18032434.188930511 -12125453.088246703 0 -12125453.088246703 -84971916.999923319 0 0 0 0 176354338.92558622 100281041.11252981 0 100281041.11252981 -81097181.499039173 0 0 0 0 470965879.8235054 -41616081.458272696 0 -41616081.458272696 -198268622.00858757 0 0 0 0 424186833.93168831 204209689.42052847 0 204209689.42052847 -185388998.65074706 0 0 0 0 288698689.40078735 315308459.01392674 0 315308459.01392674 85972532.193338633 0 0 0 0 163453890.5940609 -4252775.0575123569 0 -4252775.0575123569 -268705062.66771358 0 0 0 0 587913.1042881161 -621054.33964924794 0 -621054.33964924794 111877.32821239368 0 0 0 0 30047506.701759338 156334961.78503254 0 156334961.78503254 -214831454.0107584 0 0 0 0 -37712872.499904633 19842558.401981115 0 19842558.401981115 -164242533.61056995 0 0 0 0 -402802656.45119286 -125256873.00988364 0 -125256873.00988364 -352465979.60242057 0 0 0 0 -96050319.394592285 91086358.954156756 0 91086358.954156756 -244440458.53924894 0 0 0 0 56947715.338180542 36676154.480168343 0 36676154.480168343 -151431687.50238544 0 0 0 0 79151078.33336544 21462981.566788763 0 21462981.566788763 -411383220.23960543 0 0 0 0 -157866842.80134583 -126776076.48104525 0 -126776076.48104525 -272937861.16211367 0 0 0 0 -30711629.265823364 -83332526.33435829 0 -83332526.33435829 -72928982.10298346 0 0 0 0 -90026057.191987038 -8717835.3935109675 0 -8717835.3935109675 -128383841.84307086 0 0 0 0 1279137.3388428539 -1511236.5610692115 0 -1511236.5610692115 277289.73703716299 0 0 0 0 -76352158.243465424 51509554.245655313 0 51509554.245655313 -58943579.599251159 0 0 0 0 147873779.25180244 9528477.9941318631 0 9528477.9941318631 -271416971.97223127 0 0 0 0 286133199.90933228 -350287092.81348169 0 -350287092.81348169 -148388716.51808548 0 0 0 0 570275.2481302321 -1208225.8837970432 0 -1208225.8837970432 283720.11016468919 0 0 0 0 103793413.67936945 130494707.2304386 0 130494707.2304386 -20027207.833763838 0 0 0 0 247224814.283535 203092679.07659388 0 203092679.07659388 -21874037.767638922 0 0 0 0 288793802.40267563 181733767.80208135 0 181733767.80208135 -49428827.332327127 0 0 0 0 294487540.7060051 204379652.82235581 0 204379652.82235581 -23248095.977745026 0 0 0 0 473328352.2057724 215367997.86163697 0 215367997.86163697 -46762682.526541263 0 0 0 0 87983496.252053261 221328949.2880162 0 221328949.2880162 59826683.653323412 0 0 0 0 351768225.98785782 99029478.40923962 0 99029478.40923962 -46318467.483768001 0 0 0 0 371188442.95007133 90303027.341255099 0 90303027.341255099 -46817025.914924033 0 0 0 0 295033642.08966064 165567502.12467968 0 165567502.12467968 -31452629.590146542 0 0 0 0 282290556.5076046 63859849.313572407 0 63859849.313572407 -63986608.013818026 0 0 0 0 47045878.778678894 -48232146.297172308 0 -48232146.297172308 -17736345.648302674 0 0 0 0 295715144.06305504 -100624125.80093449 0 -100624125.80093449 -10839721.175308704 0 0 0 0 322654451.42751694 -86476046.018565059 0 -86476046.018565059 -3467231.3169950247 0 0 0 0 266617433.18644333 -82367444.337274536 0 -82367444.337274536 16340697.674403965 0 0 0 0 558157849.91186523 -172432585.7001093 0 -172432585.7001093 71170226.540870994 0 0 0 0 297298400.31876659 -64572764.139107257 0 -64572764.139107257 26653751.747804344 0 0 0 0 469173376.37788057 -439937096.98190796 0 -439937096.98190796 200294155.12674022 0 0 0 0 499586905.67889905 -233402721.7455326 0 -233402721.7455326 26877450.168025792 0 0 0 0 660618196.59682846 -311881315.55183405 0 -311881315.55183405 64820172.647769213 0 0 0 0 748805035.18764877 -72047176.300743222 0 -72047176.300743222 -92057532.792517185 0 0 0 0 430953509.21143532 5388057.4614914209 0 5388057.4614914209 -32505512.006844938 0 0 0 0 530369222.00764847 77046666.334409684 0 77046666.334409684 -56389888.13338764 0 0 0 0 598974620.00026512 121312834.8536371 0 121312834.8536371 -51420652.731960773 0 0 0 0 768355208.51277351 -143463845.21923256 0 -143463845.21923256 -16554599.40492487 0 0 0 0 863659797.43402791 -338065457.34285134 0 -338065457.34285134 411038575.62860465 0 0 0 0 960995735.10693359 -61487992.699602365 0 -61487992.699602365 -6618972.2216409445 0 0 0 0 888518474.81814384 -210090485.98614305 0 -210090485.98614305 -34440656.29389254 0 0 0 0 629059895.95281219 -299903867.756585 0 -299903867.756585 98049488.650760815 0 0 0 0 523503476.83291531 46870781.201190621 0 46870781.201190621 -5342294.7005465031 0 0 0 0 1149482478.9965019 -328193383.75822848 0 -328193383.75822848 223120148.58027703 0 0 0 0 1345372357.9887657 -929803893.04403639 0 -929803893.04403639 500623480.54420888 0 0 0 0 1457863747.9784927 -873619395.29951715 0 -873619395.29951715 281726994.80922794 0 0 0 0 1146966565.5749743 -878993698.38270974 0 -878993698.38270974 320353836.72654516 0 0 0 0 1201982119.9668193 -211258550.51591468 0 -211258550.51591468 -184350685.22213018 0 0 0 0 2292973950.5374966 -655705051.1918211 0 -655705051.1918211 -112032171.58384609 0 0 0 0 7135999.7820181102 -2766118.2533728564 0 -2766118.2533728564 -1394856.6489300928 0 0 0 0 105756257.41719818 33461561.078046799 0 33461561.078046799 -53548882.723087013 0 0 0 0 14494460.734334946 -28411015.558440685 0 -28411015.558440685 -26622031.826539516 0 0 0 0 203769.43583129346 -300205.05272352416 0 -300205.05272352416 205328.8636573226 0 0 0 0 1192572754.9589648 -471627665.28543437 0 -471627665.28543437 -93366074.263237208 0 0 0 0 1762778964.5881653 -896018103.6972667 0 -896018103.6972667 112558690.92855662 0 0 0 0 1554651999.4214134 -554117408.54144502 0 -554117408.54144502 424479043.21343398 0 0 0 0 2445840540.4712038 -948049999.23054516 0 -948049999.23054516 120201968.48163891 0 0 0 0 118023.89396886842 -159147.33186417073 0 -159147.33186417073 3733102.7492154539 0 0 0 0 1371351620.5286312 -982546376.35225117 0 -982546376.35225117 1355435369.9512606 0 0 0 0 22593307.743144333 83577221.254690707 0 83577221.254690707 421302822.89412403 0 0 0 0 83559083.070663452 -582177369.48768687 0 -582177369.48768687 718421987.80037808 0 0 0 0 900503867.03178215 -757204446.33099675 0 -757204446.33099675 293060929.61363912 0 0 0 0 1223616659.8555088 -280005095.52638626 0 -280005095.52638626 208244679.95048404 0 0 0 0 1000392411.195652 -445587964.75559461 0 -445587964.75559461 91441697.247028708 0 0 0 0 717847158.95334625 -326440458.12608004 0 -326440458.12608004 42730297.26029551 0 0 0 0 683498494.14143515 -583205904.20225012 0 -583205904.20225012 188895923.85234261 0 0 0 0 331982631.58151627 -409775336.3416146 0 -409775336.3416146 201203973.08444595 0 0 0 0 337045377.26281357 -467522801.78849733 0 -467522801.78849733 256556137.49532789 0 0 0 0 494250641.86970139 -104038538.88499755 0 -104038538.88499755 238845294.27865994 0 0 0 0 114779293.16736126 -496269006.10822475 0 -496269006.10822475 174211286.24678564 0 0 0 0 -85910800.35519886 -133791709.35081849 0 -133791709.35081849 248438043.25499582 0 0 0 0 310343867.29400253 -600054680.91924036 0 -600054680.91924036 274349164.30889654 0 0 0 0 170336675.21193314 -138519102.19564033 0 -138519102.19564033 -36430143.811332345 0 0 0 0 7846147.1094083413 -1871245.0518459668 0 -1871245.0518459668 -2298154.1251329221 0 0 0 0 318890374.42550659 -177059602.08502984 0 -177059602.08502984 56382802.497181177 0 0 0 0 295457988.25417709 -212855910.38971949 0 -212855910.38971949 72000677.47454071 0 0 0 0 222411927.62082434 -106423387.63223195 0 -106423387.63223195 12041266.696830273 0 0 0 0 31188553.176696777 -45055884.799037516 0 -45055884.799037516 31563327.485102654 0 0 0 0 503966827.41936493 -137318342.82932198 0 -137318342.82932198 -107463169.79394114 0 0 0 0 458804314.14490128 -261471326.85104382 0 -261471326.85104382 -24722652.892439604 0 0 0 0 136043275.61240196 23585315.815992355 0 23585315.815992355 -42072822.270325899 0 0 0 0 840661245.22579193 -173179717.12470549 0 -173179717.12470549 -130903451.1808303 0 0 0 0 -132002477.96421671 42663417.666156754 0 42663417.666156754 9290016.7424604893 0 0 0 0 -652547.44357672706 14581.574629519135 0 14581.574629519135 2177909.2611993267 0 0 0 0 417166250.92652893 -89026402.972315073 0 -89026402.972315073 187080478.38500834 0 0 0 0 3595284.6709248945 -734230.04426692799 0 -734230.04426692799 -1147774.5392696536 0 0 0 0 618575635.61836624 -636268504.28866518 0 -636268504.28866518 470024547.75430667 0 0 0 0 804245519.64499664 195877118.85572886 0 195877118.85572886 -963512045.64788163 0 0 0 0 1028260976.2795715 -453944584.07797885 0 -453944584.07797885 164249486.39093268 0 0 0 0 1020035379.6000671 45699276.37770009 0 45699276.37770009 -859603039.10899091 0 0 0 0 686865854.7419281 -680827976.21040475 0 -680827976.21040475 610142377.64224827 0 0 0 0 1145338383.0536499 281102014.80820096 0 281102014.80820096 -873186791.04768586 0 0 0 0 -714259827.77259827 85442516.831617594 0 85442516.831617594 35932891.201000392 0 0 0 0 3215434.412962772 -1465078.988863897 0 -1465078.988863897 -795607.26325314678 0 0 0 0 328705798.88090897 -268571328.04634893 0 -268571328.04634893 128952164.25103974 0 0 0 0 796739806.44960022 -501281544.00577557 0 -501281544.00577557 224549626.96271896 0 0 0 0 180971312.99530458 -321999702.10078275 0 -321999702.10078275 374894347.98758602 0 0 0 0 606811739.89807892 -369189732.58737957 0 -369189732.58737957 137315698.30080184 0 0 0 0 754576107.27353096 -349918521.72991085 0 -349918521.72991085 137108927.00772166 0 0 0 0 574829068.15302467 -429559685.86517972 0 -429559685.86517972 123291183.84515731 0 0 0 0 477942592.77108383 -383151627.91894412 0 -383151627.91894412 235429769.90884316 0 0 0 0 428209199.19223022 -434220136.95211697 0 -434220136.95211697 263639953.2504921 0 0 0 0 414470662.42230225 -492607916.22977197 0 -492607916.22977197 166353398.77370435 0 0 0 0 136482043.19507217 -335228464.6250692 0 -335228464.6250692 256173224.18597895 0 0 0 0 458110850.96207428 -422694231.99191785 0 -422694231.99191785 184153146.14244884 0 0 0 0 851201939.61155701 -435546424.36570907 0 -435546424.36570907 105407137.50991307 0 0 0 0 423577179.90469742 -578840460.47971058 0 -578840460.47971058 230861025.93249297 0 0 0 0 -507344126.42730331 -369989427.79657304 0 -369989427.79657304 205457178.5481402 0 0 0 0 1923506.2882100865 -2166755.6046845578 0 -2166755.6046845578 2446302.4711955688 0 0 0 0 937386211.45462799 -666405221.86111665 0 -666405221.86111665 404285527.65228754 0 0 0 0 661234925.40030289 -367965078.95538694 0 -367965078.95538694 233662235.90574777 0 0 0 0 575445715.93290329 -349432408.8954618 0 -349432408.8954618 228886941.16780794 0 0 0 0 565587718.61016083 -340422286.98570657 0 -340422286.98570657 465068822.62219 0 0 0 0 746835508.25415039 -246945699.42357755 0 -246945699.42357755 231759782.6903165 0 0 0 0 649133901.91791534 -63617154.84589716 0 -63617154.84589716 75342967.283478767 0 0 0 0 550633388.34970474 -446494423.04941869 0 -446494423.04941869 225456657.05135331 0 0 0 0 533840957.76728678 -420202231.26049852 0 -420202231.26049852 270599610.31732327 0 0 0 0 1567103604.7594185 40579898.868746623 0 40579898.868746623 79278552.497268438 0 0 0 0 149073834.6949482 -158842328.50965452 0 -158842328.50965452 -236886458.75658703 0 0 0 0 -318389106.34920883 -292904680.13496357 0 -292904680.13496357 -136786264.75403643 0 0 0 0 5417336.0593629852 -6079888.2014558613 0 -6079888.2014558613 5063169.8111803178 0 0 0 0 519868473.42227268 173863975.23911536 0 173863975.23911536 138370432.52943522 0 0 0 0 453638010.39993668 48750043.085702747 0 48750043.085702747 79265407.250355884 0 0 0 0 299440729.47545385 149497795.48874885 0 149497795.48874885 156889128.75363004 0 0 0 0 347139416.32306862 -14263158.96052663 0 -14263158.96052663 -82828779.773865223 0 0 0 0 228219272.43076324 -12595226.826113462 0 -12595226.826113462 6990872.2950588465 0 0 0 0 358001104.98933792 66977303.558463573 0 66977303.558463573 -200054140.37948906 0 0 0 0 294843067.77029991 75551478.006595016 0 75551478.006595016 -329899341.63228011 0 0 0 0 200240052.96328926 230841281.39176053 0 230841281.39176053 -351812347.60449409 0 0 0 0 255161568.92477608 -44672326.363681063 0 -44672326.363681063 -92710528.193714976 0 0 0 0 318374698.71302795 97044838.873521328 0 97044838.873521328 -151544082.94126582 0 0 0 0 211135961.01105499 43579539.654208183 0 43579539.654208183 -173215434.99800771 0 0 0 0 278062734.33486176 8014198.5824602842 0 8014198.5824602842 -318332746.72912979 0 0 0 0 202084957.60099411 -65906368.617726028 0 -65906368.617726028 -251247105.01505959 0 0 0 0 190043360.59043121 40195889.183975041 0 40195889.183975041 -171491878.78034508 0 0 0 0 6930156.8880577087 -123655888.15333647 0 -123655888.15333647 -62961318.905804038 0 0 0 0 349313185.69825363 -96454207.614793673 0 -96454207.614793673 -66891053.486537814 0 0 0 0 212824747.68309784 -72577806.159514278 0 -72577806.159514278 84547978.048976779 0 0 0 0 215323990.42681122 -359114019.15913934 0 -359114019.15913934 117550261.06672418 0 0 0 0 448496873.93788481 -325934974.14566529 0 -325934974.14566529 98175341.44729358 0 0 0 0 313582553.86757302 -203093233.50744554 0 -203093233.50744554 -142676476.97734809 0 0 0 0 114996905.75810623 -392561748.68469101 0 -392561748.68469101 -311333187.25075722 0 0 0 0 -97952888.282722473 -31858773.49875772 0 -31858773.49875772 -136933314.93759143 0 0 0 0 -24862722.388214111 -136729054.80301428 0 -136729054.80301428 -452527057.21558988 0 0 0 0 2955022.5534265861 471350.92709315196 0 471350.92709315196 -1975302.1298347642 0 0 0 0 -218151631.76268768 -185665535.16976362 0 -185665535.16976362 -47307462.34038949 0 0 0 0 2174202.3632487059 -656756.24802312627 0 -656756.24802312627 -2019836.5352305737 0 0 0 0 53346545.881599426 -223217594.31410146 0 -223217594.31410146 -526325163.59510523 0 0 0 0 53507571.408489227 77141456.356438696 0 77141456.356438696 -388934489.26268411 0 0 0 0 141214536.96417618 -58255072.902556598 0 -58255072.902556598 -217500145.36742115 0 0 0 0 1576177.6452038288 -105568150.32078651 0 -105568150.32078651 -188394060.29995751 0 0 0 0 25606438.703430176 -32674582.39575398 0 -32674582.39575398 -38342073.437146664 0 0 0 0 15528013.086463928 -1209843.5319879502 0 -1209843.5319879502 -14943.016695916653 0 0 0 0 8978585.7110628635 -5528218.5647716634 0 -5528218.5647716634 -2823546.5582933319 0 0 0 0 -6784053.4284553528 -1040889.7042851448 0 -1040889.7042851448 -42300296.781658813 0 0 0 0 11726387.066831194 3680741.0771830678 0 3680741.0771830678 -3905661.3484556829 0 0 0 0 12112809.056999207 -1230771.7345537245 0 -1230771.7345537245 15358.623754858971 0 0 0 0 14401269.034568787 -1238593.0551251322 0 -1238593.0551251322 -3844786.0212996602 0 0 0 0 21534740.709224701 16543045.751348257 0 16543045.751348257 -32188282.416098118 0 0 0 0 8842250.3720416129 -4706995.7928826325 0 -4706995.7928826325 -3512095.5307459203 0 0 0 0 10391175.369598389 -3430830.7404890954 0 -3430830.7404890954 -4110096.7127523981 0 0 0 0 11936113.256531715 -4688421.3204020606 0 -4688421.3204020606 -8702171.3311276436 0 0 0 0 14929916.399101257 -2631791.6894244552 0 -2631791.6894244552 -12272428.175339371 0 0 0 0 6156616.8425916135 2127657.4918814525 0 2127657.4918814525 -1030625.0047354079 0 0 0 0 436068336.90006638 -18181019.442644596 0 -18181019.442644596 90524037.85350132 0 0 0 0 351631669.92513275 95802404.007469654 0 95802404.007469654 31811710.445368767 0 0 0 0 20432221.310337067 809216.7216117382 0 809216.7216117382 6726895.1568976641 0 0 0 0 9246911.2474661693 -4268805.3950896636 0 -4268805.3950896636 -4706596.891192616 0 0 0 0 12074122.374364138 -2153080.7539086537 0 -2153080.7539086537 -5363665.3624674678 0 0 0 0 4422488.6009063721 -4949923.8489335775 0 -4949923.8489335775 4849118.8342424631 0 0 0 0 3115355.1138318516 500846.06926010177 0 500846.06926010177 -1619544.1986713815 0 0 0 0 803696688.2311821 -75414801.078057349 0 -75414801.078057349 -278281344.56056499 0 0 0 0 21152386.308853149 10388179.248344421 0 10388179.248344421 -63114088.871719122 0 0 0 0 21778248.775775909 17785924.60966149 0 17785924.60966149 -56762309.267987251 0 0 0 0 39421726.12966156 9076690.0443634987 0 9076690.0443634987 -207585705.3966639 0 0 0 0 157823756.75222015 22827447.198297143 0 22827447.198297143 -206509706.57028234 0 0 0 0 110514658.36238861 117119055.29248673 0 117119055.29248673 -291013663.71601534 0 0 0 0 134768535.410429 -32173634.466444582 0 -32173634.466444582 -310944431.03311086 0 0 0 0 867094.06947320141 -231792.40516594425 0 -231792.40516594425 -868044.84314015228 0 0 0 0 -236174103.46843719 297134463.84101939 0 297134463.84101939 -193975156.20712471 0 0 0 0 -71321569.756263733 107194841.80136359 0 107194841.80136359 -124439290.74589062 0 0 0 0 87004281.840133667 106260106.38272238 0 106260106.38272238 -279312579.58008897 0 0 0 0 91150367.819943786 296463605.73836905 0 296463605.73836905 -353156462.11806059 0 0 0 0 358817133.4346962 82341830.29767251 0 82341830.29767251 -115533610.3065486 0 0 0 0 746561551.99693298 -419597998.19630539 0 -419597998.19630539 -218864401.4669404 0 0 0 0 186153501.09159851 -448836351.00021636 0 -448836351.00021636 -80128881.952121139 0 0 0 0 8931378.9901672229 -11343120.167986721 0 -11343120.167986721 9549608.785861386 0 0 0 0 6242383.7472915649 -96481845.509309232 0 -96481845.509309232 -62090918.536514282 0 0 0 0 418735457.53065491 -138170433.9782896 0 -138170433.9782896 263138280.68772435 0 0 0 0 418578327.39215088 -118579310.98599577 0 -118579310.98599577 -580264291.8616178 0 0 0 0 470477986.11959457 -24278481.024793386 0 -24278481.024793386 -180675805.73332644 0 0 0 0 469540409.9191246 60825778.969462872 0 60825778.969462872 5022000.1598448753 0 0 0 0 -156018519.72344971 233801670.15438056 0 233801670.15438056 -151997077.06726289 0 0 0 0 -680035264.03834152 -414885188.42931265 0 -414885188.42931265 -26122844.744679451 0 0 0 0 -558514662.53446293 -1105001557.5423317 0 -1105001557.5423317 -64578.31297492981 0 0 0 0 828568366.29447174 -283952789.89733052 0 -283952789.89733052 -130824745.51797307 0 0 0 0 396413174.80546761 -1125194047.1380906 0 -1125194047.1380906 -292867813.32198668 0 0 0 0 450937498.01202011 -43320045.285872936 0 -43320045.285872936 11730763.181871414 0 0 0 0 487480497.34138489 -193763145.26440024 0 -193763145.26440024 455497800.21320212 0 0 0 0 453657673.97290993 192976726.09041047 0 192976726.09041047 202612586.67958927 0 0 0 0 3460961.2164742053 -865513.13687127735 0 -865513.13687127735 -436522.607597325 0 0 0 0 1159259467.5242939 351863019.40517569 0 351863019.40517569 -428490877.9497757 0 0 0 0 996609137.39482117 418711124.16388035 0 418711124.16388035 -382846513.69949722 0 0 0 0 -69983792.422420502 79934752.767288446 0 79934752.767288446 -85263627.525752544 0 0 0 0 1468035325.2497673 383180784.20552278 0 383180784.20552278 -432452977.42097783 0 0 0 0 -992598163.23659897 -67387141.550658822 0 -67387141.550658822 467818717.79231143 0 0 0 0 1194376231.7687988 262302058.62498379 0 262302058.62498379 -213762095.39524364 0 0 0 0 323404727.5111599 -64680555.765301466 0 -64680555.765301466 37211450.026151657 0 0 0 0 532516135.76411438 625577958.58238649 0 625577958.58238649 896763516.85533905 0 0 0 0 6588411.5773497932 -10104966.20976375 0 -10104966.20976375 11804303.706105426 0 0 0 0 149900438.60916138 -270083651.08144307 0 -270083651.08144307 370954135.08339596 0 0 0 0 666441809.93249893 -346188793.90322351 0 -346188793.90322351 4986043.0525884628 0 0 0 0 296161440.84408551 -268395803.50604388 0 -268395803.50604388 -86801153.852842331 0 0 0 0 298650914.82390344 -178673982.8394528 0 -178673982.8394528 -71228380.325854301 0 0 0 0 367543800.07384872 -202403616.15542531 0 -202403616.15542531 -129599997.49234486 0 0 0 0 354548691.06300735 66869972.511287928 0 66869972.511287928 -59102074.386002064 0 0 0 0 232828284.54148102 -72888842.653125048 0 -72888842.653125048 -108940170.11521578 0 0 0 0 41810631.8720541 -29265917.979825258 0 -29265917.979825258 -64820062.391166687 0 0 0 0 245609422.21498871 -176826052.62230086 0 -176826052.62230086 -124059594.67381716 0 0 0 0 236785740.48968911 -248126122.62667474 0 -248126122.62667474 -140265607.24714565 0 0 0 0 206764036.13243103 -158296830.67513156 0 -158296830.67513156 -87190005.572983742 0 0 0 0 162443744.68056822 -142746145.6359874 0 -142746145.6359874 -87640579.441892624 0 0 0 0 151565336.79128647 -109956579.42443514 0 -109956579.42443514 -23430715.310438514 0 0 0 0 164147703.45875168 -27042191.138035059 0 -27042191.138035059 -54822279.7975142 0 0 0 0 153606698.26903534 -34362223.999567986 0 -34362223.999567986 -11240305.364944935 0 0 0 0 149170280.27136993 -66511397.598028898 0 -66511397.598028898 -116677938.87318397 0 0 0 0 138931890.30919266 -75562873.398735881 0 -75562873.398735881 -114727985.89884996 0 0 0 0 73272527.124042511 -106781664.56368828 0 -106781664.56368828 -92653050.57407999 0 0 0 0 -102868697.53662872 -74480628.772029638 0 -74480628.772029638 -67166754.426465511 0 0 0 0 56972285.509540558 -62476282.745974541 0 -62476282.745974541 -88188985.610070705 0 0 0 0 8021708.9279916883 -9112816.306481719 0 -9112816.306481719 6468686.1012208182 0 0 0 0 204199181.95636368 349167808.27808356 0 349167808.27808356 -61828651.138865948 0 0 0 0 -159695364.97206497 -214508277.1647923 0 -214508277.1647923 -108911055.83132362 0 0 0 0 75002022.571712494 -104511981.53918386 0 -104511981.53918386 -154495279.91454506 0 0 0 0 75620290.876659393 -66322228.695199728 0 -66322228.695199728 -67309342.139377117 0 0 0 0 -13294157.905752182 -78015024.295007586 0 -78015024.295007586 -85815052.195682049 0 0 0 0 105734769.06932068 -97524262.159506917 0 -97524262.159506917 -158303599.76155567 0 0 0 0 1647672.9843673706 -127397029.28433359 0 -127397029.28433359 -186872365.87017584 0 0 0 0 216921984.37243271 -1298177.0822417736 0 -1298177.0822417736 -146915772.5999608 0 0 0 0 193430077.80509233 69533352.076090321 0 69533352.076090321 -45031441.00709486 0 0 0 0 226190000.49545383 77753032.68421483 0 77753032.68421483 -11095092.894873619 0 0 0 0 182436200.33673859 8554635.8734037876 0 8554635.8734037876 -89873919.139604092 0 0 0 0 152444244.79416084 7597417.7675585151 0 7597417.7675585151 -63786811.053833961 0 0 0 0 242856186.71195221 116630976.91031706 0 116630976.91031706 111205158.48710012 0 0 0 0 215795681.17913437 137694561.49491501 0 137694561.49491501 109511737.88651147 0 0 0 0 195185026.32765198 89324237.665272474 0 89324237.665272474 22151788.903210878 0 0 0 0 268563546.14935684 172668339.84451735 0 172668339.84451735 -7480793.2011790276 0 0 0 0 213256387.78110123 208884176.9149794 0 208884176.9149794 84574629.173193216 0 0 0 0 471542740.87149429 151523585.73125768 0 151523585.73125768 66378783.880110979 0 0 0 0 294615332.92541313 45800021.773665786 0 45800021.773665786 11610807.27811861 0 0 0 0 421205692.3965044 -74530170.029564172 0 -74530170.029564172 -31969042.54060173 0 0 0 0 655624836.57002187 71955871.259889036 0 71955871.259889036 137551288.34530067 0 0 0 0 625775013.4511261 230074724.74399567 0 230074724.74399567 189319000.20555401 0 0 0 0 850725998.70221329 127193211.64282584 0 127193211.64282584 54859365.709171772 0 0 0 0 413578750.99974823 79098270.930104971 0 79098270.930104971 99091068.732447863 0 0 0 0 293458127.32082939 188404278.92524588 0 188404278.92524588 209373900.92045593 0 0 0 0 314748793.3607626 162240825.51505136 0 162240825.51505136 453853642.44674873 0 0 0 0 264602892.36676407 47006265.081451178 0 47006265.081451178 242342364.0304758 0 0 0 0 804011699.93887901 -70251888.845023155 0 -70251888.845023155 464270753.57418919 0 0 0 0 532189140.07814026 154778045.08475256 0 154778045.08475256 500032854.64012241 0 0 0 0 403020658.61039734 -42992801.861268044 0 -42992801.861268044 314187449.75829124 0 0 0 0 283614080.51265144 56721639.704496145 0 56721639.704496145 253979071.91660547 0 0 0 0 99505596.371171951 -74141833.835580587 0 -74141833.835580587 250298531.6320219 0 0 0 0 136697195.66076279 -67627487.226713181 0 -67627487.226713181 150851815.51994038 0 0 0 0 218606282.77647209 92160578.15206182 0 92160578.15206182 221744520.91444874 0 0 0 0 150007788.78175735 5334020.5107250214 0 5334020.5107250214 128962042.66295326 0 0 0 0 170932441.01947403 8025488.4256846309 0 8025488.4256846309 89547952.699241161 0 0 0 0 102014141.34315109 -137653351.75189495 0 -137653351.75189495 56718016.963151634 0 0 0 0 162423186.62014741 -146206180.48998109 0 -146206180.48998109 26093203.665029526 0 0 0 0 101097832.46016121 -213661827.51872665 0 -213661827.51872665 871007.24746799469 0 0 0 0 91334369.441532135 -252036317.79645157 0 -252036317.79645157 -45710909.302676678 0 0 0 0 -152348501.53170347 -78124602.667243719 0 -78124602.667243719 22180433.397406578 0 0 0 0 140708022.98418045 -81091969.091466069 0 -81091969.091466069 18833999.44775629 0 0 0 0 7544892.6559524536 -213146675.42750216 0 -213146675.42750216 121949569.67176867 0 0 0 0 -109555961.17576981 -350352345.09174132 0 -350352345.09174132 -82300173.986584425 0 0 0 0 161056982.86082077 -209517985.56391191 0 -209517985.56391191 -92504394.76356554 0 0 0 0 149584194.65342712 -270220243.67023087 0 -270220243.67023087 -359523828.3920188 0 0 0 0 2773150.5571784973 -78282750.204720974 0 -78282750.204720974 132107265.72923398 0 0 0 0 31978748.203197479 -31050320.379431963 0 -31050320.379431963 -38244853.504648685 0 0 0 0 56692121.622695923 8529311.0856571198 0 8529311.0856571198 -112524934.69621277 0 0 0 0 71363422.666422844 50095253.579020023 0 50095253.579020023 -14989335.746474266 0 0 0 0 1112732.8922412395 745734.35474176705 0 745734.35474176705 -2344086.1217656112 0 0 0 0 811589.25573921204 -5496716.7317527533 0 -5496716.7317527533 -5490648.4058761597 0 0 0 0 7386953.3590625674 -2437648.5958971451 0 -2437648.5958971451 -1450256.427802 0 0 0 0 21507608.255208969 -27082904.323319077 0 -27082904.323319077 -28960652.720244408 0 0 0 0 -48762807.996841431 -253212820.86919427 0 -253212820.86919427 -358238293.52790594 0 0 0 0 -49443261.749384761 -443620881.93781245 0 -443620881.93781245 92122823.683399677 0 0 0 0 1902316.1011278629 280949.8811357636 0 280949.8811357636 -385201.64274139749 0 0 0 0 464782271.16218948 -240877137.12668312 0 -240877137.12668312 119898438.60178137 0 0 0 0 84690720.061618328 157412620.52453747 0 157412620.52453747 -270513366.28374124 0 0 0 0 -477039.82860638946 -66149.778831019066 0 -66149.778831019066 -336187.27550827782 0 0 0 0 9155546.621866785 -1329749.6071205472 0 -1329749.6071205472 -3936203.244410181 0 0 0 0 -21395467.919769287 -168870439.567276 0 -168870439.567276 -276915636.90438676 0 0 0 0 4851762.5744125172 2242371.8906160686 0 2242371.8906160686 -8346258.7702774061 0 0 0 0 35869145.320583344 5531667.8068418503 0 5531667.8068418503 -33900432.694241762 0 0 0 0 -233151578.20513153 -428227930.79486871 0 -428227930.79486871 -349521755.6940589 0 0 0 0 152121462.34185028 -39404618.599442244 0 -39404618.599442244 -240064748.13492334 0 0 0 0 612334954.97990417 198439278.93294638 0 198439278.93294638 -294693804.95302486 0 0 0 0 174390824.53794098 -67838512.746314287 0 -67838512.746314287 -216902999.24199057 0 0 0 0 634894531.21419454 147870516.1361289 0 147870516.1361289 -200811104.26527977 0 0 0 0 652274674.98963928 3048104.1659433842 0 3048104.1659433842 -286550779.76598573 0 0 0 0 199161160.8326931 -105105307.41237366 0 -105105307.41237366 -11514517.063381672 0 0 0 0 238520517.66928482 -62710509.957487345 0 -62710509.957487345 -368933838.42651701 0 0 0 0 485450486.58947563 -12793681.591006756 0 -12793681.591006756 -23049999.668398857 0 0 0 0 126361451.061409 -150939442.2963438 0 -150939442.2963438 262019693.77079245 0 0 0 0 670699399.72777939 -263609117.44011319 0 -263609117.44011319 308032350.09159327 0 0 0 0 838286723.90854263 10514349.979003668 0 10514349.979003668 -117138728.2643497 0 0 0 0 1027303620.1877174 137089599.14442587 0 137089599.14442587 -67768872.80641377 0 0 0 0 820827071.23877811 364617738.25022852 0 364617738.25022852 -41596336.775209427 0 0 0 0 976194264.00299072 339674784.38793182 0 339674784.38793182 -48651422.635212898 0 0 0 0 859154181.72691727 123909811.75778198 0 123909811.75778198 -286233856.7643044 0 0 0 0 1048834208.5288467 150645342.69349825 0 150645342.69349825 -295527778.59874392 0 0 0 0 848906265.01671982 67760888.689717412 0 67760888.689717412 -350286215.00736737 0 0 0 0 727781409.52198792 226992821.6388852 0 226992821.6388852 -168061414.41256723 0 0 0 0 834426642.77638149 253831377.62792176 0 253831377.62792176 -301820012.60206962 0 0 0 0 857562596.06971359 185681553.24857736 0 185681553.24857736 -173973118.04698873 0 0 0 0 626638221.70604706 372437390.58006907 0 372437390.58006907 -104430381.69413312 0 0 0 0 796391460.35900116 287839381.15514618 0 287839381.15514618 -156679232.60339427 0 0 0 0 609259178.16230011 254564912.54096523 0 254564912.54096523 51433757.477202944 0 0 0 0 639255638.22970581 163927925.92913008 0 163927925.92913008 -70579069.976486653 0 0 0 0 775834937.19666672 177198437.11837646 0 177198437.11837646 -119082002.46926922 0 0 0 0 809600762.5406189 31996913.65898332 0 31996913.65898332 -126246560.84779298 0 0 0 0 664796685.12980652 169168939.72757176 0 169168939.72757176 -110772995.71265624 0 0 0 0 1455704056.6791096 312447046.68843657 0 312447046.68843657 -621452012.04672563 0 0 0 0 2199238403.1013031 809343310.19586146 0 809343310.19586146 -452405611.30456501 0 0 0 0 698392220.38980865 495530798.90711415 0 495530798.90711415 67775553.378205121 0 0 0 0 773989929.1570338 -117812326.94065318 0 -117812326.94065318 -716672955.26541996 0 0 0 0 811741638.52833176 327193674.37917352 0 327193674.37917352 -213431926.42015314 0 0 0 0 2204463380.0302849 352136246.80250531 0 352136246.80250531 -214707964.97366029 0 0 0 0 7710722.7421526201 -342747.41949870065 0 -342747.41949870065 -3337328.5326485839 0 0 0 0 -7255450.5929718018 -284272740.51185191 0 -284272740.51185191 -326762884.25441742 0 0 0 0 2200433663.5489006 354063735.92177904 0 354063735.92177904 -215591821.33976418 0 0 0 0 587702331.76915932 174622869.50729442 0 174622869.50729442 -160506567.62751079 0 0 0 0 580283008.01525116 83147029.711120844 0 83147029.711120844 -99929793.847825766 0 0 0 0 7517477.8227352165 1113230.4303371683 0 1113230.4303371683 -5470225.4916090667 0 0 0 0 343714752.5556221 -439775081.0441792 0 -439775081.0441792 316658891.83953482 0 0 0 0 410919087.04260254 -28243489.485866487 0 -28243489.485866487 12600128.156946659 0 0 0 0 12859579.022362441 -22420198.159240678 0 -22420198.159240678 515594.76218375494 0 0 0 0 -184967153.32215118 -97609631.739526331 0 -97609631.739526331 107480290.68638265 0 0 0 0 47899255.867286682 40026965.371630311 0 40026965.371630311 5073317.8332768977 0 0 0 0 -1862825.9192352295 -36931787.527742386 0 -36931787.527742386 -41422490.973329186 0 0 0 0 10656602.370223783 -2493475.4449032135 0 -2493475.4449032135 1685319.1417390604 0 0 0 0 2173717819.2298965 -178261200.60837185 0 -178261200.60837185 12354601.486970555 0 0 0 0 100236834.80345917 -12298561.592562675 0 -12298561.592562675 -58084692.473237991 0 0 0 0 27910707.188777924 -11207116.483593941 0 -11207116.483593941 -22244081.677699804 0 0 0 0 35865409.329090118 -27332263.79633832 0 -27332263.79633832 37449091.583519459 0 0 0 0 7057283.9986255746 1494428.1212876309 0 1494428.1212876309 -7386964.2631487437 0 0 0 0 2107341525.6140308 454041842.9670161 0 454041842.9670161 97338915.796938613 0 0 0 0 2378661.9308461919 -7732908.8914931938 0 -7732908.8914931938 -6342579.5337851541 0 0 0 0 17398270.376132704 -5164153.8175823549 0 -5164153.8175823549 -7111255.1419952987 0 0 0 0 61666203.360588074 17374076.058541298 0 17374076.058541298 -56327456.864008904 0 0 0 0 156819199.66820908 -231551943.68849897 0 -231551943.68849897 179316915.78019619 0 0 0 0 200642589.6006279 -117895659.98308897 0 -117895659.98308897 46529439.233422756 0 0 0 0 -31534622.659519196 -96061541.535779953 0 -96061541.535779953 126033280.43652153 0 0 0 0 15217874.72668834 -6572354.3749805 0 -6572354.3749805 -6362481.699425431 0 0 0 0 193197411.10122681 -43389029.759999275 0 -43389029.759999275 -38599510.395998001 0 0 0 0 16365834.387863159 6194928.1340018511 0 6194928.1340018511 -16422711.347396851 0 0 0 0 21702358.817670822 11436401.894495159 0 11436401.894495159 -23116150.150845408 0 0 0 0 8902750.482234098 3676225.7265180275 0 3676225.7265180275 -10025460.23119721 0 0 0 0 1533771419.8581657 727486381.27991915 0 727486381.27991915 25857061.481610298 0 0 0 0 192783322.90258026 163854949.01274633 0 163854949.01274633 350230437.88238764 0 0 0 0 718167263.19757462 831541309.43027878 0 831541309.43027878 718131772.98260689 0 0 0 0 5534995.1033916101 933983.78558826726 0 933983.78558826726 -1593333.7744828376 0 0 0 0 1608389844.226284 -357602833.42726421 0 -357602833.42726421 347250078.83490181 0 0 0 0 969653287.50826263 326242662.17211246 0 326242662.17211246 1287931433.8789845 0 0 0 0 1884275872.8936577 509748936.91709328 0 509748936.91709328 391346961.3708086 0 0 0 0 1014340557.7895889 -33555251.682743311 0 -33555251.682743311 77562210.266451359 0 0 0 0 1070212739.6471901 416143351.45719051 0 416143351.45719051 412198974.58766282 0 0 0 0 -149453098.57521057 -55290550.705860138 0 -55290550.705860138 371639209.99523759 0 0 0 0 1945838.7653585803 -891136.98227194883 0 -891136.98227194883 -1624043.4759166967 0 0 0 0 501570071.89775848 -685163543.79114342 0 -685163543.79114342 945576252.96089458 0 0 0 0 2072469029.4867435 -674569682.15133512 0 -674569682.15133512 171808715.4870491 0 0 0 0 683902332.00945282 -317584898.11479664 0 -317584898.11479664 127738800.32035732 0 0 0 0 515712475.2669754 -431986057.12544823 0 -431986057.12544823 258142306.72436023 0 0 0 0 683046568.30753326 -297364251.93805647 0 -297364251.93805647 56859021.323278427 0 0 0 0 802930307.56558228 -260059574.42117405 0 -260059574.42117405 -114589052.47081399 0 0 0 0 694137544.34327698 -379607177.49942303 0 -379607177.49942303 51720930.44497785 0 0 0 0 581532299.42268562 -269082696.38161659 0 -269082696.38161659 -1782270.9805345535 0 0 0 0 694026940.28614807 -372109959.77183819 0 -372109959.77183819 111623607.0031004 0 0 0 0 817067523.48427963 -241565932.93612397 0 -241565932.93612397 -235015984.78869009 0 0 0 0 1389603838.0266953 -190686673.95355201 0 -190686673.95355201 -108850376.44862843 0 0 0 0 960598620.95927668 -190619236.68936238 0 -190619236.68936238 -196337386.53704262 0 0 0 0 739948011.57785797 -189169163.37453532 0 -189169163.37453532 -151835945.80099243 0 0 0 0 702556955.03401947 -227490484.75545025 0 -227490484.75545025 -187018719.75737572 0 0 0 0 744997386.86951447 -324683268.08957887 0 -324683268.08957887 -232349422.2025857 0 0 0 0 768609042.34410858 -328938474.0642029 0 -328938474.0642029 -269509746.35495663 0 0 0 0 714660731.03063965 -263731405.30737233 0 -263731405.30737233 -353757301.57050002 0 0 0 0 771678925.99991989 -217071809.95321059 0 -217071809.95321059 -345769151.35730171 0 0 0 0 444154995.17656708 -67098895.029314041 0 -67098895.029314041 -341257154.34026814 0 0 0 0 -11300793.18916893 155224667.79774034 0 155224667.79774034 -194877743.91896152 0 0 0 0 2360386.3605836583 1416601.2087102439 0 1416601.2087102439 -2493404.8885876713 0 0 0 0 434817452.89705276 169759365.80938458 0 169759365.80938458 -769128985.2049427 0 0 0 0 2295245170.5330849 135866529.52475071 0 135866529.52475071 -488177346.76943183 0 0 0 0 203242094.07259369 -43345321.118332863 0 -43345321.118332863 -12822772.322093964 0 0 0 0 2204003499.9604859 222789134.80060068 0 222789134.80060068 184241766.83648443 0 0 0 0 94146254.880893707 -10290600.41564846 0 -10290600.41564846 -6082198.8238182068 0 0 0 0 147933216.85929489 -139051436.84893942 0 -139051436.84893942 75491500.624823093 0 0 0 0 380760462.31537247 -214937989.04815531 0 -214937989.04815531 -16293503.778152704 0 0 0 0 729431973.27526665 -301945801.80786753 0 -301945801.80786753 -162803481.86730576 0 0 0 0 203629397.34343338 -39364068.429784775 0 -39364068.429784775 -102297539.75255775 0 0 0 0 385701927.03602338 -136778290.53300923 0 -136778290.53300923 -51143587.745061874 0 0 0 0 1760449885.4642677 -383146664.20691687 0 -383146664.20691687 37790702.707820073 0 0 0 0 1835341621.5244446 -189058333.16534793 0 -189058333.16534793 -187040243.42419863 0 0 0 0 2204411902.2143784 83714724.742680535 0 83714724.742680535 -372339601.16601545 0 0 0 0 1655953068.1436691 -101703722.53151584 0 -101703722.53151584 -188574264.8230266 0 0 0 0 1666687828.064621 -183250575.61075139 0 -183250575.61075139 -85575790.575211227 0 0 0 0 93188230.384910583 -65729551.611222535 0 -65729551.611222535 46028786.70087865 0 0 0 0 1543563544.8498459 -218308081.85614616 0 -218308081.85614616 -82448182.629919305 0 0 0 0 52375036.011314392 -20058742.595816143 0 -20058742.595816143 6336566.83261168 0 0 0 0 1619543.3308353797 -919634.05212790519 0 -919634.05212790519 -243149.41683174006 0 0 0 0 57932704.263748169 -17007548.288157068 0 -17007548.288157068 -2281262.7731144428 0 0 0 0 59005145.919471741 -20789703.351940617 0 -20789703.351940617 6395460.1801352911 0 0 0 0 4438356.3134027421 -2685542.8210148215 0 -2685542.8210148215 -562835.31467341655 0 0 0 0 93315597.759731293 -4490499.6403631717 0 -4490499.6403631717 -7120625.9529309869 0 0 0 0 89644215.126695633 10642667.345360488 0 10642667.345360488 -54109370.122311831 0 0 0 0 28509698.360605761 10958926.274244048 0 10958926.274244048 -1728759.4906475786 0 0 0 0 17759340.545669556 27110797.213901088 0 27110797.213901088 -19769671.675392218 0 0 0 0 60368589.397666931 54262486.613341302 0 54262486.613341302 -35070529.560081661 0 0 0 0 37399694.615463257 -21216296.695955165 0 -21216296.695955165 200852.91306984425 0 0 0 0 1839249044.1340141 -578357980.53369212 0 -578357980.53369212 -16011056.620115295 0 0 0 0 1580792971.7148914 -430024213.83232474 0 -430024213.83232474 36159201.444332272 0 0 0 0 2204281144.4405594 -420577982.61281872 0 -420577982.61281872 -175273179.80365768 0 0 0 0 2206212585.5985107 -697269541.75355291 0 -697269541.75355291 -74267079.383848503 0 0 0 0 1889609432.9605103 -469437351.7727015 0 -469437351.7727015 -145873027.64901897 0 0 0 0 1874818652.5347567 -667569658.77150881 0 -667569658.77150881 443984271.00237858 0 0 0 0 1787018838.0673084 -1166859513.4964862 0 -1166859513.4964862 621122751.09006739 0 0 0 0 2979871592.8930969 -614353479.97496557 0 -614353479.97496557 433514848.2549026 0 0 0 0 8620604.6173187196 -3077975.514961496 0 -3077975.514961496 -1930949.9299672057 0 0 0 0 974674666.49404144 -500808034.21329778 0 -500808034.21329778 305407875.00227332 0 0 0 0 90279642.689815521 154504740.12446606 0 154504740.12446606 393690873.51965511 0 0 0 0 -582921367.38339996 155016163.66990113 0 155016163.66990113 -530793439.80766153 0 0 0 0 -1055708375.3428841 218240845.26416367 0 218240845.26416367 382511851.26636267 0 0 0 0 3244544.4430871941 375089.04298632219 0 375089.04298632219 527096.34777539549 0 0 0 0 -591022531.66183472 899306995.92657781 0 899306995.92657781 997819223.06164718 0 0 0 0 2591032869.03368 717871897.42981553 0 717871897.42981553 -386692421.25548679 0 0 0 0 2201990844.4580269 47542242.866198719 0 47542242.866198719 1272801340.7501984 0 0 0 0 2242008529.2585144 -1203770356.0814652 0 -1203770356.0814652 616255448.74013662 0 0 0 0 7342789.1283090115 227730.30834615044 0 227730.30834615044 -166121.33106620674 0 0 0 0 866049761.47825623 -347203867.68365222 0 -347203867.68365222 -1033205513.3684 0 0 0 0 1201519489.8354187 1435152893.3786185 0 1435152893.3786185 726236893.49751031 0 0 0 0 133959785.60455322 843683715.45287442 0 843683715.45287442 804529783.62271249 0 0 0 0 500127.18632107973 4912039.0771980137 0 4912039.0771980137 3190985.2901485623 0 0 0 0 -652374349.33772659 24161149.557625771 0 24161149.557625771 339217302.68082786 0 0 0 0 -323412127.60478973 -497853651.14386499 0 -497853651.14386499 -452747649.01664352 0 0 0 0 157847913.23130798 -103252630.68377376 0 -103252630.68377376 -228057724.23540735 0 0 0 0 401573557.1000824 574897493.73138046 0 574897493.73138046 467720631.46818429 0 0 0 0 -539251118.14876556 232357433.18275934 0 232357433.18275934 530146064.4213841 0 0 0 0 558795580.48107147 475647441.43860716 0 475647441.43860716 65337250.270659089 0 0 0 0 -32649946.665271759 188064330.44721308 0 188064330.44721308 239297502.25264215 0 0 0 0 475394865.31164169 413137893.82600164 0 413137893.82600164 288080000.18602276 0 0 0 0 2202283153.8524094 1309948241.9457817 0 1309948241.9457817 -64633883.352501482 0 0 0 0 1111741093.5281105 984765891.87780654 0 984765891.87780654 304272605.05075473 0 0 0 0 1433247695.8507156 737590415.09682322 0 737590415.09682322 -391651379.55671901 0 0 0 0 240772636.82223129 764946013.68840551 0 764946013.68840551 366005981.2347644 0 0 0 0 495685347.60889435 136561182.84095758 0 136561182.84095758 23573550.377566099 0 0 0 0 562808786.91615295 -11459276.858767591 0 -11459276.858767591 -129679353.91653548 0 0 0 0 674425931.71418762 153181146.78137469 0 153181146.78137469 -84514472.154301018 0 0 0 0 669334030.49092102 129117683.77016114 0 129117683.77016114 -99707517.705641627 0 0 0 0 675278867.19240379 109578418.30357137 0 109578418.30357137 -50284775.26876694 0 0 0 0 337538661.17378998 195334667.59862286 0 195334667.59862286 43177728.403804898 0 0 0 0 592641250.84022141 83815245.631889284 0 83815245.631889284 39167758.919242501 0 0 0 0 646953036.09398651 103172109.36547804 0 103172109.36547804 -152306989.84146881 0 0 0 0 370123826.75811005 27587628.942163348 0 27587628.942163348 25241347.153807402 0 0 0 0 137101748.56391907 -38436437.717334032 0 -38436437.717334032 -21571212.902561903 0 0 0 0 422237165.40048981 109550632.11780405 0 109550632.11780405 42227886.686988592 0 0 0 0 489353547.24358368 -66990068.489323735 0 -66990068.489323735 -323749639.74413943 0 0 0 0 528842180.60414886 496779920.6887424 0 496779920.6887424 -288028812.52722812 0 0 0 0 2021459.6803704649 -1398685.2323634252 0 -1398685.2323634252 -165689.98125729198 0 0 0 0 941515983.4635067 268127096.32831675 0 268127096.32831675 -5017341.8692382574 0 0 0 0 708112337.33854675 -17172628.276841819 0 -17172628.276841819 78553396.274145603 0 0 0 0 288539148.66444397 -185839934.69681364 0 -185839934.69681364 104792105.96630692 0 0 0 0 529324654.57089233 468083756.85630095 0 468083756.85630095 290149873.66578203 0 0 0 0 511832516.12013435 409505054.16426992 0 409505054.16426992 403579769.94654846 0 0 0 0 235788256.94577026 -116019517.81582642 0 -116019517.81582642 149380146.96844435 0 0 0 0 519149028.03810501 216186730.07817626 0 216186730.07817626 -874074469.7738235 0 0 0 0 -753554603.17149734 548319381.73297906 0 548319381.73297906 346077051.81950581 0 0 0 0 1885571.192993775 3458724.8244497292 0 3458724.8244497292 2077784.5758921113 0 0 0 0 1054050890.6088715 507341230.92522168 0 507341230.92522168 -409365450.27342844 0 0 0 0 260173032.93933868 994498492.85242844 0 994498492.85242844 279666064.68807149 0 0 0 0 226061329.34397888 871605953.2259078 0 871605953.2259078 -695574318.35409987 0 0 0 0 24500095.433983207 10695558.634317474 0 10695558.634317474 284085.55742218718 0 0 0 0 45300305.073843002 1193441.4058032259 0 1193441.4058032259 -28946325.821717925 0 0 0 0 -293632051.43972778 618490887.94868588 0 618490887.94868588 -370268744.58181751 0 0 0 0 171347386.34692764 -140490001.37392771 0 -140490001.37392771 -800912673.52963114 0 0 0 0 167588630.4650569 -247358120.26352927 0 -247358120.26352927 -225405827.25664091 0 0 0 0 215454488.07113028 129781328.39226572 0 129781328.39226572 -226260357.89441729 0 0 0 0 -219705988.02089691 -159078747.59854841 0 -159078747.59854841 -387086826.61042333 0 0 0 0 72275906.921974182 -92775215.454949975 0 -92775215.454949975 -413912656.74465728 0 0 0 0 -30009200.675762177 10394272.480384588 0 10394272.480384588 -150663258.97110558 0 0 0 0 6641088.5743026733 20887550.562292457 0 20887550.562292457 -366482920.846205 0 0 0 0 168097926.43678284 183665950.28855607 0 183665950.28855607 -396940498.95352817 0 0 0 0 6303804.7675704956 -120961738.67184389 0 -120961738.67184389 -98042273.98342967 0 0 0 0 147264012.74015915 -69237631.774039358 0 -69237631.774039358 -94665394.225086689 0 0 0 0 11057374.672645569 -106522583.04435134 0 -106522583.04435134 -36010992.45051527 0 0 0 0 -5881063.1004333496 -92256070.084718972 0 -92256070.084718972 62526962.67675066 0 0 0 0 70777821.351554871 -52186635.032000422 0 -52186635.032000422 12277649.587950945 0 0 0 0 17495981.849422455 -138215921.66902113 0 -138215921.66902113 -85342483.234549522 0 0 0 0 -7003633.5767555237 -52254237.584816933 0 -52254237.584816933 68500340.532694578 0 0 0 0 3208032.1698112488 -5016022.584310174 0 -5016022.584310174 23538595.485271215 0 0 0 0 -8922183.9954528809 -11889352.847618937 0 -11889352.847618937 173721888.09387177 0 0 0 0 13201379.581291199 -22509169.060813665 0 -22509169.060813665 9797820.1662783623 0 0 0 0 3598205.7496032715 -31454121.214161158 0 -31454121.214161158 71381781.814851105 0 0 0 0 7186172.7304677963 -28387028.130718917 0 -28387028.130718917 4745635.4969491959 0 0 0 0 8652184.9151420593 -7233969.0538019836 0 -7233969.0538019836 3177135.9022808075 0 0 0 0 14512230.422159195 -9922637.6686045825 0 -9922637.6686045825 -436551.73582601547 0 0 0 0 6127973.807599701 -6189438.6427545492 0 -6189438.6427545492 -2796744.8294044887 0 0 0 0 -122826998.56009293 -16226190.144454718 0 -16226190.144454718 -12167252.853940785 0 0 0 0 271077374.13474274 30754252.832532942 0 30754252.832532942 -1729417.634655863 0 0 0 0 6229526.7076997757 -13449633.833365411 0 -13449633.833365411 7356454.5408899784 0 0 0 0 6106630.1605776437 -4444741.0348380804 0 -4444741.0348380804 -1177213.1911723395 0 0 0 0 10805426.001818657 -18059934.349616319 0 -18059934.349616319 11257302.18353653 0 0 0 0 281019681.12727356 -3467044.4999414682 0 -3467044.4999414682 3417887.773976326 0 0 0 0 -223294060.42464066 -85319234.13710475 0 -85319234.13710475 67344842.591042519 0 0 0 0 -200667325.38339233 -267609035.50732696 0 -267609035.50732696 484059567.21280575 0 0 0 0 -270869883.62310219 -86374209.356706381 0 -86374209.356706381 117369638.82703257 0 0 0 0 -109785388.14123917 -120066800.66384578 0 -120066800.66384578 24730987.123336315 0 0 0 0 9494002.391037941 -3080293.405682154 0 -3080293.405682154 -1572384.7844398022 0 0 0 0 -504798516.9654339 -67265282.521127835 0 -67265282.521127835 730924277.67426538 0 0 0 0 6576942.2468086332 -6332760.5142219774 0 -6332760.5142219774 -2592014.3520992692 0 0 0 0 -491193694.25579834 484047424.39403248 0 484047424.39403248 50311870.192336753 0 0 0 0 -30497084.566173553 74868060.080556989 0 74868060.080556989 49946739.677572012 0 0 0 0 1394120.1473804936 -2798804.7745885774 0 -2798804.7745885774 403777.0857909373 0 0 0 0 13235378.351539612 -12308556.800327063 0 -12308556.800327063 -1874344.8337336555 0 0 0 0 30625910.166004181 -4772112.4665766954 0 -4772112.4665766954 -15778772.09091115 0 0 0 0 142785934.59622455 35920806.033168018 0 35920806.033168018 -9958265.2527022362 0 0 0 0 -64521083.283542633 -205666583.4954102 0 -205666583.4954102 -236976204.00523144 0 0 0 0 20311.232640691102 -908771.0875871554 0 -908771.0875871554 514316.69068831042 0 0 0 0 26360967.62677002 103300830.51641828 0 103300830.51641828 -105540179.78904641 0 0 0 0 -74827133.088012695 62369490.185475916 0 62369490.185475916 -320775795.22365737 0 0 0 0 -14905095.954664707 -110486927.73024559 0 -110486927.73024559 -137302808.91567683 0 0 0 0 -69753170.589370728 98020536.89309597 0 98020536.89309597 172464289.04681563 0 0 0 0 111097278.44243431 54276323.908228517 0 54276323.908228517 -36500952.242727757 0 0 0 0 -66801882.989506721 5706371.2914869189 0 5706371.2914869189 -49171631.209719658 0 0 0 0 36418764.586213112 165102414.24391353 0 165102414.24391353 -149156690.51306105 0 0 0 0 30513927.330908701 1879528.3004179597 0 1879528.3004179597 -5385394.7225280711 0 0 0 0 8812473.7292785645 42625931.572530448 0 42625931.572530448 -27996554.114853442 0 0 0 0 -932198.991019696 1332429.1603654537 0 1332429.1603654537 -267882.44674602739 0 0 0 0 33745762.888580322 -44579105.25759697 0 -44579105.25759697 -58213158.21903789 0 0 0 0 111423532.06012726 -125304705.46967453 0 -125304705.46967453 -726473378.02832365 0 0 0 0 321142.73906704783 13545705.571688704 0 13545705.571688704 -2605576.5192566649 0 0 0 0 95998773.308670044 -23789406.379908562 0 -23789406.379908562 -631577313.30326903 0 0 0 0 -28758320.272977352 106672377.94579387 0 106672377.94579387 -6187106.3766970634 0 0 0 0 33466217.760323793 4436024.9391993135 0 4436024.9391993135 -5211612.3123331238 0 0 0 0 2342549.9600516856 8587141.3047270905 0 8587141.3047270905 -1831107.3625337267 0 0 0 0 119469390.52370453 227206127.47907722 0 227206127.47907722 -881067115.40410447 0 0 0 0 61658142.21673584 -15572457.102254838 0 -15572457.102254838 -78334889.824168801 0 0 0 0 -108528695.46710205 162919757.07778478 0 162919757.07778478 -421750690.30295467 0 0 0 0 60752770.24772644 -820664.28650963306 0 -820664.28650963306 -21383132.613696635 0 0 0 0 19954432.558029175 20139813.756027728 0 20139813.756027728 -45092831.529919565 0 0 0 0 82540999.245269775 14651905.785963714 0 14651905.785963714 -47131721.183103554 0 0 0 0 48147347.11289978 46767508.143087119 0 46767508.143087119 -69482672.420970082 0 0 0 0 23494023.871116638 9340496.8890836835 0 9340496.8890836835 -48307445.324200526 0 0 0 0 42453463.062545776 43480072.779781654 0 43480072.779781654 -4194480.8698018193 0 0 0 0 34688190.581993103 18293927.36634177 0 18293927.36634177 -603772.71328676492 0 0 0 0 16024883.524166107 38285299.414731935 0 38285299.414731935 22939893.078900278 0 0 0 0 157441719.01834106 5733746.2140898705 0 5733746.2140898705 -21586834.050078124 0 0 0 0 78050628.096481323 70270790.230676621 0 70270790.230676621 60639662.462012887 0 0 0 0 9333616.5332794189 4346668.4304387644 0 4346668.4304387644 104364572.60219721 0 0 0 0 5753867.6706848145 -12500712.057268158 0 -12500712.057268158 28478628.684360258 0 0 0 0 2921092.8134613037 6414824.2911430448 0 6414824.2911430448 9418347.828589052 0 0 0 0 235460.49443817139 8293125.7551508248 0 8293125.7551508248 50463004.304381132 0 0 0 0 4146531.1155128479 3015030.1301406249 0 3015030.1301406249 15336965.985650167 0 0 0 0 6438555.5933265686 10219670.046275474 0 10219670.046275474 10682822.687553287 0 0 0 0 7981700.6690320969 13273311.889378153 0 13273311.889378153 -5480077.5735214949 0 0 0 0 19234345.647720337 20201397.384313196 0 20201397.384313196 -20768123.090257302 0 0 0 0 23190025.925603427 -5541022.3126617037 0 -5541022.3126617037 -5921658.5896594366 0 0 0 0 3857695.3603897095 142025969.36410809 0 142025969.36410809 -252458265.3789959 0 0 0 0 -55561328.583229065 116514374.91228867 0 116514374.91228867 -210634818.95852327 0 0 0 0 559890.50033569336 92298616.586641312 0 92298616.586641312 -220084651.73511195 0 0 0 0 -16548721.837017059 35131076.982842207 0 35131076.982842207 -209135724.98941219 0 0 0 0 26878469.622976132 -1339090.4817859009 0 -1339090.4817859009 -5768241.4875061205 0 0 0 0 12144777.989898682 2185076.0804042593 0 2185076.0804042593 2968128.6808043122 0 0 0 0 15548956.888053894 -4409212.1895707324 0 -4409212.1895707324 4397482.4428405166 0 0 0 0 12714310.285888672 -4522029.0681239069 0 -4522029.0681239069 6690828.6451641992 0 0 0 0 13544420.86353302 -5989248.2381591499 0 -5989248.2381591499 3967584.9219343662 0 0 0 0 11971351.279201508 -7313028.2788071148 0 -7313028.2788071148 3883594.2870541811 0 0 0 0 11839251.96270752 -7224284.2952926755 0 -7224284.2952926755 4030066.2923272252 0 0 0 0 12065681.359375 -6656684.9712581635 0 -6656684.9712581635 2158044.3194518089 0 0 0 0 11426388.65512085 -8325032.5478839874 0 -8325032.5478839874 4987096.8190451562 0 0 0 0 12002789.864501953 -9698133.9784376323 0 -9698133.9784376323 3646866.0415365994 0 0 0 0 11482512.315904617 -8980771.4670372717 0 -8980771.4670372717 2981778.2565071583 0 0 0 0 42836057.029052734 45710768.427932739 0 45710768.427932739 -304133009.54511166 0 0 0 0 12637881.533218384 -9203557.3669903129 0 -9203557.3669903129 2283517.3373789787 0 0 0 0 11950872.695037842 -10048532.944410861 0 -10048532.944410861 1916984.6985133439 0 0 0 0 15413923.413750656 -8838940.4770464003 0 -8838940.4770464003 -6066085.350791011 0 0 0 0 19921072.425613403 -5876508.5191425383 0 -5876508.5191425383 -4990216.8926365972 0 0 0 0 24632391.07989502 -7278232.4226204753 0 -7278232.4226204753 -6528332.3986667991 0 0 0 0 2479433.9678565413 -2194007.8722265046 0 -2194007.8722265046 771941.12314243964 0 0 0 0 54301730.898651123 83376807.264953613 0 83376807.264953613 -297317467.59276199 0 0 0 0 12084354.430206299 -7346842.3286145926 0 -7346842.3286145926 3047835.3589087725 0 0 0 0 12141675.377075195 -8754519.9861744642 0 -8754519.9861744642 2638295.0440473557 0 0 0 0 12497697.807830811 -7306615.5838660598 0 -7306615.5838660598 716063.00138950348 0 0 0 0 12868263.293273926 -7744722.8403635025 0 -7744722.8403635025 1219526.0841833949 0 0 0 0 13866398.122772217 -8863305.3308517933 0 -8863305.3308517933 652097.55958402157 0 0 0 0 14492702.02331543 -7527443.7207432389 0 -7527443.7207432389 -538246.92935812473 0 0 0 0 13976541.263130188 -8970926.7240465879 0 -8970926.7240465879 -76349.262225270271 0 0 0 0 18458618.524108887 -8958208.7116451263 0 -8958208.7116451263 -2022027.8851165138 0 0 0 0 16994733.936767578 -10430750.980947316 0 -10430750.980947316 571911.17039507627 0 0 0 0 17515732.711181641 -8392839.6297924519 0 -8392839.6297924519 -1979543.3794408888 0 0 0 0 22432762.412322998 -11527686.787524551 0 -11527686.787524551 -382843.902977705 0 0 0 0 17655443.290222168 -8673297.3088540435 0 -8673297.3088540435 -1418915.6715379953 0 0 0 0 14222619.314254761 -6983917.0015170872 0 -6983917.0015170872 -1601315.0609933138 0 0 0 0 67862917.287078857 66376556.853088379 0 66376556.853088379 -293385366.1669026 0 0 0 0 68718514.027099609 75205616.437675476 0 75205616.437675476 -283289645.7631216 0 0 0 0 62063381.504730225 60435270.665534973 0 60435270.665534973 -259491598.02314377 0 0 0 0 60796479.589874268 61183099.561222076 0 61183099.561222076 -273037818.72205734 0 0 0 0 64142446.142120361 57060685.061626434 0 57060685.061626434 -287038268.2774353 0 0 0 0 44414541.708984375 41226855.134117126 0 41226855.134117126 -293797982.1749332 0 0 0 0 35410282.995178223 47972115.915206909 0 47972115.915206909 -279591550.58651352 0 0 0 0 -1941868.5950927734 24542273.679597855 0 24542273.679597855 -293695747.57684708 0 0 0 0 -23316329.399627686 19113983.375305176 0 19113983.375305176 -279891439.43226624 0 0 0 0 11946030.562675476 -6235761.0865648538 0 -6235761.0865648538 1728683.3086760044 0 0 0 0 12648874.28527832 -6021329.2498663664 0 -6021329.2498663664 39366.608474493027 0 0 0 0 59912381.49118042 -59926632.540040821 0 -59926632.540040821 17789209.831127584 0 0 0 0 -31882508.582824707 10492300.352362633 0 10492300.352362633 -169714428.0284729 0 0 0 0 -52118528.036441803 20070596.946919587 0 20070596.946919587 73023001.411272228 0 0 0 0 -63583104.174041748 -20948458.769628435 0 -20948458.769628435 145310307.91897997 0 0 0 0 -41157476.917633057 94587119.570667267 0 94587119.570667267 -226496076.52165222 0 0 0 0 -64657408.678009033 56906045.300756454 0 56906045.300756454 -188784921.18414307 0 0 0 0 29667866.755126953 -8481747.488679111 0 -8481747.488679111 -7564452.7160001397 0 0 0 0 39449051.798950195 -9935784.9819369912 0 -9935784.9819369912 -8063484.2477818131 0 0 0 0 23710303.455108643 -10646928.678960755 0 -10646928.678960755 -3664112.0500321388 0 0 0 0 3065544.6439819336 105705539.5550766 0 105705539.5550766 -251106744.36212158 0 0 0 0 62648924.768097639 62191863.34067975 0 62191863.34067975 -251024172.18891907 0 0 0 0 62764897.868682861 75378836.341373444 0 75378836.341373444 -277296297.69578552 0 0 0 0 30033001.343399048 61107248.191925049 0 61107248.191925049 -240073709.14849854 0 0 0 0 63858176.389801025 65390130.440746307 0 65390130.440746307 -257078031.04115677 0 0 0 0 28198818.034606934 94409648.696147919 0 94409648.696147919 -262859746.39964199 0 0 0 0 19326596.830459595 63082438.34905529 0 63082438.34905529 -215401743.60540771 0 0 0 0 14018896.005859375 23762699.16242218 0 23762699.16242218 -192005214.4541626 0 0 0 0 -5423759.8210754395 52056040.818656921 0 52056040.818656921 -215661796.44433594 0 0 0 0 53590735.250854492 26776808.401638031 0 26776808.401638031 -215174969.06951404 0 0 0 0 34212977.009315491 11753265.156527519 0 11753265.156527519 -210574491.98562241 0 0 0 0 65611870.273895264 -13699032.702260971 0 -13699032.702260971 -197078140.48395848 0 0 0 0 44556381.544845581 -29707818.069631577 0 -29707818.069631577 -175123818.82579041 0 0 0 0 -2085446.5846862793 9277236.6255302429 0 9277236.6255302429 -198584252.68998718 0 0 0 0 104033126.39474487 -8523157.8654842377 0 -8523157.8654842377 -210804813.36633301 0 0 0 0 96450652.526451111 -11928001.37406826 0 -11928001.37406826 -201493862.73353195 0 0 0 0 88908894.414001465 -11913057.844539642 0 -11913057.844539642 -204925632.20314312 0 0 0 0 60494473.285926819 28867211.172304153 0 28867211.172304153 -226731199.29349136 0 0 0 0 112475806.25338745 3795772.566450119 0 3795772.566450119 -216102946.04246902 0 0 0 0 84793199.059616089 35716427.825995445 0 35716427.825995445 -209181891.55452728 0 0 0 0 63616437.904205322 60169803.414461136 0 60169803.414461136 -252807280.28451538 0 0 0 0 71156463.247192383 34430497.892877579 0 34430497.892877579 -225044550.08838654 0 0 0 0 65419494.04095459 46076846.663883209 0 46076846.663883209 -232179343.90205002 0 0 0 0 70488721.282302856 59299078.450840473 0 59299078.450840473 -261713669.95929718 0 0 0 0 78591995.474639893 55305659.268727303 0 55305659.268727303 -232494735.19175339 0 0 0 0 88695711.09815979 31468454.345937729 0 31468454.345937729 -235227074.03862524 0 0 0 0 98386133.305732727 59299044.220040321 0 59299044.220040321 -180780249.82991791 0 0 0 0 126370015.73303223 13823859.962244034 0 13823859.962244034 -204540578.64790058 0 0 0 0 162848412.48458099 -19196552.694005013 0 -19196552.694005013 -204681209.84119987 0 0 0 0 114971712.33786774 10132849.742177963 0 10132849.742177963 -185467588.1653614 0 0 0 0 -73779808.716175079 63031557.692625046 0 63031557.692625046 -212785217.36442566 0 0 0 0 10536676.830169678 62351035.007514954 0 62351035.007514954 -230444256.81647873 0 0 0 0 -12798745.503631592 54814859.307285309 0 54814859.307285309 -212829044.04444504 0 0 0 0 -26525429.620697021 91648875.692848206 0 91648875.692848206 -205515767.43683815 0 0 0 0 -49029632.135696411 24371796.543787003 0 24371796.543787003 -251026467.34360504 0 0 0 0 -27850231.783828735 47198638.121166229 0 47198638.121166229 -236194622.09850311 0 0 0 0 3764926.9037017822 49003289.545072556 0 49003289.545072556 -256920007.77162933 0 0 0 0 13479776.989501953 33895957.265422821 0 33895957.265422821 -269539047.58178711 0 0 0 0 39339003.766693115 40519445.324679852 0 40519445.324679852 -265608966.69957733 0 0 0 0 33958616.959442139 53506279.108520508 0 53506279.108520508 -250841356.68232727 0 0 0 0 58405560.359039307 44181578.839191437 0 44181578.839191437 -238599054.36855698 0 0 0 0 60945690.11807251 54313558.012317657 0 54313558.012317657 -256877508.99964523 0 0 0 0 28347157.498428345 50788742.727262497 0 50788742.727262497 -227535577.94697189 0 0 0 0 62444509.02935791 53191551.022884369 0 53191551.022884369 -227849682.69701958 0 0 0 0 21748972.418022156 39132531.928212166 0 39132531.928212166 -247778281.13059998 0 0 0 0 17672333.615310669 59359387.626739502 0 59359387.626739502 -189501288.85049057 0 0 0 0 90157461.750183105 44944134.552309036 0 44944134.552309036 -205740870.37634945 0 0 0 0 53385390.589996338 43025826.641471863 0 43025826.641471863 -204984569.02047348 0 0 0 0 46852329.2084198 59208556.506899834 0 59208556.506899834 -174471353.00723648 0 0 0 0 56183415.057861328 67975664.345276356 0 67975664.345276356 -187576234.10194016 0 0 0 0 24566306.758148193 59926812.529150009 0 59926812.529150009 -160784403.42889023 0 0 0 0 -3803197.8954696655 68097582.832946777 0 68097582.832946777 -169521751.35348225 0 0 0 0 22904092.751983643 57457797.872436523 0 57457797.872436523 -214095311.10306358 0 0 0 0 8908071.0927429199 91388142.427116394 0 91388142.427116394 -206108832.52775908 0 0 0 0 -8508396.3834609985 75969754.656529427 0 75969754.656529427 -121956094.70308113 0 0 0 0 17133918.904117584 96164714.899134398 0 96164714.899134398 -136968708.80336952 0 0 0 0 51104094.246505737 83833864.259654045 0 83833864.259654045 -140385287.98607635 0 0 0 0 96276283.649307251 59525656.282479286 0 59525656.282479286 -174720563.32840681 0 0 0 0 77223997.724578857 72307614.347766876 0 72307614.347766876 -137436754.75199294 0 0 0 0 80902712.798065186 79593445.724239349 0 79593445.724239349 -123159329.41098976 0 0 0 0 177382661.14593506 85382697.046568394 0 85382697.046568394 -125151809.19107175 0 0 0 0 29479888.985900879 115142465.36187291 0 115142465.36187291 -85325331.242911339 0 0 0 0 32550081.036560059 108004884.34149313 0 108004884.34149313 -84772299.307879448 0 0 0 0 165839740.89866638 -42610140.136680365 0 -42610140.136680365 -169096120.46004486 0 0 0 0 203251447.44267273 18715780.0721035 0 18715780.0721035 -186907814.08182335 0 0 0 0 156334902.66075134 59841150.159767151 0 59841150.159767151 -163035359.84903049 0 0 0 0 134227301.91488647 28593664.191933155 0 28593664.191933155 -144934679.54960537 0 0 0 0 84350218.977169037 42074628.229376793 0 42074628.229376793 -164091921.040308 0 0 0 0 231508878.98580933 41699671.13186264 0 41699671.13186264 -148703133.33757401 0 0 0 0 153103277.82737732 53837127.99790144 0 53837127.99790144 -115767141.65200901 0 0 0 0 201100042.45407486 -816914.98764562607 0 -816914.98764562607 -110584532.8717804 0 0 0 0 407539846.84210205 -12074689.192489862 0 -12074689.192489862 -120675376.30122995 0 0 0 0 273314147.08220005 -45322864.729474634 0 -45322864.729474634 -100686522.93474483 0 0 0 0 296716242.58874512 15251455.378813744 0 15251455.378813744 -97439507.242987633 0 0 0 0 259153050.55264091 68616178.409007609 0 68616178.409007609 -129556146.30614376 0 0 0 0 290500633.00375366 22750540.776596904 0 22750540.776596904 -79018229.615202904 0 0 0 0 42479997.041946411 141778003.90242982 0 141778003.90242982 -76379565.672753215 0 0 0 0 36985821.294994354 160484869.4603349 0 160484869.4603349 -45746589.673909187 0 0 0 0 83234289.466644287 144494978.59838629 0 144494978.59838629 -77361112.528276443 0 0 0 0 98219794.568031311 152022130.54863679 0 152022130.54863679 -107807788.98632735 0 0 0 0 231339568.42440796 186285836.46230561 0 186285836.46230561 -134709885.40544033 0 0 0 0 -95757764.811981201 220226106.12628055 0 220226106.12628055 -70572863.270139694 0 0 0 0 -60192326.337432861 136997039.60939407 0 136997039.60939407 -116749085.08731556 0 0 0 0 -50531430.095836639 85105117.986021399 0 85105117.986021399 26362188.137255669 0 0 0 0 -66141944.450393677 177781529.17361283 0 177781529.17361283 10520771.170725822 0 0 0 0 -19298368.741794586 146064565.16812062 0 146064565.16812062 -49258217.872799873 0 0 0 0 -23687728.495439529 88845647.987126559 0 88845647.987126559 -78720004.413480759 0 0 0 0 -56435913.895412445 107578813.02304101 0 107578813.02304101 -55546708.600064278 0 0 0 0 -25739872.901486397 69039892.233657181 0 69039892.233657181 -127121239.44786644 0 0 0 0 -18002290.22908783 104814507.66796875 0 104814507.66796875 -55547185.961288214 0 0 0 0 12933733.937133789 144254419.78276372 0 144254419.78276372 -199756508.72006106 0 0 0 0 -18093402.198158264 62644566.021368027 0 62644566.021368027 -80751503.116325766 0 0 0 0 -62216748.851623535 23457543.651525497 0 23457543.651525497 178845470.69749784 0 0 0 0 -107965561.28736115 161747805.45192575 0 161747805.45192575 300402430.68860269 0 0 0 0 -630681.08951612562 -1157712.6545774806 0 -1157712.6545774806 220877.13109272398 0 0 0 0 119350373.66478729 -44081713.743545532 0 -44081713.743545532 -760541863.77592063 0 0 0 0 -81995074.839326859 -162952514.52786547 0 -162952514.52786547 -414435438.53590941 0 0 0 0 34436605.785827637 -166079807.90615368 0 -166079807.90615368 -269690076.48778468 0 0 0 0 16081837.517654419 126584205.57937551 0 126584205.57937551 -153113125.01844883 0 0 0 0 -128528836.20320892 330223111.12778091 0 330223111.12778091 -286880385.84732878 0 0 0 0 -386398616.18785858 108573438.00551313 0 108573438.00551313 -113596008.74962521 0 0 0 0 -309236261.20492554 72991479.543677896 0 72991479.543677896 -313808359.799981 0 0 0 0 1011015.9430698454 -1846127.3130221888 0 -1846127.3130221888 -1527675.0789238838 0 0 0 0 -503416599.41135406 -56153340.71822238 0 -56153340.71822238 53796853.807757378 0 0 0 0 -15222440.660087585 -37297067.944220737 0 -37297067.944220737 -474178181.44476783 0 0 0 0 -205657432.8042984 112086210.78523421 0 112086210.78523421 107797894.92000341 0 0 0 0 -467445165.47307587 300525414.07429826 0 300525414.07429826 -59144077.42112112 0 0 0 0 -224110485.07074738 64632846.799570084 0 64632846.799570084 608485.72391927242 0 0 0 0 -296165083.33070755 43045798.245106936 0 43045798.245106936 187869592.60416031 0 0 0 0 -21580756.174697876 -57471730.404990196 0 -57471730.404990196 117051264.34333086 0 0 0 0 -151913497.26024246 6249682.3287763596 0 6249682.3287763596 2101268.8662638664 0 0 0 0 -40501075.328577042 -90284416.390581414 0 -90284416.390581414 66072732.093322277 0 0 0 0 2336410.3860132471 -5165339.8448267039 0 -5165339.8448267039 -2589025.8616815987 0 0 0 0 -270774808.67669678 -99072384.827038765 0 -99072384.827038765 13328433.377695769 0 0 0 0 4429695.9813935906 -9311738.7693106998 0 -9311738.7693106998 7155303.5138472263 0 0 0 0 1723748679.2801514 -1109409991.5607543 0 -1109409991.5607543 147495480.86097622 0 0 0 0 -270969436.67595673 -14680919.315892935 0 -14680919.315892935 143906066.7182622 0 0 0 0 -74225144.506889343 -110237704.50866961 0 -110237704.50866961 156160138.4370923 0 0 0 0 1035429.5143281445 -4109834.938091509 0 -4109834.938091509 4433237.9784702044 0 0 0 0 78513671.800354004 -28332894.335415363 0 -28332894.335415363 -144681092.48321486 0 0 0 0 -1132219766.3030052 318343874.8467133 0 318343874.8467133 -435202380.80834579 0 0 0 0 2272185.8913317584 -3912470.1675203405 0 -3912470.1675203405 6134089.5153130842 0 0 0 0 1594928805.8995399 166513434.10793519 0 166513434.10793519 -522267913.3034935 0 0 0 0 1599698272.9802094 -510786215.05573177 0 -510786215.05573177 -77206914.873923779 0 0 0 0 1271292399.7516785 -310611913.52816629 0 -310611913.52816629 14491841.207977295 0 0 0 0 784655895.25810242 -751585561.69020772 0 -751585561.69020772 661038386.85821104 0 0 0 0 642556986.82004166 -118428220.89425838 0 -118428220.89425838 35535190.802771091 0 0 0 0 764476425.92224121 -356600803.7540803 0 -356600803.7540803 -43041800.486945629 0 0 0 0 766471448.97831678 -132064118.38868129 0 -132064118.38868129 -166621100.70163202 0 0 0 0 453548589.21970749 -408768566.41849709 0 -408768566.41849709 79325956.461341619 0 0 0 0 444304856.31190491 -357102746.88719702 0 -357102746.88719702 -167025341.60535765 0 0 0 0 413770702.08647156 -438356285.84055096 0 -438356285.84055096 201329762.88826561 0 0 0 0 627359818.64633179 -354536651.98049784 0 -354536651.98049784 -30577771.17884016 0 0 0 0 351551422.20277405 -243610475.88376331 0 -243610475.88376331 24989989.378350735 0 0 0 0 39717952.233078003 -13050818.008129597 0 -13050818.008129597 117792944.44994044 0 0 0 0 164061324.85084534 -225115431.82022667 0 -225115431.82022667 307813041.66151714 0 0 0 0 326135629.08520508 -185432488.50026345 0 -185432488.50026345 214855828.98733902 0 0 0 0 1034871222.7595673 -726818950.93915868 0 -726818950.93915868 309320982.78397894 0 0 0 0 385801711.11425018 -412166283.71016145 0 -412166283.71016145 944406997.26056719 0 0 0 0 1365195100.5811081 -344048505.87966025 0 -344048505.87966025 -238700969.89652157 0 0 0 0 1321353577.0035782 -78164341.931315482 0 -78164341.931315482 35480166.639321566 0 0 0 0 604039315.86077881 229197576.89253354 0 229197576.89253354 594674726.50616837 0 0 0 0 -33273674.883605957 -102871115.57504368 0 -102871115.57504368 385747360.60649443 0 0 0 0 340995310.39323425 -93053637.219484329 0 -93053637.219484329 221167578.6513648 0 0 0 0 8310956.7116394043 -109846440.49573517 0 -109846440.49573517 14752879.000411868 0 0 0 0 227999769.48873138 77324288.280388594 0 77324288.280388594 161222676.73358345 0 0 0 0 98184577.496704102 183632062.88282609 0 183632062.88282609 -65873179.542221606 0 0 0 0 283202559.96775436 -4365243.8172504678 0 -4365243.8172504678 -129286257.4889923 0 0 0 0 590961355.63039398 208243137.34855235 0 208243137.34855235 10122908.800040916 0 0 0 0 361167447.39155579 181585542.85871962 0 181585542.85871962 -183681667.48390684 0 0 0 0 104358183.84877777 164847954.00388861 0 164847954.00388861 -201033410.40033805 0 0 0 0 533585846.09158325 -88964349.206416249 0 -88964349.206416249 -75469187.435785174 0 0 0 0 666059671.134655 -213050412.19415718 0 -213050412.19415718 8421150.2792625427 0 0 0 0 478308744.89831543 -107394096.99376321 0 -107394096.99376321 -71723093.137691736 0 0 0 0 659871280.92131424 -349958909.9933449 0 -349958909.9933449 43764470.433476448 0 0 0 0 524049043.36145782 -394772732.33895373 0 -394772732.33895373 207857752.53028595 0 0 0 0 487195043.58042145 -319888446.67023754 0 -319888446.67023754 143826212.63262892 0 0 0 0 193581766.72891998 -217886841.68979907 0 -217886841.68979907 276013291.85553962 0 0 0 0 -249835711.53567505 -140173122.59957683 0 -140173122.59957683 -43163405.238945007 0 0 0 0 7155774.4865071252 -1148790.1464382857 0 -1148790.1464382857 -2161641.8912593331 0 0 0 0 534484004.16411209 -559777817.23506439 0 -559777817.23506439 583818933.29737139 0 0 0 0 718279792.45014 288232219.63191319 0 288232219.63191319 115804240.28213358 0 0 0 0 4980547.9049104899 -4453801.9688650221 0 -4453801.9688650221 59032.741737628821 0 0 0 0 12725154.453684017 -5312605.8216810077 0 -5312605.8216810077 -3470259.933902862 0 0 0 0 8801028.6635093689 -5354320.8761356622 0 -5354320.8761356622 -8003273.9525030851 0 0 0 0 -4677953.0687446594 -2988244.3594191074 0 -2988244.3594191074 6054848.6339999437 0 0 0 0 -634346.10451453924 236465.35261293128 0 236465.35261293128 -741991.5427386933 0 0 0 0 635705549.67593718 58059943.421388507 0 58059943.421388507 4481918.9525198936 0 0 0 0 12421120.000373244 -8820072.2410632931 0 -8820072.2410632931 -18276418.548317552 0 0 0 0 17152875.57469964 -9686355.5410738885 0 -9686355.5410738885 -3953272.95684072 0 0 0 0 12231623.707496643 -4820050.577722013 0 -4820050.577722013 -8649644.1757649481 0 0 0 0 11736130.461425781 -78182876.210681677 0 -78182876.210681677 -51604260.513992429 0 0 0 0 10969214.958404541 -6680758.9273292422 0 -6680758.9273292422 -10420288.415428162 0 0 0 0 10536607.592684105 -11439624.335124044 0 -11439624.335124044 -155978.84180420038 0 0 0 0 64751853.217788696 -21872881.100311518 0 -21872881.100311518 -127970826.11311626 0 0 0 0 20378962.59324646 -85986090.512778759 0 -85986090.512778759 -207188634.66514897 0 0 0 0 298563702.52212524 -113111106.55960536 0 -113111106.55960536 -206439011.41815218 0 0 0 0 148059944.34523773 33696931.490439504 0 33696931.490439504 -156938879.37625217 0 0 0 0 13994240.106323242 -283108506.69862354 0 -283108506.69862354 -129637316.34112132 0 0 0 0 458888928.18255615 -304685485.89014924 0 -304685485.89014924 -130062011.1810054 0 0 0 0 584645038.06815338 135689984.04745302 0 135689984.04745302 -134006597.74568653 0 0 0 0 742486421.58989716 -607662809.13235569 0 -607662809.13235569 510188287.15558505 0 0 0 0 1846715730.1079521 257006709.33776632 0 257006709.33776632 -94652613.704914331 0 0 0 0 652107.78853520006 -1719430.1088795736 0 -1719430.1088795736 4974076.5200481601 0 0 0 0 1655196589.9717484 -399277079.10508335 0 -399277079.10508335 -33230417.510451794 0 0 0 0 894995733.19270325 213539455.5797652 0 213539455.5797652 77625343.974125862 0 0 0 0 745457359.18976593 -287003821.66956526 0 -287003821.66956526 87378649.073420048 0 0 0 0 1114067391.2468872 -160881813.86230624 0 -160881813.86230624 -109005934.73284769 0 0 0 0 -459429003.11606979 -180296355.76591301 0 -180296355.76591301 199611146.18653774 0 0 0 0 -243909930.67298126 -141072379.14672613 0 -141072379.14672613 -85683195.156111717 0 0 0 0 2938101.9156265929 1307633.7492214143 0 1307633.7492214143 -1317789.0915913223 0 0 0 0 -986625958.34307098 -402543200.19174099 0 -402543200.19174099 498316970.2282567 0 0 0 0 95324743.161193848 -447971127.8115654 0 -447971127.8115654 226870791.9761281 0 0 0 0 772792444.10655022 -563815226.68241334 0 -563815226.68241334 87289219.182922363 0 0 0 0 350233779.25543976 -191907999.88735437 0 -191907999.88735437 26327471.14375186 0 0 0 0 567308411.35478973 -238431198.4297325 0 -238431198.4297325 -44175084.846764088 0 0 0 0 229313786.91094971 -127244768.08082104 0 -127244768.08082104 -97646739.513501167 0 0 0 0 313022447.37998962 -83469367.118439674 0 -83469367.118439674 -74849858.912758827 0 0 0 0 202133060.20251846 -72555883.58976078 0 -72555883.58976078 -164267285.46372223 0 0 0 0 277189883.07103729 -19376317.58889389 0 -19376317.58889389 -168280092.52972126 0 0 0 0 -170949539.6648407 -284283489.58905888 0 -284283489.58905888 129911068.77355385 0 0 0 0 384924590.46768951 -286169760.2644732 0 -286169760.2644732 -58019915.388711929 0 0 0 0 110717284.77262878 -196159682.36711788 0 -196159682.36711788 -85670761.94091177 0 0 0 0 224850768.39239883 -121457771.4966588 0 -121457771.4966588 -196593303.83273315 0 0 0 0 131791010.51598358 -216547213.8812232 0 -216547213.8812232 -146250910.05144501 0 0 0 0 -41532684.929237366 -200347654.26766109 0 -200347654.26766109 -137465532.76067543 0 0 0 0 -118758051.04394531 -116053466.56670761 0 -116053466.56670761 -194043313.12295914 0 0 0 0 99505322.2885952 -124779391.11926174 0 -124779391.11926174 -194424308.7270565 0 0 0 0 112956671.78657532 -168131959.16034985 0 -168131959.16034985 -233778846.18769455 0 0 0 0 -4905042.99609375 -181919636.00760269 0 -181919636.00760269 -187685020.0970726 0 0 0 0 56746118.714981079 -130265660.06346703 0 -130265660.06346703 -178657096.5551033 0 0 0 0 58055397.232009888 -151646976.51933861 0 -151646976.51933861 -175390410.08475304 0 0 0 0 2133356.1965656281 -203014042.94259405 0 -203014042.94259405 -249071111.89944839 0 0 0 0 -143613715.07221222 -237647022.94299316 0 -237647022.94299316 -149291627.35516167 0 0 0 0 143491208.76463318 -22977840.25131321 0 -22977840.25131321 -179795604.5926218 0 0 0 0 193728037.73060608 -73679292.224912167 0 -73679292.224912167 -205768126.5750351 0 0 0 0 176179836.78463745 -141857313.85494804 0 -141857313.85494804 -202739554.95954466 0 0 0 0 144019274.56816101 -93107302.094625473 0 -93107302.094625473 -168177806.98064375 0 0 0 0 131206783.4856987 -85581078.621553659 0 -85581078.621553659 -200298882.70720673 0 0 0 0 115184630.40261841 -135028085.92245674 0 -135028085.92245674 -207655797.50013161 0 0 0 0 110569591.63813782 -67776656.45435524 0 -67776656.45435524 -205987205.81589317 0 0 0 0 123085640.30474854 -58531408.197012901 0 -58531408.197012901 -202718264.30306244 0 0 0 0 11103895.656838 -16742953.937850874 0 -16742953.937850874 -4148006.6041013161 0 0 0 0 26700942.70526123 -47653412.871360779 0 -47653412.871360779 -135619503.85761166 0 0 0 0 -6067795.2994384766 15143205.248581082 0 15143205.248581082 -14563260.721488342 0 0 0 0 30242643.845153809 -46998761.534328461 0 -46998761.534328461 -135556337.99123979 0 0 0 0 62083462.33631897 -49688181.570960999 0 -49688181.570960999 -174102046.55512238 0 0 0 0 49115682.711593628 -31763225.847751617 0 -31763225.847751617 -192106157.40335083 0 0 0 0 62985307.400033951 -40474084.460421443 0 -40474084.460421443 -188465393.60199738 0 0 0 0 77613255.05480957 -44834039.151252747 0 -44834039.151252747 -206685229.75269127 0 0 0 0 94543919.487243652 -66264960.838281631 0 -66264960.838281631 -191746418.74862289 0 0 0 0 51325918.022949219 -51021181.36296463 0 -51021181.36296463 -173139157.68502808 0 0 0 0 60243191.692276001 -57182504.93318367 0 -57182504.93318367 -190109540.61663818 0 0 0 0 49485481.498565674 -55732688.684822083 0 -55732688.684822083 -164978664.30345726 0 0 0 0 60382556.99697876 -76768592.759426117 0 -76768592.759426117 -159366125.04521942 0 0 0 0 41331345.14251709 -74287262.766029358 0 -74287262.766029358 -159689298.91357803 0 0 0 0 63274035.857269287 -67614398.808879852 0 -67614398.808879852 -170784747.09017944 0 0 0 0 79573445.032928467 -83644887.66501236 0 -83644887.66501236 -198202400.80182362 0 0 0 0 69643558.23260498 -86497712.649723053 0 -86497712.649723053 -176820158.2052803 0 0 0 0 65265351.083852768 -111462782.23102975 0 -111462782.23102975 -163666907.57466888 0 0 0 0 34101847.900390625 -71120802.257968903 0 -71120802.257968903 -122355890.7268219 0 0 0 0 34401869.977767944 -82683459.682250977 0 -82683459.682250977 -125460865.73429108 0 0 0 0 40977943.418823242 -79752267.411241531 0 -79752267.411241531 -141088946.51062012 0 0 0 0 34403956.941986084 -65392761.684398651 0 -65392761.684398651 -136639313.93081665 0 0 0 0 39644599.780723572 -62298900.371545792 0 -62298900.371545792 -151455131.62513733 0 0 0 0 52707488.423187256 -64394311.921115875 0 -64394311.921115875 -151285376.94464111 0 0 0 0 12720895.007537842 -24608519.947244644 0 -24608519.947244644 -142628059.15370178 0 0 0 0 -5258010.7457199097 -22495094.904602051 0 -22495094.904602051 -20485791.616281509 0 0 0 0 -65296769.799865723 -16268177.442058921 0 -16268177.442058921 17102607.605037689 0 0 0 0 -4258283.0880680084 -73708405.820064306 0 -73708405.820064306 -52578307.113750458 0 0 0 0 -48495766.175247192 -104190111.06387329 0 -104190111.06387329 -73330647.419338226 0 0 0 0 -23506433.063827515 -130846162.80080223 0 -130846162.80080223 -54384843.041095734 0 0 0 0 -13420174.990264893 -155580508.85000229 0 -155580508.85000229 -143702596.80558777 0 0 0 0 28126951.060379028 -108301409.36473274 0 -108301409.36473274 -140984277.76137924 0 0 0 0 27856053.524917603 -111620184.46634674 0 -111620184.46634674 -103800390.55064011 0 0 0 0 1618112.3611869812 -103277731.61799765 0 -103277731.61799765 -103007096.8183136 0 0 0 0 20665888.915710449 -74750100.28106308 0 -74750100.28106308 -82527967.992477417 0 0 0 0 23735415.823272705 -28892495.18901062 0 -28892495.18901062 -106985221.79322052 0 0 0 0 17767452.050567627 -69426010.376655579 0 -69426010.376655579 -86260200.729633331 0 0 0 0 20380417.915100098 -78718886.184844971 0 -78718886.184844971 -126541349.69176102 0 0 0 0 17682586.938644409 -82948114.816717148 0 -82948114.816717148 -104168022.56331635 0 0 0 0 24398543.235595703 -61229002.652503967 0 -61229002.652503967 -126135408.55373573 0 0 0 0 19989928.192504883 -54306178.193870544 0 -54306178.193870544 -101942187.26425314 0 0 0 0 12527315.474525452 -60216546.796463966 0 -60216546.796463966 -57098869.980041504 0 0 0 0 24428041.628265381 -19623807.185157776 0 -19623807.185157776 -76847526.73324585 0 0 0 0 23134578.751556396 -6131419.0113487244 0 -6131419.0113487244 -20215390.433807373 0 0 0 0 18194844.92640686 -55055789.045233727 0 -55055789.045233727 -59376745.786224365 0 0 0 0 -7605082.7779922485 -49793259.227375031 0 -49793259.227375031 5029206.3120231628 0 0 0 0 24450825.389823914 -48868232.949543953 0 -48868232.949543953 -62106597.432342529 0 0 0 0 957446.82721354812 -9367209.8273460716 0 -9367209.8273460716 12657983.327667747 0 0 0 0 747639666.68573761 36707730.856196135 0 36707730.856196135 -133184971.85053933 0 0 0 0 4181799.4834754914 -5544890.5020224601 0 -5544890.5020224601 5381435.9248263985 0 0 0 0 323940910.46511841 -35186772.582272582 0 -35186772.582272582 97182023.468068764 0 0 0 0 336303474.41570282 -108314892.20278066 0 -108314892.20278066 13624425.700486422 0 0 0 0 768046474.19661427 -283324198.33362609 0 -283324198.33362609 -53764089.125597835 0 0 0 0 448800865.07493591 -81981029.548295647 0 -81981029.548295647 -69098182.85351485 0 0 0 0 996624.80196746066 -72161.017392158508 0 -72161.017392158508 465901.71898134885 0 0 0 0 653278900.62872314 -71971395.77184993 0 -71971395.77184993 -107593979.00245008 0 0 0 0 674342598.12831879 -133371310.77721065 0 -133371310.77721065 -100605621.21732545 0 0 0 0 547257950.47806931 51948893.213528454 0 51948893.213528454 17428115.281030655 0 0 0 0 794921624.29685974 -75396979.966598988 0 -75396979.966598988 -110850299.83511019 0 0 0 0 2775089.8585408702 -6698734.5183183774 0 -6698734.5183183774 12658212.825507926 0 0 0 0 511504114.30962372 -61238796.89655453 0 -61238796.89655453 95496802.789946079 0 0 0 0 -203643336.65434265 -222181152.6504941 0 -222181152.6504941 -173098714.01425552 0 0 0 0 -193197559.46165466 -278060636.85493755 0 -278060636.85493755 -71747187.08972311 0 0 0 0 -274933317.72286987 -113379691.31307602 0 -113379691.31307602 36363388.23021698 0 0 0 0 366747.17237766832 -2179499.9036153704 0 -2179499.9036153704 1266704.3876731843 0 0 0 0 8206403.3346557617 -6810268.0384956002 0 -6810268.0384956002 3198313.3507561684 0 0 0 0 7130017.9403076172 -10383328.174028158 0 -10383328.174028158 -240196.43698978424 0 0 0 0 7407593.3057403564 -5981417.0226831436 0 -5981417.0226831436 3445608.3473052979 0 0 0 0 7582192.6800079346 -5148007.2741767168 0 -5148007.2741767168 7416759.2523202896 0 0 0 0 8079253.4842834473 -12793351.44478941 0 -12793351.44478941 12875621.88620162 0 0 0 0 8987425.272857666 -9292589.56024158 0 -9292589.56024158 -2498265.4133901596 0 0 0 0 9623851.8110961914 -5701125.0680010319 0 -5701125.0680010319 6170928.0680305958 0 0 0 0 740657313.21450114 -156408556.52094045 0 -156408556.52094045 135220991.03578115 0 0 0 0 7449617.7124660015 -4938755.4313079491 0 -4938755.4313079491 4853133.2463545874 0 0 0 0 602145319.72813416 -324926676.97530603 0 -324926676.97530603 51425944.20920074 0 0 0 0 525598589.33972931 45875693.922555834 0 45875693.922555834 14414511.168935239 0 0 0 0 2676483.07819115 516819.86362495273 0 516819.86362495273 967735.72015086061 0 0 0 0 733765872.80284715 -405922116.01745063 0 -405922116.01745063 192443010.87909144 0 0 0 0 1383428.8522876799 -1483010.2254426386 0 -1483010.2254426386 347058.73722129234 0 0 0 0 430304343.77955627 -187271616.03415596 0 -187271616.03415596 27261941.324081779 0 0 0 0 359216956.34751892 -381760957.03796154 0 -381760957.03796154 211640543.69687217 0 0 0 0 3996893.6894874573 -5158309.2566572428 0 -5158309.2566572428 455702.92113351822 0 0 0 0 10675647.349639893 -4025931.554669857 0 -4025931.554669857 -805857.01475095749 0 0 0 0 6512358.0189437419 -6384705.6131658219 0 -6384705.6131658219 2808126.2238101978 0 0 0 0 11182796.985961914 -2548101.8679435253 0 -2548101.8679435253 2152391.8854064941 0 0 0 0 29837983.321121216 10190446.168654799 0 10190446.168654799 -3337807.4632508159 0 0 0 0 12527462.766571399 -5165609.8607727587 0 -5165609.8607727587 -4718869.1358199874 0 0 0 0 17137647.988238916 -10953488.948233858 0 -10953488.948233858 -7324623.8951501232 0 0 0 0 -14823817.856048584 -21789921.830806732 0 -21789921.830806732 107681400.50318146 0 0 0 0 4431218.8162841797 -17293532.618597392 0 -17293532.618597392 -16720769.261139039 0 0 0 0 772873.7911605835 -22046362.060894664 0 -22046362.060894664 -9332629.802624464 0 0 0 0 4516487.8565063477 -13455241.395442327 0 -13455241.395442327 -7043337.5824756138 0 0 0 0 538321.907371521 -22334896.819284197 0 -22334896.819284197 -3736699.2927002311 0 0 0 0 13331336.171020508 -16879660.137071967 0 -16879660.137071967 -12026553.991828322 0 0 0 0 3061722.7103010267 -731423.66470894963 0 -731423.66470894963 -822980.8594643632 0 0 0 0 10910746.443971634 -3214279.6157273054 0 -3214279.6157273054 7940048.3539729118 0 0 0 0 35940321.925735474 -25629950.243766308 0 -25629950.243766308 534582.76763725281 0 0 0 0 55768558.174285889 31311904.343001127 0 31311904.343001127 -1232032.365441829 0 0 0 0 41703117.91796875 -27910701.078016996 0 -27910701.078016996 11756851.709194005 0 0 0 0 10301554.092254639 -8980236.2602109909 0 -8980236.2602109909 16168582.084575653 0 0 0 0 19352218.987518311 -9876718.1474676132 0 -9876718.1474676132 -2742126.7411665916 0 0 0 0 24465275.575767517 422039.38089156151 0 422039.38089156151 -19434743.650434017 0 0 0 0 3571204.0172271729 -6394278.9607883692 0 -6394278.9607883692 -3459132.5972938538 0 0 0 0 -944645.13539123535 2730816.8444829583 0 2730816.8444829583 -6483521.6842046976 0 0 0 0 24641374.503383636 -15543757.111544468 0 -15543757.111544468 -16979869.766716659 0 0 0 0 17209090.065277457 -4202627.763278082 0 -4202627.763278082 -4296259.1134992214 0 0 0 0 13828269.319721356 -5333051.0793931466 0 -5333051.0793931466 220065.92207733594 0 0 0 0 17474449.227790833 -6448503.4616331328 0 -6448503.4616331328 560558.03216189379 0 0 0 0 15931364.78527832 -3083102.830672299 0 -3083102.830672299 1684106.4090295369 0 0 0 0 20294906.389945984 -3771714.9016486919 0 -3771714.9016486919 -843575.27256864309 0 0 0 0 19410626.38571167 -2201327.4089512629 0 -2201327.4089512629 1848599.062538214 0 0 0 0 13065003.537849426 -11720106.045357943 0 -11720106.045357943 -13393463.335303068 0 0 0 0 15405527.801333785 -2866243.1217599735 0 -2866243.1217599735 -1058299.8881220068 0 0 0 0 10357399.849487305 -16909782.206059933 0 -16909782.206059933 -2466468.7123003006 0 0 0 0 495180609.50376129 -123089729.37388374 0 -123089729.37388374 85795628.688568354 0 0 0 0 9012043.1523340121 -3561217.1672450453 0 -3561217.1672450453 2930458.1583129363 0 0 0 0 10156538.283340454 -2418797.58355093 0 -2418797.58355093 -2729956.0892064571 0 0 0 0 16274321.624359131 491841.26440115273 0 491841.26440115273 2622913.1240033582 0 0 0 0 15702647.816822052 -202636.13609241578 0 -202636.13609241578 2165027.8997964375 0 0 0 0 18234731.741607666 -5291961.1511912365 0 -5291961.1511912365 3164925.4101061635 0 0 0 0 9212620.4279805273 393986.41554976255 0 393986.41554976255 2113625.9573443709 0 0 0 0 24356864.824462891 -1674718.9424395626 0 -1674718.9424395626 32701.915838534012 0 0 0 0 22393429.954101562 -860828.47711808234 0 -860828.47711808234 1181174.6321286908 0 0 0 0 28551.177909165621 459.84078753739595 0 459.84078753739595 14584.156911834722 0 0 0 0 25433985.500305176 -4333063.0539503582 0 -4333063.0539503582 -146136.68740124162 0 0 0 0 22322619.301467896 -3422238.9296186441 0 -3422238.9296186441 989624.25198396668 0 0 0 0 20487752.757232666 -2647537.6768940054 0 -2647537.6768940054 1129069.7850920036 0 0 0 0 21837590.234390259 -4668910.5696071209 0 -4668910.5696071209 1412657.9383543315 0 0 0 0 19676344.918182373 -2594141.8840865465 0 -2594141.8840865465 992212.41374306194 0 0 0 0 19429318.411459625 -3471244.2424003538 0 -3471244.2424003538 735898.53325201944 0 0 0 0 20276406.786560059 -3053178.7325049792 0 -3053178.7325049792 356418.4521637205 0 0 0 0 20132925.866950989 -2453743.6115855123 0 -2453743.6115855123 -674369.96289524622 0 0 0 0 20011483.901489258 -2405476.8693237295 0 -2405476.8693237295 395151.58661845513 0 0 0 0 18735480.297176361 -2991721.5474955612 0 -2991721.5474955612 526142.04769745655 0 0 0 0 19135710.72694397 -3516221.4790040557 0 -3516221.4790040557 992631.89140126389 0 0 0 0 20317906.637557983 -2556857.2093478888 0 -2556857.2093478888 97588.247539697215 0 0 0 0 18735251.154701233 -2377585.0297093149 0 -2377585.0297093149 94289.817728222348 0 0 0 0 18883132.067910194 -3114470.6346779158 0 -3114470.6346779158 278930.04285855917 0 0 0 0 19777220.919700623 -1753511.6139587178 0 -1753511.6139587178 -357963.46573601104 0 0 0 0 20270169.528770447 -2076138.175976458 0 -2076138.175976458 -473793.85672856681 0 0 0 0 19940544.631607056 -1179530.5933136221 0 -1179530.5933136221 -3087.7438263784766 0 0 0 0 18515487.146648407 -2260932.8101441357 0 -2260932.8101441357 -443166.3136785219 0 0 0 0 17788862.361902237 -1449551.5912471295 0 -1449551.5912471295 901.51448570852722 0 0 0 0 22788649.754524231 -549232.53868037532 0 -549232.53868037532 10224.153957312141 0 0 0 0 21554283.102401733 -1981931.7754468017 0 -1981931.7754468017 -1045870.3618950975 0 0 0 0 20196069.714492798 -2294777.435185221 0 -2294777.435185221 -1117870.9023457202 0 0 0 0 21349137.40345192 -3180731.157735893 0 -3180731.157735893 -4281312.0331459856 0 0 0 0 21118493.443214417 -2690545.7256322191 0 -2690545.7256322191 -1021799.4454930471 0 0 0 0 19386075.500305176 -4243756.648216119 0 -4243756.648216119 -2291075.0010036528 0 0 0 0 19302708.017196655 -3087355.5475576925 0 -3087355.5475576925 349954.63401030749 0 0 0 0 20117212.151817322 -6216816.725930688 0 -6216816.725930688 34533.064998943824 0 0 0 0 41442403.898151398 6819584.2615793049 0 6819584.2615793049 -19367058.174048468 0 0 0 0 20193243.248100281 -6724846.8919364326 0 -6724846.8919364326 -3521878.1348134764 0 0 0 0 10261321.178860389 -164661.60363202542 0 -164661.60363202542 -1570733.3623080361 0 0 0 0 26403578.824661255 5237235.5113583878 0 5237235.5113583878 4041834.2662490383 0 0 0 0 2387457.0134747177 325218.34090954065 0 325218.34090954065 -29243.134851985989 0 0 0 0 80387473.591114044 17863144.475373529 0 17863144.475373529 -4786509.658325471 0 0 0 0 10983516.268665314 -9071834.3102359939 0 -9071834.3102359939 -1624457.6568584892 0 0 0 0 51974602.093551636 409239.6140551921 0 409239.6140551921 -12717.799722820715 0 0 0 0 36461220.937065125 -11725619.143372143 0 -11725619.143372143 -1516425.0055137884 0 0 0 0 39457852.680045128 -2893880.1771566509 0 -2893880.1771566509 6583.1444936341304 0 0 0 0 41802392.794822693 4473670.0799659882 0 4473670.0799659882 7155186.6095092408 0 0 0 0 42155445.133430481 -3558756.0522026382 0 -3558756.0522026382 -4958537.4684559554 0 0 0 0 43823386.893753052 -8887028.9173139948 0 -8887028.9173139948 10049898.944491934 0 0 0 0 28399280.794216156 -3526517.5392030496 0 -3526517.5392030496 6537724.3823695267 0 0 0 0 24946022.287360072 -14349130.918252476 0 -14349130.918252476 -10513423.06866993 0 0 0 0 24695908.140159607 -4198001.1421862803 0 -4198001.1421862803 359928.08499027789 0 0 0 0 38936061.038627625 -10609245.708151665 0 -10609245.708151665 -32514832.322101332 0 0 0 0 9721763.5516376495 -22682951.859506927 0 -22682951.859506927 -39467157.653281331 0 0 0 0 -240538.20667329431 63468.204510901123 0 63468.204510901123 246877.55231890356 0 0 0 0 -3128632.4725915194 -20480305.006672751 0 -20480305.006672751 16884918.86231488 0 0 0 0 -2586517.7451705933 -36036256.454233989 0 -36036256.454233989 -14151146.825629763 0 0 0 0 21047859.418907166 -18357464.831345744 0 -18357464.831345744 -31224335.844061345 0 0 0 0 15196443.313117981 -31001533.127774939 0 -31001533.127774939 -47482163.453631729 0 0 0 0 27292348.140071765 -2631012.4097943678 0 -2631012.4097943678 -1622742.7760622706 0 0 0 0 26659347.192194641 -4522016.6707512122 0 -4522016.6707512122 -2072418.685846678 0 0 0 0 22639172.082221985 -17702452.60739848 0 -17702452.60739848 -19171235.626279756 0 0 0 0 21029328.806735992 -17381108.680248499 0 -17381108.680248499 -17639704.672670126 0 0 0 0 13644493.645404816 -17312289.609677713 0 -17312289.609677713 -4176430.8301004395 0 0 0 0 15764690.46827507 -21612041.453292426 0 -21612041.453292426 -10807152.155168504 0 0 0 0 23358756.368942261 -15613802.867560867 0 -15613802.867560867 -9203182.7788279466 0 0 0 0 15068106.374721527 -14026859.411427548 0 -14026859.411427548 -3357349.2542518303 0 0 0 0 21595482.568908691 -19011897.684216168 0 -19011897.684216168 -18685267.766294457 0 0 0 0 21558210.885643005 -17978686.372559074 0 -17978686.372559074 -13704460.765835967 0 0 0 0 26612918.25579834 -23093126.557191782 0 -23093126.557191782 -10933248.836731136 0 0 0 0 27969335.663314819 -17144704.442633584 0 -17144704.442633584 -6969572.5561378747 0 0 0 0 23708791.842119217 -14412661.115090502 0 -14412661.115090502 -6045506.5663634688 0 0 0 0 36522618.133655548 -12437077.086741118 0 -12437077.086741118 -5744312.00259085 0 0 0 0 24142662.120635986 -12820358.744577102 0 -12820358.744577102 2796552.2540128455 0 0 0 0 40254545.37298584 -14561905.270673007 0 -14561905.270673007 -2740137.5020769238 0 0 0 0 47176907.952667236 -10820245.051864862 0 -10820245.051864862 -8092899.4416633546 0 0 0 0 9299118.7932434082 -30899071.718399756 0 -30899071.718399756 15873937.628612548 0 0 0 0 29978834.152664185 -22247108.174762204 0 -22247108.174762204 3614131.2257157266 0 0 0 0 80390043.498321533 -35217058.171164453 0 -35217058.171164453 -1285090.6384729743 0 0 0 0 30016591.384155273 -80287598.69075948 0 -80287598.69075948 80862219.867905885 0 0 0 0 12134506.741424561 -33420830.670269787 0 -33420830.670269787 17412255.446537137 0 0 0 0 14680974.058815002 -11851274.218974981 0 -11851274.218974981 1462746.7507350296 0 0 0 0 16104645.721740723 -12388588.536037875 0 -12388588.536037875 -1306188.6050522104 0 0 0 0 15898574.942855835 -13106840.146536484 0 -13106840.146536484 -879476.67900253832 0 0 0 0 23061790.930908203 -9407642.3675015867 0 -9407642.3675015867 -1092663.6047936678 0 0 0 0 21238153.772796631 -11198357.271862254 0 -11198357.271862254 -434392.7391025424 0 0 0 0 20364007.88671875 -9104060.3716161251 0 -9104060.3716161251 104241.58245557547 0 0 0 0 17910925.756378174 -11842471.142592601 0 -11842471.142592601 -77435.30016297102 0 0 0 0 14294257.686515808 -11049348.427621201 0 -11049348.427621201 1859185.2679246068 0 0 0 0 11984845.993789673 -11743748.021949418 0 -11743748.021949418 1775589.9012755603 0 0 0 0 14956464.560241699 -10233465.519028157 0 -10233465.519028157 874085.45021225512 0 0 0 0 8519403.666267395 -10101790.437579136 0 -10101790.437579136 7306327.8419613391 0 0 0 0 10547751.386932373 -10610310.486263558 0 -10610310.486263558 3182807.6512344256 0 0 0 0 10845055.094306946 -9901339.7604081295 0 -9901339.7604081295 4451963.8206255585 0 0 0 0 7482599.7658538818 -12017780.148487341 0 -12017780.148487341 3808756.3822307121 0 0 0 0 10125904.807754517 -14837215.611866079 0 -14837215.611866079 -483320.10660668463 0 0 0 0 9974495.6098632812 -9507492.7897093818 0 -9507492.7897093818 4360684.867654644 0 0 0 0 5149404.4455718994 -8299217.4290825725 0 -8299217.4290825725 6804629.380855374 0 0 0 0 6574954.6291818619 -4363246.8238561982 0 -4363246.8238561982 12357879.757755339 0 0 0 0 9847631.2214660645 -6652862.7922820002 0 -6652862.7922820002 7295667.4278329387 0 0 0 0 2597889.0305023193 -8288043.1990596168 0 -8288043.1990596168 17640743.345297419 0 0 0 0 -4338315.8479270935 -17880241.370623641 0 -17880241.370623641 6033666.5242600963 0 0 0 0 11966088.381568909 -18846517.620029245 0 -18846517.620029245 -4321643.5513604209 0 0 0 0 -290445.24487532675 215293.73051760346 0 215293.73051760346 523747.49897408159 0 0 0 0 -25376186.184867859 -35747280.172614202 0 -35747280.172614202 60097585.444256037 0 0 0 0 8668504.4237365723 -6877285.3786986358 0 -6877285.3786986358 14938735.724178832 0 0 0 0 6906296.2544174194 -8510273.2418306004 0 -8510273.2418306004 22412976.185661823 0 0 0 0 -76225.110388234258 161949.59188627452 0 161949.59188627452 313173.15417679981 0 0 0 0 130373156.55607605 40784937.839796528 0 40784937.839796528 25893327.444773614 0 0 0 0 100597691.22412109 11108075.139388181 0 11108075.139388181 123779665.82060808 0 0 0 0 106419771.06995392 -72044882.004440144 0 -72044882.004440144 78843260.222824842 0 0 0 0 34031314.568206787 -63998032.425975777 0 -63998032.425975777 65353598.579993643 0 0 0 0 -23172316.308158875 -28135055.276999034 0 -28135055.276999034 84261141.008942708 0 0 0 0 23600166.278972983 -70856693.091909945 0 -70856693.091909945 15338979.316727728 0 0 0 0 23491470.784896851 -30897096.126436204 0 -30897096.126436204 71706173.824185431 0 0 0 0 108871780.03023529 -41560340.620011121 0 -41560340.620011121 -34750154.134864092 0 0 0 0 68007337.395332336 -89207335.387710035 0 -89207335.387710035 -29053629.767991543 0 0 0 0 46087704.606163025 -32570720.032968163 0 -32570720.032968163 -134457493.64151967 0 0 0 0 -15922469.748924255 -42120735.596287578 0 -42120735.596287578 -551978.97619134188 0 0 0 0 14838791.139556885 -109109987.81307817 0 -109109987.81307817 -69256989.300341487 0 0 0 0 22982242.82207489 -41120959.937928557 0 -41120959.937928557 -184468361.10513067 0 0 0 0 10084682.198257446 -35263700.302290142 0 -35263700.302290142 -66745854.979098499 0 0 0 0 -229627.56147956848 -70344319.673683971 0 -70344319.673683971 -37916502.45014739 0 0 0 0 -606608.91542053223 -58146133.948649287 0 -58146133.948649287 -72920381.7405276 0 0 0 0 13559506.462249756 -55642515.452596277 0 -55642515.452596277 -72505984.903498381 0 0 0 0 17330423.912971497 -58323470.041115701 0 -58323470.041115701 -19263930.817399651 0 0 0 0 26536195.659934998 -15977875.219315246 0 -15977875.219315246 203427.11330887675 0 0 0 0 33157381.911605835 -48680613.922409326 0 -48680613.922409326 -103133293.63304943 0 0 0 0 27011843.668153524 -2548608.1719523985 0 -2548608.1719523985 -1369751.8244178519 0 0 0 0 28782608.009262085 -10762523.330015816 0 -10762523.330015816 -24765395.367396127 0 0 0 0 29181262.52041626 -10521105.571603494 0 -10521105.571603494 -14684370.456813343 0 0 0 0 25631959.587061256 -4611890.6080958042 0 -4611890.6080958042 -925663.49345085153 0 0 0 0 18344142.954029083 -43961871.353520721 0 -43961871.353520721 -143959793.14702082 0 0 0 0 24047000.440216064 -9035762.6101308167 0 -9035762.6101308167 -8738631.1527547538 0 0 0 0 26588229.721664429 -9354621.0358993206 0 -9354621.0358993206 -8731683.827827435 0 0 0 0 22391857.515823364 -6442849.3956051692 0 -6442849.3956051692 1466730.4479475403 0 0 0 0 29348072.23576355 -3624706.7639982658 0 -3624706.7639982658 -933709.78667377122 0 0 0 0 28156819.594249725 -6627404.4072101535 0 -6627404.4072101535 -2988552.3245169576 0 0 0 0 26032063.886627197 -7803954.2879979685 0 -7803954.2879979685 -3311643.5356415622 0 0 0 0 26226343.934555054 -5909108.4451899389 0 -5909108.4451899389 1128.5621694637703 0 0 0 0 46984472.150974274 -19827057.229022793 0 -19827057.229022793 1453433.2501248326 0 0 0 0 9446755.7874473035 -3618312.9395717531 0 -3618312.9395717531 586014.41016093816 0 0 0 0 27355677.264038086 -6829756.0262090983 0 -6829756.0262090983 993809.10647394136 0 0 0 0 35001782.87663269 -4972069.8092832137 0 -4972069.8092832137 14518.097161751528 0 0 0 0 25164197.134140015 -12424924.930498807 0 -12424924.930498807 1874642.1425229069 0 0 0 0 25994298.081375122 -6349924.8993215729 0 -6349924.8993215729 -6908849.7024457222 0 0 0 0 36285573.913696289 -8449213.5100526437 0 -8449213.5100526437 -6667049.3183219591 0 0 0 0 27642801.248011872 -1819287.3256711513 0 -1819287.3256711513 -1835076.7029126657 0 0 0 0 29810406.442863464 -9033530.8362024724 0 -9033530.8362024724 -12224818.596246377 0 0 0 0 27884008.942382812 -86164806.021775723 0 -86164806.021775723 -8622079.9035863876 0 0 0 0 30347220.032775879 -7558070.0317873629 0 -7558070.0317873629 -11353404.327982655 0 0 0 0 51205451.718826294 15426256.973625422 0 15426256.973625422 -114144937.86980015 0 0 0 0 -26569688.077064514 -142486569.06239057 0 -142486569.06239057 -226648637.519189 0 0 0 0 4061206.135697782 2363503.2857291289 0 2363503.2857291289 -2506927.5874723615 0 0 0 0 78241879.826919556 -89616861.112197638 0 -89616861.112197638 -268361367.4875046 0 0 0 0 -1572159.8479875326 -4205912.4439546391 0 -4205912.4439546391 647515.07960441126 0 0 0 0 53814717.470657349 -107706505.9461031 0 -107706505.9461031 -191828758.85156584 0 0 0 0 -13715923.743629456 -31794741.407674439 0 -31794741.407674439 -193604057.45532894 0 0 0 0 31598467.597045898 -88105348.501435041 0 -88105348.501435041 -132453342.89737415 0 0 0 0 108755399.31771851 -66857424.302978158 0 -66857424.302978158 -206207167.12365007 0 0 0 0 91168475.039787292 -48274235.677850068 0 -48274235.677850068 -163584196.38735056 0 0 0 0 113774960.55142212 -72454445.867500663 0 -72454445.867500663 -141963665.16182423 0 0 0 0 147805582.50660706 -19843923.30825448 0 -19843923.30825448 -190211954.9290694 0 0 0 0 94121591.262756348 -24991334.355352879 0 -24991334.355352879 -167083914.50954866 0 0 0 0 74215595.715286255 -6961479.1691442728 0 -6961479.1691442728 -179051578.39758945 0 0 0 0 77620143.883270264 -55568916.303728342 0 -55568916.303728342 -165962451.77525842 0 0 0 0 67747918.404594421 -70720309.08173275 0 -70720309.08173275 -111523425.6288619 0 0 0 0 110997032.70849609 39151402.30419445 0 39151402.30419445 -272938780.89939487 0 0 0 0 104479112.28832245 -51516258.446805358 0 -51516258.446805358 -215760810.83964884 0 0 0 0 7504340.1409965903 380079.04267953336 0 380079.04267953336 -1338834.7944813408 0 0 0 0 -626173.63604736328 105379514.48755193 0 105379514.48755193 -191941318.09486473 0 0 0 0 13595540.392730713 -5245064.4211844206 0 -5245064.4211844206 7137714.6133933067 0 0 0 0 48116395.321357727 -1032082.6996095777 0 -1032082.6996095777 6046185.8615427017 0 0 0 0 13031038.676635429 3384811.8382793516 0 3384811.8382793516 3510667.304744035 0 0 0 0 25631715.603499651 -1703205.6194820553 0 -1703205.6194820553 -950589.08980696509 0 0 0 0 2820936.3653411865 32518483.081216812 0 32518483.081216812 -80556702.72084868 0 0 0 0 24009229.362215042 -14962286.655036824 0 -14962286.655036824 -7264497.4717234876 0 0 0 0 -2284328.9591217041 42657575.67689085 0 42657575.67689085 -100617708.08453417 0 0 0 0 41077189.735076904 -11389940.169967651 0 -11389940.169967651 -80252032.642562866 0 0 0 0 32155751.054087639 -35148937.67598249 0 -35148937.67598249 -116882562.47005939 0 0 0 0 25003860.700942993 26849353.75562048 0 26849353.75562048 -170931522.49980474 0 0 0 0 26214446.58454895 -10506862.595582955 0 -10506862.595582955 -5132528.7593571804 0 0 0 0 34228772.321205139 6129755.5304181492 0 6129755.5304181492 -3904479.2840649635 0 0 0 0 14455120.835342512 -3608297.2759086937 0 -3608297.2759086937 -1714318.657164227 0 0 0 0 22507776.729999542 4772805.656251587 0 4772805.656251587 3429523.9398551285 0 0 0 0 5035551.5949554443 1426325.1962690353 0 1426325.1962690353 -2018211.8755651414 0 0 0 0 18706670.234187141 -572638.82446714491 0 -572638.82446714491 2055701.1460319869 0 0 0 0 39306890.291046143 -20049722.313184287 0 -20049722.313184287 -10792609.873374671 0 0 0 0 23063662.366607666 13958684.895990659 0 13958684.895990659 1468776.9311821647 0 0 0 0 1001630.9958953559 -619449.6347829625 0 -619449.6347829625 -721434.0397826382 0 0 0 0 13327025.414874688 3235657.9269792922 0 3235657.9269792922 -347858.33655125392 0 0 0 0 24865241.729370117 129302.92252353951 0 129302.92252353951 -1716690.5541847572 0 0 0 0 33711296.759063721 6178211.6827071458 0 6178211.6827071458 -3730851.0308490563 0 0 0 0 31368743.33833313 1208612.9282402322 0 1208612.9282402322 -1964013.0078822058 0 0 0 0 34514158.395782471 6665834.6635584831 0 6665834.6635584831 -3458593.1563890725 0 0 0 0 38133368.463973999 -534513.22548368084 0 -534513.22548368084 -6104155.6264903862 0 0 0 0 13009428.670188919 -903873.44301168621 0 -903873.44301168621 -694873.74445824407 0 0 0 0 27413684.578964233 6796860.8185625039 0 6796860.8185625039 -8716.0693456019853 0 0 0 0 12810755.136154175 1790377.2219177904 0 1790377.2219177904 -1209362.0133532435 0 0 0 0 34096486.245819092 5948038.306648924 0 5948038.306648924 -4012310.3568021674 0 0 0 0 1438812943.5870972 45380131.313612156 0 45380131.313612156 434426.77874251961 0 0 0 0 2201282054.3008881 -233007697.96646056 0 -233007697.96646056 -341110291.11720407 0 0 0 0 2077658609.5778275 -233926244.52141172 0 -233926244.52141172 118210861.8001017 0 0 0 0 1501317323.8816071 833415992.55012047 0 833415992.55012047 151796680.34960067 0 0 0 0 2430684.5453279912 32855.303323879838 0 32855.303323879838 -45494.198328890423 0 0 0 0 14608203.708717346 805178.72329830751 0 805178.72329830751 825086.72902287543 0 0 0 0 10270617.510772705 771777.25510919839 0 771777.25510919839 2317506.3227616753 0 0 0 0 5987042.0780561268 369167.73224957287 0 369167.73224957287 -190759.52018324888 0 0 0 0 11080772.848482098 -550896.33289249241 0 -550896.33289249241 467921.50787384895 0 0 0 0 557802995.29580688 -172281910.49132785 0 -172281910.49132785 83081312.721679747 0 0 0 0 166484266.85472107 153667123.15666336 0 153667123.15666336 98590993.288406402 0 0 0 0 462757947.11997986 15848402.179613441 0 15848402.179613441 -52785527.07742846 0 0 0 0 250913912.83331299 4299466.0155891217 0 4299466.0155891217 159530581.39682993 0 0 0 0 1147939669.1719456 -1156303571.0372756 0 -1156303571.0372756 583969211.40132225 0 0 0 0 1088228147.415627 -187114832.21133074 0 -187114832.21133074 -109825784.64416432 0 0 0 0 11952554.138179362 2544587.5640500039 0 2544587.5640500039 1980887.972172884 0 0 0 0 3867678.364286162 -969346.4906905517 0 -969346.4906905517 -3813472.8225866519 0 0 0 0 125423253.98616982 -198921955.15790975 0 -198921955.15790975 230671590.55555978 0 0 0 0 383801685.54259491 91414375.830781907 0 91414375.830781907 12206123.986219689 0 0 0 0 23536688.038063049 524207079.67633939 0 524207079.67633939 1035231822.0229701 0 0 0 0 5333135.6853011996 153127.94576114416 0 153127.94576114416 1958277.371739787 0 0 0 0 1790969306.5603943 1020073361.7225376 0 1020073361.7225376 263090291.76351833 0 0 0 0 2201506969.9941478 1002327447.417136 0 1002327447.417136 -156656002.59639689 0 0 0 0 1653184816.1263275 589062060.34971476 0 589062060.34971476 96971654.362598151 0 0 0 0 1655202644.7519531 532334767.28647155 0 532334767.28647155 -158431415.35291559 0 0 0 0 1181880238.3246002 669410677.66677773 0 669410677.66677773 102771153.61481898 0 0 0 0 -267301915.30794525 366024351.60890585 0 366024351.60890585 97594644.284487128 0 0 0 0 1127693809.2511444 -132588555.42112848 0 -132588555.42112848 -239866006.87516618 0 0 0 0 3451420.3964111283 1234734.6878644526 0 1234734.6878644526 2112366.4501704979 0 0 0 0 366257298.65283203 563709147.07877004 0 563709147.07877004 144557616.852249 0 0 0 0 81294037.826873779 -25736266.516441643 0 -25736266.516441643 -99320754.729151964 0 0 0 0 196215103.43473816 11387515.547956347 0 11387515.547956347 -89479438.005045593 0 0 0 0 31887671.173324585 11083862.472057298 0 11083862.472057298 92519180.597381651 0 0 0 0 118214181.93442535 -19985257.89157629 0 -19985257.89157629 -116145726.43455601 0 0 0 0 117238380.54533386 -76010042.347904563 0 -76010042.347904563 5216586.2862694263 0 0 0 0 98383081.267562866 -60562423.729974069 0 -60562423.729974069 63859837.252776802 0 0 0 0 173163477.19397354 13609661.405776829 0 13609661.405776829 37339042.561092854 0 0 0 0 239403691.62208557 -46546419.569281071 0 -46546419.569281071 91964664.76502642 0 0 0 0 186489386.9010849 15873904.522347018 0 15873904.522347018 68257338.623646557 0 0 0 0 329129711.95584106 284914089.1523912 0 284914089.1523912 128293221.82324445 0 0 0 0 409601339.95793915 217795315.63096231 0 217795315.63096231 158491368.40832394 0 0 0 0 998346336.91986084 335224795.31190711 0 335224795.31190711 70323521.153450936 0 0 0 0 413996476.13917923 67267037.895447001 0 67267037.895447001 138071795.28399062 0 0 0 0 402964640.27640533 85978198.003515303 0 85978198.003515303 106945163.52277645 0 0 0 0 173091885.28952789 -41160464.461007327 0 -41160464.461007327 124393649.638255 0 0 0 0 159795020.42436981 23894728.473069727 0 23894728.473069727 172156375.65109372 0 0 0 0 407244148.49390411 -85995738.855229497 0 -85995738.855229497 46360713.571954243 0 0 0 0 136850858.02877808 68295363.213093624 0 68295363.213093624 142618986.23470944 0 0 0 0 743571025.28903961 165236353.12271547 0 165236353.12271547 29633874.099174321 0 0 0 0 940864839.67945099 -103695315.46068814 0 -103695315.46068814 -29991253.542893589 0 0 0 0 1631040599.2009201 220695258.4208895 0 220695258.4208895 -361441221.73936319 0 0 0 0 2205368233.7112985 490687397.90691936 0 490687397.90691936 -342430569.50378823 0 0 0 0 1045396596.2976151 310740322.44953418 0 310740322.44953418 -68691278.348061442 0 0 0 0 1586491225.8365955 316337348.84616125 0 316337348.84616125 -170792652.21958494 0 0 0 0 42403632.283748627 50221462.854592055 0 50221462.854592055 147257715.03481436 0 0 0 0 9827774.0490217805 -8254130.0189143196 0 -8254130.0189143196 4549509.5349922366 0 0 0 0 144651344.92996979 126917468.92850161 0 126917468.92850161 60714863.865357518 0 0 0 0 65368361.320892334 -59353408.803382158 0 -59353408.803382158 52343008.983316898 0 0 0 0 222723141.94288635 67632969.570726097 0 67632969.570726097 128492776.0931831 0 0 0 0 293609303.08561707 111439261.84690738 0 111439261.84690738 64902211.519855022 0 0 0 0 264163619.34037781 144791431.42092583 0 144791431.42092583 117125489.2215355 0 0 0 0 -142362927.00482941 -181445403.46471012 0 -181445403.46471012 -83734290.988434315 0 0 0 0 -120258911.845047 17009076.746453285 0 17009076.746453285 25281861.751923561 0 0 0 0 1902089.0623111054 -1386533.4259930328 0 -1386533.4259930328 -233723.0200244498 0 0 0 0 -187592564.78995514 -116405890.31928968 0 -116405890.31928968 103054344.48219025 0 0 0 0 22283709.698188782 11262011.914102554 0 11262011.914102554 -615201.07766318321 0 0 0 0 23928753.266433716 -5893709.6530194283 0 -5893709.6530194283 146188926.58270073 0 0 0 0 269190653.34540462 49831595.363816857 0 49831595.363816857 133900979.94660568 0 0 0 0 259783179.88461304 606710.75084066391 0 606710.75084066391 33032493.504758596 0 0 0 0 229688670.27210999 -77858067.16008997 0 -77858067.16008997 -159104961.27382755 0 0 0 0 174330608.49407196 66335411.742182255 0 66335411.742182255 -95685726.483885765 0 0 0 0 171467870.78998947 44360924.681201339 0 44360924.681201339 127435243.00716066 0 0 0 0 224219313.96960449 -111541833.20045888 0 -111541833.20045888 42326816.532614708 0 0 0 0 -118328870.82830048 29929484.624329329 0 29929484.624329329 106948013.24701142 0 0 0 0 112384613.63539696 50204569.275793478 0 50204569.275793478 -72523124.533318996 0 0 0 0 13536354.022831902 -9879550.7588422783 0 -9879550.7588422783 3847367.7812918671 0 0 0 0 110267492.20349312 38721337.126939073 0 38721337.126939073 -47059749.915066242 0 0 0 0 -155048309.3416214 -290873421.6244092 0 -290873421.6244092 25798421.912845016 0 0 0 0 -46533091.047958374 279292611.49177837 0 279292611.49177837 110845501.58371139 0 0 0 0 103201548.44593811 39360861.459064484 0 39360861.459064484 -65685255.25800395 0 0 0 0 97022239.782283783 11036022.058855832 0 11036022.058855832 -113355992.40589428 0 0 0 0 95994967.849700928 205116127.47089195 0 205116127.47089195 -119094908.35021374 0 0 0 0 133218509.18260193 16324972.907810688 0 16324972.907810688 -178741743.98408508 0 0 0 0 -50460723.945953369 -155013422.67603016 0 -155013422.67603016 -98900479.602458954 0 0 0 0 6764720.1596465856 -3658.7389059439301 0 -3658.7389059439301 -1184743.3449845761 0 0 0 0 135982119.18983459 68916829.253144503 0 68916829.253144503 -90262512.411937356 0 0 0 0 107081634.48661804 70676820.774131298 0 70676820.774131298 -171370453.01450777 0 0 0 0 181561490.69106293 30815615.137838483 0 30815615.137838483 -45799880.583212376 0 0 0 0 147183535.25531006 32643496.128724575 0 32643496.128724575 -139113273.43955183 0 0 0 0 66869022.265853882 47337429.574730635 0 47337429.574730635 -48062927.930862427 0 0 0 0 -57383575.793449402 8983765.8186161518 0 8983765.8186161518 14763551.819022894 0 0 0 0 616818817.09069443 396967590.39407861 0 396967590.39407861 98358400.2666713 0 0 0 0 28070850.363059998 98161934.344493628 0 98161934.344493628 -114541205.93311357 0 0 0 0 -628890550.71231079 327460213.00170279 0 327460213.00170279 1140786903.9659872 0 0 0 0 53091261.377319336 151381928.14020157 0 151381928.14020157 82014787.38842392 0 0 0 0 742985434.01870728 465615406.64178753 0 465615406.64178753 194711147.46496391 0 0 0 0 389728428.52001953 370534069.72589207 0 370534069.72589207 174969714.07316756 0 0 0 0 784150849.18486691 86288729.868244499 0 86288729.868244499 28437786.024721146 0 0 0 0 555814825.23443604 -2410555.7508974075 0 -2410555.7508974075 -3723025.5963344574 0 0 0 0 461879888.24471283 -102728180.5599606 0 -102728180.5599606 25080532.472506046 0 0 0 0 506748936.9069519 577934001.42694342 0 577934001.42694342 -86881805.593045413 0 0 0 0 3940327.1568839252 2197199.1872253995 0 2197199.1872253995 487398.3814515397 0 0 0 0 24868941.762470245 -208858794.79650235 0 -208858794.79650235 -233765753.1781764 0 0 0 0 -67974603.679180145 -207521295.37761641 0 -207521295.37761641 141473645.24467397 0 0 0 0 -31954133.659866333 206017590.45375064 0 206017590.45375064 388317048.63906974 0 0 0 0 4414301.1062067151 442389.68472834677 0 442389.68472834677 -1032591.9043157066 0 0 0 0 107517932.10425568 -193417413.74053395 0 -193417413.74053395 -110110968.95413184 0 0 0 0 -33569528.60559082 7306477.4818944931 0 7306477.4818944931 -155472616.0501647 0 0 0 0 -18869680.204006195 -30942219.382406175 0 -30942219.382406175 -177692104.89157009 0 0 0 0 -23161237.002746582 28939347.01262331 0 28939347.01262331 -96476250.806132317 0 0 0 0 82708761.02532959 -3441724.4780371189 0 -3441724.4780371189 -441801926.45757914 0 0 0 0 10213657.548156798 3127421.9093557689 0 3127421.9093557689 -70090.614763348363 0 0 0 0 28702121.894332886 90160304.435804129 0 90160304.435804129 38712872.48939687 0 0 0 0 -63545428.532470703 -3811516.7964465618 0 -3811516.7964465618 126743440.54391694 0 0 0 0 -29637101.020145416 -37980267.317198753 0 -37980267.317198753 -131128737.12127781 0 0 0 0 -15633687.042446136 28755315.302196085 0 28755315.302196085 -97148367.583781719 0 0 0 0 -34361070.347202301 55139448.643007934 0 55139448.643007934 24387638.736562848 0 0 0 0 6281413.7427406311 133883319.72198631 0 133883319.72198631 85041535.43573384 0 0 0 0 -21515473.272583008 35976364.957319856 0 35976364.957319856 47945278.009446263 0 0 0 0 85088857.518749237 103410548.15212643 0 103410548.15212643 7915081.3583750129 0 0 0 0 165440887.59727478 -59472063.409066126 0 -59472063.409066126 -15186590.800772011 0 0 0 0 272662642.31721497 -107621890.63183019 0 -107621890.63183019 -65541535.187344074 0 0 0 0 350223336.26277161 197654053.8385435 0 197654053.8385435 41412042.709063888 0 0 0 0 330144720.58897018 81992143.854234174 0 81992143.854234174 -69305853.168239474 0 0 0 0 369893818.57499695 149506685.06290102 0 149506685.06290102 407416.2001273036 0 0 0 0 145970157.87328529 -90934090.982133552 0 -90934090.982133552 35484924.389736801 0 0 0 0 1229036.022263363 601487.10151726753 0 601487.10151726753 -985345.9019349335 0 0 0 0 -51118903.117279053 -44069765.568062104 0 -44069765.568062104 49792528.226777554 0 0 0 0 116523282.78204346 126229062.16852139 0 126229062.16852139 67967438.677424669 0 0 0 0 363457926.07281494 63117544.019365355 0 63117544.019365355 5153043.9036801308 0 0 0 0 78596437.587225914 96135457.220255196 0 96135457.220255196 72534774.576667696 0 0 0 0 2845938.7734928057 2782549.7426883802 0 2782549.7426883802 -2192152.4917768254 0 0 0 0 28546290.954437256 53886213.946217895 0 53886213.946217895 65685743.068490073 0 0 0 0 21470163.740531921 39658399.093698919 0 39658399.093698919 37688441.7561059 0 0 0 0 7167875.3109917268 6223094.0777209029 0 6223094.0777209029 -4580960.212772917 0 0 0 0 55486772.63193512 -21780955.870404601 0 -21780955.870404601 40971935.025310516 0 0 0 0 -26396815.073213816 33841114.660463884 0 33841114.660463884 31230435.495759666 0 0 0 0 58358676.671798706 62250650.516666353 0 62250650.516666353 12237745.500670865 0 0 0 0 -28732347.740203619 -829649.57198387757 0 -829649.57198387757 13907566.36028567 0 0 0 0 27463165.057266235 14785739.747695446 0 14785739.747695446 -175706.99338340759 0 0 0 0 2531383.5539309904 406332.95110478252 0 406332.95110478252 -2198038.943672148 0 0 0 0 400547412.66036224 -12194380.677820956 0 -12194380.677820956 -34603740.674614236 0 0 0 0 266997230.5539093 111855646.73701209 0 111855646.73701209 5778548.2397745261 0 0 0 0 89513188.173080444 48857025.013441645 0 48857025.013441645 -1655894.7924008593 0 0 0 0 102657865.53708649 21295194.683300719 0 21295194.683300719 35667093.649783686 0 0 0 0 94114498.63735199 51215598.395731546 0 51215598.395731546 44290243.557662636 0 0 0 0 82931767.803276062 30567494.996949494 0 30567494.996949494 6652661.4755166769 0 0 0 0 189306363.0110321 30699270.345656484 0 30699270.345656484 8038514.065449819 0 0 0 0 227703994.25318909 40308089.600491837 0 40308089.600491837 10281715.538086563 0 0 0 0 249612512.40516281 -11705143.382095445 0 -11705143.382095445 -5028729.3033044338 0 0 0 0 278824793.82550812 10258645.613481231 0 10258645.613481231 -8187916.8651039898 0 0 0 0 382963852.45727539 -69388804.514312685 0 -69388804.514312685 10342951.208251074 0 0 0 0 171237083.67601776 -28814370.932382815 0 -28814370.932382815 177307455.64737117 0 0 0 0 337990895.34436035 206685886.08696175 0 206685886.08696175 24362385.676308334 0 0 0 0 188681791.59953308 -229172389.09167266 0 -229172389.09167266 158660827.90014994 0 0 0 0 745834.09355898201 -1552522.8339492052 0 -1552522.8339492052 -142105.75175420786 0 0 0 0 327188097.55680466 140871339.30555055 0 140871339.30555055 22119617.55763948 0 0 0 0 -3784631.8875410408 -7505801.4164076634 0 -7505801.4164076634 -497066.49294150894 0 0 0 0 38705035.603797913 7356829.5362798274 0 7356829.5362798274 -64579631.79179281 0 0 0 0 4617550.1534729004 -440736.42213332653 0 -440736.42213332653 -1375952.1227824539 0 0 0 0 7014644.2234802246 1532409.7147444487 0 1532409.7147444487 -8547823.2114448547 0 0 0 0 9529407.9178331196 -380981.96260207146 0 -380981.96260207146 368364.85756543837 0 0 0 0 103385444.43736267 21283163.923561014 0 21283163.923561014 37597504.765671685 0 0 0 0 2843305.5728921369 -590811.16931062937 0 -590811.16931062937 1349822.7754548676 0 0 0 0 -5540000.9909934998 11696015.900853574 0 11696015.900853574 -14354324.860209227 0 0 0 0 6109599.0250734836 -3156431.855055898 0 -3156431.855055898 -2146742.294776815 0 0 0 0 -6321207.6735916138 49639636.042667747 0 49639636.042667747 -44278756.134940147 0 0 0 0 -14722131.544910431 46920283.369182229 0 46920283.369182229 -2231033.1972546577 0 0 0 0 -34269648.812728882 15410895.265949249 0 15410895.265949249 -6618048.3269680142 0 0 0 0 -45464583.111938477 41951390.631778717 0 41951390.631778717 -2904869.5528576374 0 0 0 0 30825825.731262207 12325000.70305335 0 12325000.70305335 25621891.63424544 0 0 0 0 -69986096.16809082 23519387.738508224 0 23519387.738508224 12857069.576920509 0 0 0 0 2886758.931178607 163300.18094610423 0 163300.18094610423 -248306.67535145732 0 0 0 0 5691394.7281785682 -3375502.1358952373 0 -3375502.1358952373 4227975.8357865009 0 0 0 0 376667595.92126942 -23249900.762959085 0 -23249900.762959085 -75515944.022179961 0 0 0 0 -55028712.235088348 44721304.309365273 0 44721304.309365273 18521006.164087296 0 0 0 0 -25083040.167015076 79106949.165524125 0 79106949.165524125 34997281.481962681 0 0 0 0 -73905715.592182159 15320214.096876562 0 15320214.096876562 65733298.88269186 0 0 0 0 -64614199.743522644 -7334304.6361773014 0 -7334304.6361773014 -24883593.584960938 0 0 0 0 -184258171.75735283 -36956561.695304036 0 -36956561.695304036 70774586.503968239 0 0 0 0 6703907.7749716863 -5432974.0069296211 0 -5432974.0069296211 4493955.8461855045 0 0 0 0 -11407266.319465637 -9088982.3628144339 0 -9088982.3628144339 28050462.36960794 0 0 0 0 -989307.65172848105 -851295.87631463259 0 -851295.87631463259 2010304.2729898819 0 0 0 0 347682973.76223755 213921098.96338552 0 213921098.96338552 66924490.533862799 0 0 0 0 276967881.1847496 -38280423.482731938 0 -38280423.482731938 85334259.725345612 0 0 0 0 306844229.80752945 17940390.345790505 0 17940390.345790505 138053905.78574753 0 0 0 0 156479282.14439392 78889749.273887157 0 78889749.273887157 79136504.339263916 0 0 0 0 -13630498.309387207 50148780.149201393 0 50148780.149201393 53483985.381886244 0 0 0 0 -5682770.4243011475 23174416.904327154 0 23174416.904327154 130884739.15356636 0 0 0 0 -109397378.29909134 -14386824.022790551 0 -14386824.022790551 105062175.02813148 0 0 0 0 107974746.29677582 42989012.184029102 0 42989012.184029102 47294163.618095398 0 0 0 0 19055811.713111877 87657335.259305954 0 87657335.259305954 68302414.302574873 0 0 0 0 98644030.601659775 29663535.111770749 0 29663535.111770749 148891225.95395565 0 0 0 0 205738225.23863983 61718217.294899702 0 61718217.294899702 50185954.666893005 0 0 0 0 95014808.1140728 78576043.909079909 0 78576043.909079909 -18135419.056818485 0 0 0 0 105193205.74411011 9195092.982121706 0 9195092.982121706 26589046.282088041 0 0 0 0 -3563498.4457092285 8712544.3126151562 0 8712544.3126151562 -63050619.473599911 0 0 0 0 3391451.484161377 71711040.614062071 0 71711040.614062071 -3418204.0724802986 0 0 0 0 8820848.0692520142 58151942.164005876 0 58151942.164005876 -3176211.8180785179 0 0 0 0 42419383.082855225 85395908.148355484 0 85395908.148355484 -86113513.831823587 0 0 0 0 12582105.084930927 1657001.1010271709 0 1657001.1010271709 1177967.986190557 0 0 0 0 913754.89562225342 25590147.079493165 0 25590147.079493165 -4459982.4652240276 0 0 0 0 19508372.337600708 12636172.609542727 0 12636172.609542727 -34773100.380030394 0 0 0 0 19527383.766633466 -4725452.4784637447 0 -4725452.4784637447 -132348982.64131546 0 0 0 0 1055668.0051748306 1254059.8130313419 0 1254059.8130313419 696130.02143040695 0 0 0 0 11689688.49072592 1185280.9128923684 0 1185280.9128923684 1660771.5220898138 0 0 0 0 34287419.999580383 -4585125.7045674324 0 -4585125.7045674324 -39776198.304675341 0 0 0 0 113216904.04065704 10486197.547343135 0 10486197.547343135 -135914538.41172981 0 0 0 0 27783846.970611572 32976933.070739508 0 32976933.070739508 -123406767.05912548 0 0 0 0 64862295.591808319 -50507683.512342811 0 -50507683.512342811 -116467337.90626168 0 0 0 0 -27742791.761787415 -60496702.354475498 0 -60496702.354475498 -89388952.751304388 0 0 0 0 3485110.9265632853 1681730.0533427149 0 1681730.0533427149 4599022.8189225495 0 0 0 0 1013027974.468338 -80234006.614364266 0 -80234006.614364266 92952537.223884583 0 0 0 0 1360024413.5020599 -48478068.142291069 0 -48478068.142291069 -78864843.488482326 0 0 0 0 325173.87808564305 81973.662277329713 0 81973.662277329713 763239.7772366408 0 0 0 0 1376388.789670445 296262.0179527849 0 296262.0179527849 1617799.5537569858 0 0 0 0 -139083722.68963242 -431763213.84913969 0 -431763213.84913969 133236184.82149696 0 0 0 0 146050064.01665115 -39660271.603051096 0 -39660271.603051096 -115052339.161268 0 0 0 0 124725636.11245728 16817821.370781183 0 16817821.370781183 -714042.57813930511 0 0 0 0 1407892359.4550323 50456172.887680769 0 50456172.887680769 24204580.394798279 0 0 0 0 2124558541.9167252 -96510197.511708736 0 -96510197.511708736 5014960.5757827759 0 0 0 0 1159148107.7159576 76380239.118452072 0 76380239.118452072 100945008.17185926 0 0 0 0 1173147338.5898743 100643820.86867952 0 100643820.86867952 222967404.47076839 0 0 0 0 1293087769.3803711 -81514265.721268654 0 -81514265.721268654 235881318.65628147 0 0 0 0 1242111169.3364563 62661338.986261725 0 62661338.986261725 99008223.16160202 0 0 0 0 1341683983.0554886 -282904494.4754045 0 -282904494.4754045 500512246.12456799 0 0 0 0 1281120088.7169838 -128575131.03116655 0 -128575131.03116655 129250207.02042437 0 0 0 0 1696264298.3644943 -541719634.07003832 0 -541719634.07003832 498355656.5476656 0 0 0 0 1522743559.7287292 -259416197.37855756 0 -259416197.37855756 44842978.02154541 0 0 0 0 1374489157.3525772 -93504836.494481802 0 -93504836.494481802 -66554281.80384779 0 0 0 0 1400152496.879055 -168574547.07053328 0 -168574547.07053328 45374263.293284893 0 0 0 0 1472639991.9125538 -208178534.86377913 0 -208178534.86377913 162185274.98194313 0 0 0 0 1404231099.6066513 -234025769.33821225 0 -234025769.33821225 154599348.23798609 0 0 0 0 1373891491.0983658 -58810442.781125307 0 -58810442.781125307 -39291145.668351889 0 0 0 0 1414752271.4792194 -100252885.83889705 0 -100252885.83889705 -96481005.655287743 0 0 0 0 1516905020.0986176 15698306.188195229 0 15698306.188195229 -146380945.60799265 0 0 0 0 1169859382.9348297 22318039.850210428 0 22318039.850210428 -135091429.37751794 0 0 0 0 1440349327.0147858 -95866181.286223888 0 -95866181.286223888 -97172707.404765606 0 0 0 0 1399082061.6395435 -149999183.20791811 0 -149999183.20791811 -213092841.22931671 0 0 0 0 1217103365.4734344 22794338.867970943 0 22794338.867970943 -196507926.68874359 0 0 0 0 1117265544.5144424 -3015052.013885498 0 -3015052.013885498 -185820265.44104147 0 0 0 0 947667468.65384865 -310509510.16998935 0 -310509510.16998935 -381117782.42338467 0 0 0 0 1099231474.3564949 25981657.684410572 0 25981657.684410572 -232406166.49740314 0 0 0 0 2134517049.1470146 -127431098.44725013 0 -127431098.44725013 -414445732.48439777 0 0 0 0 1313854375.6667023 120176103.3094728 0 120176103.3094728 -82173095.363730907 0 0 0 0 1472907574.7476654 -66470060.210798264 0 -66470060.210798264 -299316033.67035246 0 0 0 0 1210336419.2640915 -124159368.32633394 0 -124159368.32633394 -74551359.440845966 0 0 0 0 1138380338.0922089 -110149305.8433075 0 -110149305.8433075 -53394116.073729515 0 0 0 0 1373234898.8439636 -166082595.36294031 0 -166082595.36294031 -120844378.9673121 0 0 0 0 706842111.36885834 -72607364.705845594 0 -72607364.705845594 55386043.128115416 0 0 0 0 698912966.15072632 26371739.043218374 0 26371739.043218374 37899892.735300064 0 0 0 0 1139593430.0140686 -103371458.3419373 0 -103371458.3419373 -41059166.63300705 0 0 0 0 645418958.31452179 -63840998.78180337 0 -63840998.78180337 13083420.835401535 0 0 0 0 647613533.12599933 -175870148.05684704 0 -175870148.05684704 52502707.157474518 0 0 0 0 224131743.0465126 -140756203.69076809 0 -140756203.69076809 147913723.89760113 0 0 0 0 1278443891.4972916 -403009204.5676918 0 -403009204.5676918 422399.10120987892 0 0 0 0 1444781205.386797 -253528510.66168749 0 -253528510.66168749 173930246.89689207 0 0 0 0 1217888351.3685608 -27040495.312118053 0 -27040495.312118053 -1766251.1108636856 0 0 0 0 -9315407.1805438995 105499455.76544595 0 105499455.76544595 -198585488.78621292 0 0 0 0 27668578.302085876 -2102392.7308695316 0 -2102392.7308695316 -13615108.150425673 0 0 0 0 13588683.177138105 291432.34277556837 0 291432.34277556837 -9502728.7509622797 0 0 0 0 15521578.210002899 -4455731.551652804 0 -4455731.551652804 -15797602.34090358 0 0 0 0 16989095.351867676 4043479.2760777473 0 4043479.2760777473 -5889764.5556633472 0 0 0 0 13956068.388513803 4895020.8347751386 0 4895020.8347751386 -6170089.1107972963 0 0 0 0 9251446.6543945372 2870378.1331767924 0 2870378.1331767924 -4124897.6783379889 0 0 0 0 6547577.3219611458 1005930.7901573405 0 1005930.7901573405 -1780120.803662145 0 0 0 0 4540451.4311027527 14776525.793049812 0 14776525.793049812 -11003481.544709444 0 0 0 0 27018796.875526428 11419559.428946972 0 11419559.428946972 -23466600.658125401 0 0 0 0 193847335.99873924 154680635.70104784 0 154680635.70104784 123073122.65465307 0 0 0 0 715084975.60472107 -27788714.964663029 0 -27788714.964663029 -85695867.213760376 0 0 0 0 967449566.14253235 595733673.30625415 0 595733673.30625415 369045878.66101551 0 0 0 0 13880872.130264282 235772.92746496201 0 235772.92746496201 7606524.4796271324 0 0 0 0 2827620.8237167597 -438756.15447568148 0 -438756.15447568148 -2223329.1953041763 0 0 0 0 1972445417.8555241 -29519975.426637352 0 -29519975.426637352 -166265065.09788561 0 0 0 0 1146617313.867157 252236306.18207383 0 252236306.18207383 -169585376.31890541 0 0 0 0 1188966133.2325897 129728430.22808111 0 129728430.22808111 -169328223.29454947 0 0 0 0 1604807318.3386192 20732801.772005081 0 20732801.772005081 -169372205.90083742 0 0 0 0 1072774876.2243576 87936859.651206732 0 87936859.651206732 -119152685.72516632 0 0 0 0 1145876853.1355133 82691953.607203245 0 82691953.607203245 -119209606.96284449 0 0 0 0 1148857746.3295975 -4496446.7935299873 0 -4496446.7935299873 -246480555.44671917 0 0 0 0 1134330632.3958931 -11967673.354521394 0 -11967673.354521394 -97421027.653722286 0 0 0 0 1108952112.5252495 53106941.957414746 0 53106941.957414746 -131027280.09726477 0 0 0 0 2055873.3921162933 359211.92246778309 0 359211.92246778309 -184983.5360992928 0 0 0 0 8836962.7205848694 79156352.697015107 0 79156352.697015107 -31122978.463647842 0 0 0 0 1095311809.9324722 51536268.512617111 0 51536268.512617111 -108072712.54149926 0 0 0 0 1108604895.2956314 49675109.199356079 0 49675109.199356079 -115858797.46824908 0 0 0 0 10558794.339739077 3416349.2828412428 0 3416349.2828412428 -5950708.7145620026 0 0 0 0 42241244.028974533 -21356534.815971524 0 -21356534.815971524 -6648238.1593952179 0 0 0 0 -223070133.88798523 400736481.7990123 0 400736481.7990123 -165834113.34473336 0 0 0 0 48499918.085205078 97375185.353051186 0 97375185.353051186 -258043474.34176657 0 0 0 0 163195964.67556381 34341350.399595559 0 34341350.399595559 -226423679.75485373 0 0 0 0 737480840.77587891 -254664561.18248832 0 -254664561.18248832 -39418437.885885298 0 0 0 0 360829260.06380653 -361852403.83587718 0 -361852403.83587718 163750433.05394745 0 0 0 0 502090993.51303101 -45916597.448255062 0 -45916597.448255062 54970175.472778648 0 0 0 0 253313413.4233017 1127226.3697404861 0 1127226.3697404861 482287634.37152982 0 0 0 0 231684773.08878613 307442134.58795482 0 307442134.58795482 -17477243.920203924 0 0 0 0 140162072.20446014 -178241285.87293148 0 -178241285.87293148 191082142.76404047 0 0 0 0 66513136.358573914 126457422.79741311 0 126457422.79741311 -198658656.34025335 0 0 0 0 -442922127.46009064 75249035.917795062 0 75249035.917795062 62590254.034220934 0 0 0 0 -57640673.882637024 -123221207.30587542 0 -123221207.30587542 61095086.52099669 0 0 0 0 272725122.74667358 -96866250.2243132 0 -96866250.2243132 -124130232.03061175 0 0 0 0 -41199501.41981101 155197659.82881141 0 155197659.82881141 -472217341.21473718 0 0 0 0 -136468680.9835434 -117009731.23855174 0 -117009731.23855174 -120942568.68612581 0 0 0 0 -537784878.51243973 797342410.41104805 0 797342410.41104805 -286442249.7228291 0 0 0 0 -603033343.60562515 537981905.76075447 0 537981905.76075447 -189149407.87817407 0 0 0 0 910870297.01110077 -64574884.307723403 0 -64574884.307723403 -46458505.836090803 0 0 0 0 908644491.82669449 -121460991.76570129 0 -121460991.76570129 13596525.416915834 0 0 0 0 7334143.2612813041 3734950.9598998204 0 3734950.9598998204 -2306004.1417904962 0 0 0 0 1402346462.3164215 -446573657.931216 0 -446573657.931216 155440502.52803421 0 0 0 0 1036248659.3800735 -179808291.43013453 0 -179808291.43013453 -26477484.246153831 0 0 0 0 1305562420.4619598 -99469905.364682198 0 -99469905.364682198 -214473693.53224623 0 0 0 0 2352275531.5844498 -679633144.90653443 0 -679633144.90653443 -35532943.446385503 0 0 0 0 2622983.9386568889 1414295.9619195312 0 1414295.9619195312 -164105.47826559283 0 0 0 0 1738427280.4031219 452621626.0054096 0 452621626.0054096 139647579.8651582 0 0 0 0 958671694.83058929 400947735.58738756 0 400947735.58738756 -289869692.64138877 0 0 0 0 1496507499.0438538 178843402.99055538 0 178843402.99055538 -276991901.82038617 0 0 0 0 1474836102.4774075 274809909.53510487 0 274809909.53510487 36120550.070878506 0 0 0 0 1844895169.1032486 408210531.39311671 0 408210531.39311671 -202180950.23790985 0 0 0 0 1583276261.0217285 38062649.750675619 0 38062649.750675619 -37597410.049066722 0 0 0 0 716239425.93057251 171969024.1078763 0 171969024.1078763 -22011754.278862119 0 0 0 0 792312119.10843658 81013448.639860004 0 81013448.639860004 57964796.390931785 0 0 0 0 342371118.74530029 -71333127.020973623 0 -71333127.020973623 158701394.79660797 0 0 0 0 18192529.901748657 140122092.71575403 0 140122092.71575403 59595561.553917706 0 0 0 0 292661903.09829712 -314823552.02565902 0 -314823552.02565902 -14667819.284537345 0 0 0 0 412400537.35044861 -190939423.23010623 0 -190939423.23010623 -37226144.502181411 0 0 0 0 110072617.43209076 16785899.427042812 0 16785899.427042812 -126811644.20975584 0 0 0 0 455538339.5832901 -103722843.04068303 0 -103722843.04068303 49251291.572134107 0 0 0 0 425773825.35302162 -263200114.25567257 0 -263200114.25567257 32909051.349330246 0 0 0 0 449086739.06112671 -200283907.04052216 0 -200283907.04052216 103336262.78498691 0 0 0 0 460390600.29753113 -212775467.66519219 0 -212775467.66519219 760553.98229020834 0 0 0 0 471763571.80921936 -207540175.65625432 0 -207540175.65625432 -7093617.7529938817 0 0 0 0 497978242.83551025 -247304591.95308957 0 -247304591.95308957 -37898910.123061657 0 0 0 0 504551745.84682465 -236735029.68923712 0 -236735029.68923712 -74742978.631449342 0 0 0 0 485445578.21670532 -265482491.27515122 0 -265482491.27515122 -37234297.269682884 0 0 0 0 412942478.42552948 -228215417.18792295 0 -228215417.18792295 -26940377.997708917 0 0 0 0 503076557.40301514 -341191278.34559262 0 -341191278.34559262 -15475212.044242844 0 0 0 0 734369854.88248062 -216382111.15774027 0 -216382111.15774027 -74141966.965184093 0 0 0 0 1231298679.4561138 320914459.58754653 0 320914459.58754653 155285341.85350037 0 0 0 0 1250607276.7116318 -35562413.678452969 0 -35562413.678452969 148226690.24427444 0 0 0 0 1109047066.2608681 203209051.18474662 0 203209051.18474662 -6040585.1889386177 0 0 0 0 783733562.61643982 -36888834.223183632 0 -36888834.223183632 69448000.36678952 0 0 0 0 560373449.27368164 221251341.01039863 0 221251341.01039863 35763246.137708664 0 0 0 0 717551130.31490326 218911488.53597379 0 218911488.53597379 92734361.430536956 0 0 0 0 654236289.87845612 -4965816.9993665218 0 -4965816.9993665218 39111411.404078245 0 0 0 0 1142812135.6568222 145348640.81998396 0 145348640.81998396 -9917371.0667963028 0 0 0 0 1726391070.1215401 156454280.22044575 0 156454280.22044575 -180532670.24039507 0 0 0 0 1094029626.1118011 -4631255.0998587608 0 -4631255.0998587608 1892249.218624115 0 0 0 0 2515651.9253598638 -1011263.7866007164 0 -1011263.7866007164 -1601064.23129154 0 0 0 0 1240498015.5757599 255776037.07926261 0 255776037.07926261 161287258.86157703 0 0 0 0 2518808.8808038756 -1703485.1966934204 0 -1703485.1966934204 -176690.75198141951 0 0 0 0 418957848.76558685 -252218193.6136359 0 -252218193.6136359 -33751709.423530579 0 0 0 0 544298508.20398712 153482154.29670322 0 153482154.29670322 28327423.191832066 0 0 0 0 1092737149.0355797 354101062.60400116 0 354101062.60400116 -97063426.483848095 0 0 0 0 962977481.8142395 -91852429.958709717 0 -91852429.958709717 -251497470.77379227 0 0 0 0 1120704110.6203003 111929657.5141139 0 111929657.5141139 -240792083.99851894 0 0 0 0 1507397045.2833328 -1861011.391059041 0 -1861011.391059041 -243723227.51244068 0 0 0 0 1166960984.563694 46330320.532706819 0 46330320.532706819 -18255021.841631681 0 0 0 0 1390342229.5147209 -20133217.65400672 0 -20133217.65400672 110584483.59350657 0 0 0 0 4875029.3899533674 -3569628.4525084198 0 -3569628.4525084198 -280785.65819450701 0 0 0 0 1164409140.8132782 46850690.589336097 0 46850690.589336097 25279553.887676895 0 0 0 0 1178722467.2020721 62353856.490950689 0 62353856.490950689 -24353249.114604175 0 0 0 0 1182978658.1964111 59745880.302190438 0 59745880.302190438 -59249539.805843621 0 0 0 0 5380947.0554076247 -2775992.0589566603 0 -2775992.0589566603 -3505841.9678735361 0 0 0 0 530182200.58154678 -87676100.323669299 0 -87676100.323669299 151336619.83117509 0 0 0 0 2714328.4940502569 -1954042.8228314668 0 -1954042.8228314668 -178513.50683355588 0 0 0 0 775839161.30785751 233051111.47041056 0 233051111.47041056 92493103.944051504 0 0 0 0 1235127541.4707947 -39193877.951015584 0 -39193877.951015584 20972043.296482891 0 0 0 0 1170681546.031662 305017529.99677896 0 305017529.99677896 97528083.043515086 0 0 0 0 799863960.85231781 -13021655.100402594 0 -13021655.100402594 70924251.47782889 0 0 0 0 1624339369.1665468 139682039.45202789 0 139682039.45202789 -154161207.34508324 0 0 0 0 800315277.61101532 -7831262.3841869831 0 -7831262.3841869831 -117178679.02855968 0 0 0 0 281865307.21236229 277662439.25238192 0 277662439.25238192 -121215152.04587841 0 0 0 0 566561364.57182312 -152933716.96224177 0 -152933716.96224177 -31809738.925180763 0 0 0 0 12791161.893871948 -8776289.0780319832 0 -8776289.0780319832 3143469.9466894041 0 0 0 0 241060895.25061035 -533612514.02020025 0 -533612514.02020025 -49416930.125328064 0 0 0 0 248142087.21951294 139536932.83422542 0 139536932.83422542 -454695235.88186646 0 0 0 0 -232654566.08542633 189561406.2411828 0 189561406.2411828 -80916875.633515358 0 0 0 0 131954160.85018921 -17662871.502326965 0 -17662871.502326965 5121365.891808033 0 0 0 0 5624728.7993475944 -3537807.1179272979 0 -3537807.1179272979 1346300.9381897561 0 0 0 0 -250709656.63265598 -501706015.57974684 0 -501706015.57974684 37264407.287846565 0 0 0 0 2274959106.439949 736044771.18010974 0 736044771.18010974 -285746741.69039583 0 0 0 0 587941521.27767754 182643925.25447899 0 182643925.25447899 132116824.81493534 0 0 0 0 1284591977.801239 291666746.90861154 0 291666746.90861154 20246628.630016565 0 0 0 0 6031956.7994062081 -3418066.9930074587 0 -3418066.9930074587 -1338773.8373660943 0 0 0 0 1638706248.4414673 172435636.68606377 0 172435636.68606377 -181001344.68446636 0 0 0 0 1328108873.7836685 140067275.90052879 0 140067275.90052879 -123339126.53154683 0 0 0 0 1001473976.7501602 -137844207.08769166 0 -137844207.08769166 -66683286.861292243 0 0 0 0 1305860848.3139267 76567163.150502473 0 76567163.150502473 34755469.377568722 0 0 0 0 943837558.15579987 -123762370.90284693 0 -123762370.90284693 1057060182.3373771 0 0 0 0 1390446837.0209503 71667326.517458975 0 71667326.517458975 -22309222.393655896 0 0 0 0 1878906607.858284 -234181083.92004824 0 -234181083.92004824 -326898411.61838961 0 0 0 0 4769782.0231447928 -1950076.2475650832 0 -1950076.2475650832 1699956.1325409133 0 0 0 0 1360319122.4761047 89907491.022161663 0 89907491.022161663 61982291.041414142 0 0 0 0 1361066195.3537042 11210250.375881856 0 11210250.375881856 -18346957.923152447 0 0 0 0 1653174374.7306442 126263245.46138731 0 126263245.46138731 -49698360.511723131 0 0 0 0 1290908104.9094086 61390986.698238909 0 61390986.698238909 66736395.218448281 0 0 0 0 2060287.2243203223 -222526.67091579735 0 -222526.67091579735 1144418.2123463918 0 0 0 0 900574774.64820099 29304853.503935695 0 29304853.503935695 -231475154.57227182 0 0 0 0 904024003.4760704 63058224.110556394 0 63058224.110556394 -127969890.5288552 0 0 0 0 775562013.37813568 -43346320.900730014 0 -43346320.900730014 -79865362.816098571 0 0 0 0 442558874.80673218 -109036805.48537278 0 -109036805.48537278 -20209556.934090614 0 0 0 0 754592206.36843872 -86772674.04518652 0 -86772674.04518652 -26046442.744566917 0 0 0 0 449192337.12479401 -83782409.501868248 0 -83782409.501868248 49198392.185159683 0 0 0 0 238635875.04650879 -16610535.508636236 0 -16610535.508636236 51738008.90838635 0 0 0 0 271271579.30684662 -13779732.510117114 0 -13779732.510117114 2064472.127717495 0 0 0 0 135158490.96442795 -295835812.28691792 0 -295835812.28691792 95609909.216518402 0 0 0 0 1004134806.9285126 -97650115.177498341 0 -97650115.177498341 -327690021.15770125 0 0 0 0 720470993.33415222 -591259909.99326944 0 -591259909.99326944 43837495.570226669 0 0 0 0 934143229.28204346 -345827162.10849309 0 -345827162.10849309 24389857.554783344 0 0 0 0 411774607.22927856 -205465162.53209895 0 -205465162.53209895 77945150.460923195 0 0 0 0 370369993.12937164 -111874261.81312877 0 -111874261.81312877 109205839.60360467 0 0 0 0 439068261.71226501 -137010783.01737267 0 -137010783.01737267 25022990.917260885 0 0 0 0 443727986.6282959 -169813577.41632077 0 -169813577.41632077 40342570.263891816 0 0 0 0 484199031.03141785 -141180171.35463518 0 -141180171.35463518 76576012.504386932 0 0 0 0 471982089.12750244 -182759729.69394302 0 -182759729.69394302 37604877.412865162 0 0 0 0 433709087.05373383 -137374798.55624551 0 -137374798.55624551 96927818.543049097 0 0 0 0 447902992.46495056 -153640069.67187479 0 -153640069.67187479 105586100.43125033 0 0 0 0 567252866.43347168 -178340603.89580059 0 -178340603.89580059 70272089.759562612 0 0 0 0 544398000.88245201 -82514810.946163654 0 -82514810.946163654 141023873.50285518 0 0 0 0 775166062.21510315 -35491419.075369596 0 -35491419.075369596 90616243.467491984 0 0 0 0 584989774.12755585 -106343658.65663058 0 -106343658.65663058 120386873.81745911 0 0 0 0 589170117.31198883 -121657965.82258797 0 -121657965.82258797 80411054.012276053 0 0 0 0 821003246.83731079 -99860459.300585091 0 -99860459.300585091 28419814.584014058 0 0 0 0 955578687.75772858 -36221466.319579244 0 -36221466.319579244 44840499.997494102 0 0 0 0 871726733.94116211 13077095.775190234 0 13077095.775190234 85501945.490329355 0 0 0 0 824008016.69406128 -87336474.929171085 0 -87336474.929171085 98198150.368773609 0 0 0 0 842851831.26586914 9593750.733886838 0 9593750.733886838 102203111.36596957 0 0 0 0 884071890.18101311 -78645748.143089384 0 -78645748.143089384 161518097.28492731 0 0 0 0 958170406.77725601 55661491.469254225 0 55661491.469254225 171675118.42058104 0 0 0 0 1218715724.8680267 72717426.473566175 0 72717426.473566175 49335647.34373796 0 0 0 0 1262218861.2732506 14884537.06289646 0 14884537.06289646 6911268.4400393963 0 0 0 0 1179783241.0243073 -59578807.315156519 0 -59578807.315156519 17457061.717137575 0 0 0 0 1233898489.9470596 74982846.797550201 0 74982846.797550201 13186461.602534801 0 0 0 0 1279593652.5631027 5912736.2796082497 0 5912736.2796082497 -24109166.138076782 0 0 0 0 1130895499.3079901 -14816966.420974426 0 -14816966.420974426 36892720.747855783 0 0 0 0 1134576837.3504562 -56430839.166090488 0 -56430839.166090488 -27277079.556512892 0 0 0 0 894087910.58825684 -104101005.91429377 0 -104101005.91429377 55412339.343018532 0 0 0 0 1082970938.4842529 21916364.065048635 0 21916364.065048635 5658719.8011705875 0 0 0 0 886095137.13613129 -81308864.765448034 0 -81308864.765448034 6340296.3335292339 0 0 0 0 662315660.05120087 -93215311.826890588 0 -93215311.826890588 78106622.639023304 0 0 0 0 957482159.1319046 -185348669.94633457 0 -185348669.94633457 -14284234.133157194 0 0 0 0 630719019.64213562 -231950976.3963519 0 -231950976.3963519 65935484.542786717 0 0 0 0 662129508.65434265 -237177734.46651119 0 -237177734.46651119 79768177.621427134 0 0 0 0 3956579.973154828 1521369.4695041776 0 1521369.4695041776 1194528.4798172191 0 0 0 0 518821290.28699493 -77202266.30612886 0 -77202266.30612886 93596102.393987298 0 0 0 0 648018626.68005371 -176909274.12605214 0 -176909274.12605214 46201773.057362199 0 0 0 0 660557724.87844157 -125239205.4804042 0 -125239205.4804042 -5559208.1697537899 0 0 0 0 20209429.271148682 291826.36153481551 0 291826.36153481551 3159836.0923552872 0 0 0 0 66954.243233922869 7038.837558478117 0 7038.837558478117 20642.199794108092 0 0 0 0 5546681.9492646158 751883.08115351945 0 751883.08115351945 -254047.50100016774 0 0 0 0 18353752.360042572 -8468343.8574638311 0 -8468343.8574638311 -109849.21446633525 0 0 0 0 681907705.23734283 -244403107.95972103 0 -244403107.95972103 70120290.636162847 0 0 0 0 7326437.7256643549 1136637.5954870507 0 1136637.5954870507 525179.11008429748 0 0 0 0 4252151.8423263282 1818269.3241374418 0 1818269.3241374418 1041114.5816520608 0 0 0 0 916028589.60578918 -124754064.60492238 0 -124754064.60492238 76367141.086776793 0 0 0 0 675479138.00523949 -234408862.26616374 0 -234408862.26616374 142914676.66934383 0 0 0 0 978353450.52331543 -214742060.45404208 0 -214742060.45404208 81013370.248892307 0 0 0 0 783383022.76264954 -302283093.2199862 0 -302283093.2199862 -12475689.344169676 0 0 0 0 1420334756.5461426 -290661697.07918781 0 -290661697.07918781 78111950.221713752 0 0 0 0 1394520580.8785629 34296260.110317975 0 34296260.110317975 34488252.061655521 0 0 0 0 1239645528.8697281 -98849383.504568219 0 -98849383.504568219 13690942.166922092 0 0 0 0 960886599.86070061 -96761518.886680573 0 -96761518.886680573 40184324.291636944 0 0 0 0 1209528372.72472 1929510.9837426618 0 1929510.9837426618 28781560.988084316 0 0 0 0 1323226775.0457306 30388604.984996796 0 30388604.984996796 8319590.8974795341 0 0 0 0 1342615888.647377 -3073259.8342081904 0 -3073259.8342081904 9779564.2051943243 0 0 0 0 1333364428.9358835 23768726.052494586 0 23768726.052494586 31478830.255937099 0 0 0 0 1404132327.0059366 43287684.046064407 0 43287684.046064407 11286448.867628157 0 0 0 0 1435324371.3481655 -61667640.922449797 0 -61667640.922449797 97281587.291181952 0 0 0 0 1392961447.7628536 -78891889.707355052 0 -78891889.707355052 65621574.061075874 0 0 0 0 1428997328.6337509 -12256508.925019443 0 -12256508.925019443 159081545.91234583 0 0 0 0 1673645187.8316498 -153068415.20878088 0 -153068415.20878088 122179.6883457104 0 0 0 0 1637571636.4801483 35164167.467475891 0 35164167.467475891 81016349.925964773 0 0 0 0 1840208730.1032104 -240631237.23590428 0 -240631237.23590428 -18168807.662475377 0 0 0 0 2283700.5836302042 838915.92476726323 0 838915.92476726323 342674.86521212885 0 0 0 0 735405721.37468719 -262368787.04221094 0 -262368787.04221094 247663323.0379253 0 0 0 0 19669277.564571381 1848516.0167111715 0 1848516.0167111715 11739.699242260565 0 0 0 0 1523052656.0777588 -3093780.2411089283 0 -3093780.2411089283 -19209459.050187919 0 0 0 0 4527984.6050104946 -4144.4072255939245 0 -4144.4072255939245 -376366.9968583326 0 0 0 0 80753.476227246225 3565.798129118979 0 3565.798129118979 4993.7149960632123 0 0 0 0 14626948.804672241 -2338609.7779659629 0 -2338609.7779659629 592786.50588832749 0 0 0 0 24735404.612422943 -4877801.9914733218 0 -4877801.9914733218 -175932.2016919544 0 0 0 0 22994641.460918427 -4844397.4544885242 0 -4844397.4544885242 -161205.00542824063 0 0 0 0 994781206.73757935 -122216368.91834456 0 -122216368.91834456 -9726311.8203793317 0 0 0 0 518955067.06452179 -17559322.742438436 0 -17559322.742438436 60618384.774301648 0 0 0 0 750827560.2110405 981748.74710585549 0 981748.74710585549 -18296404.846941829 0 0 0 0 482397028.70288086 -24751142.370589077 0 -24751142.370589077 2707070.7442316413 0 0 0 0 740369571.83514404 -64969439.188324407 0 -64969439.188324407 63753616.299927831 0 0 0 0 819003062.00209808 55589226.9950611 0 55589226.9950611 -3150363.5394268036 0 0 0 0 1523230869.2502556 -15491513.031089008 0 -15491513.031089008 -25817552.810945749 0 0 0 0 1356154737.7465477 -16706412.674176082 0 -16706412.674176082 34838601.21155864 0 0 0 0 1218678373.9537354 40694822.721995905 0 40694822.721995905 59184158.094050989 0 0 0 0 1214586066.4837933 58376709.286309689 0 58376709.286309689 -14400158.781392366 0 0 0 0 1237467954.9191284 47355132.694187567 0 47355132.694187567 55312.255990252015 0 0 0 0 1093024331.4457169 -92479106.978681117 0 -92479106.978681117 1934443.2437170148 0 0 0 0 918453003.56171799 48320153.960254915 0 48320153.960254915 -44319.680491658539 0 0 0 0 733848765.18955994 49561803.148099348 0 49561803.148099348 8940237.7466211468 0 0 0 0 542703081.11607361 63877306.959342778 0 63877306.959342778 64107.626424716334 0 0 0 0 745906119.2963829 -91669530.361585632 0 -91669530.361585632 24355746.588123724 0 0 0 0 446249523.84212494 -47758025.803131163 0 -47758025.803131163 -5499745.2147256583 0 0 0 0 264049965.19466782 60446729.852578998 0 60446729.852578998 1436.2322608051581 0 0 0 0 279830164.36675262 15352445.13325569 0 15352445.13325569 -54793237.697372377 0 0 0 0 289941617.61827087 46737469.36738044 0 46737469.36738044 41919059.105501696 0 0 0 0 57155113.467567444 54518382.780222371 0 54518382.780222371 17051.865548254678 0 0 0 0 176039378.24773407 -11173449.614261005 0 -11173449.614261005 -7943035.9654090106 0 0 0 0 141452464.21560669 60090504.209096283 0 60090504.209096283 301544.75273118913 0 0 0 0 52388920.00177002 -9320262.2075977176 0 -9320262.2075977176 -28441477.43013531 0 0 0 0 521759.80006840825 447858.37490762025 0 447858.37490762025 131019.14969212341 0 0 0 0 141682761.68788147 45125570.073966444 0 45125570.073966444 -47005856.949919283 0 0 0 0 153588769.2749691 20642529.175793163 0 20642529.175793163 -41948301.924252212 0 0 0 0 -71595443.520294189 -19866107.728444278 0 -19866107.728444278 78367073.39675796 0 0 0 0 166073363.55869293 22200949.747768462 0 22200949.747768462 -66374883.564590693 0 0 0 0 19973154.567390442 88248642.137929916 0 88248642.137929916 83464934.155045271 0 0 0 0 -97118841.038772583 140341322.08495319 0 140341322.08495319 77206461.336493731 0 0 0 0 516005166.81679535 9367395.7013279796 0 9367395.7013279796 -47632935.545902729 0 0 0 0 142817.93210772425 464189.6721682027 0 464189.6721682027 219783.27028045687 0 0 0 0 372222570.79479599 37768446.301941931 0 37768446.301941931 38268851.771053314 0 0 0 0 338364504.38951111 116718611.74094054 0 116718611.74094054 33369840.628516912 0 0 0 0 495659545.20137215 10551159.933153868 0 10551159.933153868 14010909.514714956 0 0 0 0 378514844.14066315 53510362.329594016 0 53510362.329594016 50844956.24439466 0 0 0 0 357005788.39585876 14578646.111304998 0 14578646.111304998 36073110.647355795 0 0 0 0 360716843.01255798 46231807.954632759 0 46231807.954632759 4217293.91705513 0 0 0 0 308482257.15034485 48562647.497681141 0 48562647.497681141 29737016.514744997 0 0 0 0 292841286.94573975 87170137.288441896 0 87170137.288441896 -13631617.332170486 0 0 0 0 317576864.68460083 97870515.519489765 0 97870515.519489765 -24532350.501955986 0 0 0 0 314935079.55804443 17871303.975165367 0 17871303.975165367 -45849611.640094519 0 0 0 0 305634360.95230246 88999008.31460458 0 88999008.31460458 -30671253.483200073 0 0 0 0 253718294.39269829 58359327.899550825 0 58359327.899550825 -3982537.3571596146 0 0 0 0 252284851.23033142 68300351.82052958 0 68300351.82052958 13634077.762911081 0 0 0 0 358850764.99589324 89695270.543076411 0 89695270.543076411 -10090798.083411694 0 0 0 0 75468591.138199329 -8237022.9494377002 0 -8237022.9494377002 27424926.276333809 0 0 0 0 620409.66047284007 1804580.4250370041 0 1804580.4250370041 -320806.89043480158 0 0 0 0 84713299.272125244 113734738.92521238 0 113734738.92521238 55265386.927124262 0 0 0 0 4188671.9269244671 33186412.103703633 0 33186412.103703633 5046489.2553724051 0 0 0 0 6262260.0814208984 -27857671.116749823 0 -27857671.116749823 -38865851.786546528 0 0 0 0 135027745.04421997 10856060.145940542 0 10856060.145940542 -10191249.77981472 0 0 0 0 76592898.710800171 48747764.215415955 0 48747764.215415955 -6001206.7098998427 0 0 0 0 132698941.365448 37961678.423847914 0 37961678.423847914 37578.38121509552 0 0 0 0 161454783.04214859 -41554449.206468225 0 -41554449.206468225 -30962252.661705494 0 0 0 0 498332620.51930237 -76900930.545853615 0 -76900930.545853615 -27380813.415239334 0 0 0 0 1289772.3945644796 842865.0821878165 0 842865.0821878165 -126992.443448768 0 0 0 0 1869020.8750133514 -89829228.064848423 0 -89829228.064848423 -287515299.25880909 0 0 0 0 128788.01979858428 1028829.2839829102 0 1028829.2839829102 -243475.97551395092 0 0 0 0 3334812.7970631868 2234238.4492831752 0 2234238.4492831752 -576240.62672769185 0 0 0 0 18361271.072937012 52776015.263167858 0 52776015.263167858 -177576147.87722206 0 0 0 0 81884188.429855347 101221550.4934411 0 101221550.4934411 -204971804.727391 0 0 0 0 297869850.55521393 125999004.73167467 0 125999004.73167467 -296231554.04363251 0 0 0 0 89019140.585540771 154537973.09322059 0 154537973.09322059 20472533.225675106 0 0 0 0 71972080.05531311 267513112.94819188 0 267513112.94819188 64472756.551527023 0 0 0 0 376431071.95597839 40766869.78839922 0 40766869.78839922 -12724883.083058834 0 0 0 0 306942808.44347382 58337476.967116117 0 58337476.967116117 50698810.271083832 0 0 0 0 -58673173.164791107 284581616.44558799 0 284581616.44558799 79574396.170598984 0 0 0 0 -94285542.858528137 204196515.07269764 0 204196515.07269764 53117725.392477989 0 0 0 0 131582490.49920654 342406463.3895669 0 342406463.3895669 6575225.9545793533 0 0 0 0 46774374.150665283 248301356.87989521 0 248301356.87989521 63464073.438918829 0 0 0 0 65090928.998428345 275083608.49703956 0 275083608.49703956 -56164068.965202332 0 0 0 0 2711049.3169810474 -42808.946347620338 0 -42808.946347620338 -454008.19816915132 0 0 0 0 36056418.126200676 -176184089.21812075 0 -176184089.21812075 138129322.96060562 0 0 0 0 221165832.35433197 -214120885.16882133 0 -214120885.16882133 -209760624.25214958 0 0 0 0 350585834.39797974 -85787312.576144695 0 -85787312.576144695 -95048910.122082233 0 0 0 0 292035477.70700073 59515100.090904713 0 59515100.090904713 -175855772.46501708 0 0 0 0 188776913.52745056 134020281.90610433 0 134020281.90610433 -90754908.792854309 0 0 0 0 260056109.86433411 62534756.148382664 0 62534756.148382664 -27545908.165860891 0 0 0 0 290580874.17988205 116410503.85501629 0 116410503.85501629 -36601643.274116516 0 0 0 0 390266938.06809998 160587633.12086034 0 160587633.12086034 67161901.020183146 0 0 0 0 284546058.06599045 42881581.052945495 0 42881581.052945495 -60518991.815272331 0 0 0 0 67879680.810163498 19665354.908376753 0 19665354.908376753 -89760267.593014717 0 0 0 0 57299908.363025665 -20918146.488838136 0 -20918146.488838136 -75515742.77395153 0 0 0 0 84566132.791870117 1163862.2257313728 0 1163862.2257313728 -58639046.685893536 0 0 0 0 44590968.472396851 4184459.6984210014 0 4184459.6984210014 -53676975.0423913 0 0 0 0 44966343.921569824 39605539.148836136 0 39605539.148836136 -50857374.182267904 0 0 0 0 25729819.427992821 42581592.400540859 0 42581592.400540859 -18695473.056055069 0 0 0 0 23440975.226355553 21176778.326043621 0 21176778.326043621 -14737244.153849602 0 0 0 0 22317299.652722359 40726216.284146637 0 40726216.284146637 -76537372.811110497 0 0 0 0 26112479.977828979 9394637.1319313049 0 9394637.1319313049 -78347394.30892086 0 0 0 0 18520151.596280217 1492703.0122552626 0 1492703.0122552626 -1125971.506919397 0 0 0 0 35402036.595497131 38638343.149802208 0 38638343.149802208 -159457201.2330904 0 0 0 0 8481250.8610143661 41264414.846828371 0 41264414.846828371 -105948619.62119675 0 0 0 0 58111618.905334473 2446580.8433778286 0 2446580.8433778286 -170013954.05368376 0 0 0 0 4761383.2116875648 5017906.4021580759 0 5017906.4021580759 -833000.62157032359 0 0 0 0 13645554.39175415 40457183.315034866 0 40457183.315034866 -26347875.291064739 0 0 0 0 15763881.112167358 -11025005.754786253 0 -11025005.754786253 -104625007.35306716 0 0 0 0 -50860688.940834045 -22111622.122758985 0 -22111622.122758985 30976059.902850151 0 0 0 0 2760345.5730285645 15016068.588668346 0 15016068.588668346 -90537974.524935722 0 0 0 0 -5115358.6217803955 -52222614.90892601 0 -52222614.90892601 -26263132.852068901 0 0 0 0 108531465.93450928 -241404885.00077343 0 -241404885.00077343 23103336.538340569 0 0 0 0 357306276.26306152 -138130749.74558687 0 -138130749.74558687 31263436.023040414 0 0 0 0 30971497.573013306 -136500945.5177424 0 -136500945.5177424 97761846.602764606 0 0 0 0 1407203.504690975 496212.8593010921 0 496212.8593010921 -60615.95396444411 0 0 0 0 198770072.10079765 -272262024.77490991 0 -272262024.77490991 -95567525.391659737 0 0 0 0 93205127.299987793 33981550.243340611 0 33981550.243340611 -24610397.51479435 0 0 0 0 196720327.17396545 -182536599.87624693 0 -182536599.87624693 -236088013.01736975 0 0 0 0 144884696.2019043 3335484.1125221252 0 3335484.1125221252 -238164302.40002352 0 0 0 0 55761887.325698853 -59334250.278417826 0 -59334250.278417826 -99866326.708023071 0 0 0 0 84994697.971923828 -25329922.837454319 0 -25329922.837454319 -93812774.681971371 0 0 0 0 104500658.68121338 -97348846.555201054 0 -97348846.555201054 -70219059.990917683 0 0 0 0 99455633.086639404 -119022674.85148096 0 -119022674.85148096 -80780242.808716297 0 0 0 0 129745365.6368103 -27976667.917216063 0 -27976667.917216063 -76255637.207316399 0 0 0 0 118217757.19921875 -43456446.443033695 0 -43456446.443033695 -96925372.752563119 0 0 0 0 108197011.78138733 4926103.4074673653 0 4926103.4074673653 -31001381.792808533 0 0 0 0 228780812.353508 8089980.3247168064 0 8089980.3247168064 -32625618.524627686 0 0 0 0 156122608.4103775 -31953610.050060749 0 -31953610.050060749 -75709468.521769047 0 0 0 0 99605020.283424377 -36216801.376099825 0 -36216801.376099825 -4699430.2479791343 0 0 0 0 88758511.137771606 -12093521.899483085 0 -12093521.899483085 -2576216.2185807228 0 0 0 0 2919593.5496007204 2542772.860291101 0 2542772.860291101 267284.93852626998 0 0 0 0 -34589419.833877563 26807002.520938993 0 26807002.520938993 14436906.965338588 0 0 0 0 110056706.22860718 -43655419.990394235 0 -43655419.990394235 32794291.269875765 0 0 0 0 362659165.9377594 -56861449.094953656 0 -56861449.094953656 32586304.534255616 0 0 0 0 1181177.0019841194 830703.19877821952 0 830703.19877821952 29301.252363774693 0 0 0 0 191407681.61894226 125888586.21116471 0 125888586.21116471 138462078.59810102 0 0 0 0 92511739.087364197 69998934.327415943 0 69998934.327415943 52466737.940615177 0 0 0 0 46679549.521018982 30395045.406503081 0 30395045.406503081 150432486.2895205 0 0 0 0 115651675.12475586 46073651.338591814 0 46073651.338591814 55017964.003955126 0 0 0 0 69377720.972915649 40445869.559808493 0 40445869.559808493 14955951.217228085 0 0 0 0 46321195.323394775 35486737.819862127 0 35486737.819862127 14331365.931742668 0 0 0 0 101389937.71868706 42384692.172769271 0 42384692.172769271 -33132896.534900665 0 0 0 0 98631288.740783691 -12235593.153359413 0 -12235593.153359413 -51971227.826358557 0 0 0 0 53493968.380722046 49463397.519421577 0 49463397.519421577 1762596.9995934963 0 0 0 0 46211051.851699829 70834689.583533764 0 70834689.583533764 58714803.39192915 0 0 0 0 16102198.058410645 41058704.466942549 0 41058704.466942549 33814495.832814455 0 0 0 0 9375071.4988098145 46149742.208400846 0 46149742.208400846 77743782.214689076 0 0 0 0 44934054.076572418 44210288.854038596 0 44210288.854038596 56086341.402864456 0 0 0 0 9410585.0560150146 25359213.821893692 0 25359213.821893692 77086848.734831572 0 0 0 0 73601503.689758301 -9242550.8169100881 0 -9242550.8169100881 30484798.925471544 0 0 0 0 90219592.500179291 22120705.502115101 0 22120705.502115101 62912118.611741304 0 0 0 0 90925683.284309387 -6981540.9733996093 0 -6981540.9733996093 279004791.96654987 0 0 0 0 73822730.984268188 -17152667.26420176 0 -17152667.26420176 106481709.28167558 0 0 0 0 170599468.95777893 -51359186.075073242 0 -51359186.075073242 9217094.178316474 0 0 0 0 106093761.3039856 8587897.1937314868 0 8587897.1937314868 -46323577.364014626 0 0 0 0 93594860.430114746 -27611022.086325169 0 -27611022.086325169 7471284.8847376108 0 0 0 0 17635708.82817173 -37545176.186566964 0 -37545176.186566964 6483424.4771775007 0 0 0 0 23150485.98433876 19752845.598274484 0 19752845.598274484 -14769563.688312173 0 0 0 0 41607733.704719543 -8620500.9017181098 0 -8620500.9017181098 -21415095.272524595 0 0 0 0 32257894.750732422 -2957339.8442323208 0 -2957339.8442323208 34435402.095229745 0 0 0 0 -25314029.436309814 -8279774.2895283401 0 -8279774.2895283401 144248162.07988584 0 0 0 0 151308746.40039825 159612081.15089756 0 159612081.15089756 113778242.87474503 0 0 0 0 271400485.00785828 -89220732.305036843 0 -89220732.305036843 23908289.45368731 0 0 0 0 178105757.06504488 10004522.543499924 0 10004522.543499924 -64437641.542037129 0 0 0 0 142228810.05447388 19402406.810827792 0 19402406.810827792 -56211120.715356022 0 0 0 0 -47236782.256093979 -8054635.0041056871 0 -8054635.0041056871 -22098482.909631968 0 0 0 0 -23810023.589096069 75053419.052792177 0 75053419.052792177 -20661573.664351866 0 0 0 0 27499398.185913086 146821208.62022147 0 146821208.62022147 -66089976.007044509 0 0 0 0 1121490.7378482074 853939.60752092302 0 853939.60752092302 90359.587502741255 0 0 0 0 94955961.751506805 -27825781.69840017 0 -27825781.69840017 -63126520.977819085 0 0 0 0 998474.64185856283 476885.87012734264 0 476885.87012734264 -450841.53268187423 0 0 0 0 -60436910.601303101 44849012.880531356 0 44849012.880531356 -28942.402389771392 0 0 0 0 238862172.07818604 -52085892.293578789 0 -52085892.293578789 -70003218.532575056 0 0 0 0 -5568200.4465637207 6405490.4378136648 0 6405490.4378136648 -14245944.953618858 0 0 0 0 -21562536.047260284 -16913607.123928249 0 -16913607.123928249 7179121.458253026 0 0 0 0 17565141.552658081 33048601.699002802 0 33048601.699002802 -35043969.980392233 0 0 0 0 -6238236.4902191162 22380525.830885679 0 22380525.830885679 -15829620.413480453 0 0 0 0 30473795.436416626 11888510.676555574 0 11888510.676555574 -35902169.441622853 0 0 0 0 8885946.2621154785 -3117233.9382916689 0 -3117233.9382916689 -44434649.758583724 0 0 0 0 -34671.37635178864 21924.233571860939 0 21924.233571860939 -10010.77830622156 0 0 0 0 56215663.168548584 2128165.2531532049 0 2128165.2531532049 -19225806.582482576 0 0 0 0 147474285.01768494 16097285.243340254 0 16097285.243340254 -49752557.117412359 0 0 0 0 153359982.44937134 22993289.423620224 0 22993289.423620224 -87360007.049114168 0 0 0 0 85191145.987270355 59074731.261980876 0 59074731.261980876 -38522147.460293531 0 0 0 0 29654766.255599976 47127933.500549197 0 47127933.500549197 -37789512.3558532 0 0 0 0 30436803.820419312 124890764.97785306 0 124890764.97785306 153799.09723539191 0 0 0 0 265361184.67560577 37393666.685347877 0 37393666.685347877 -92703493.12854147 0 0 0 0 186643972.51635742 116481617.29264089 0 116481617.29264089 -47682479.663019359 0 0 0 0 -77953190.286857605 15242100.737560064 0 15242100.737560064 22176237.004354954 0 0 0 0 -172586.1682235077 473277.68088193983 0 473277.68088193983 67034.130046018239 0 0 0 0 -187974.88389205933 345655.71903895866 0 345655.71903895866 875.47767271061093 0 0 0 0 -135027.2740020752 284996.87848154438 0 284996.87848154438 -176957.58106292042 0 0 0 0 165274.6703684479 142309.89713620394 0 142309.89713620394 -260226.5466384865 0 0 0 0 2030024.3802261353 2182827.4549837932 0 2182827.4549837932 -3373392.1593214944 0 0 0 0 2769783.303314209 -1190867.1371251382 0 -1190867.1371251382 -154020.32944336906 0 0 0 0 3554506.3400554657 658352.59031142015 0 658352.59031142015 -7842447.0980933011 0 0 0 0 -95659.967178344727 194973.26334856599 0 194973.26334856599 -2915.956218309087 0 0 0 0 -3160913.9052581787 -3234500.7047875598 0 -3234500.7047875598 536547.33855868876 0 0 0 0 72780.944874450564 28134.778693908826 0 28134.778693908826 -121853.23818121484 0 0 0 0 182983.96465301514 -7967.2618531609769 0 -7967.2618531609769 -506811.02838057233 0 0 0 0 521657.42707824707 -515874.85099681653 0 -515874.85099681653 8332.271831041171 0 0 0 0 216674.30075073242 8071442.6931293234 0 8071442.6931293234 -11694043.004175782 0 0 0 0 3494681.3938140869 3247530.7355186455 0 3247530.7355186455 -17032378.153196111 0 0 0 0 -136824.91661185026 -299216.82160998601 0 -299216.82160998601 262187.98211342597 0 0 0 0 -4790320.4621276855 5151534.7470689714 0 5151534.7470689714 -12971426.971157249 0 0 0 0 -13523295.446136475 6471569.7687561363 0 6471569.7687561363 -3960747.276024159 0 0 0 0 -4307939.734916687 7106825.0610826239 0 7106825.0610826239 -4896422.8959827088 0 0 0 0 -4732385.1237564087 -792296.77254945785 0 -792296.77254945785 1560538.1165721472 0 0 0 0 -1924428.0935014337 662834.34834104776 0 662834.34834104776 888918.06927377079 0 0 0 0 -9004119.9822044373 87694.763386398554 0 87694.763386398554 5381488.3754849434 0 0 0 0 -7707023.8935394287 6387720.5944416523 0 6387720.5944416523 -3084059.9013476372 0 0 0 0 53812.53108215332 2665705.6652776226 0 2665705.6652776226 -429121.71494907141 0 0 0 0 -992856.82066199183 707818.43586429954 0 707818.43586429954 1205498.9566576865 0 0 0 0 -791373.70986175537 3713268.855479002 0 3713268.855479002 -780349.73015051335 0 0 0 0 -780974.60300343484 1896994.9275568947 0 1896994.9275568947 -1185716.4833923569 0 0 0 0 5263948.1709594727 43429428.594760805 0 43429428.594760805 19640769.148874402 0 0 0 0 -19458700.673274994 15059592.664200842 0 15059592.664200842 43054854.099425554 0 0 0 0 -576578.83605775237 1140365.4322919473 0 1140365.4322919473 -300629.3747341421 0 0 0 0 56311505.637054443 -27606523.440236341 0 -27606523.440236341 -34152461.96836368 0 0 0 0 120139681.17326355 23843786.377538055 0 23843786.377538055 -14289397.750713546 0 0 0 0 49867573.089752197 9706352.3069248833 0 9706352.3069248833 -17043893.998049617 0 0 0 0 46347705.896438599 5655948.6876612678 0 5655948.6876612678 -26068.253591257486 0 0 0 0 53551103.322128296 2560345.7833711193 0 2560345.7833711193 -5699300.2470628656 0 0 0 0 43999442.07674408 12740140.267538358 0 12740140.267538358 -6437685.9594467394 0 0 0 0 53649618.596710205 16238524.005974703 0 16238524.005974703 -6056442.3902516551 0 0 0 0 27954337.248291016 10186156.83812876 0 10186156.83812876 -7816.3745244513721 0 0 0 0 5814474.309967041 4055358.4849362718 0 4055358.4849362718 -655625.78070948925 0 0 0 0 28358796.277938843 25295098.629826937 0 25295098.629826937 5055256.6291282773 0 0 0 0 24076538.323196411 35910307.509960093 0 35910307.509960093 32805427.233858138 0 0 0 0 10201278.246002197 1761040.2866145335 0 1761040.2866145335 -486943.19086978422 0 0 0 0 4567522.9266700745 907073.3665703563 0 907073.3665703563 -1201750.1785140801 0 0 0 0 -109907.37065124512 3141904.9548712019 0 3141904.9548712019 -2249177.1917371135 0 0 0 0 368692.86166010052 301208.5223069191 0 301208.5223069191 -439896.41806080029 0 0 0 0 -5709726.6342163086 14771913.290781859 0 14771913.290781859 177.52178237177031 0 0 0 0 28228860.004566193 9713727.7217996307 0 9713727.7217996307 805187.49958935194 0 0 0 0 -335094.94723489881 422997.71047845483 0 422997.71047845483 -485072.83712104126 0 0 0 0 -5865791.3302307129 12916140.945365489 0 12916140.945365489 -551210.692937118 0 0 0 0 12814.862205594778 4851.5727219432592 0 4851.5727219432592 -36030.758029818593 0 0 0 0 -8630501.2664794922 6394824.9494335596 0 6394824.9494335596 -9493145.8089081943 0 0 0 0 -5466372.7701950073 8502746.1305355486 0 8502746.1305355486 -8197713.9921732005 0 0 0 0 -779087.66165161133 2244114.9067021972 0 2244114.9067021972 3252406.6745692412 0 0 0 0 -467098.45519463718 577348.60998412967 0 577348.60998412967 -661889.7844530599 0 0 0 0 1157000.3779144287 1971020.5658750413 0 1971020.5658750413 -1900345.2253728155 0 0 0 0 -4280457.3943805695 7429439.6535863457 0 7429439.6535863457 -9331601.5715490617 0 0 0 0 -2870962.679342851 2444163.4228020236 0 2444163.4228020236 830459.58862885449 0 0 0 0 -9434161.9230117798 7169939.4075629711 0 7169939.4075629711 -365060.71900558472 0 0 0 0 -6845570.175617218 5599123.1386932731 0 5599123.1386932731 -4929789.3497049809 0 0 0 0 -7839854.604598999 18927283.509150594 0 18927283.509150594 26349592.721748829 0 0 0 0 11576152.346313477 -13297005.139167547 0 -13297005.139167547 3162639.8782773614 0 0 0 0 5295479.8074299321 2468162.4196032062 0 2468162.4196032062 -2558355.2320429301 0 0 0 0 17398072.925262451 3063090.5257741809 0 3063090.5257741809 -41134652.950405836 0 0 0 0 2617481.646355629 182277.02665519062 0 182277.02665519062 -1023888.7418896751 0 0 0 0 33286361.416553497 39869672.812430263 0 39869672.812430263 36968332.449310422 0 0 0 0 20579344.449119568 -42230421.916226983 0 -42230421.916226983 90151284.786539733 0 0 0 0 19960826.923370361 -16950080.118445516 0 -16950080.118445516 39387500.274727106 0 0 0 0 27467188.290382385 48284015.776265562 0 48284015.776265562 60461226.309669971 0 0 0 0 10259053.380554199 639651.28679263592 0 639651.28679263592 62761942.979823709 0 0 0 0 260966444.66862488 53229994.993583813 0 53229994.993583813 14643267.901719958 0 0 0 0 918462.22423052788 -148660.53399936389 0 -148660.53399936389 -259086.77728022056 0 0 0 0 124688015.13597107 -84332530.777658522 0 -84332530.777658522 -22779035.724720165 0 0 0 0 776415.09307424724 416130.06454455853 0 416130.06454455853 -56093.28980115673 0 0 0 0 139059859.21176147 98353081.774064064 0 98353081.774064064 66259086.03196454 0 0 0 0 150517735.12218475 -303583620.72392446 0 -303583620.72392446 -25847131.645015121 0 0 0 0 284843011.99554443 6565690.6263979301 0 6565690.6263979301 -36065835.448505059 0 0 0 0 137112100.83833313 -3765596.0843605995 0 -3765596.0843605995 -23337294.667286038 0 0 0 0 23872563.95442009 -10944319.85198088 0 -10944319.85198088 -23723747.694606066 0 0 0 0 25522367.632334501 1944928.732905848 0 1944928.732905848 -2496015.4588004467 0 0 0 0 42676590.954299927 13402418.995621204 0 13402418.995621204 -77908363.068849087 0 0 0 0 29240613.419967651 -26567805.35729003 0 -26567805.35729003 -10277716.411316156 0 0 0 0 21394441.163265228 -2761867.4854828119 0 -2761867.4854828119 -45754302.27638483 0 0 0 0 7613855.8778533936 -15359177.772763968 0 -15359177.772763968 6723903.4913293123 0 0 0 0 7343951.9954351261 2487537.6684211791 0 2487537.6684211791 -1931345.6599082891 0 0 0 0 -23983096.277297974 16754553.317979336 0 16754553.317979336 -1114755.5452157855 0 0 0 0 7482501.7280483246 -14091457.752216607 0 -14091457.752216607 -721997.46007227898 0 0 0 0 14031514.516929626 -1434306.0753557086 0 -1434306.0753557086 192685.55689406395 0 0 0 0 -61142905.366157532 173460306.71190119 0 173460306.71190119 -245202558.44013548 0 0 0 0 -83094802.445480347 111259249.5969944 0 111259249.5969944 -69579696.041089535 0 0 0 0 -87110834.498535156 259969117.71943164 0 259969117.71943164 -445322401.09099221 0 0 0 0 22957881.879088506 4132275.4718201011 0 4132275.4718201011 -1258728.4526876325 0 0 0 0 127882238.82337952 51708172.782212496 0 51708172.782212496 -522970638.19312191 0 0 0 0 -193046568.59565163 84828356.053885758 0 84828356.053885758 -14234902.152472019 0 0 0 0 -19561798.346908569 151778935.87874651 0 151778935.87874651 127134.78949308395 0 0 0 0 -52057608.510812759 47383262.538052261 0 47383262.538052261 271497635.45158625 0 0 0 0 679798542.50968933 -278977555.71402168 0 -278977555.71402168 329184515.72391701 0 0 0 0 -172990170.75919342 401985239.64872503 0 401985239.64872503 305440945.72530651 0 0 0 0 -114900668.17264652 -207299773.81611922 0 -207299773.81611922 -539620499.38157654 0 0 0 0 124098963.95428467 686444846.10252142 0 686444846.10252142 -948866346.17084134 0 0 0 0 84164022.594482422 39386373.740133762 0 39386373.740133762 23563718.86819315 0 0 0 0 36694097.117996216 18125076.303020239 0 18125076.303020239 129496890.92401886 0 0 0 0 38295444.151275635 87072075.86196804 0 87072075.86196804 147884677.45506215 0 0 0 0 -3190384.766998291 26406532.954280853 0 26406532.954280853 118410153.34299898 0 0 0 0 16631340.118118286 30405810.023490191 0 30405810.023490191 -19303680.092121601 0 0 0 0 31583085.398971558 60124603.346347332 0 60124603.346347332 26119427.480284512 0 0 0 0 47867256.022384644 20411589.605607033 0 20411589.605607033 -6250883.1759853363 0 0 0 0 26788991.261047363 17105308.605255604 0 17105308.605255604 35767481.207859993 0 0 0 0 23535717.364379883 35849548.188980103 0 35849548.188980103 42756058.150146484 0 0 0 0 15055505.273727417 20833555.358063698 0 20833555.358063698 17039800.649839401 0 0 0 0 17026834.04296875 43691154.470532417 0 43691154.470532417 645282.56791687012 0 0 0 0 18496763.886276245 47679136.581092 0 47679136.581092 32604536.805111885 0 0 0 0 7158946.8176574707 39707666.179961443 0 39707666.179961443 70962776.753458977 0 0 0 0 47240012.416625977 28216471.477007389 0 28216471.477007389 45058037.392022133 0 0 0 0 14913581.638885498 46133947.438694954 0 46133947.438694954 49406143.104655027 0 0 0 0 16368077.995925903 30887900.077329159 0 30887900.077329159 97155307.615404129 0 0 0 0 73766556.457794189 109684490.05659008 0 109684490.05659008 15749920.051827908 0 0 0 0 36261541.27028656 35599767.88544488 0 35599767.88544488 3726734.8395695686 0 0 0 0 49899124.145355225 58832103.919059753 0 58832103.919059753 79908875.502567768 0 0 0 0 8764471.0929794312 42205145.453411222 0 42205145.453411222 53264179.939063549 0 0 0 0 11754150.753967285 45334058.79346323 0 45334058.79346323 79397897.602153301 0 0 0 0 10346716.355255127 54047512.013859272 0 54047512.013859272 67191436.841279268 0 0 0 0 2965060.8568878174 2185993.6111297607 0 2185993.6111297607 7259741.4796581268 0 0 0 0 10651520.402862549 -26681412.454414368 0 -26681412.454414368 15150627.914094448 0 0 0 0 65204199.945739746 94122730.054463387 0 94122730.054463387 123155371.25311804 0 0 0 0 -511056.56648015231 385808.32712257653 0 385808.32712257653 621352.52397593157 0 0 0 0 -26072.952136620879 100855.51894973218 0 100855.51894973218 -86423.575736888684 0 0 0 0 -5348960.5648155212 -4449551.7205045223 0 -4449551.7205045223 23295312.010664463 0 0 0 0 -4051265.6355133057 16446860.260606617 0 16446860.260606617 12490364.133271694 0 0 0 0 -17520055.434394836 4258037.1745653152 0 4258037.1745653152 6273694.0594916344 0 0 0 0 -18719567.495651245 37111839.555218935 0 37111839.555218935 -6833165.3162155151 0 0 0 0 -13735393.501602173 32808263.394068003 0 32808263.394068003 -12552825.105016708 0 0 0 0 -14906497.013412476 32697174.066744566 0 32697174.066744566 41376646.109652042 0 0 0 0 -12090684.06829071 29498958.239686251 0 29498958.239686251 -6571988.5084900856 0 0 0 0 13582884.78237915 62226603.937476158 0 62226603.937476158 -8480550.7200593948 0 0 0 0 -18466910.300788879 35139099.56464839 0 35139099.56464839 -2754633.8721393347 0 0 0 0 6459552.8795318604 37080937.99335146 0 37080937.99335146 -48383399.825431824 0 0 0 0 25147978.440490633 3468504.4117860254 0 3468504.4117860254 -1444118.2998412088 0 0 0 0 10483198.739959717 56297816.471493483 0 56297816.471493483 -61827451.269905448 0 0 0 0 -7426452.8658447266 146758009.4689188 0 146758009.4689188 -331662830.63507748 0 0 0 0 12588315.909148835 2537833.3595513254 0 2537833.3595513254 -2346297.3893682817 0 0 0 0 18068749.800516278 7276320.5711501986 0 7276320.5711501986 547408.8381363817 0 0 0 0 19048418.80632782 -2020737.981636107 0 -2020737.981636107 -12197355.672260284 0 0 0 0 2446470.774229601 421511.75420099497 0 421511.75420099497 -1229973.1534831943 0 0 0 0 -74207080.781723022 131540898.69939506 0 131540898.69939506 -114348016.19038582 0 0 0 0 -20401545.740447998 97329350.065165997 0 97329350.065165997 -281845271.50128746 0 0 0 0 -62393589.807250977 152196046.24985218 0 152196046.24985218 -302591051.5730648 0 0 0 0 37588108.90177536 11282778.672198057 0 11282778.672198057 -193679815.6257534 0 0 0 0 85360707.970336914 129173677.04453564 0 129173677.04453564 -189996993.56091833 0 0 0 0 -58075535.702331543 116545066.39812279 0 116545066.39812279 -150812027.47766876 0 0 0 0 31716766.063308716 105668115.36360979 0 105668115.36360979 -155676301.90097094 0 0 0 0 21835149.640254214 3249175.6309086243 0 3249175.6309086243 -819597.43025505031 0 0 0 0 -39010725.018035889 164109948.05504942 0 164109948.05504942 103818184.26288295 0 0 0 0 -51635973.281463623 2229257.4867155552 0 2229257.4867155552 1523132.6296746731 0 0 0 0 111049455.01266479 12709994.779837608 0 12709994.779837608 -108737168.08893824 0 0 0 0 34340345.554504395 59307755.835616589 0 59307755.835616589 -134867519.86329556 0 0 0 0 5233282.3836393356 15846738.26401481 0 15846738.26401481 -75852406.15816927 0 0 0 0 42950816.549163818 58651290.923977852 0 58651290.923977852 -55864229.805409431 0 0 0 0 15154956.00491333 47397863.193702221 0 47397863.193702221 -22172896.209345341 0 0 0 0 18424944.766586304 14153443.804599762 0 14153443.804599762 -42039645.289892673 0 0 0 0 25475587.079833984 16839244.73064065 0 16839244.73064065 -25617420.538566113 0 0 0 0 23851948.771087646 44044226.435137749 0 44044226.435137749 -71218199.199392319 0 0 0 0 -6941601.059753418 34245321.731349945 0 34245321.731349945 -73173299.835218906 0 0 0 0 13453059.434402466 7435457.3212006092 0 7435457.3212006092 -115609444.80677605 0 0 0 0 2151213.5557195544 8571866.9860160276 0 8571866.9860160276 -1176063.6555643503 0 0 0 0 -30480232.809951782 49340880.531768799 0 49340880.531768799 10509866.882118344 0 0 0 0 -19961658.907218933 26112399.655156374 0 26112399.655156374 -177970634.23186946 0 0 0 0 15346274.820007324 -3782417.6254673004 0 -3782417.6254673004 -244502222.82502073 0 0 0 0 -16077262.041633606 5173489.3218300939 0 5173489.3218300939 -151464785.07226515 0 0 0 0 557889.19887453318 2441282.0390750058 0 2441282.0390750058 -405902.89850909088 0 0 0 0 -20529846.150588989 -11618286.230725765 0 -11618286.230725765 -220786811.04111767 0 0 0 0 30937197.849960327 45527043.410161018 0 45527043.410161018 -375284859.23534846 0 0 0 0 -32145848.758094788 18793056.375286341 0 18793056.375286341 -64570101.713087082 0 0 0 0 -34024012.548266411 69968792.312652946 0 69968792.312652946 -147309380.64599991 0 0 0 0 -30192724.573245049 23001657.987893686 0 23001657.987893686 -146368332.19624329 0 0 0 0 -30473317.213329315 25269413.633510768 0 25269413.633510768 -19717800.733037472 0 0 0 0 -19401084.470832825 53615768.581885576 0 53615768.581885576 -122013891.50541008 0 0 0 0 -32564338.498847961 84550071.615446925 0 84550071.615446925 32837816.45618099 0 0 0 0 6309313.0005280506 66956092.724564984 0 66956092.724564984 40627498.907449007 0 0 0 0 3258827.4107818604 58831848.286254048 0 58831848.286254048 -47458760.191904515 0 0 0 0 -37329984.139862061 8536846.3600732982 0 8536846.3600732982 3847543.9706611633 0 0 0 0 -158667888.69358063 36299383.756585956 0 36299383.756585956 113269782.047822 0 0 0 0 -311056.68804108351 2603045.0898833089 0 2603045.0898833089 4403532.7462097155 0 0 0 0 -22342015.342267632 -8345834.7817014335 0 -8345834.7817014335 28854673.803256273 0 0 0 0 -21670670.622276306 27986245.549978912 0 27986245.549978912 17025604.059726417 0 0 0 0 -45268622.286834717 8616089.2302205563 0 8616089.2302205563 7189279.0820493698 0 0 0 0 -8063334.9946136475 22026854.071620584 0 22026854.071620584 11331565.211723208 0 0 0 0 -46650102.723815918 48559823.769612968 0 48559823.769612968 -24582516.021063805 0 0 0 0 -4099037.0414199829 36397153.764003754 0 36397153.764003754 -37794738.735575914 0 0 0 0 -24071719.923110962 66749708.404170752 0 66749708.404170752 -120974181.97404432 0 0 0 0 -22391131.598869324 38452502.022398233 0 38452502.022398233 -51791813.970906258 0 0 0 0 -62903526.042572021 52976593.109352112 0 52976593.109352112 -47250556.996242762 0 0 0 0 -39992900.389358521 138683933.09247661 0 138683933.09247661 -216832983.90536714 0 0 0 0 -48945157.159554482 101063675.90030697 0 101063675.90030697 -92914858.741879463 0 0 0 0 -49800887.880149841 78228065.347903728 0 78228065.347903728 -81111767.654419899 0 0 0 0 -68586228.101478577 123601594.49944758 0 123601594.49944758 -113932836.98245001 0 0 0 0 -38410552.638748169 83996496.373732567 0 83996496.373732567 -78195382.005904675 0 0 0 0 -52776395.188957214 30682984.213342905 0 30682984.213342905 1156547.8752670288 0 0 0 0 -11303768.743408203 80342428.344344616 0 80342428.344344616 -90246773.049770474 0 0 0 0 -91293316.352325439 34657332.249017596 0 34657332.249017596 75294728.407548904 0 0 0 0 2152741.779320173 1898859.3136685267 0 1898859.3136685267 1954514.3269717293 0 0 0 0 19592608.761316776 -79998370.809786409 0 -79998370.809786409 89759367.80852294 0 0 0 0 -38475251.489257812 9645014.0994672775 0 9645014.0994672775 51148210.081663907 0 0 0 0 2474570.5848183632 37507628.335994825 0 37507628.335994825 -2145844.0317716599 0 0 0 0 754636132.27993011 -312941648.6450789 0 -312941648.6450789 28761522.180119991 0 0 0 0 30504786.408714294 -140834309.98679996 0 -140834309.98679996 254713252.03269854 0 0 0 0 1065561.684571892 473862.69014642388 0 473862.69014642388 470986.40215006797 0 0 0 0 69483596.785087585 -42528751.375355244 0 -42528751.375355244 31692998.762669146 0 0 0 0 192364422.88010406 -7917853.3541920185 0 -7917853.3541920185 -160466070.22175789 0 0 0 0 170629360.8544426 -87405110.330360651 0 -87405110.330360651 65098498.932208061 0 0 0 0 1332251.7684638426 720643.24323967844 0 720643.24323967844 7149114.5199247068 0 0 0 0 419205800.97985458 -125550066.03893661 0 -125550066.03893661 -19349254.551805019 0 0 0 0 297660102.82846832 -159907692.04458189 0 -159907692.04458189 48983725.667061985 0 0 0 0 315142731.69758987 -61469949.032678843 0 -61469949.032678843 7389635.37495327 0 0 0 0 154792362.99567413 -117894308.7748158 0 -117894308.7748158 29428295.599792719 0 0 0 0 150291037.3806386 -58192170.734816141 0 -58192170.734816141 325752830.90679693 0 0 0 0 194848627.52435303 -53727652.88726902 0 -53727652.88726902 105466738.46368122 0 0 0 0 1076112.2562179714 155464.07166644931 0 155464.07166644931 4689602.812010115 0 0 0 0 261283684.06725311 479124789.10217261 0 479124789.10217261 -79943330.530954361 0 0 0 0 1508280.404886663 3017725.0582143068 0 3017725.0582143068 3810026.5073685101 0 0 0 0 13669565.066047668 -43111821.338959813 0 -43111821.338959813 40712199.152504936 0 0 0 0 79821909.229621887 -278623589.54160237 0 -278623589.54160237 38191627.055161715 0 0 0 0 242854954.07751465 139418406.67814875 0 139418406.67814875 216386275.78615808 0 0 0 0 111910.63217617944 170704.20098488033 0 170704.20098488033 3131690.2217472875 0 0 0 0 320058454.43314362 105180612.3103255 0 105180612.3103255 79323304.459055901 0 0 0 0 -231403029.24536133 -191067597.17004335 0 -191067597.17004335 299538469.18472344 0 0 0 0 137369367.49929619 -179409623.39751184 0 -179409623.39751184 125107565.60115027 0 0 0 0 -90614513.522766113 -45206605.866054893 0 -45206605.866054893 46773343.110161513 0 0 0 0 248995328.55035114 90913323.30474934 0 90913323.30474934 75050987.068900108 0 0 0 0 263215237.79340363 10774539.845543861 0 10774539.845543861 -28967192.786347866 0 0 0 0 156013520.0566864 -59357578.267904282 0 -59357578.267904282 32832819.759310246 0 0 0 0 82918076.347862244 -46482893.846529484 0 -46482893.846529484 88012192.944250107 0 0 0 0 -82091802.395895004 -9804450.9323478192 0 -9804450.9323478192 89478072.754725933 0 0 0 0 745686.15393871069 1738519.3707307726 0 1738519.3707307726 8171705.9235054813 0 0 0 0 58744415.831590652 17187754.962220311 0 17187754.962220311 17430434.670180321 0 0 0 0 165160653.20187378 -73795640.226817131 0 -73795640.226817131 38132759.565012932 0 0 0 0 -868034.47480474412 -121785.20127738267 0 -121785.20127738267 1376621.3230884727 0 0 0 0 -65267486.985267639 21781710.232160568 0 21781710.232160568 -22290506.308516875 0 0 0 0 231652748.47200012 14985741.668213844 0 14985741.668213844 17983440.195993423 0 0 0 0 273830881.06229401 67642524.813071251 0 67642524.813071251 47898001.781932354 0 0 0 0 233756027.86094666 60574360.008317232 0 60574360.008317232 120177808.73001909 0 0 0 0 120288769.42420197 -56956422.889578342 0 -56956422.889578342 445389417.46722317 0 0 0 0 156116296.08885193 -25831049.918761253 0 -25831049.918761253 200500345.64140177 0 0 0 0 258925616.29634094 100391306.77084351 0 100391306.77084351 83752457.7413764 0 0 0 0 454400.83067530766 45988.697966843843 0 45988.697966843843 1926731.8979538502 0 0 0 0 358777471.97694778 173236313.75750589 0 173236313.75750589 179008257.76960278 0 0 0 0 206492056.75490379 161548040.74422139 0 161548040.74422139 467807529.01847172 0 0 0 0 -127627448.21548462 122468714.14006686 0 122468714.14006686 482415269.70610714 0 0 0 0 227774754.17409706 -317535808.21616232 0 -317535808.21616232 -38116232.267420769 0 0 0 0 138588942.99726868 21244274.950803757 0 21244274.950803757 -222370298.75205755 0 0 0 0 128037738.74937105 -110663007.8636736 0 -110663007.8636736 81893169.614953041 0 0 0 0 232414419.12992096 -98892888.808817387 0 -98892888.808817387 64762598.321466208 0 0 0 0 6793385.7892074585 9620884.228577137 0 9620884.228577137 -19824233.194506645 0 0 0 0 206609412.17133331 -136935761.29689932 0 -136935761.29689932 19458586.866592407 0 0 0 0 111577466.66788483 -44201090.186923027 0 -44201090.186923027 26543451.996333599 0 0 0 0 228082304.67694092 -91059467.01548624 0 -91059467.01548624 -55008068.031856537 0 0 0 0 238143564.80344009 -112204812.36618185 0 -112204812.36618185 -93697644.490050316 0 0 0 0 -21376435.549983978 -94404701.824269533 0 -94404701.824269533 -252064631.94597208 0 0 0 0 2303650.6621028595 378849.37191747129 0 378849.37191747129 -3009046.6586099472 0 0 0 0 -43032563.404022217 89464554.114546776 0 89464554.114546776 -61737800.218566418 0 0 0 0 9123847.5132923126 12013298.734545469 0 12013298.734545469 -8570910.6232852936 0 0 0 0 2475530.2337286212 2593181.3896606117 0 2593181.3896606117 591082.17254969943 0 0 0 0 147470519.13221359 -56548333.937388897 0 -56548333.937388897 24557924.617753029 0 0 0 0 146719089.25769806 -58799323.161102772 0 -58799323.161102772 34247738.463014603 0 0 0 0 154117913.47000504 -44586522.813741684 0 -44586522.813741684 19216856.910956383 0 0 0 0 136014307.65450287 -45745822.482766628 0 -45745822.482766628 25810017.041154861 0 0 0 0 165068053.01053053 -56899227.975880578 0 -56899227.975880578 20920112.593572617 0 0 0 0 255929371.99524689 -153051313.34473652 0 -153051313.34473652 15346247.340675354 0 0 0 0 636393.13843179867 216262.910776712 0 216262.910776712 -393833.86823242158 0 0 0 0 203538441.44540215 -139130890.87112975 0 -139130890.87112975 64438519.820477486 0 0 0 0 181420274.43362427 -60820120.22498703 0 -60820120.22498703 77606665.380389333 0 0 0 0 138394241.36858654 -60683744.760669112 0 -60683744.760669112 25173442.725692749 0 0 0 0 -388806.70205688477 -620072.79127883911 0 -620072.79127883911 3312730.0964336395 0 0 0 0 2076641.2208449841 33381769.918357432 0 33381769.918357432 -16775979.916947365 0 0 0 0 -76130203.684257507 113821037.24542439 0 113821037.24542439 -14971014.44519043 0 0 0 0 2363910.5025133565 5453672.1941013597 0 5453672.1941013597 9691753.3233562578 0 0 0 0 -95731756.791929245 55991636.971728861 0 55991636.971728861 22007384.05218792 0 0 0 0 -18476814.120269775 52430334.255885839 0 52430334.255885839 3268294.4207320213 0 0 0 0 18923573.313613892 44353556.659521341 0 44353556.659521341 -85638477.674590111 0 0 0 0 97685173.788146973 49632763.357282639 0 49632763.357282639 -3534080.096354574 0 0 0 0 -803661.63891601562 60640976.6186831 0 60640976.6186831 -1365404.680621624 0 0 0 0 -30039973.625602722 73429812.310993016 0 73429812.310993016 128565081.85488319 0 0 0 0 -12971922.6795578 48898397.983748436 0 48898397.983748436 -51744764.657613993 0 0 0 0 6166984.2017753497 8682364.5272056274 0 8682364.5272056274 9510228.4247859325 0 0 0 0 -7260448.7392196655 108026024.05872297 0 108026024.05872297 -84247339.52045539 0 0 0 0 34071766.252548218 31889228.757735729 0 31889228.757735729 -58531509.601053238 0 0 0 0 32756008.350891113 18641017.195847511 0 18641017.195847511 -86667127.950459003 0 0 0 0 68995226.016067505 51514017.710194349 0 51514017.710194349 -55799449.150388837 0 0 0 0 57796714.846099854 117064019.10204029 0 117064019.10204029 -84134525.110900521 0 0 0 0 148012897.69378662 -17269221.396632671 0 -17269221.396632671 -125002845.72145224 0 0 0 0 175162285.06573486 -85785021.870150566 0 -85785021.870150566 -221689.70687073469 0 0 0 0 -5865316.6438903809 52275287.393465042 0 52275287.393465042 -57932380.535204172 0 0 0 0 67788857.291015625 11769040.8273139 0 11769040.8273139 -36518032.854503632 0 0 0 0 -9047013.3554148674 -46576613.076993994 0 -46576613.076993994 -16712304.631770134 0 0 0 0 55389522.104698181 -24088350.059614539 0 -24088350.059614539 -10681318.308713675 0 0 0 0 21711053.243621826 -8862700.8629382849 0 -8862700.8629382849 27022658.201093197 0 0 0 0 83946277.817909241 -43753750.930505157 0 -43753750.930505157 45962932.306948423 0 0 0 0 43842733.737442017 22438611.598910332 0 22438611.598910332 88631865.955349445 0 0 0 0 33491969.598983765 24213794.042405486 0 24213794.042405486 5796606.1915278435 0 0 0 0 98377371.687461853 35575904.601786733 0 35575904.601786733 6556158.6413573772 0 0 0 0 217538756.42472839 61122721.084967077 0 61122721.084967077 89622752.150952101 0 0 0 0 37732833.216316223 -27598293.184539229 0 -27598293.184539229 222608890.75954765 0 0 0 0 24725464.126054764 20273557.248253107 0 20273557.248253107 141855404.43869638 0 0 0 0 17416800.671657562 133384950.34059824 0 133384950.34059824 151421947.33490494 0 0 0 0 52857808.351470947 34908694.203980833 0 34908694.203980833 -6135829.108109802 0 0 0 0 15234248.259475708 -147397150.13901734 0 -147397150.13901734 334487909.28169936 0 0 0 0 -839857.82099550962 1000111.7839441262 0 1000111.7839441262 2268155.6107816966 0 0 0 0 -9989884.9779491425 -37090910.971252754 0 -37090910.971252754 135237439.16303802 0 0 0 0 -90559032.879936218 -48107921.17286098 0 -48107921.17286098 179776823.45572066 0 0 0 0 -41554148.315139771 47287130.745365739 0 47287130.745365739 116014751.38410759 0 0 0 0 -74142097.122428894 35740165.635681093 0 35740165.635681093 114656310.56296158 0 0 0 0 -2442833.7271766663 -7773030.9129557014 0 -7773030.9129557014 125320897.54778481 0 0 0 0 -3098505.2803649902 87196425.438400507 0 87196425.438400507 326405186.14148343 0 0 0 0 40598353.535587311 13288950.459577084 0 13288950.459577084 -47829310.202578068 0 0 0 0 -4446910.0941925049 -10215292.827879429 0 -10215292.827879429 16210193.856541634 0 0 0 0 -8432844.5135145187 15258401.629469991 0 15258401.629469991 -116055899.83084011 0 0 0 0 9030701.6638183594 -20867974.572762728 0 -20867974.572762728 63325696.897427082 0 0 0 0 11270144.64058356 3012187.5458831955 0 3012187.5458831955 343260.20549255144 0 0 0 0 17803873.85168457 -18256722.226880074 0 -18256722.226880074 53239558.769593954 0 0 0 0 14084697.200622559 -19104200.731280327 0 -19104200.731280327 53824560.988012314 0 0 0 0 -18375855.938682556 113021317.33569622 0 113021317.33569622 -48680710.538319588 0 0 0 0 36473479.680747986 -7339093.3486273289 0 -7339093.3486273289 -35752330.531734467 0 0 0 0 11820059.404244579 2578870.7783995718 0 2578870.7783995718 -376874.16600271408 0 0 0 0 9022541.1056149751 -674461.96311463416 0 -674461.96311463416 -1242562.9584587254 0 0 0 0 130301775.87453461 89930345.94942522 0 89930345.94942522 -66216316.391987562 0 0 0 0 -55388922.968114853 -164859.1135481596 0 -164859.1135481596 102288219.08904266 0 0 0 0 19720901.460037231 -39485263.17344594 0 -39485263.17344594 24562784.299970627 0 0 0 0 -82834683.936943054 86577264.198893249 0 86577264.198893249 2889118.5627565384 0 0 0 0 3020016.9537892491 58119.326563715935 0 58119.326563715935 1950970.5991900619 0 0 0 0 -4868044.8290014267 -8412473.956586957 0 -8412473.956586957 -3319808.4045543671 0 0 0 0 -36118543.550945282 -9866962.226805687 0 -9866962.226805687 14639234.213711262 0 0 0 0 118193121.30992889 -66318286.606577396 0 -66318286.606577396 33848522.839587688 0 0 0 0 -3810432.372045517 -4058856.0457540751 0 -4058856.0457540751 14481114.326180458 0 0 0 0 21137791.542301178 -21751582.767981768 0 -21751582.767981768 13557443.527655602 0 0 0 0 -14375597.122680664 -3827972.2645463943 0 -3827972.2645463943 15698439.75813961 0 0 0 0 -610800.39237213135 1470725.2906813622 0 1470725.2906813622 10888807.812540054 0 0 0 0 -48543912.252386093 18773976.05257237 0 18773976.05257237 11422470.288796425 0 0 0 0 -28694197.163280487 2097124.1232924461 0 2097124.1232924461 14266413.658825696 0 0 0 0 895699.19668314606 360181.95924045891 0 360181.95924045891 2470360.6497459896 0 0 0 0 2595050.5423583984 -94112213.563376427 0 -94112213.563376427 6276856.5947400331 0 0 0 0 -35982439.616109848 -30809499.211437345 0 -30809499.211437345 108189794.74724102 0 0 0 0 -3874189.6874198914 36447199.652180672 0 36447199.652180672 57914884.709202528 0 0 0 0 -14481857.116779327 72599164.926804781 0 72599164.926804781 134863191.19495368 0 0 0 0 237713332.41381836 171286363.98633194 0 171286363.98633194 160734211.11768723 0 0 0 0 261504918.16285944 345099177.19092476 0 345099177.19092476 87772043.32882309 0 0 0 0 -561528113.9876709 -337739575.45858622 0 -337739575.45858622 -10814184.590991974 0 0 0 0 -276586427.17542267 970377916.12283039 0 970377916.12283039 475939725.05179977 0 0 0 0 -154209667.41841888 41094786.343154907 0 41094786.343154907 275631390.96357393 0 0 0 0 -159203426.76903534 -177311481.93142796 0 -177311481.93142796 -38121454.221331596 0 0 0 0 223334658.13541794 -4322959.7734026909 0 -4322959.7734026909 7829420.9141693115 0 0 0 0 5520763.8650886789 6105754.694500912 0 6105754.694500912 3281270.019370893 0 0 0 0 1051589993.2922134 169154191.55408978 0 169154191.55408978 -93989333.742864609 0 0 0 0 541564399.37640381 -239943658.67920399 0 -239943658.67920399 104162430.34920847 0 0 0 0 1641993672.7034607 634768697.30211115 0 634768697.30211115 -9157070.344066143 0 0 0 0 4476309.9757445902 2488482.157794727 0 2488482.157794727 1119194.8094072035 0 0 0 0 328081019.70463562 809480428.92615318 0 809480428.92615318 -118596862.9726963 0 0 0 0 1760629391.5730591 436461578.85900879 0 436461578.85900879 -414871974.59305954 0 0 0 0 1595585603.5551987 -447035519.51700592 0 -447035519.51700592 48017049.04232502 0 0 0 0 1777032.2677526698 2272480.7582663335 0 2272480.7582663335 2045233.0967173818 0 0 0 0 270749599.97714233 642154515.36477327 0 642154515.36477327 673658768.79946089 0 0 0 0 -204801135.47270203 -217648374.50252676 0 -217648374.50252676 -73060901.603476048 0 0 0 0 1187919187.566185 111536659.05331397 0 111536659.05331397 117830574.82862282 0 0 0 0 470680719.27128601 -14874072.413488388 0 -14874072.413488388 98987506.392498732 0 0 0 0 719946160.23558044 -155337885.92980695 0 -155337885.92980695 24713076.19883728 0 0 0 0 622456579.55453491 -296333821.44162345 0 -296333821.44162345 241647468.15913391 0 0 0 0 355506634.03416443 -111286099.52568197 0 -111286099.52568197 20519685.452001572 0 0 0 0 246996011.23821259 -57642109.301933765 0 -57642109.301933765 45282004.514513969 0 0 0 0 546778524.78613281 -40888312.637384892 0 -40888312.637384892 -45436874.969577789 0 0 0 0 500044614.56492233 -30963830.058260441 0 -30963830.058260441 -9569313.5929203033 0 0 0 0 515067882.10968018 35384602.765398026 0 35384602.765398026 -84499592.294623375 0 0 0 0 -1741588.743812561 -69888721.405739307 0 -69888721.405739307 -340150501.78778076 0 0 0 0 10383644.051269516 3562976.4713952616 0 3562976.4713952616 941173.73238552455 0 0 0 0 2272930.1644134521 19179075.033754349 0 19179075.033754349 50450704.340262413 0 0 0 0 154866336.36642456 -216493404.39269066 0 -216493404.39269066 228052185.88710546 0 0 0 0 -59354155.362007141 -13787143.68700695 0 -13787143.68700695 146990904.58095264 0 0 0 0 233568861.72742462 -96932614.728742123 0 -96932614.728742123 63472500.690926552 0 0 0 0 -9609857.414932251 -69952947.59076786 0 -69952947.59076786 147426394.88980865 0 0 0 0 -176581.51396423578 40576.462289575487 0 40576.462289575487 325018.98323033098 0 0 0 0 36203006.280441284 -30709914.339802742 0 -30709914.339802742 59501299.136969566 0 0 0 0 48703443.062858582 -13895331.641036749 0 -13895331.641036749 47698874.083950043 0 0 0 0 -459608.61869589984 65270.661445152014 0 65270.661445152014 607745.00881385058 0 0 0 0 195629159.76263428 3662479.6165835857 0 3662479.6165835857 3613654.811756134 0 0 0 0 127512749.98064423 -94522806.189247131 0 -94522806.189247131 65999390.401552677 0 0 0 0 131072294.48560333 57915945.98062849 0 57915945.98062849 -17866560.614690304 0 0 0 0 33273993.364788055 -71728142.228400469 0 -71728142.228400469 6206536.0658273697 0 0 0 0 526172365.91783142 38332641.79643333 0 38332641.79643333 -86250369.7876091 0 0 0 0 368805960.92127228 5599564.1661028862 0 5599564.1661028862 -25830937.406338692 0 0 0 0 325550661.43196869 -74502741.779465675 0 -74502741.779465675 29200329.302151203 0 0 0 0 322925622.37311554 5019707.5676789284 0 5019707.5676789284 -32958111.640684605 0 0 0 0 327770720.34159851 -12096792.660127163 0 -12096792.660127163 -30816047.057739854 0 0 0 0 433449232.89956665 75574910.578697681 0 75574910.578697681 -14360135.170299053 0 0 0 0 428843356.82207775 -324317682.39923799 0 -324317682.39923799 -437103474.00697136 0 0 0 0 660702631.63663483 -37713129.073694706 0 -37713129.073694706 -92751004.656596184 0 0 0 0 203863381.1138649 202874933.32767534 0 202874933.32767534 -136195895.06402636 0 0 0 0 781300421.83559036 530031668.10260296 0 530031668.10260296 48067666.929152489 0 0 0 0 8782517.6996150464 -1392219.3620454976 0 -1392219.3620454976 -641381.69826934044 0 0 0 0 329233372.49662781 -507546188.293859 0 -507546188.293859 308969917.04823434 0 0 0 0 914040861.04028511 -259008140.26355487 0 -259008140.26355487 260461531.3265295 0 0 0 0 1268548835.2583313 1223397213.6194353 0 1223397213.6194353 1644342824.2614717 0 0 0 0 2057254989.7627716 -136561813.44516945 0 -136561813.44516945 -1311992370.6626053 0 0 0 0 -10938734.159385681 -34008613.501752853 0 -34008613.501752853 -93555101.503129959 0 0 0 0 48883619.406333923 -17878551.639528751 0 -17878551.639528751 -89656778.041000605 0 0 0 0 29822989.467964172 -54911749.914218903 0 -54911749.914218903 -81475638.013287783 0 0 0 0 22748432.2598809 -1204694.6965892618 0 -1204694.6965892618 -1792516.7992483554 0 0 0 0 97183981.695838928 8750453.6075701714 0 8750453.6075701714 -277677639.39868069 0 0 0 0 351377191.84649658 -296006046.2550149 0 -296006046.2550149 -646110933.07182765 0 0 0 0 127359889.7923584 19161459.847826958 0 19161459.847826958 -761573803.26016867 0 0 0 0 30532163.78835167 964596.79641405586 0 964596.79641405586 -2461795.7138709584 0 0 0 0 54863774.879722595 -28263452.88969326 0 -28263452.88969326 -191473619.45147407 0 0 0 0 14073616.514665604 -5496448.0932970047 0 -5496448.0932970047 -87445131.51615715 0 0 0 0 39574826.742584229 -15541963.823276043 0 -15541963.823276043 -87623283.770012602 0 0 0 0 1023566.1370258331 -34088625.980981112 0 -34088625.980981112 8421589.5338716507 0 0 0 0 35211038.8621521 -52588499.685502052 0 -52588499.685502052 12970255.404172897 0 0 0 0 -547408.57410344481 11085.092914847657 0 11085.092914847657 513146.50546256453 0 0 0 0 21615774.431350708 -25822706.641613603 0 -25822706.641613603 44686481.710206985 0 0 0 0 14571053.153488159 -24646559.345106125 0 -24646559.345106125 44490766.744086266 0 0 0 0 19251948.292045593 -46605378.299700499 0 -46605378.299700499 67946787.503456116 0 0 0 0 17112779.182411194 -31854962.750377655 0 -31854962.750377655 63423213.151383013 0 0 0 0 23077760.916481018 -18089410.377660275 0 -18089410.377660275 32662866.370127201 0 0 0 0 18051925.131181717 -20218393.224993944 0 -20218393.224993944 35992809.061692238 0 0 0 0 20794115.58467865 -16418033.733065128 0 -16418033.733065128 39514871.655296326 0 0 0 0 21564514.347996712 -26647967.796787143 0 -26647967.796787143 33382949.301234245 0 0 0 0 17017560.648468018 -32377491.357127666 0 -32377491.357127666 42606943.600636005 0 0 0 0 -285591.81143665314 2384.11310108006 0 2384.11310108006 229739.94826154411 0 0 0 0 15179762.96950531 -42659987.789651394 0 -42659987.789651394 5643110.5946321487 0 0 0 0 34481674.501773834 -29555590.123325348 0 -29555590.123325348 -40424512.556893349 0 0 0 0 26196550.245025635 -16774720.731554031 0 -16774720.731554031 -36076690.941281319 0 0 0 0 20732205.557167053 -29109383.725455284 0 -29109383.725455284 -60224326.157056808 0 0 0 0 20086730.704475403 -24679753.734786987 0 -24679753.734786987 -80000046.520133972 0 0 0 0 35802985.411520481 -37894913.072509229 0 -37894913.072509229 -71506797.284686089 0 0 0 0 22741823.702507019 -24966111.008512974 0 -24966111.008512974 -81186009.978279114 0 0 0 0 428570325.06915283 230364291.17424774 0 230364291.17424774 -236446347.71314812 0 0 0 0 33371701.826093212 2892750.0838900926 0 2892750.0838900926 -3372579.2202107646 0 0 0 0 31093315.775718689 -12146561.146180153 0 -12146561.146180153 -100092639.55929995 0 0 0 0 31618249.145580292 -676428.68672192097 0 -676428.68672192097 -40323239.735994339 0 0 0 0 31233702.388824463 2740210.8424711227 0 2740210.8424711227 -70617641.472303152 0 0 0 0 -79841516.79201889 57934222.544625401 0 57934222.544625401 -10489097.946298599 0 0 0 0 -147463651.49118042 193011242.23738837 0 193011242.23738837 -41492976.517325878 0 0 0 0 841813.58075683564 3113995.6220610589 0 3113995.6220610589 1070828.3946682755 0 0 0 0 -35761688.252853394 18019826.291563034 0 18019826.291563034 13500327.809994698 0 0 0 0 -25502721.139060974 12430905.337153435 0 12430905.337153435 10735446.373051643 0 0 0 0 -5827387.854309082 153355643.21977225 0 153355643.21977225 45247367.176176071 0 0 0 0 -3714009.8138694763 162661287.23181638 0 162661287.23181638 -22302221.055839539 0 0 0 0 -115921199.64201355 62934774.356969118 0 62934774.356969118 -102988324.79834828 0 0 0 0 -13858410.479549408 -43499966.741012692 0 -43499966.741012692 -212090082.1036911 0 0 0 0 198424224.18946242 322851968.19362497 0 322851968.19362497 -203289386.41774178 0 0 0 0 650298.65380617231 1120842.7222278714 0 1120842.7222278714 84165.988598920405 0 0 0 0 193141627.77281189 114384493.21265364 0 114384493.21265364 -112952420.23349935 0 0 0 0 -177667651.1484375 437355617.69188452 0 437355617.69188452 -65120077.770356178 0 0 0 0 -355600688.64167786 4979150.8012166023 0 4979150.8012166023 -214171397.98842812 0 0 0 0 -139307487.79066467 181150581.0658102 0 181150581.0658102 16595279.001758575 0 0 0 0 12408081.07522583 200104076.86190844 0 200104076.86190844 -163390407.54850626 0 0 0 0 -18494838.993667603 226790603.80980444 0 226790603.80980444 -31701397.535752296 0 0 0 0 159609819.66571045 236656116.93927717 0 236656116.93927717 -531363300.70103693 0 0 0 0 274022306.39809418 -171895534.89967585 0 -171895534.89967585 107055640.01382446 0 0 0 0 127951445.65319061 115588005.80447459 0 115588005.80447459 21896515.931794167 0 0 0 0 76799893.441486359 58940672.690654516 0 58940672.690654516 163232533.59031677 0 0 0 0 76748942.269836426 90823161.190698624 0 90823161.190698624 12613609.456224769 0 0 0 0 -23592983.666091919 108743964.00175142 0 108743964.00175142 81927096.001796246 0 0 0 0 6684639.0079193115 187456817.12473273 0 187456817.12473273 -57378569.01530242 0 0 0 0 37201051.074165344 142763794.34446001 0 142763794.34446001 97833875.611305714 0 0 0 0 34698128.923065186 109073964.53812051 0 109073964.53812051 85803310.583063126 0 0 0 0 112911299.32765198 21362315.647812366 0 21362315.647812366 96456097.31788519 0 0 0 0 72218859.690063477 -9232384.9095044136 0 -9232384.9095044136 101667334.79283166 0 0 0 0 365450558.10214233 -4742520.7682203054 0 -4742520.7682203054 186708208.02405167 0 0 0 0 149061380.51702881 74401290.342229605 0 74401290.342229605 173394201.81226778 0 0 0 0 239594995.52919006 -96369459.731005192 0 -96369459.731005192 177907483.82584015 0 0 0 0 278542923.3013916 -37233294.196401358 0 -37233294.196401358 120935142.17772025 0 0 0 0 282351238.13450623 -71386842.987871408 0 -71386842.987871408 221788764.59296107 0 0 0 0 557731963.6383667 -61842167.2126019 0 -61842167.2126019 128420107.76100302 0 0 0 0 415229317.69812012 -114517502.87478542 0 -114517502.87478542 182382984.706007 0 0 0 0 343793135.15216827 -31316690.556683511 0 -31316690.556683511 103749551.70023191 0 0 0 0 409628480.5717926 -14869953.971429229 0 -14869953.971429229 162776683.67862034 0 0 0 0 512488751.63647461 -134018050.89541924 0 -134018050.89541924 129467149.49057212 0 0 0 0 274814347.6348877 -104617164.66356671 0 -104617164.66356671 112770863.71358982 0 0 0 0 150783351.17021179 -901776.68226635456 0 -901776.68226635456 71531979.212953329 0 0 0 0 76283623.45451355 38732267.83167243 0 38732267.83167243 85414745.413432121 0 0 0 0 145229336.33387756 -3625674.8529399633 0 -3625674.8529399633 161690599.34480238 0 0 0 0 109152760.59585571 -46719507.130457997 0 -46719507.130457997 87833065.906389445 0 0 0 0 -544384.58433532715 24056997.190048933 0 24056997.190048933 118228231.89597321 0 0 0 0 -93613435.771606445 42964527.038873672 0 42964527.038873672 76519780.188397765 0 0 0 0 4673896.6410369873 51428008.335476398 0 51428008.335476398 12809293.297772646 0 0 0 0 9353607.2199249268 -1781511.2831676006 0 -1781511.2831676006 37515470.812696993 0 0 0 0 -144712347.22465515 53722321.609097242 0 53722321.609097242 45022878.558102369 0 0 0 0 -85417759.323547363 49557141.139778376 0 49557141.139778376 1322713.6099655628 0 0 0 0 -161251928.02908325 54952056.237992764 0 54952056.237992764 19049404.671362281 0 0 0 0 -87384213.909332275 92115282.047590733 0 92115282.047590733 -91357466.420696735 0 0 0 0 19420533.651626587 89812237.59272027 0 89812237.59272027 -49340478.15628159 0 0 0 0 20018295.509063721 76289782.662829399 0 76289782.662829399 24932365.431348324 0 0 0 0 -94689696.067970276 74503153.859776616 0 74503153.859776616 51625527.314610481 0 0 0 0 1165276320.7945404 176937425.49338722 0 176937425.49338722 -425809163.89618087 0 0 0 0 282248558.54413605 -543092119.50891328 0 -543092119.50891328 310659904.23333073 0 0 0 0 724569867.42224884 -49646296.180015087 0 -49646296.180015087 387755276.61629772 0 0 0 0 726455152.39385986 -213841995.16864359 0 -213841995.16864359 329116314.36459541 0 0 0 0 582783281.77674484 139605851.6745137 0 139605851.6745137 595474626.46827698 0 0 0 0 933789.64639639296 1410017.0486722142 0 1410017.0486722142 4232946.2064978229 0 0 0 0 279424058.34323883 -413282011.17772961 0 -413282011.17772961 243849053.16357422 0 0 0 0 -95423193.276657104 -430883487.27512217 0 -430883487.27512217 405735601.09810495 0 0 0 0 273850236.07242584 -407849766.43132663 0 -407849766.43132663 282753973.00827312 0 0 0 0 -100279302.3429718 -141923710.27635717 0 -141923710.27635717 -297042955.76596326 0 0 0 0 320810358.24414825 -483469420.39880008 0 -483469420.39880008 -143532101.58504438 0 0 0 0 -122489643.4515686 -360488606.62203121 0 -360488606.62203121 300945888.65520847 0 0 0 0 -529042466.44202423 -246837495.95240813 0 -246837495.95240813 87759849.466218501 0 0 0 0 641955.73511489015 803592.53524766117 0 803592.53524766117 2132477.6804356999 0 0 0 0 -57970760.960523605 -509747583.44769043 0 -509747583.44769043 220970395.87686253 0 0 0 0 1706683637.6108627 -210603924.25155473 0 -210603924.25155473 -53716056.182152748 0 0 0 0 -108722444.87877083 -393716545.45962447 0 -393716545.45962447 311800099.32091904 0 0 0 0 450344517.44235229 27634428.163650513 0 27634428.163650513 -256523580.7155447 0 0 0 0 33229583.895355225 -329968064.92461109 0 -329968064.92461109 433100293.95936203 0 0 0 0 429729366.74610901 93094785.604332447 0 93094785.604332447 -89565791.462965488 0 0 0 0 -155679041.42401123 126188947.97727537 0 126188947.97727537 44347590.480297089 0 0 0 0 950042948.04777527 -584721914.59100413 0 -584721914.59100413 237755511.01671195 0 0 0 0 408861088.73426056 -50900465.112400293 0 -50900465.112400293 186840307.74392223 0 0 0 0 559369940.07858276 -238079627.99084306 0 -238079627.99084306 182264851.4629786 0 0 0 0 840004781.82416916 -108410081.59905976 0 -108410081.59905976 60623100.844878197 0 0 0 0 908581369.15563965 -223340757.48969162 0 -223340757.48969162 -9951877.3230242729 0 0 0 0 1195939055.7884789 -380955279.97933024 0 -380955279.97933024 90135537.089949131 0 0 0 0 1062468846.7011719 71576273.104249001 0 71576273.104249001 85638129.03069973 0 0 0 0 825729846.09443665 -95508679.610797882 0 -95508679.610797882 60023248.968844891 0 0 0 0 557688181.41644287 -62438701.026616096 0 -62438701.026616096 266551827.93853617 0 0 0 0 851562679.22638321 -82262948.076928407 0 -82262948.076928407 18336747.457921445 0 0 0 0 702216362.19844055 -104696315.82515574 0 -104696315.82515574 114549326.58050323 0 0 0 0 514587126.38356018 -59120085.532868683 0 -59120085.532868683 201174424.93131161 0 0 0 0 693908504.07843685 -13302990.475786045 0 -13302990.475786045 393117530.6632452 0 0 0 0 567094946.50354767 235673767.39018741 0 235673767.39018741 101984173.30361547 0 0 0 0 -2378569.6333770752 11968280.099382043 0 11968280.099382043 -7079897.6019515395 0 0 0 0 6480045.9578530556 1675088.5110894814 0 1675088.5110894814 -506677.20833753143 0 0 0 0 1125101.6582301259 -355850.77266539447 0 -355850.77266539447 68747.208379827323 0 0 0 0 -40357381.507557869 -131812317.47607219 0 -131812317.47607219 -285562727.00827146 0 0 0 0 852780142.34496307 -213327834.59294271 0 -213327834.59294271 52048403.212877274 0 0 0 0 2014645.2019631611 201789.73958620429 0 201789.73958620429 6052715.0250189621 0 0 0 0 17368681.614891782 -3814601.8472907972 0 -3814601.8472907972 -2806490.9154950725 0 0 0 0 14862503.282463074 -324106973.7438426 0 -324106973.7438426 -135726368.97733998 0 0 0 0 -1095030.6645584106 24067375.79379034 0 24067375.79379034 -3177327.2383203506 0 0 0 0 2682449.791809082 22296601.401886106 0 22296601.401886106 -23321436.166445851 0 0 0 0 8499129.9717483521 12482644.081201911 0 12482644.081201911 -16411471.884529114 0 0 0 0 22658067.212558746 30880709.856195688 0 30880709.856195688 -384646.05100369453 0 0 0 0 32716048.48701334 52929514.864937708 0 52929514.864937708 -66183857.361512184 0 0 0 0 529106086.9600296 116164475.6880759 0 116164475.6880759 -1168717653.3094115 0 0 0 0 23899530.811357945 -1272705.7799964491 0 -1272705.7799964491 -3374832.878965056 0 0 0 0 18822829.166290283 -9823901.4281065464 0 -9823901.4281065464 3783027.5435965061 0 0 0 0 13017087.069656372 -8905099.7967700958 0 -8905099.7967700958 10788071.758946657 0 0 0 0 15988039.826028824 -709425.87870819867 0 -709425.87870819867 -4633058.8327130079 0 0 0 0 19893539.698013306 -14103207.151021242 0 -14103207.151021242 9416726.9628238678 0 0 0 0 14171597.300415039 -12760176.032983422 0 -12760176.032983422 19937137.507778168 0 0 0 0 10268248.77287516 2693459.5190383801 0 2693459.5190383801 21131470.2401793 0 0 0 0 2707965.2900695801 5521346.8709328771 0 5521346.8709328771 34442351.7893309 0 0 0 0 1671807.5330123901 13014193.074540161 0 13014193.074540161 5669997.5987126827 0 0 0 0 -4997249.4757652283 14456388.447872162 0 14456388.447872162 2208986.8881672621 0 0 0 0 -3014573.250505805 6433444.936307841 0 6433444.936307841 385742.7486230135 0 0 0 0 -2516772.6871490479 10511248.629665852 0 10511248.629665852 4430463.9892985225 0 0 0 0 -3034154.2708892822 5786752.7103677392 0 5786752.7103677392 13962695.19771862 0 0 0 0 -24168885.090415955 9629899.2088878304 0 9629899.2088878304 6416903.3779420257 0 0 0 0 662907170.8081665 56996154.818360023 0 56996154.818360023 -28739983.522482902 0 0 0 0 3921374.494453961 2011382.8914374709 0 2011382.8914374709 -292827.380167361 0 0 0 0 784636208.72669983 -31119025.126452327 0 -31119025.126452327 -13588195.394661903 0 0 0 0 581056336.41391754 19626210.335952729 0 19626210.335952729 -16632824.329783887 0 0 0 0 560260741.22415161 -13134079.672613829 0 -13134079.672613829 -30878561.776016653 0 0 0 0 514902345.35255194 16618680.385246951 0 16618680.385246951 22240775.124779254 0 0 0 0 516056315.6736989 5285640.6110589104 0 5285640.6110589104 -35353675.394926369 0 0 0 0 515849256.19593811 37850726.378508449 0 37850726.378508449 10287.340650614582 0 0 0 0 -69180934.58556366 122450284.28393123 0 122450284.28393123 816684.52307830192 0 0 0 0 622848623.51589203 6790421.1850090623 0 6790421.1850090623 -33671379.031684011 0 0 0 0 2998762.6353120469 1417553.5670691803 0 1417553.5670691803 -61352.997409417905 0 0 0 0 13269820.050415039 10605068.852213189 0 10605068.852213189 -16396738.680075288 0 0 0 0 25417900.514030457 -9746492.866397649 0 -9746492.866397649 -956543.38997422159 0 0 0 0 620501.61972185969 218133.11496121436 0 218133.11496121436 -206133.48163153397 0 0 0 0 11656090.383720398 701183.19473911088 0 701183.19473911088 21285.482838883465 0 0 0 0 25104499.276769638 -24997579.588898897 0 -24997579.588898897 3899775.9043335915 0 0 0 0 25885128.676277161 -19090481.085094772 0 -19090481.085094772 -3302044.498975018 0 0 0 0 1001178.3192288429 578273.42107857764 0 578273.42107857764 71202.211465007887 0 0 0 0 23174849.820381165 -14682504.29723987 0 -14682504.29723987 2635263.332968358 0 0 0 0 54353233.40286684 -14303890.848847724 0 -14303890.848847724 -3100437.9476330001 0 0 0 0 -51928715.149688721 -14587489.143323166 0 -14587489.143323166 30480602.351258207 0 0 0 0 125519730.6710434 5591384.3940272033 0 5591384.3940272033 37897948.18688494 0 0 0 0 51424153.244880676 -57667517.391460523 0 -57667517.391460523 44065886.198772579 0 0 0 0 -150576497.14260101 26725979.972784087 0 26725979.972784087 56603710.17012842 0 0 0 0 2839673.080406189 -23368265.023006082 0 -23368265.023006082 16603387.637227893 0 0 0 0 -106842849.76934433 10687642.132966578 0 10687642.132966578 24355020.335326195 0 0 0 0 -95226366.438827515 35759171.036453485 0 35759171.036453485 63065892.942058563 0 0 0 0 3595599.889831543 -16314459.340506375 0 -16314459.340506375 81093337.932566047 0 0 0 0 125188898.3624115 -24247431.793596983 0 -24247431.793596983 41137774.835106134 0 0 0 0 18325725.66709137 18945595.423287153 0 18945595.423287153 81957951.416677475 0 0 0 0 245882304.82218933 -67906693.345088035 0 -67906693.345088035 37546241.538406163 0 0 0 0 174320784.72958374 5380132.6252696514 0 5380132.6252696514 73568035.475782275 0 0 0 0 119162578.28178787 -36732524.653279126 0 -36732524.653279126 100935908.03014088 0 0 0 0 502797279.98783875 -116214639.56874889 0 -116214639.56874889 43479950.14216575 0 0 0 0 440623114.67591095 31553818.804841496 0 31553818.804841496 12523078.413052224 0 0 0 0 280204431.20330811 -16628688.277103752 0 -16628688.277103752 33752315.629124194 0 0 0 0 385027550.1363678 -67447813.899412513 0 -67447813.899412513 -8952759.2695055082 0 0 0 0 221244463.89387131 31849935.017678794 0 31849935.017678794 15278580.981804699 0 0 0 0 395752872.14838409 -39172797.937190458 0 -39172797.937190458 2571929.0552875572 0 0 0 0 341768433.30655479 39277082.146336146 0 39277082.146336146 -7608.4525549112022 0 0 0 0 131407082.8102951 -61940059.401554435 0 -61940059.401554435 7815160.1815538406 0 0 0 0 68520023.776229858 44191782.726299234 0 44191782.726299234 -94873.617967551167 0 0 0 0 15733501.987543106 14714061.518714422 0 14714061.518714422 -12011899.916486815 0 0 0 0 -199545415.71335602 -61463665.044732712 0 -61463665.044732712 24734481.623154499 0 0 0 0 23531456.968658447 18130827.395416319 0 18130827.395416319 34937.083486284602 0 0 0 0 30132546.869102478 21712985.97365661 0 21712985.97365661 -18377118.342593208 0 0 0 0 909168.74900846183 931693.24531503767 0 931693.24531503767 184661.67087492888 0 0 0 0 34711732.995666504 8240474.7637154926 0 8240474.7637154926 -4820661.0310360566 0 0 0 0 34622246.503982544 12326834.908910014 0 12326834.908910014 -9519709.4477487449 0 0 0 0 34500078.022196293 9866967.9874502569 0 9866967.9874502569 -3496990.7804024126 0 0 0 0 37785084.499023438 9947057.3498685658 0 9947057.3498685658 -4253276.5614337409 0 0 0 0 33259166.999069214 8941807.4037142023 0 8941807.4037142023 -4043796.4448547438 0 0 0 0 34522414.28792572 10680180.6096173 0 10680180.6096173 -1763717.4419226423 0 0 0 0 28925788.334579468 9828661.5696466267 0 9828661.5696466267 43644.035452779382 0 0 0 0 35467275.01007843 8953030.3128903788 0 8953030.3128903788 -2502667.8689378761 0 0 0 0 374696.87889025919 295110.99603007734 0 295110.99603007734 4226.9529270058483 0 0 0 0 26705073.507011414 -2967103.8472433686 0 -2967103.8472433686 25362711.747977436 0 0 0 0 34903556.61101532 7837447.9673345424 0 7837447.9673345424 -3997147.5991664678 0 0 0 0 34115740.730369568 7514480.0883717854 0 7514480.0883717854 -1668649.5299217477 0 0 0 0 30575072.548019409 6000262.8010481298 0 6000262.8010481298 -2225146.0188521333 0 0 0 0 13789787.848838806 6158549.3357784227 0 6158549.3357784227 4734577.2982458677 0 0 0 0 -214872771.3731842 -52671524.786485463 0 -52671524.786485463 29879317.045729041 0 0 0 0 1707284.1816730499 1760028.5713991895 0 1760028.5713991895 -230815.99669604114 0 0 0 0 1176788.2472595684 1298813.8712821156 0 1298813.8712821156 61340.523323211353 0 0 0 0 30468096.204292297 10504360.575324744 0 10504360.575324744 -12870016.393389612 0 0 0 0 46905402.573867798 8098873.5247240989 0 8098873.5247240989 -4599490.8880431168 0 0 0 0 40056206.348464966 15326301.276934246 0 15326301.276934246 -2737487.7126608826 0 0 0 0 24239005.609584808 16433495.75963892 0 16433495.75963892 3178333.7729928084 0 0 0 0 2231299.1179908067 604041.55946818739 0 604041.55946818739 -1983806.4136730165 0 0 0 0 54447173.930000305 -10689263.23017912 0 -10689263.23017912 -4483026.5515440404 0 0 0 0 5488195.6240997314 7418815.5300125293 0 7418815.5300125293 -478115.46960776113 0 0 0 0 2119625.4830124341 4170085.8412519619 0 4170085.8412519619 766839.41688400228 0 0 0 0 -149126813.95806885 42927338.664346218 0 42927338.664346218 20505796.522425026 0 0 0 0 -184192082.20622444 24602878.062142104 0 24602878.062142104 25151217.277499676 0 0 0 0 3064923.9722439721 1183900.5225375071 0 1183900.5225375071 -1526363.2232988486 0 0 0 0 30111135.832702637 15463850.531291597 0 15463850.531291597 2114053.9742741138 0 0 0 0 33940974.265594482 4592216.7896750569 0 4592216.7896750569 489957.42440280318 0 0 0 0 54237097.350158691 4134753.1403679438 0 4134753.1403679438 -3493886.528461352 0 0 0 0 41668861.216667175 10001169.878713457 0 10001169.878713457 3683767.8734225221 0 0 0 0 43260260.733779907 147362.21648407914 0 147362.21648407914 4243089.4531416893 0 0 0 0 44148600.852279663 2708107.4884760994 0 2708107.4884760994 7518501.5698512662 0 0 0 0 99753.325357586145 25592.573986254632 0 25592.573986254632 -24933.948382224869 0 0 0 0 36940378.136898041 21998925.383902602 0 21998925.383902602 13726508.335283749 0 0 0 0 22827289.263233185 -15485230.58419203 0 -15485230.58419203 -21403087.592565224 0 0 0 0 40718496.614650726 7856371.8555575991 0 7856371.8555575991 -4250568.7052174844 0 0 0 0 39058321.726074219 4343726.6835444244 0 4343726.6835444244 -6953208.6862164587 0 0 0 0 29639968.511276245 1719839.1859538001 0 1719839.1859538001 -5010673.4797818344 0 0 0 0 35635854.847412109 7273319.9405782213 0 7273319.9405782213 -25308.955923731319 0 0 0 0 24392542.327507019 2970674.137956039 0 2970674.137956039 15235.739251685653 0 0 0 0 21136817.259391785 50840.877737457864 0 50840.877737457864 -408264.87375875842 0 0 0 0 37285.358985468745 22093.009346637875 0 22093.009346637875 -10205.132904155525 0 0 0 0 6538473.7485046387 7472246.3063123906 0 7472246.3063123906 8972003.8862582818 0 0 0 0 -962456.25503540039 -1346240.357183537 0 -1346240.357183537 -5178.9948197177964 0 0 0 0 960335.74198913574 2240026.1143742939 0 2240026.1143742939 5938178.3805497345 0 0 0 0 6566832.039932251 6030033.7091327459 0 6030033.7091327459 -1280941.9866496725 0 0 0 0 3047892.4286727905 706824.92689424986 0 706824.92689424986 -5298274.3472378999 0 0 0 0 7239651.3352966309 -2863936.8695754018 0 -2863936.8695754018 -973276.93629015679 0 0 0 0 945470.10009765625 578848.99286022689 0 578848.99286022689 -2742655.7095726952 0 0 0 0 21033410.853832245 13602554.878785385 0 13602554.878785385 -124629.77288630791 0 0 0 0 -352172.68381881714 -1908426.5178198069 0 -1908426.5178198069 -3839707.3959137439 0 0 0 0 1672304.7606964111 2956639.4112997572 0 2956639.4112997572 -1282092.5371559928 0 0 0 0 613837.27813720703 -4220002.0600618795 0 -4220002.0600618795 8114.590244062656 0 0 0 0 70622.46506896615 16258.066884867847 0 16258.066884867847 -18307.369300985672 0 0 0 0 185494.71304893494 4037406.7579391012 0 4037406.7579391012 -1091173.6838800167 0 0 0 0 1165105.4604873657 792147.78954151738 0 792147.78954151738 -5775291.2256150041 0 0 0 0 50611.099449515343 13326.47144369781 0 13326.47144369781 -17031.700015095725 0 0 0 0 4231751.3059463501 1052953.0259509198 0 1052953.0259509198 -11816088.849152345 0 0 0 0 34142968.484161377 11752108.69939005 0 11752108.69939005 -1240142.326935689 0 0 0 0 1279334.40284729 1227161.537567812 0 1227161.537567812 -8305487.6675031595 0 0 0 0 1291128.1280822754 1535958.5083037689 0 1535958.5083037689 -6785169.7026291378 0 0 0 0 -2048981.4876270294 2434381.3963202871 0 2434381.3963202871 -7003485.9985414725 0 0 0 0 2403053.271697998 2414390.7255656505 0 2414390.7255656505 -7247152.8226534911 0 0 0 0 219663.01049804688 1786929.3727834672 0 1786929.3727834672 -1643253.6453533135 0 0 0 0 546639.58478620648 542832.6710851565 0 542832.6710851565 -409361.07919120666 0 0 0 0 1272672.7806797028 1676497.5407742776 0 1676497.5407742776 -7724838.081876317 0 0 0 0 20810235.786949158 -54004225.483377539 0 -54004225.483377539 12065138.254609942 0 0 0 0 34630379.309799194 -4973014.8676666468 0 -4973014.8676666468 -1938205.8349850029 0 0 0 0 92959.47998650372 -197764.32268202305 0 -197764.32268202305 216761.10656750257 0 0 0 0 99456705.138153076 3130766.8596766442 0 3130766.8596766442 -1463839.1052465662 0 0 0 0 732079.99994021654 13888.087140217423 0 13888.087140217423 85135.226468016364 0 0 0 0 3037231.5515899658 -2653947.4773345254 0 -2653947.4773345254 -17980533.446995761 0 0 0 0 263129.56574779749 146005.40334222093 0 146005.40334222093 -117913.77029920899 0 0 0 0 5483149.7310791016 5295667.0909381546 0 5295667.0909381546 -10716854.930170525 0 0 0 0 389962.16143798828 1156656.3799457327 0 1156656.3799457327 70360.156837001443 0 0 0 0 2497967.6398620605 4854449.6661047637 0 4854449.6661047637 4324555.7963362187 0 0 0 0 6654438.1958465576 3462248.810853973 0 3462248.810853973 2303174.1019970067 0 0 0 0 6851706.2183761597 2928936.2129632439 0 2928936.2129632439 3727130.7976054102 0 0 0 0 12731134.841888428 10453079.990937166 0 10453079.990937166 6554191.4315984882 0 0 0 0 11106918.194946289 10812330.172123171 0 10812330.172123171 9857714.037682347 0 0 0 0 17967942.396842957 6743993.067576047 0 6743993.067576047 -653916.03904482722 0 0 0 0 15292815.744384766 5982651.2176921815 0 5982651.2176921815 -3090389.8965535462 0 0 0 0 19688804.716255188 10150953.710334048 0 10150953.710334048 -853072.53625534475 0 0 0 0 15207965.478668213 6624661.4685903043 0 6624661.4685903043 -4996518.3297389746 0 0 0 0 9426189.3146858215 4278559.4021230154 0 4278559.4021230154 -1560591.8399852365 0 0 0 0 6634401.9286270142 3014249.590842776 0 3014249.590842776 -5872419.2750819176 0 0 0 0 -634256.1544342041 3236345.6701847687 0 3236345.6701847687 1525297.8248959742 0 0 0 0 9129840.2638092041 7615189.5250961483 0 7615189.5250961483 908006.68675141037 0 0 0 0 -34852357.378662109 19624457.619971544 0 19624457.619971544 11792305.393246949 0 0 0 0 8520540.7887735367 7523759.3404355142 0 7523759.3404355142 -3439883.2661302388 0 0 0 0 5188257.6877560318 -1291668.7771676257 0 -1291668.7771676257 30667.560660292336 0 0 0 0 8112824.276342392 1059105.7576595135 0 1059105.7576595135 -9487208.323209703 0 0 0 0 621875.5489487052 725661.401608143 0 725661.401608143 -492130.06469522353 0 0 0 0 10742502.710449219 11504355.951906204 0 11504355.951906204 -5175146.4075766504 0 0 0 0 13972465.549621582 4939658.1971178055 0 4939658.1971178055 -6451902.5175980181 0 0 0 0 18577883.388702393 6853463.5654535592 0 6853463.5654535592 -10472867.424926519 0 0 0 0 21193727.836776733 6381280.6130726635 0 6381280.6130726635 -7432932.8884580731 0 0 0 0 18405586.007396698 7129831.8962790854 0 7129831.8962790854 -6370374.1852107644 0 0 0 0 17695783.463287354 8383707.4171283543 0 8383707.4171283543 -4271034.8541662693 0 0 0 0 12355223.649154663 7506862.5874037221 0 7506862.5874037221 -3776649.2455230653 0 0 0 0 -6337208.0972442627 -32926917.765378788 0 -32926917.765378788 28214296.530408382 0 0 0 0 56200524.40524292 -51239038.900038488 0 -51239038.900038488 8272573.542937398 0 0 0 0 29278759.580406189 -20702794.58415848 0 -20702794.58415848 22738700.520452499 0 0 0 0 2773196.6653569937 -695074.77371661365 0 -695074.77371661365 490273.54797397164 0 0 0 0 -576263.23602294922 3276050.7416217625 0 3276050.7416217625 -683201.9048945643 0 0 0 0 13654412.729236603 43051554.806133002 0 43051554.806133002 -14082003.825421154 0 0 0 0 121225157.91511536 -21338065.140412182 0 -21338065.140412182 -36723381.229635529 0 0 0 0 -31964371.717288971 37664615.314696878 0 37664615.314696878 79021951.048055947 0 0 0 0 -37927562.205841064 -38037231.878807485 0 -38037231.878807485 77321055.414460585 0 0 0 0 89089305.134963989 -90503839.49284032 0 -90503839.49284032 50075435.79626289 0 0 0 0 -9015732.763053894 14275215.902630508 0 14275215.902630508 23958321.749264866 0 0 0 0 325688.06400310993 364385.3665606752 0 364385.3665606752 328547.05665198539 0 0 0 0 19368254.468719482 -18094437.730884612 0 -18094437.730884612 -13698051.04455056 0 0 0 0 19279629.369430542 48840228.160103634 0 48840228.160103634 5490256.6977616847 0 0 0 0 21956938.4088974 19339608.983028058 0 19339608.983028058 -78581952.632422805 0 0 0 0 730157.39739665389 -2107390.8892600965 0 -2107390.8892600965 -235046.29933167304 0 0 0 0 5893623.9595336914 -711162.11259382963 0 -711162.11259382963 -12739743.251501709 0 0 0 0 9826190.5353747159 -4797244.073049794 0 -4797244.073049794 -1471418.9323448208 0 0 0 0 7889974.3848261684 553132.99427101761 0 553132.99427101761 -1587747.0632114711 0 0 0 0 97264572.351886749 -61151928.358098835 0 -61151928.358098835 -92630526.551116437 0 0 0 0 10845763.342597961 -26385284.027100801 0 -26385284.027100801 41908267.033355653 0 0 0 0 11671746.272888556 -4536373.7000894696 0 -4536373.7000894696 247876.78720599925 0 0 0 0 -311460.43427276611 -21798018.732968211 0 -21798018.732968211 97937551.443402648 0 0 0 0 15827102.405311584 -24770639.557614148 0 -24770639.557614148 33776474.652181149 0 0 0 0 16568935.4190979 7690509.0794804692 0 7690509.0794804692 -5629247.2990026623 0 0 0 0 6776539.8341732025 -780995.58297594637 0 -780995.58297594637 -8164204.8257217407 0 0 0 0 13141771.026405647 -359245.40320201218 0 -359245.40320201218 -1214243.0770595425 0 0 0 0 18202957.689056396 8008660.9712249637 0 8008660.9712249637 -5693312.6401874423 0 0 0 0 19869973.943145752 8394691.3678903729 0 8394691.3678903729 -7794975.752332747 0 0 0 0 4269656.8235931396 1548888.2926520705 0 1548888.2926520705 -5366404.3956515491 0 0 0 0 7171530.6514963955 -1279651.6581963189 0 -1279651.6581963189 -293295.77199989342 0 0 0 0 -34390071.218383789 -46440593.472725213 0 -46440593.472725213 -26141639.959922194 0 0 0 0 22181975.754962921 -20786701.195628285 0 -20786701.195628285 9887234.6682009697 0 0 0 0 26412158.428459167 -16992858.486289859 0 -16992858.486289859 4949114.1739687324 0 0 0 0 10078593.957732216 -424615.11703396775 0 -424615.11703396775 -2531436.9959873371 0 0 0 0 11401548.32711792 -3184433.1243895292 0 -3184433.1243895292 -12153056.711760283 0 0 0 0 13617926.607401878 2540928.182895923 0 2540928.182895923 -4354031.8916404406 0 0 0 0 14932489.880854979 -3091588.5089678019 0 -3091588.5089678019 -5225088.1857227329 0 0 0 0 22843805.694656372 4014808.7129762173 0 4014808.7129762173 -6513101.3927801847 0 0 0 0 24791392.99521637 4137520.2685041279 0 4137520.2685041279 -6238233.3784179837 0 0 0 0 17783808.229110241 4921560.2754353574 0 4921560.2754353574 -5908484.7673315108 0 0 0 0 20073705.12399292 6102701.9812307507 0 6102701.9812307507 -6620925.8129099458 0 0 0 0 28416287.543182373 -428220.10682564974 0 -428220.10682564974 -6787416.1258172691 0 0 0 0 26198190.353645325 4392368.851491183 0 4392368.851491183 -7577570.2168390751 0 0 0 0 16488884.498999059 -1319235.9797830479 0 -1319235.9797830479 -6207152.6188109694 0 0 0 0 23168651.108040094 -1233531.3304341426 0 -1233531.3304341426 -4249362.2458325624 0 0 0 0 17131775.489318848 -457711.97162365913 0 -457711.97162365913 -21782347.155329585 0 0 0 0 5311059.0564117432 2110938.8429234624 0 2110938.8429234624 -4863358.2172689438 0 0 0 0 10178765.061706543 6356083.1763242483 0 6356083.1763242483 -13800917.788789749 0 0 0 0 -2009323.3845214844 248641.52670860291 0 248641.52670860291 -21378768.249420166 0 0 0 0 6202931.4837341309 -4028834.8941364288 0 -4028834.8941364288 -3589182.8027108908 0 0 0 0 6746014.5416564941 -4812988.8641035557 0 -4812988.8641035557 -830703.06601250172 0 0 0 0 65001970.157913208 19711640.284161568 0 19711640.284161568 -35448162.570776939 0 0 0 0 11333791.496695161 3177776.762523815 0 3177776.762523815 -5995094.8544582315 0 0 0 0 -59784.526600584388 475780.01609283406 0 475780.01609283406 -280201.08253618528 0 0 0 0 27854821.479461819 2050223.5329880044 0 2050223.5329880044 -4782033.8974544741 0 0 0 0 36023563.709590912 -13981869.348571539 0 -13981869.348571539 -8693686.1492652893 0 0 0 0 36446975.085158385 7677341.1971928105 0 7677341.1971928105 -8608188.5082097501 0 0 0 0 32958735.5050354 -7566169.1988515854 0 -7566169.1988515854 -6469430.4750370979 0 0 0 0 29071160.887451172 -14437262.132350922 0 -14437262.132350922 -8080394.6067314148 0 0 0 0 16917344.374549672 -9037504.9492316842 0 -9037504.9492316842 -5341187.0957391774 0 0 0 0 1296022.9084293693 21038.726207561791 0 21038.726207561791 -891441.31059632637 0 0 0 0 41750816.805755615 25978868.088321686 0 25978868.088321686 -28067792.000001907 0 0 0 0 24970300.674865723 33893513.254754066 0 33893513.254754066 -108230728.83681178 0 0 0 0 33665585.419994399 3021622.6644416517 0 3021622.6644416517 -6313076.2433339534 0 0 0 0 -14151501.208831787 63800314.627445221 0 63800314.627445221 -83137580.118276119 0 0 0 0 37349437.60925293 9332287.4724349976 0 9332287.4724349976 -79869666.643788338 0 0 0 0 26184372.357910156 -22702266.8063097 0 -22702266.8063097 -57841436.286008835 0 0 0 0 18502910.694091797 30961310.26721096 0 30961310.26721096 -64418350.213407516 0 0 0 0 32432742.841949463 10900832.035268784 0 10900832.035268784 -36543241.386740685 0 0 0 0 15416335.847503662 22122076.687561035 0 22122076.687561035 -24078896.847782135 0 0 0 0 12492476.269470215 24872660.615987778 0 24872660.615987778 -26093759.574321747 0 0 0 0 9841712.4961853027 21484832.293882847 0 21484832.293882847 -20842500.676963806 0 0 0 0 3681255.9175109863 31884024.932624817 0 31884024.932624817 -38355737.690110445 0 0 0 0 7701098.3050460815 27116721.429015636 0 27116721.429015636 -37514785.675086021 0 0 0 0 34798000.870300293 28359607.453876495 0 28359607.453876495 -14946174.843544006 0 0 0 0 -1002453.6967033725 1129413.162524201 0 1129413.162524201 160692.65096845385 0 0 0 0 -37471767.094486237 44208223.551915556 0 44208223.551915556 -12074165.040876389 0 0 0 0 -10378088.682739258 24929282.976792336 0 24929282.976792336 1641898.6906594038 0 0 0 0 -5214397.1279067993 36873626.571448088 0 36873626.571448088 -6221472.5013198853 0 0 0 0 12083103.839904785 19183940.190605164 0 19183940.190605164 -19346687.691521645 0 0 0 0 -985359.97250366211 31485218.876408577 0 31485218.876408577 181635.81315612793 0 0 0 0 12255113.058753967 39698398.09966898 0 39698398.09966898 332671.66044235229 0 0 0 0 6325010.3965148926 26879430.70365715 0 26879430.70365715 -3363348.5970542431 0 0 0 0 1519134.7203979492 21183312.258480072 0 21183312.258480072 -4605200.6143379211 0 0 0 0 -6418832.3419189453 26484343.798171997 0 26484343.798171997 1843275.3814059496 0 0 0 0 -26628641.328884125 16770332.334746838 0 16770332.334746838 5522232.7115707397 0 0 0 0 69477135.621876717 4017549.0394203663 0 4017549.0394203663 2382005.9128952026 0 0 0 0 71256862.539108276 24757743.161269903 0 24757743.161269903 223575.91956329346 0 0 0 0 -11782062.751914978 49163121.992447853 0 49163121.992447853 9566710.9115687609 0 0 0 0 12604605.858462289 -797865.93548700213 0 -797865.93548700213 -3087281.6135110483 0 0 0 0 7825080.4412925579 4058673.0254111961 0 4058673.0254111961 -4325683.9659419283 0 0 0 0 29493632.602333069 88549.992399156094 0 88549.992399156094 -7400580.8792892694 0 0 0 0 39020765.648391724 -9841943.231502533 0 -9841943.231502533 -5544306.6641387939 0 0 0 0 -36380182.539962769 -5803334.8230719566 0 -5803334.8230719566 30374370.088340759 0 0 0 0 51500033.534576416 17704618.06537056 0 17704618.06537056 -42582.356909275055 0 0 0 0 9170909.8000162691 -1551545.8926332295 0 -1551545.8926332295 -4273270.4301553853 0 0 0 0 32471012.836471558 -951916.93113076687 0 -951916.93113076687 -7604292.5374248177 0 0 0 0 24549385.328659058 -6634219.8935792577 0 -6634219.8935792577 -3760884.0092641115 0 0 0 0 -9141337.9103240967 19945850.572590828 0 19945850.572590828 -12882612.35163784 0 0 0 0 138757.84027652442 5049842.3790521845 0 5049842.3790521845 1850132.1408711532 0 0 0 0 -3179999.9266357422 9103556.856675148 0 9103556.856675148 -5978629.7905597687 0 0 0 0 -2803495.616394043 24969955.198390961 0 24969955.198390961 -8957878.6185109615 0 0 0 0 24487300.561149597 6972147.6105189323 0 6972147.6105189323 -9038190.7813930511 0 0 0 0 -9523777.1960296631 16165676.091168404 0 16165676.091168404 -15630655.985824585 0 0 0 0 -13544442.776947021 12884142.329596519 0 12884142.329596519 14697346.04834938 0 0 0 0 4692656.1268888786 7815762.8814488202 0 7815762.8814488202 -2858615.5039630877 0 0 0 0 687794.46736005694 -564286.06785584986 0 -564286.06785584986 -439377.89776322059 0 0 0 0 -167486615.12564373 97458279.070262954 0 97458279.070262954 -10202623.979568958 0 0 0 0 7382152.3669052124 2864032.424220562 0 2864032.424220562 259723.06588172913 0 0 0 0 51359546.028106689 8180121.2845265865 0 8180121.2845265865 1265392.3677520752 0 0 0 0 3174127.9753153995 6857289.4610303938 0 6857289.4610303938 -4618939.0865408471 0 0 0 0 -145041022.72261047 41977470.611576557 0 41977470.611576557 -25734465.084726632 0 0 0 0 37240025.262985229 -10862531.048437238 0 -10862531.048437238 -3243707.7422604039 0 0 0 0 41233400.603527069 1498747.9808809273 0 1498747.9808809273 -7379818.7577947974 0 0 0 0 36803968.840744019 1655169.7899411917 0 1655169.7899411917 -3539748.4107877463 0 0 0 0 36830922.582389981 7896030.3649746468 0 7896030.3649746468 -4711807.1095791757 0 0 0 0 27486043.98916626 6329387.7716874331 0 6329387.7716874331 -6082334.3197832406 0 0 0 0 27069288.129669189 5583118.6329419911 0 5583118.6329419911 -4756163.2777231634 0 0 0 0 21399404.329696655 7033080.3486607969 0 7033080.3486607969 -5557044.6072370782 0 0 0 0 26848491.033555984 5868518.1246920601 0 5868518.1246920601 -7655179.1099202037 0 0 0 0 26488846.533213615 3738768.5650261296 0 3738768.5650261296 -7008534.1325698197 0 0 0 0 30997779.199981689 -185889.52200703323 0 -185889.52200703323 -7572281.9933785424 0 0 0 0 33571976.357940674 4433529.7500215918 0 4433529.7500215918 -7606440.342191264 0 0 0 0 1773351834.8294983 137014571.30948386 0 137014571.30948386 -320093127.13294828 0 0 0 0 2201966704.3248968 1006261646.636905 0 1006261646.636905 -67701591.782521307 0 0 0 0 1472936558.5143051 757626657.09139264 0 757626657.09139264 -241543502.54757959 0 0 0 0 7495668.8673030138 1061754.8892583847 0 1061754.8892583847 -2745087.2710720571 0 0 0 0 1393923121.3516006 145040366.5556888 0 145040366.5556888 1422739.9008689269 0 0 0 0 1389272981.090477 237338407.42779613 0 237338407.42779613 -201625895.11972541 0 0 0 0 1798026985.6213379 31549052.039200068 0 31549052.039200068 -144061300.44015348 0 0 0 0 5619705.6497003436 1201347.7434654981 0 1201347.7434654981 -1149261.9862019308 0 0 0 0 1972050261.5948868 -551281940.31343186 0 -551281940.31343186 19938382.419226527 0 0 0 0 1287355537.7888412 -370835851.67074871 0 -370835851.67074871 35001955.57460624 0 0 0 0 1255940505.8473454 -232651750.16950747 0 -232651750.16950747 -137573853.69651365 0 0 0 0 3384985.4605661333 410486.98397461325 0 410486.98397461325 -1235648.3399857669 0 0 0 0 920158231.6999588 -378568348.85369289 0 -378568348.85369289 -707285089.36892247 0 0 0 0 786014283.24189758 365100696.77272302 0 365100696.77272302 185143167.37752578 0 0 0 0 1603051273.661438 1132609577.4494181 0 1132609577.4494181 423955707.51589537 0 0 0 0 806560873.71075439 -12421211.293865561 0 -12421211.293865561 -136938759.9095121 0 0 0 0 233514184.1649704 -557537445.85946536 0 -557537445.85946536 -188659804.59107739 0 0 0 0 387902167.81851196 -241082212.52765179 0 -241082212.52765179 -61210056.637040854 0 0 0 0 5010681.0514849573 4549422.8853290901 0 4549422.8853290901 2235730.6287368773 0 0 0 0 11483384.72718811 158005040.52406883 0 158005040.52406883 198097258.1934979 0 0 0 0 -20286273.411296844 19249717.022383109 0 19249717.022383109 23580878.908262618 0 0 0 0 39923844.655990601 -17366528.649574876 0 -17366528.649574876 -18573877.480165586 0 0 0 0 715035010.68719482 -108253958.10982424 0 -108253958.10982424 29253289.531676203 0 0 0 0 704871393.01042938 -40647697.938889593 0 -40647697.938889593 -54716773.304546908 0 0 0 0 6298989.3384912685 3547724.6592300236 0 3547724.6592300236 836213.74807973602 0 0 0 0 -7149096.0739822388 10001946.543574773 0 10001946.543574773 -6721.0174459595792 0 0 0 0 18052703.099338531 11318165.275167456 0 11318165.275167456 4108.2622766923159 0 0 0 0 3276794.1237792969 -1493640.4164814055 0 -1493640.4164814055 -2563374.7585477717 0 0 0 0 17527860.173416138 8566172.2726890687 0 8566172.2726890687 -9471973.3360346928 0 0 0 0 17509298.321368217 8548351.7187558394 0 8548351.7187558394 1065317.7914678976 0 0 0 0 52388506.643463135 -706248.9747768417 0 -706248.9747768417 -11648446.742779043 0 0 0 0 41861143.820409775 -7060559.7788139805 0 -7060559.7788139805 -6490837.2827851642 0 0 0 0 35419261.092048645 5347964.674208045 0 5347964.674208045 -7595952.7357861418 0 0 0 0 1507341.8031500913 188706.18650223315 0 188706.18650223315 70947.168633598441 0 0 0 0 39303923.5496521 -6095733.788410319 0 -6095733.788410319 -12566.554874948624 0 0 0 0 27275550.975967407 388937.14058367466 0 388937.14058367466 -3146083.7881869702 0 0 0 0 52454072.013183594 700525.97396909073 0 700525.97396909073 -7025040.237055473 0 0 0 0 48775859.690582275 -991144.81024714559 0 -991144.81024714559 -4912870.9199427711 0 0 0 0 45221918.247344971 -8207174.8610423682 0 -8207174.8610423682 -7653532.3915278018 0 0 0 0 49636959.808494568 1102171.4589057006 0 1102171.4589057006 4144763.3843537681 0 0 0 0 96026158.343383789 -30976927.02072107 0 -30976927.02072107 26316161.96602919 0 0 0 0 61148687.721038818 18605591.59331635 0 18605591.59331635 -15390080.113351157 0 0 0 0 -659227.20629882812 15077295.480460474 0 15077295.480460474 -14350359.997185804 0 0 0 0 252853.60890236497 9584.9499171078205 0 9584.9499171078205 20740.773747280691 0 0 0 0 58484964.855621338 -21948377.874981329 0 -21948377.874981329 5103680.8183542686 0 0 0 0 89022044.095336914 -44205124.975139156 0 -44205124.975139156 6601996.8953840956 0 0 0 0 66612463.937240601 18295248.166072078 0 18295248.166072078 8386045.0557066649 0 0 0 0 12748563.715919495 7874275.9350679517 0 7874275.9350679517 6582249.7789884806 0 0 0 0 2122322.7455342337 444955.84765465558 0 444955.84765465558 149768.49599691576 0 0 0 0 8197014.0151519775 -1229211.921244625 0 -1229211.921244625 24547223.294811331 0 0 0 0 885353.4577588737 -90502.585511617362 0 -90502.585511617362 -521310.35064968787 0 0 0 0 46751060.148750305 -20689435.423178952 0 -20689435.423178952 2613822.0979968682 0 0 0 0 6374066.6957397461 8740423.7317029834 0 8740423.7317029834 -5176696.2898694575 0 0 0 0 4356246.1897524223 309566.48452238739 0 309566.48452238739 -1380740.2906038882 0 0 0 0 4420352.7149200439 5880765.7237149477 0 5880765.7237149477 -2434123.9978495836 0 0 0 0 1771486.8769228011 1864380.0243961811 0 1864380.0243961811 1019437.2626478345 0 0 0 0 17977746.078903198 -47691760.347969458 0 -47691760.347969458 11936906.05048722 0 0 0 0 23442608.486976624 6285520.3311209455 0 6285520.3311209455 -7377965.1910833828 0 0 0 0 55788648.564697266 -78019046.61495626 0 -78019046.61495626 3804992.9427712392 0 0 0 0 13803138.42956543 -6842057.7205578685 0 -6842057.7205578685 -4471274.0020626485 0 0 0 0 -889195.97566223145 13633209.446156025 0 13633209.446156025 -7660476.4426195621 0 0 0 0 103593901.10443115 -1591029.4720264673 0 -1591029.4720264673 23242323.735014677 0 0 0 0 1064067.9262949824 1138185.8091268241 0 1138185.8091268241 820971.06968981214 0 0 0 0 -1158841.3935279846 -3492296.5515262187 0 -3492296.5515262187 2382788.1600577831 0 0 0 0 -356616.50372447819 -90729.866393715143 0 -90729.866393715143 485435.67638207239 0 0 0 0 3887437.7348905448 2094926.9351789728 0 2094926.9351789728 775659.61323841568 0 0 0 0 802988.88347101212 1934103.4480719361 0 1934103.4480719361 3869185.3354769945 0 0 0 0 16082887.243972778 8159079.9296312034 0 8159079.9296312034 -10583547.829641595 0 0 0 0 -8679078.5706648827 7071926.364518499 0 7071926.364518499 15595423.577271581 0 0 0 0 22664250.608276367 12310098.257246234 0 12310098.257246234 -11458990.497283414 0 0 0 0 12503588.608932495 8299279.6081630141 0 8299279.6081630141 -716549.80242849141 0 0 0 0 13578806.569595337 -242851.887246117 0 -242851.887246117 6948780.2578021362 0 0 0 0 9127430.3059844971 -9393334.1224204302 0 -9393334.1224204302 -21001962.792675987 0 0 0 0 12630934.333830833 1504218.3775905967 0 1504218.3775905967 -10215494.528450906 0 0 0 0 8552420.948923111 -3921694.2527668271 0 -3921694.2527668271 590501.26358006755 0 0 0 0 -7940459.6814727783 -44807523.217502117 0 -44807523.217502117 295617359.60005307 0 0 0 0 1017825.1884319186 328794.19452351704 0 328794.19452351704 -276083.42687605554 0 0 0 0 116665549.54175568 -333818707.17370653 0 -333818707.17370653 1059104340.1190987 0 0 0 0 266659.25478941202 -99565.188146099448 0 -99565.188146099448 101844.81217561057 0 0 0 0 9149417.6698760986 1579946.2371163368 0 1579946.2371163368 -6103538.6111359894 0 0 0 0 2683283.4829650475 1099818.8218016326 0 1099818.8218016326 -688558.6498562987 0 0 0 0 286760826.38986969 -78119934.924322456 0 -78119934.924322456 -11947133.79375124 0 0 0 0 302504498.65374422 -110305546.82866636 0 -110305546.82866636 44969406.081769824 0 0 0 0 169959719.49232483 -141831148.34446967 0 -141831148.34446967 104717813.28678656 0 0 0 0 172977273.01002502 -109804181.99242306 0 -109804181.99242306 433434558.13266778 0 0 0 0 825568103.26467896 -149244998.69412041 0 -149244998.69412041 -128921387.17115593 0 0 0 0 -12802947.819122314 -5647199.8890646696 0 -5647199.8890646696 116229043.81487396 0 0 0 0 265327963.12876511 -76692758.289638266 0 -76692758.289638266 94340878.670649588 0 0 0 0 275421445.42663956 108721039.84737241 0 108721039.84737241 143691679.32731211 0 0 0 0 31189310.466435909 -89062657.874938279 0 -89062657.874938279 109054235.272048 0 0 0 0 395653786.94958496 27310271.080387115 0 27310271.080387115 -20499826.574195862 0 0 0 0 569872035.58461761 -114428754.02131188 0 -114428754.02131188 -83700945.806256294 0 0 0 0 2774822.4538802505 55170.02797356993 0 55170.02797356993 -1067062.3877799141 0 0 0 0 703048943.90187359 409876460.59596354 0 409876460.59596354 213146834.78768873 0 0 0 0 616391393.33168983 578103384.28337765 0 578103384.28337765 -54535149.189063072 0 0 0 0 905082309.88610077 409805541.30507356 0 409805541.30507356 -137504215.09098676 0 0 0 0 5246486.2490829974 887643.36297962815 0 887643.36297962815 -2749342.9195188656 0 0 0 0 202890051.94294739 223601122.54301506 0 223601122.54301506 271137159.96034062 0 0 0 0 252177432.07389069 90929723.600958019 0 90929723.600958019 138977737.28520805 0 0 0 0 93636653.338912964 40452480.29590264 0 40452480.29590264 151656730.51193988 0 0 0 0 163050403.86854172 95963466.019562721 0 95963466.019562721 97720842.616969407 0 0 0 0 104692420.93367386 60685835.259296477 0 60685835.259296477 -74375452.912164927 0 0 0 0 -59955359.594055176 100884390.16807544 0 100884390.16807544 97719396.879722968 0 0 0 0 125235789.73442078 147228879.74037576 0 147228879.74037576 -173945763.86322713 0 0 0 0 85016466.94594574 98652761.330739647 0 98652761.330739647 196967985.11556882 0 0 0 0 2742699.5135673434 946729.39943881705 0 946729.39943881705 -1830246.9837173703 0 0 0 0 144329609.160182 256513326.83571795 0 256513326.83571795 138497332.66760343 0 0 0 0 46729858.658752441 123713031.13296664 0 123713031.13296664 89278633.202615201 0 0 0 0 850578511.4234581 1303836933.4971752 0 1303836933.4971752 1008205153.3494898 0 0 0 0 2201301769.21486 1048032781.9265112 0 1048032781.9265112 -221639145.37210903 0 0 0 0 2199005879.598114 1050118342.6684499 0 1050118342.6684499 -220461443.22672918 0 0 0 0 398016599.43354034 -16482877.956524253 0 -16482877.956524253 -136507031.47653228 0 0 0 0 1774931907.3064232 811180430.25808764 0 811180430.25808764 153890538.6995014 0 0 0 0 919204885.55956221 330580994.73016751 0 330580994.73016751 -65384332.299356818 0 0 0 0 793957758.63006783 361385769.03929573 0 361385769.03929573 -57948882.8961519 0 0 0 0 7695644.4012588114 1934021.628988944 0 1934021.628988944 -3216650.5770111931 0 0 0 0 1415668661.4354248 -506551505.35707694 0 -506551505.35707694 -268660410.66760767 0 0 0 0 1314623276.4076881 -316272241.24234235 0 -316272241.24234235 -172838165.71337366 0 0 0 0 2205539354.5555458 -876889343.46109521 0 -876889343.46109521 -108272884.91189918 0 0 0 0 2200436425.6222153 -1616174006.6931176 0 -1616174006.6931176 1018962045.0028088 0 0 0 0 9766960.3924393207 544072.72338298708 0 544072.72338298708 2039238.5978539879 0 0 0 0 854917718.01171494 -663980710.07412016 0 -663980710.07412016 348724079.25912595 0 0 0 0 857161793.17308104 -443471408.581029 0 -443471408.581029 160341429.07212031 0 0 0 0 22764128.402158566 4545265.1970752943 0 4545265.1970752943 1373767.1798598403 0 0 0 0 -51225131.991401672 320489422.86270094 0 320489422.86270094 -264279051.47528934 0 0 0 0 -104017074.14122391 35816206.354638033 0 35816206.354638033 -75751351.545898438 0 0 0 0 283150187.49974614 32378813.860554937 0 32378813.860554937 -97070222.760201454 0 0 0 0 294700742.39840317 -259372236.71723974 0 -259372236.71723974 184218563.82021013 0 0 0 0 909835939.95265198 -498414910.51785368 0 -498414910.51785368 137605767.46442294 0 0 0 0 393059149.48631668 -104192072.41433051 0 -104192072.41433051 20091869.414165258 0 0 0 0 613222441.88895416 -221347086.4994638 0 -221347086.4994638 38652164.210521117 0 0 0 0 158228274.14184189 -71408803.939239025 0 -71408803.939239025 44715219.11255613 0 0 0 0 46482906.785554886 65048038.832192652 0 65048038.832192652 -66638378.914782919 0 0 0 0 32662496.090356402 6646486.8279397059 0 6646486.8279397059 -756482.51385050733 0 0 0 0 229556316.83242798 -159836660.42390198 0 -159836660.42390198 63633878.618665218 0 0 0 0 16054456.008655548 69829717.059280008 0 69829717.059280008 67671148.49860467 0 0 0 0 36595159.304542542 298158800.82988346 0 298158800.82988346 -496520602.55085784 0 0 0 0 29755609.213688388 6476489.5343753975 0 6476489.5343753975 223072.88530517858 0 0 0 0 275087237.86889648 150903560.38145709 0 150903560.38145709 -70458253.320325136 0 0 0 0 128755087.67364502 135495433.43091297 0 135495433.43091297 238165364.01560724 0 0 0 0 583575696.72447681 104051972.57532774 0 104051972.57532774 185747893.72635508 0 0 0 0 672999438.84216309 -548828546.59168196 0 -548828546.59168196 870186108.73976779 0 0 0 0 366176348.09664917 -254162726.85235107 0 -254162726.85235107 159276620.46538544 0 0 0 0 304394471.10351562 -64911155.151350439 0 -64911155.151350439 -402105168.52846789 0 0 0 0 -109512743.96437073 80823512.455192178 0 80823512.455192178 -67646751.792308331 0 0 0 0 88920603.392662048 222604068.07099432 0 222604068.07099432 -545929700.43839645 0 0 0 0 -6881911.0425338745 -19859872.741099238 0 -19859872.741099238 -168268592.04802716 0 0 0 0 134447222.93906403 -124410106.21843651 0 -124410106.21843651 -145958867.78952384 0 0 0 0 398952133.97463989 -232207943.90213919 0 -232207943.90213919 70031620.103777885 0 0 0 0 54531166.192337036 -352255.01326346397 0 -352255.01326346397 -61907402.666408539 0 0 0 0 380970607.81271362 -113375538.15860891 0 -113375538.15860891 85925332.882903099 0 0 0 0 -119259789.544034 73950405.506675988 0 73950405.506675988 749529044.41104603 0 0 0 0 375551815.74069214 -104062318.1015811 0 -104062318.1015811 248569041.48746395 0 0 0 0 21359692.385452271 1680680.4814052582 0 1680680.4814052582 112785305.79961753 0 0 0 0 35135304.616703033 -151599390.8911826 0 -151599390.8911826 122918834.64603543 0 0 0 0 77990252.911449432 -100761365.53065217 0 -100761365.53065217 -168575037.5171138 0 0 0 0 20984571.706840515 -43272954.282335818 0 -43272954.282335818 -83581165.889425457 0 0 0 0 32877105.665108256 5701748.7423072532 0 5701748.7423072532 -1598480.4009212693 0 0 0 0 39028665.772232056 50408249.332141727 0 50408249.332141727 -273761837.30484587 0 0 0 0 -29119046.111566544 79515138.639989734 0 79515138.639989734 31405005.366234481 0 0 0 0 -78321426.78521347 -13826671.247306649 0 -13826671.247306649 31735187.491532743 0 0 0 0 43171580.133811951 -37063285.871895075 0 -37063285.871895075 -73340240.910427928 0 0 0 0 25618035.942844391 19055756.324653268 0 19055756.324653268 -72737172.893681407 0 0 0 0 63928073.929805756 55898994.770129085 0 55898994.770129085 -46314686.075155318 0 0 0 0 -50004403.275177002 -94130804.732648045 0 -94130804.732648045 20666541.822403908 0 0 0 0 -41767968.604102135 -90058699.192248285 0 -90058699.192248285 45230501.493924856 0 0 0 0 -45022653.746948242 -26118037.529406428 0 -26118037.529406428 9322066.1354546249 0 0 0 0 -166342066.94939232 38972317.218911111 0 38972317.218911111 18918273.159887075 0 0 0 0 4233127.9755620286 -1125150.854792323 0 -1125150.854792323 -1952289.1366077568 0 0 0 0 -54911277.991906166 -24492673.467561811 0 -24492673.467561811 12924800.045364618 0 0 0 0 -38554237.321914673 -31483976.596297264 0 -31483976.596297264 1086866.1016885042 0 0 0 0 -37604792.812507629 -41058035.370075285 0 -41058035.370075285 10783656.247900784 0 0 0 0 -15165755.423500061 -48381978.450575292 0 -48381978.450575292 -6971733.3715229034 0 0 0 0 -29501113.172058105 -38112077.394099534 0 -38112077.394099534 -14327858.655034304 0 0 0 0 31135224.534633636 -87252151.051075101 0 -87252151.051075101 -6307161.5521197915 0 0 0 0 25655080.443527222 -61547245.416103333 0 -61547245.416103333 -45185724.024933487 0 0 0 0 30374771.872077942 -79928928.897872388 0 -79928928.897872388 -27108533.687638044 0 0 0 0 -11446545.851007462 -65528243.354790613 0 -65528243.354790613 12188390.937927127 0 0 0 0 -3635011.2004871368 -87750583.746973261 0 -87750583.746973261 41326215.239545822 0 0 0 0 -8571190.4517593384 -64962037.120602012 0 -64962037.120602012 10957760.64598 0 0 0 0 -55819167.297492981 -27020243.019973755 0 -27020243.019973755 20409544.911601305 0 0 0 0 -37649806.754684925 -49588741.072067223 0 -49588741.072067223 35209797.577628851 0 0 0 0 59330432.270462036 -72756094.759444177 0 -72756094.759444177 23225960.570211112 0 0 0 0 61989386.423843384 -108759270.48833025 0 -108759270.48833025 62448485.951944232 0 0 0 0 59475462.451683044 -40191864.349223256 0 -40191864.349223256 93331830.954672575 0 0 0 0 62279360.058349609 -99720793.413697243 0 -99720793.413697243 -1702388.2832113504 0 0 0 0 29389246.149627686 -139747432.37779796 0 -139747432.37779796 -42813493.935769647 0 0 0 0 10118150.060249329 -90912492.139670029 0 -90912492.139670029 24929692.271420695 0 0 0 0 187499897.25260925 -19096182.359131694 0 -19096182.359131694 16593893.160078101 0 0 0 0 157180801.08220863 3780607.1824473143 0 3780607.1824473143 101816286.23347723 0 0 0 0 185166200.25395775 -33641226.280438334 0 -33641226.280438334 65662422.22616303 0 0 0 0 546947749.64713669 -93800342.319008052 0 -93800342.319008052 15952959.883753091 0 0 0 0 107582341.62562943 -75439676.267771602 0 -75439676.267771602 3886907.7002526522 0 0 0 0 173384079.64593887 -6292189.1996492743 0 -6292189.1996492743 16307644.407316327 0 0 0 0 262535007.93638229 6955811.257307142 0 6955811.257307142 65241973.143628359 0 0 0 0 1066189317.2660484 -83355754.470847428 0 -83355754.470847428 -112801081.23694676 0 0 0 0 604698414.67390442 44871797.351400971 0 44871797.351400971 -11321636.694703698 0 0 0 0 584681981.13280487 65951721.580579519 0 65951721.580579519 24358897.800422192 0 0 0 0 639467627.61910629 -16595282.498245955 0 -16595282.498245955 -29605371.73956795 0 0 0 0 485654231.15565491 60956478.317913979 0 60956478.317913979 -28380058.356445305 0 0 0 0 444586117.09587479 214281566.01445094 0 214281566.01445094 80068064.435968518 0 0 0 0 1136905223.5787659 250231263.85484448 0 250231263.85484448 -95489689.259636641 0 0 0 0 1142326554.8504398 181024127.77445722 0 181024127.77445722 -164084890.68334258 0 0 0 0 1783216620.6864052 456091787.39198333 0 456091787.39198333 -238131442.62948519 0 0 0 0 1535682953.9899673 358905280.76662636 0 358905280.76662636 -140413565.06575504 0 0 0 0 2205219982.5357018 325059668.27757829 0 325059668.27757829 -306335914.80896854 0 0 0 0 1929506533.6553745 105280154.80832364 0 105280154.80832364 -468988143.77554685 0 0 0 0 2204415134.5795174 157394570.75663155 0 157394570.75663155 -502635977.61845869 0 0 0 0 1770157163.5862331 -59514239.565461345 0 -59514239.565461345 -402400137.53803432 0 0 0 0 1530114169.906311 -134757375.64767289 0 -134757375.64767289 -422178634.55063939 0 0 0 0 1137234121.3344193 -309478776.28410143 0 -309478776.28410143 -143470550.30481738 0 0 0 0 2204659095.1847677 -388101392.33405644 0 -388101392.33405644 -439366302.55600369 0 0 0 0 16793147.125656128 -26559284.788720131 0 -26559284.788720131 -50837114.482475944 0 0 0 0 49831658.447631836 -13248969.303365499 0 -13248969.303365499 -74701027.539984107 0 0 0 0 21447208.295970567 610297.57074408978 0 610297.57074408978 -6014908.1917742975 0 0 0 0 2880391.1231919378 -3130944.2601058166 0 -3130944.2601058166 -2775206.6762539828 0 0 0 0 -60455044.403610229 -117915251.22645427 0 -117915251.22645427 30673495.264360607 0 0 0 0 55050852.417434692 -43760168.279323757 0 -43760168.279323757 9383397.7536812425 0 0 0 0 40374451.608295441 -1797140.8900213465 0 -1797140.8900213465 -3837180.4023342133 0 0 0 0 -110265260.58821106 60586418.475753844 0 60586418.475753844 24850726.542823613 0 0 0 0 211424019.46313477 -5604761.2356165648 0 -5604761.2356165648 -50244932.017691582 0 0 0 0 -53846554.931549072 -10885235.287904978 0 -10885235.287904978 -5872382.8974725604 0 0 0 0 -37980059.218337059 -72467082.367086768 0 -72467082.367086768 -28202337.329126596 0 0 0 0 -95058529.718880653 -80623084.523414135 0 -80623084.523414135 4515152.3795912266 0 0 0 0 55117557.388742879 -10746131.126642102 0 -10746131.126642102 -9012145.8146361113 0 0 0 0 -694594.84130859375 -22795327.186395407 0 -22795327.186395407 -10428356.427257299 0 0 0 0 38073782.742759705 -31162674.171235681 0 -31162674.171235681 -20427217.421670437 0 0 0 0 35628420.303775787 -2423850.6436800957 0 -2423850.6436800957 -21940328.988967896 0 0 0 0 48781068.999839783 -20584846.475402236 0 -20584846.475402236 -15641314.195650578 0 0 0 0 19522433.602250315 -6414565.5728724673 0 -6414565.5728724673 -8615529.8914780114 0 0 0 0 22510137.966193736 -615724.34929858521 0 -615724.34929858521 -8777184.7008212805 0 0 0 0 35515784.66500473 -6761860.8169598579 0 -6761860.8169598579 -37386972.482941628 0 0 0 0 33072311.283432007 -16529815.882491112 0 -16529815.882491112 -25438086.712910652 0 0 0 0 24215646.264312744 2906900.7227759361 0 2906900.7227759361 -53758371.213104248 0 0 0 0 15486382.287476189 2439159.1169638522 0 2439159.1169638522 -4466452.8720637122 0 0 0 0 48262988.978874207 14699302.492892265 0 14699302.492892265 -99830498.474424839 0 0 0 0 19019462.131370544 -7732879.9230175018 0 -7732879.9230175018 -10479896.35601759 0 0 0 0 11912365.620026752 -4046026.0010519959 0 -4046026.0010519959 -4644110.9186538644 0 0 0 0 30162058.649909973 -25719663.100833893 0 -25719663.100833893 3856334.3819921017 0 0 0 0 29178733.642665863 -33009260.914810181 0 -33009260.914810181 4789671.5407352448 0 0 0 0 14314143.868728638 2769657.2068710327 0 2769657.2068710327 -9440606.4166209698 0 0 0 0 13282247.050546139 -6271970.9811843075 0 -6271970.9811843075 -11320043.686426163 0 0 0 0 19829096.14402771 -6082495.0439318419 0 -6082495.0439318419 -5468731.7244852781 0 0 0 0 36705892.364552498 -26853910.334464192 0 -26853910.334464192 -14803565.554283142 0 0 0 0 25161836.847801208 -16239318.700492859 0 -16239318.700492859 -14198721.961280823 0 0 0 0 19283055.000515833 -2897547.9278618172 0 -2897547.9278618172 -8949640.0258434433 0 0 0 0 38294706.043615341 -22176440.557572961 0 -22176440.557572961 -24304623.259152412 0 0 0 0 34019228.732147217 -13565466.565261841 0 -13565466.565261841 -24606428.034979314 0 0 0 0 35438803.024429321 -2893978.5623178482 0 -2893978.5623178482 -39065438.07767427 0 0 0 0 39014352.850265503 -12024082.13064003 0 -12024082.13064003 -50762647.46766758 0 0 0 0 38855865.891608238 -14992824.196628019 0 -14992824.196628019 -32579356.389881134 0 0 0 0 34923569.950439453 -891419.60599136353 0 -891419.60599136353 -35584574.138589859 0 0 0 0 21261830.570266724 3499549.0761086345 0 3499549.0761086345 -19766.715865969658 0 0 0 0 16452307.672515869 2223131.3227720261 0 2223131.3227720261 -244768.73040771484 0 0 0 0 5542972.7044062763 -1804010.343563512 0 -1804010.343563512 -5010887.8982632533 0 0 0 0 33998179.63079834 -13746807.439428329 0 -13746807.439428329 -22204436.932498932 0 0 0 0 33950460.653121948 -2245927.4939899445 0 -2245927.4939899445 -21769703.015314102 0 0 0 0 14848255.867933139 1274832.4668264464 0 1274832.4668264464 -1396886.3039552812 0 0 0 0 4946852.2520751953 -3069828.6780796051 0 -3069828.6780796051 -4218998.3779945374 0 0 0 0 17101902.011845171 -3124647.1144651398 0 -3124647.1144651398 -7577451.7132474594 0 0 0 0 13281494.393177874 459087.19041653723 0 459087.19041653723 -1538739.0672475903 0 0 0 0 17968446.564712524 -3208272.602619648 0 -3208272.602619648 -5407418.6046924591 0 0 0 0 15329527.225082397 11120924.978046656 0 11120924.978046656 -7621730.2115555853 0 0 0 0 13588252.257247925 -2481000.3763264418 0 -2481000.3763264418 -5327741.7639269829 0 0 0 0 16211267.095016479 681298.16958379745 0 681298.16958379745 -10111966.47762084 0 0 0 0 8101703.6762161255 -1713640.9474588633 0 -1713640.9474588633 -1616068.1285564899 0 0 0 0 14519539.861598492 -3727751.2697904781 0 -3727751.2697904781 -2273150.0648252964 0 0 0 0 13656450.781787574 -2103529.5099180937 0 -2103529.5099180937 -5785785.8705786355 0 0 0 0 14652806.232818604 -486954.9770283699 0 -486954.9770283699 -2254962.7986521721 0 0 0 0 8252920.6113913059 -3020372.30275172 0 -3020372.30275172 -3789281.3355036145 0 0 0 0 12277686.836583119 701853.11274155229 0 701853.11274155229 -1401717.3920147321 0 0 0 0 1442573.3055716604 -1629319.5267712995 0 -1629319.5267712995 -1554722.0555708879 0 0 0 0 20835248.763763428 1418251.2379388809 0 1418251.2379388809 10337493.176253319 0 0 0 0 21411707.927825928 3024102.0016366839 0 3024102.0016366839 -1069557.4363389015 0 0 0 0 1894973.4329271615 -1319361.953265354 0 -1319361.953265354 -1108382.0576778739 0 0 0 0 10248717.785125732 642249.76459848881 0 642249.76459848881 -3081258.7730922699 0 0 0 0 5982139.8031616211 3390448.70895648 0 3390448.70895648 -9220522.3808917999 0 0 0 0 15945521.158581242 -2893708.0676831752 0 -2893708.0676831752 -8627467.9253735244 0 0 0 0 28877551.035423428 -2793286.145351816 0 -2793286.145351816 -17924184.739911124 0 0 0 0 48897112.222915649 -2150565.8012693822 0 -2150565.8012693822 -11496931.421017587 0 0 0 0 36310328.076812744 6085831.831496954 0 6085831.831496954 -7421307.6997516155 0 0 0 0 38642123.591720581 4507968.0647586584 0 4507968.0647586584 -6423069.9064304829 0 0 0 0 34513091.880079269 229389.78487403691 0 229389.78487403691 -4439136.9290530682 0 0 0 0 27372405.943183899 -2750155.7158719301 0 -2750155.7158719301 -15042866.623785257 0 0 0 0 29404812.075332642 -8580331.317171514 0 -8580331.317171514 -9944083.1292359829 0 0 0 0 29835812.661046982 -13596925.369195133 0 -13596925.369195133 -4982119.9671025276 0 0 0 0 43484065.265960693 -20262997.443466425 0 -20262997.443466425 -12787327.054828763 0 0 0 0 40050602.740562439 -32169565.020076275 0 -32169565.020076275 -20154543.235040426 0 0 0 0 28008970.191261292 -37986688.697821856 0 -37986688.697821856 2921547.9370472431 0 0 0 0 41295465.255847931 -47113087.195927329 0 -47113087.195927329 -43574800.722723722 0 0 0 0 55181153.355957031 -28268796.422714114 0 -28268796.422714114 -19775169.865347739 0 0 0 0 50220530.280288696 -22441990.284107 0 -22441990.284107 -21012663.201074302 0 0 0 0 53459566.888406754 -19714953.771683484 0 -19714953.771683484 -18899326.479755878 0 0 0 0 4646266.1711654663 -47319568.274289727 0 -47319568.274289727 43241953.116183937 0 0 0 0 23054223.57390976 -48096872.112030327 0 -48096872.112030327 -17631554.697167397 0 0 0 0 27996157.409950256 -42168168.644870549 0 -42168168.644870549 -16813004.778122772 0 0 0 0 38723383.14630127 -41547038.164388955 0 -41547038.164388955 -94717788.588552266 0 0 0 0 20000313.164024353 -79803287.051566482 0 -79803287.051566482 -15207738.374520183 0 0 0 0 32371452.788024902 -14386293.679764003 0 -14386293.679764003 -77753584.382139355 0 0 0 0 87260214.299598694 -36186989.111485362 0 -36186989.111485362 -119937711.68521726 0 0 0 0 32264938.473620057 4878522.7045447901 0 4878522.7045447901 -2287987.3876559548 0 0 0 0 24079369.912106514 25091085.49668736 0 25091085.49668736 -122250107.92596099 0 0 0 0 43165980.037414685 -35398432.722458802 0 -35398432.722458802 -46134978.482728839 0 0 0 0 95769493.240577698 -8757446.3244207203 0 -8757446.3244207203 -33144439.0226565 0 0 0 0 60955813.536773682 21437808.165960044 0 21437808.165960044 21375985.851010963 0 0 0 0 58351328.60370636 -13251682.207525671 0 -13251682.207525671 -52981504.108210117 0 0 0 0 60268716.429344177 -20882622.475619167 0 -20882622.475619167 -24659856.508900702 0 0 0 0 84137318.209083557 -33636995.876663446 0 -33636995.876663446 -68018301.521737337 0 0 0 0 3433825.0360202789 -13631210.000501007 0 -13631210.000501007 -26834114.083385468 0 0 0 0 150815769.90853882 9873625.8930357695 0 9873625.8930357695 -57387083.346731544 0 0 0 0 -582248.79901119322 -283838.93367049098 0 -283838.93367049098 1063665.5409712736 0 0 0 0 -15296363.882080078 -57472318.696831226 0 -57472318.696831226 -36559265.216832876 0 0 0 0 143683203.70703888 74108867.35577333 0 74108867.35577333 -3554047.5262707472 0 0 0 0 -19545765.51348114 -63471327.132435024 0 -63471327.132435024 -39097286.698339462 0 0 0 0 -11020494.991531372 -61869914.722620726 0 -61869914.722620726 -47775450.31714201 0 0 0 0 57094896.334091187 168603233.15787238 0 168603233.15787238 -67213805.290632844 0 0 0 0 -7903613.0224084854 -22821614.295510814 0 -22821614.295510814 -34638684.831144631 0 0 0 0 97596390.132781982 112782005.77348423 0 112782005.77348423 -39038198.549110711 0 0 0 0 2204485.8403092772 643171.79692023154 0 643171.79692023154 -1627333.5844643202 0 0 0 0 30872831.404220968 3667468.4620378409 0 3667468.4620378409 -3522198.8756721625 0 0 0 0 59166506.043685913 -64226564.329956293 0 -64226564.329956293 32195866.693064213 0 0 0 0 140522583.64884949 -105102828.69714308 0 -105102828.69714308 -64885274.414638221 0 0 0 0 90097663.286987305 4201338.2437729836 0 4201338.2437729836 -30636020.224920988 0 0 0 0 83420635.612661362 34135949.076229513 0 34135949.076229513 -82347111.757466793 0 0 0 0 55721273.894477844 4081881.5426645279 0 4081881.5426645279 -15745877.689067364 0 0 0 0 61372037.66305542 -10607180.232401848 0 -10607180.232401848 -7520337.2661175728 0 0 0 0 7652835.0481567383 2434952.5081725121 0 2434952.5081725121 2559108.4749391079 0 0 0 0 -10491642.641601562 8864712.3529162407 0 8864712.3529162407 4420750.2870330811 0 0 0 0 24045255.129928589 -17799876.219491959 0 -17799876.219491959 3071285.1252775192 0 0 0 0 11853717.967269897 -11409080.786502838 0 -11409080.786502838 5778006.2019641399 0 0 0 0 15899625.615447998 5154159.171875 0 5154159.171875 -47319.721530675888 0 0 0 0 40615192.545890808 -26806305.174407601 0 -26806305.174407601 -50886182.8557235 0 0 0 0 42647261.686096191 12580983.720932961 0 12580983.720932961 -15330645.792456388 0 0 0 0 5950462.056892395 27863579.120589256 0 27863579.120589256 221477688.37447047 0 0 0 0 121788842.15097046 37669606.837734938 0 37669606.837734938 -140703392.02863264 0 0 0 0 26724210.262145996 -9754386.1821762323 0 -9754386.1821762323 34581997.10954991 0 0 0 0 75944353.59185791 65358394.90404439 0 65358394.90404439 23823278.00044772 0 0 0 0 83442043.346252441 -168869799.74456549 0 -168869799.74456549 15178869.415588856 0 0 0 0 195568045.93571472 291056781.56779599 0 291056781.56779599 36304969.853070974 0 0 0 0 210686139.10295105 -113185522.78625536 0 -113185522.78625536 -291595906.33275223 0 0 0 0 43242394.587051392 -27724247.051905155 0 -27724247.051905155 -64112933.281570673 0 0 0 0 73772356.73932457 33936856.353894353 0 33936856.353894353 -16980414.741201401 0 0 0 0 63289351.492698669 16173238.24069047 0 16173238.24069047 3357368.105653286 0 0 0 0 6661042.7725739516 1429156.3954905942 0 1429156.3954905942 -2147297.380245416 0 0 0 0 41224169.047225952 24053241.787912369 0 24053241.787912369 5256760.1339755058 0 0 0 0 4123930.0633088201 187136.79848092794 0 187136.79848092794 -2511040.2034735647 0 0 0 0 31727564.860103607 -403740.94216442108 0 -403740.94216442108 -11967831.739274025 0 0 0 0 49927268.542747498 6155989.5430903435 0 6155989.5430903435 -8378600.3251781166 0 0 0 0 75813334.738488197 -1138788.0952824056 0 -1138788.0952824056 -32792815.907157898 0 0 0 0 57929334.217285156 12854231.33920458 0 12854231.33920458 -26164952.772744656 0 0 0 0 55187547.494918823 28414426.634450674 0 28414426.634450674 -41518528.747771263 0 0 0 0 77514142.416549683 11812593.225907087 0 11812593.225907087 -42348621.38325651 0 0 0 0 49759747.441040039 -8437532.0670967102 0 -8437532.0670967102 -10410819.743974358 0 0 0 0 17786074.90888907 -2720486.1784471944 0 -2720486.1784471944 -9643044.4377092347 0 0 0 0 -58946047.645191193 -8048850.2906904668 0 -8048850.2906904668 -5402844.4459967613 0 0 0 0 56651215.002151489 -15628001.087474883 0 -15628001.087474883 -6090588.6692361832 0 0 0 0 -39492441.483726025 -26172444.889878094 0 -26172444.889878094 -17213750.287617087 0 0 0 0 20106735.137317613 -9962000.062261913 0 -9962000.062261913 -4438234.5791409863 0 0 0 0 22219635.797442809 15171407.477695942 0 15171407.477695942 142846.21563991066 0 0 0 0 32163804.166695595 17541093.358466625 0 17541093.358466625 -9837921.2197570801 0 0 0 0 45871125.206306458 4209548.5700604916 0 4209548.5700604916 1503966.8401970267 0 0 0 0 20208840.574586418 3425172.4011455271 0 3425172.4011455271 -4210017.8000311665 0 0 0 0 140234656.26958847 -14274810.653095722 0 -14274810.653095722 -57799912.327431679 0 0 0 0 55437314.99786377 25762903.611074924 0 25762903.611074924 -36292511.201061249 0 0 0 0 -29579946.938247681 -37850743.571200252 0 -37850743.571200252 -9492983.0941613913 0 0 0 0 55098319.978948355 21206634.234358042 0 21206634.234358042 -58758921.934761047 0 0 0 0 23771279.579673991 -12897159.922618877 0 -12897159.922618877 -12782335.272682678 0 0 0 0 31482364.179298401 -5379227.6642398238 0 -5379227.6642398238 -1333323.2163558006 0 0 0 0 33636419.576868057 496329.14466810226 0 496329.14466810226 -5417669.9551010132 0 0 0 0 46907153.713550568 2395225.7687094212 0 2395225.7687094212 535567.23372888565 0 0 0 0 21070767.856317393 12818060.705741767 0 12818060.705741767 178831.82413092814 0 0 0 0 41932586.150505066 -8485994.276725769 0 -8485994.276725769 6303226.1841042042 0 0 0 0 -56515571.946493149 76703664.187210798 0 76703664.187210798 29847168.835719109 0 0 0 0 36959308.233926773 3559291.9947309494 0 3559291.9947309494 3894675.3714141846 0 0 0 0 12867543.110823816 4389528.473867029 0 4389528.473867029 -1049483.4492519777 0 0 0 0 32341195.507450104 16225205.667468309 0 16225205.667468309 5054587.1789669991 0 0 0 0 32474977.392730713 -433883.09344291687 0 -433883.09344291687 1667765.4752981067 0 0 0 0 36469341.211647034 18741969.246496201 0 18741969.246496201 4194875.6781024933 0 0 0 0 39766385.758399963 15518843.913839102 0 15518843.913839102 3725459.004152298 0 0 0 0 24836990.991189957 4776694.4345521927 0 4776694.4345521927 -960957.8569984436 0 0 0 0 20415210.981388092 3942434.8093533516 0 3942434.8093533516 2020815.8998837471 0 0 0 0 31456483.644594193 23806907.797480106 0 23806907.797480106 19430720.559642792 0 0 0 0 20228760.084274292 9322602.6387121677 0 9322602.6387121677 -510011.50051128864 0 0 0 0 18286371.824195862 5070817.3667967916 0 5070817.3667967916 -7719294.8638501167 0 0 0 0 14744121.545905553 5350708.7412889078 0 5350708.7412889078 -6327818.2177409139 0 0 0 0 5169541.7786095738 5670904.606242314 0 5670904.606242314 -4383066.3681556405 0 0 0 0 22397776.488201141 11036997.20451647 0 11036997.20451647 -18473797.476840019 0 0 0 0 13014784.05298996 21280389.984128952 0 21280389.984128952 -20774387.044274092 0 0 0 0 -4780470.9495849609 17062757.17275095 0 17062757.17275095 -65149399.386463404 0 0 0 0 22028543.022289276 383909.17009687424 0 383909.17009687424 -13215549.153717041 0 0 0 0 16644100.823225021 12213953.227268696 0 12213953.227268696 -7923529.0490150452 0 0 0 0 164426.46270704269 -7029953.0715050753 0 -7029953.0715050753 -3619756.9769194215 0 0 0 0 8152186.1806259155 -14090418.34628582 0 -14090418.34628582 -5681243.8033571243 0 0 0 0 4005376.696472168 -3193689.0694389343 0 -3193689.0694389343 -4915171.7540454865 0 0 0 0 8877136.5580461323 218789.64160359511 0 218789.64160359511 -4323913.4550672006 0 0 0 0 32464885.078309495 2528832.5022694729 0 2528832.5022694729 -9623792.368328372 0 0 0 0 21126954.528963815 -7821035.9467726275 0 -7821035.9467726275 -7011715.6607864667 0 0 0 0 14643492.467315674 -16234202.775534153 0 -16234202.775534153 -5843988.764881134 0 0 0 0 68252716.189651489 12300360.678474039 0 12300360.678474039 -33797636.414776325 0 0 0 0 22379503.499580383 -14157142.051747084 0 -14157142.051747084 -11322049.590768814 0 0 0 0 25654693.627868652 -26149194.231486082 0 -26149194.231486082 -63291090.621646643 0 0 0 0 -19650906.800189734 61365728.847099438 0 61365728.847099438 -55911268.240431249 0 0 0 0 31013322.493466914 -1513726.9972062819 0 -1513726.9972062819 -8776845.4178118464 0 0 0 0 -6862102.958190918 -55980692.265323639 0 -55980692.265323639 -44494231.759654045 0 0 0 0 48328724.175849915 2985395.1346445084 0 2985395.1346445084 -48828195.924101353 0 0 0 0 30101624.841573715 -13973459.581201315 0 -13973459.581201315 -64566331.635591507 0 0 0 0 69124847.933433533 -41707184.788450956 0 -41707184.788450956 -34115006.879917145 0 0 0 0 25654373.195549011 -19920154.603798151 0 -19920154.603798151 -20995311.215099335 0 0 0 0 8260380.7467309237 -24507361.849561617 0 -24507361.849561617 8142393.5323562622 0 0 0 0 23543057.688980103 -30998353.126520157 0 -30998353.126520157 -11884301.971551895 0 0 0 0 28182961.487220764 -42912035.81537056 0 -42912035.81537056 13560056.724691391 0 0 0 0 17489589.673530579 -26166079.299877167 0 -26166079.299877167 11799315.344308853 0 0 0 0 3973635.0518551022 -3699215.8655710989 0 -3699215.8655710989 -3461088.0573284244 0 0 0 0 17020290.221298218 -28777275.644968033 0 -28777275.644968033 7785231.192565918 0 0 0 0 1498498.4598490149 -1125105.0565735213 0 -1125105.0565735213 -1211880.8027151106 0 0 0 0 54996567.256412506 -87479513.201213837 0 -87479513.201213837 95244543.927184105 0 0 0 0 158815052.93455505 -62314464.173954487 0 -62314464.173954487 -22664327.3221035 0 0 0 0 77482611.620849609 77726230.368637562 0 77726230.368637562 67525490.805816174 0 0 0 0 156700653.5015564 37429018.093947411 0 37429018.093947411 -14895699.692772865 0 0 0 0 108276484.29169464 27349666.793464661 0 27349666.793464661 -11219298.879936218 0 0 0 0 35313454.310714722 28118618.082026958 0 28118618.082026958 6764846.0317287445 0 0 0 0 18806415.228431702 23940534.226318836 0 23940534.226318836 27366749.5723629 0 0 0 0 18377175.688529968 4604527.1752905846 0 4604527.1752905846 5441109.8183765411 0 0 0 0 65060744.605827332 58397313.3565588 0 58397313.3565588 33570411.238899827 0 0 0 0 56110615.830131531 35142559.852976799 0 35142559.852976799 8249480.4062871933 0 0 0 0 70628181.828010559 31506612.857946873 0 31506612.857946873 -5782540.8596563339 0 0 0 0 71087249.179962158 11304361.880416393 0 11304361.880416393 -3400537.5584669113 0 0 0 0 62560751.340270996 22247873.776694298 0 22247873.776694298 -6805377.9381213188 0 0 0 0 34744865.374221802 1217308.8644523621 0 1217308.8644523621 2177891.8371455669 0 0 0 0 37834011.989488602 -5862623.3459500074 0 -5862623.3459500074 -18702367.617861748 0 0 0 0 26632667.720306396 23402234.028340816 0 23402234.028340816 49787910.733469009 0 0 0 0 82805346.530990601 41015809.56497097 0 41015809.56497097 -1895066.8963170052 0 0 0 0 74181763.031944275 9677788.9122605324 0 9677788.9122605324 -18851926.949176788 0 0 0 0 91191390.464080811 27830269.782563686 0 27830269.782563686 -120040550.57267666 0 0 0 0 92005568.94857502 -236010.95705997944 0 -236010.95705997944 -26394032.004212379 0 0 0 0 -27356641.075469971 35663175.441937923 0 35663175.441937923 -35504110.707799911 0 0 0 0 47246552.574073792 -14375657.947680473 0 -14375657.947680473 -12642828.230052471 0 0 0 0 -3754271.0710144043 -47457135.880618095 0 -47457135.880618095 -30120924.19453907 0 0 0 0 21122845.847999573 9227005.4332098961 0 9227005.4332098961 97376834.903190136 0 0 0 0 2861725.4745357111 2763034.1893056743 0 2763034.1893056743 136142.50432972674 0 0 0 0 71415559.292396545 -37452301.149649143 0 -37452301.149649143 -73936844.316752434 0 0 0 0 13244353.818687439 35617215.12575388 0 35617215.12575388 139758997.42857933 0 0 0 0 -237825371.42773438 190902262.00452042 0 190902262.00452042 181216514.37614441 0 0 0 0 51853415.194763184 14997533.16274786 0 14997533.16274786 38874183.965053558 0 0 0 0 12852070.893384874 12601859.510483835 0 12601859.510483835 -7078631.394563579 0 0 0 0 8462292.7667624801 6610258.4924151739 0 6610258.4924151739 188914.58664701623 0 0 0 0 27338290.782447815 40779389.312679768 0 40779389.312679768 2866260.0595402718 0 0 0 0 27181641.395050049 38886000.685004711 0 38886000.685004711 4538688.8525154591 0 0 0 0 24685261.621387482 28925957.659535646 0 28925957.659535646 30208709.306386232 0 0 0 0 13787971.238940883 19244352.54784286 0 19244352.54784286 -12832545.889751228 0 0 0 0 11570438.455284119 18335792.265213013 0 18335792.265213013 -30124329.290326118 0 0 0 0 20434022.173267365 32070886.427287221 0 32070886.427287221 31644512.112739041 0 0 0 0 2851539.670501709 26079486.757099152 0 26079486.757099152 -8465304.1744785309 0 0 0 0 11351864.248516083 18133683.781757355 0 18133683.781757355 -23135577.169467926 0 0 0 0 10105980.903774261 18973166.669762611 0 18973166.669762611 -15574704.618228912 0 0 0 0 8723213.3281478882 24298810.547761917 0 24298810.547761917 -22260113.381443024 0 0 0 0 46852968.630950928 -19864597.313718796 0 -19864597.313718796 -11925007.144028664 0 0 0 0 30971582.284975052 -2425920.0906581879 0 -2425920.0906581879 -10385689.668895721 0 0 0 0 38974597.262935638 -21086203.281151772 0 -21086203.281151772 -8804886.9777315855 0 0 0 0 39342866.723966956 -12347511.68617145 0 -12347511.68617145 1277969.3799152374 0 0 0 0 31454179.69162035 -36722674.965003431 0 -36722674.965003431 -16381366.735309124 0 0 0 0 38913556.391213417 -17533464.824079871 0 -17533464.824079871 -7873706.6354932785 0 0 0 0 64180502.635692596 -32489054.940681458 0 -32489054.940681458 -2226513.1240119934 0 0 0 0 80992932.713867188 440084.11283874512 0 440084.11283874512 -10412580.858960152 0 0 0 0 73379473.031417847 -1047587.7873239517 0 -1047587.7873239517 -3041942.1551361084 0 0 0 0 78928145.304327011 716302.48692834377 0 716302.48692834377 -9145676.4904823303 0 0 0 0 18165997.535498656 9612012.8802850768 0 9612012.8802850768 -489968.64374385471 0 0 0 0 50656291.238911629 33055351.169966578 0 33055351.169966578 -10281194.024870872 0 0 0 0 65931837.08891201 38511705.338425457 0 38511705.338425457 -10460387.146885872 0 0 0 0 100270346.85167694 40458025.739217758 0 40458025.739217758 -14080085.31350708 0 0 0 0 4885057.9530667216 1131280.1898579895 0 1131280.1898579895 -4203793.2273186566 0 0 0 0 23478845.792256117 18400448.680091165 0 18400448.680091165 84573749.018307209 0 0 0 0 -3285469.3959960938 -17650765.55286026 0 -17650765.55286026 -20303256.130902767 0 0 0 0 36062059.811879486 5301670.2758451067 0 5301670.2758451067 -18903060.650456063 0 0 0 0 23578804.514823914 21019674.200309992 0 21019674.200309992 61305933.635144234 0 0 0 0 59086513.889671326 71237180.904663563 0 71237180.904663563 45433442.429631233 0 0 0 0 27015931.203988075 44082472.256879836 0 44082472.256879836 88705675.108631134 0 0 0 0 27314239.170898438 43435743.293118954 0 43435743.293118954 36216159.887199402 0 0 0 0 48930269.320304871 57274854.99979794 0 57274854.99979794 59273936.298373163 0 0 0 0 96011698.896652222 2160324.7295823097 0 2160324.7295823097 -44755878.766446114 0 0 0 0 -2322225.9273834229 -16502922.979534149 0 -16502922.979534149 -10769012.033712387 0 0 0 0 29315448.834251404 -15847344.698422909 0 -15847344.698422909 -25522145.565090179 0 0 0 0 -12414892.696525574 -8513545.8739180565 0 -8513545.8739180565 -10345129.611757278 0 0 0 0 5071973.3852310181 27303057.888731003 0 27303057.888731003 4913917.6677575111 0 0 0 0 45964369.705940247 38328203.542325497 0 38328203.542325497 -4760763.6558799744 0 0 0 0 24590904.345432281 42828046.620873213 0 42828046.620873213 36138577.0958395 0 0 0 0 14925213.39516449 -7770368.7591581345 0 -7770368.7591581345 -26185865.360990524 0 0 0 0 13240275.61544966 11868307.344103094 0 11868307.344103094 289940.52126085991 0 0 0 0 2359845.9842300415 -3684131.7684278488 0 -3684131.7684278488 -27484224.941596031 0 0 0 0 -12128764.181080997 1175608.6213693768 0 1175608.6213693768 -19802856.594590187 0 0 0 0 17689616.017340101 2652530.979767208 0 2652530.979767208 -3674039.7804973018 0 0 0 0 44661581.924692154 -11661326.82686311 0 -11661326.82686311 -2534245.5720062256 0 0 0 0 44349915.37412262 -15120246.233711027 0 -15120246.233711027 -3987262.6050762385 0 0 0 0 46076900.37610054 -6912177.4290676154 0 -6912177.4290676154 12838571.726710737 0 0 0 0 16755293.135752063 9560080.546935888 0 9560080.546935888 -5076052.9757693196 0 0 0 0 1383356.0281066895 2487402.4502353668 0 2487402.4502353668 -1340510.7487424612 0 0 0 0 19854350.526871447 1253509.1492572986 0 1253509.1492572986 2782281.4210045822 0 0 0 0 -3667031.3408546448 29689845.103322744 0 29689845.103322744 19428044.969944954 0 0 0 0 12005100.451730818 10683980.09459047 0 10683980.09459047 -5288634.3692209348 0 0 0 0 41903007.974132538 18117622.09967041 0 18117622.09967041 -8365104.6548569202 0 0 0 0 35439478.657597691 2492886.5090736337 0 2492886.5090736337 -6720906.8371480964 0 0 0 0 12766158.276556976 2063312.9887880757 0 2063312.9887880757 5910065.5880836472 0 0 0 0 3128349.7423974499 2790955.3997274581 0 2790955.3997274581 -1103508.2768997434 0 0 0 0 -41451578.243591309 -12762246.447087765 0 -12762246.447087765 25390098.246446609 0 0 0 0 57027360.04510498 111883488.84161794 0 111883488.84161794 72724244.193135262 0 0 0 0 46126208.165313721 56311819.288650036 0 56311819.288650036 -36648476.113680542 0 0 0 0 42575065.091217041 -7132650.0915689468 0 -7132650.0915689468 -26628770.384326935 0 0 0 0 36571595.730927467 16657272.867949784 0 16657272.867949784 3421416.1074542999 0 0 0 0 21224374.585048676 8735187.8691763878 0 8735187.8691763878 836920.40330886841 0 0 0 0 36672272.074920654 17051808.76636219 0 17051808.76636219 4413724.4639425278 0 0 0 0 41249001.772233963 -9642777.9784309864 0 -9642777.9784309864 8651834.9074373245 0 0 0 0 4187924.6714131236 564540.16813225113 0 564540.16813225113 750343.76271715946 0 0 0 0 400182061.07941055 -32954855.604198456 0 -32954855.604198456 -168578713.36687756 0 0 0 0 -248526585.56323433 -10125288.062614441 0 -10125288.062614441 438478614.81738091 0 0 0 0 61316862.906150818 163365480.12221336 0 163365480.12221336 141975089.72436905 0 0 0 0 265352343.10147858 113339477.05597305 0 113339477.05597305 -34610413.182474136 0 0 0 0 31529364.717159271 -1988342.0508565903 0 -1988342.0508565903 -72549723.526710987 0 0 0 0 -66197756.651741028 -2194845.5857601166 0 -2194845.5857601166 -81302999.492287636 0 0 0 0 296370866.57045674 -161287610.56727397 0 -161287610.56727397 -12430887.346755981 0 0 0 0 -223909095.15956879 98694266.544980049 0 98694266.544980049 54473543.96570015 0 0 0 0 18930988.046583254 8940488.9513416532 0 8940488.9513416532 228352.56504498795 0 0 0 0 -66563139.19090271 -105451532.90919399 0 -105451532.90919399 -151229426.47732544 0 0 0 0 -47524071.455596924 -43659512.188711166 0 -43659512.188711166 -66188739.883016586 0 0 0 0 5824208.0336698666 14700634.752091983 0 14700634.752091983 -3014715.1075732489 0 0 0 0 36841906.79201889 77770960.698485851 0 77770960.698485851 -19028428.569690704 0 0 0 0 19594836.683811188 45989637.847531796 0 45989637.847531796 58888246.847114563 0 0 0 0 1238127.1766223907 27539891.503494263 0 27539891.503494263 125996394.51285362 0 0 0 0 25664028.153671265 61371152.328565598 0 61371152.328565598 71307071.538249016 0 0 0 0 9410544.6441955566 -1223481.0335626602 0 -1223481.0335626602 -4643304.2067995071 0 0 0 0 -186626.56434249878 95426602.726293564 0 95426602.726293564 177468342.49967384 0 0 0 0 -36861468.660961151 111975720.46783924 0 111975720.46783924 26984803.989468336 0 0 0 0 26119424.872177124 98487304.928168774 0 98487304.928168774 29497457.293296814 0 0 0 0 69993613.877323151 55928944.562255859 0 55928944.562255859 31995915.073417187 0 0 0 0 24787058.37305069 92782990.965488911 0 92782990.965488911 52965890.442750931 0 0 0 0 5436046.5164432526 93365935.233205318 0 93365935.233205318 101064093.47225952 0 0 0 0 -11738301.527814865 63285744.606339216 0 63285744.606339216 88275420.030454636 0 0 0 0 56214492.62862587 55210958.021540642 0 55210958.021540642 75091481.974798203 0 0 0 0 151833381.79950714 41470172.960365295 0 41470172.960365295 41305425.710998535 0 0 0 0 151091623.92194092 49531844.463817656 0 49531844.463817656 34226418.155277252 0 0 0 0 61975926.870574951 8627592.4350690246 0 8627592.4350690246 97892040.612323761 0 0 0 0 65583368.997753143 64855570.623958588 0 64855570.623958588 66505932.951593399 0 0 0 0 149163708.89596558 76058753.894356251 0 76058753.894356251 21406359.868707657 0 0 0 0 79915112.414768219 71890905.571972847 0 71890905.571972847 40445140.143238068 0 0 0 0 84025196.09850502 52691405.594977856 0 52691405.594977856 -9519344.8905067444 0 0 0 0 91881544.238285065 33277717.073925018 0 33277717.073925018 36430446.856797874 0 0 0 0 20524546.29913247 -3568270.6421723953 0 -3568270.6421723953 -187890.43699790689 0 0 0 0 17602533.825013161 -11834293.569466591 0 -11834293.569466591 -14843777.335978508 0 0 0 0 527547.14206695557 8130472.7101230621 0 8130472.7101230621 28851884.068533421 0 0 0 0 41595313.401283264 66603939.605200768 0 66603939.605200768 29061504.792413712 0 0 0 0 5305501.8080215454 -28778368.557053566 0 -28778368.557053566 -21394192.010502338 0 0 0 0 42547118.085251331 62289402.241797924 0 62289402.241797924 -109834178.96120834 0 0 0 0 20685545.188840866 45049747.306540906 0 45049747.306540906 -74868318.235006094 0 0 0 0 50437755.735795975 37370897.074578762 0 37370897.074578762 -168693441.90829277 0 0 0 0 66143487.954339504 -885637.45673024654 0 -885637.45673024654 -93771852.109486341 0 0 0 0 113148045.55835533 22721008.362720966 0 22721008.362720966 32856661.311254144 0 0 0 0 37720521.51608634 -60984701.982363641 0 -60984701.982363641 -220197237.15343666 0 0 0 0 11898347.767811593 -3190903.8635542314 0 -3190903.8635542314 800237.07194904168 0 0 0 0 96541964.886328697 41385172.93735528 0 41385172.93735528 15606351.042049646 0 0 0 0 13935401.719065048 10894969.402247766 0 10894969.402247766 -952703.81933131441 0 0 0 0 20457699.798526764 5788170.5053555965 0 5788170.5053555965 -4399402.542725563 0 0 0 0 -44044398.583152771 -50346040.466011524 0 -50346040.466011524 -87179400.717708111 0 0 0 0 31104583.272547022 -1828416.2076023035 0 -1828416.2076023035 1810294.8839115649 0 0 0 0 20722203.644403458 7749531.5751466751 0 7749531.5751466751 -7000614.7641120851 0 0 0 0 12072346.95170572 9642608.213201493 0 9642608.213201493 713897.25152863329 0 0 0 0 8947768.7417602539 9087873.5354762077 0 9087873.5354762077 -9412190.5421161652 0 0 0 0 -380956.12508716434 2500953.8341741306 0 2500953.8341741306 614366.67018608795 0 0 0 0 99637533.085571289 -82652820.985431671 0 -82652820.985431671 -123880836.72197914 0 0 0 0 36461276.193283081 83106578.32567215 0 83106578.32567215 -184703707.01096058 0 0 0 0 960104.0710885264 -699085.22603343613 0 -699085.22603343613 -99542.744017262012 0 0 0 0 21732562.719276905 52394843.642443061 0 52394843.642443061 -100997241.56486464 0 0 0 0 17786704.388828084 7255616.4053231338 0 7255616.4053231338 -1165678.3773298818 0 0 0 0 15691874.215550056 2374612.815249294 0 2374612.815249294 -24777713.998343945 0 0 0 0 14610535.462686539 7239470.1283524036 0 7239470.1283524036 -3516650.8492126465 0 0 0 0 27442617.061693192 1913629.2732580863 0 1913629.2732580863 1768361.5508477576 0 0 0 0 -2230714.6551647186 -29248980.804150343 0 -29248980.804150343 -1249833.2214856148 0 0 0 0 -192798061.33137238 205621676.00927591 0 205621676.00927591 -132731392.4038887 0 0 0 0 55140034.052222371 -34381878.937623024 0 -34381878.937623024 -408964120.21183586 0 0 0 0 6758309.2736010104 1105486.5218965795 0 1105486.5218965795 -2008842.6506866496 0 0 0 0 -120751764.93791008 103492221.52132225 0 103492221.52132225 -18036696.88759023 0 0 0 0 -18305988.871397018 266627385.8732934 0 266627385.8732934 -381757351.28958702 0 0 0 0 116389313.71050787 65624771.255423069 0 65624771.255423069 -171859350.77296865 0 0 0 0 86494201.703444362 141304755.51246297 0 141304755.51246297 -264601383.96547318 0 0 0 0 197140110.98654902 28060287.084757209 0 28060287.084757209 -277163630.52461338 0 0 0 0 188248090.46268988 -88778622.104330063 0 -88778622.104330063 -552446392.12423825 0 0 0 0 -196581524.21627855 313775339.10047817 0 313775339.10047817 -275798538.81710529 0 0 0 0 68039941.025727868 190649133.23680687 0 190649133.23680687 -581012967.62963772 0 0 0 0 104103809.41285658 -3214242.5058820844 0 -3214242.5058820844 -205911473.51861477 0 0 0 0 41418993.246473312 -18543353.309337378 0 -18543353.309337378 -188668011.00229955 0 0 0 0 -24256203.126316547 -104835601.0667851 0 -104835601.0667851 -95486567.384287834 0 0 0 0 87339618.819042683 21280265.835611105 0 21280265.835611105 -239461354.27849865 0 0 0 0 169442795.08284855 -36805763.949615955 0 -36805763.949615955 -277085711.40568852 0 0 0 0 249702911.79712629 -144289507.61255646 0 -144289507.61255646 -170412680.25180435 0 0 0 0 138390248.80431461 -102405442.9770149 0 -102405442.9770149 -124015412.92369652 0 0 0 0 106411798.82688141 -100311856.57456064 0 -100311856.57456064 -111261241.21586323 0 0 0 0 103654885.26999605 -140454767.53433216 0 -140454767.53433216 -66849143.400611877 0 0 0 0 46483870.545255661 -135602860.54109478 0 -135602860.54109478 97665594.140692711 0 0 0 0 160573306.88834143 -178955035.01476192 0 -178955035.01476192 -52937532.59982872 0 0 0 0 29097168.093043327 -106904161.85081458 0 -106904161.85081458 52748824.252104759 0 0 0 0 76591460.616293073 -154941650.58604768 0 -154941650.58604768 14524181.894426346 0 0 0 0 75828222.799449086 -176693162.01710927 0 -176693162.01710927 76941910.667711258 0 0 0 0 251622721.76777434 -263715649.24185324 0 -263715649.24185324 45136757.512242317 0 0 0 0 155297509.66748476 -135249840.09434271 0 -135249840.09434271 -111476719.8628335 0 0 0 0 -3266467.3398351669 -44170835.595142365 0 -44170835.595142365 150854197.86018944 0 0 0 0 273891125.28262258 -230459261.70028257 0 -230459261.70028257 45939938.738376617 0 0 0 0 46110985.713447094 -203824032.91666269 0 -203824032.91666269 277638553.89245892 0 0 0 0 101714583.65872955 -255757468.44761658 0 -255757468.44761658 523633998.12674332 0 0 0 0 -10288732.399702549 -94721738.080327511 0 -94721738.080327511 72467943.480102539 0 0 0 0 32234522.06034565 -85238826.467981339 0 -85238826.467981339 63287632.287205696 0 0 0 0 92131777.506478548 144877381.82482481 0 144877381.82482481 -203697370.10566616 0 0 0 0 130154372.24334824 140647988.77703857 0 140647988.77703857 -39901902.548307419 0 0 0 0 297465286.01276612 238407944.31302023 0 238407944.31302023 -162402324.63698196 0 0 0 0 482235745.59696531 -107097513.81363106 0 -107097513.81363106 -259652992.34226203 0 0 0 0 113459206.73242533 41830907.168599129 0 41830907.168599129 8858810.6152038574 0 0 0 0 479857552.84804153 -103114923.99907398 0 -103114923.99907398 42957548.257006645 0 0 0 0 701591039.34406841 183433057.35692477 0 183433057.35692477 359967395.05344391 0 0 0 0 611228309.73349833 -501361845.51982403 0 -501361845.51982403 263392599.00035477 0 0 0 0 946059963.00350237 -512436611.15266895 0 -512436611.15266895 550287568.82494736 0 0 0 0 383653914.70021319 266160431.37601423 0 266160431.37601423 20599208.467048645 0 0 0 0 493059984.31230056 -52485866.826271057 0 -52485866.826271057 111555126.56127739 0 0 0 0 156415948.37139404 79653403.774294853 0 79653403.774294853 299831962.75718212 0 0 0 0 7579589.2869010568 76339290.608575821 0 76339290.608575821 109345268.75166607 0 0 0 0 -2594187.6314190626 199998932.00483322 0 199998932.00483322 -157864262.34938049 0 0 0 0 173910755.08890602 186096785.71472913 0 186096785.71472913 -64069047.617534637 0 0 0 0 -26975065.539083362 251897826.78058052 0 251897826.78058052 26419500.777816772 0 0 0 0 157872795.73377973 259631969.50159824 0 259631969.50159824 -158025460.19562912 0 0 0 0 -119114513.65425128 338369154.96816158 0 338369154.96816158 -101315628.453022 0 0 0 0 -20120035.379673511 230241522.22320437 0 230241522.22320437 -200869689.61495018 0 0 0 0 15599583.651687801 321805234.30343914 0 321805234.30343914 -252613657.71864223 0 0 0 0 3050205.4069030285 345430327.23717594 0 345430327.23717594 -132898932.86176538 0 0 0 0 -158393758.88235509 253103395.61227989 0 253103395.61227989 -278333456.51061273 0 0 0 0 -399481394.47722667 227744139.03860092 0 227744139.03860092 -135007367.88341999 0 0 0 0 -149731058.31709349 319651903.90889978 0 319651903.90889978 -142583571.85091591 0 0 0 0 -172364946.59490931 157921107.09503746 0 157921107.09503746 -71729236.447649002 0 0 0 0 -308498761.7645722 327022607.70606804 0 327022607.70606804 -183910823.33984756 0 0 0 0 -468339635.46745491 366371011.90031922 0 366371011.90031922 -141241383.44563293 0 0 0 0 129122963.32378268 27009266.452010155 0 27009266.452010155 -95255847.840244293 0 0 0 0 -365931078.73906803 229876866.28914642 0 229876866.28914642 -260073639.96148872 0 0 0 0 -106506542.85246634 85286806.4975214 0 85286806.4975214 32514191.6183424 0 0 0 0 113422468.02196121 -201138696.40016842 0 -201138696.40016842 99783573.032560349 0 0 0 0 5642219.0250049261 4604491.4605012136 0 4604491.4605012136 2746060.6682010703 0 0 0 0 120804709.05682182 -109581081.91671276 0 -109581081.91671276 166976862.34885883 0 0 0 0 156352974.33786106 -113275204.89344978 0 -113275204.89344978 -19441892.56319046 0 0 0 0 22198099.458661381 10901333.842939816 0 10901333.842939816 -7004325.6355555709 0 0 0 0 86372876.613819122 -2832586.0192480087 0 -2832586.0192480087 10948590.15542984 0 0 0 0 32187290.518199921 8574058.1190986633 0 8574058.1190986633 -22376398.196899414 0 0 0 0 154471611.6257515 -7188444.0295619965 0 -7188444.0295619965 -24147001.411590487 0 0 0 0 122254763.31129265 -36059804.953875065 0 -36059804.953875065 28569166.100230217 0 0 0 0 141656942.02105331 -80637693.557538509 0 -80637693.557538509 33632507.251987457 0 0 0 0 75924633.796512604 -61858026.20712471 0 -61858026.20712471 34633684.92540741 0 0 0 0 7794190.4108412499 -158030.48114541406 0 -158030.48114541406 -8176178.2100097593 0 0 0 0 11031419.973965507 8117543.5393926147 0 8117543.5393926147 3095638.8782656305 0 0 0 0 116279898.25586891 -36881286.508948803 0 -36881286.508948803 10781791.546236992 0 0 0 0 143690132.22543526 -57857551.518805504 0 -57857551.518805504 13880709.072738647 0 0 0 0 53816703.136346817 -110800808.6011138 0 -110800808.6011138 -10127454.309947014 0 0 0 0 34826918.703674316 -80986393.456190586 0 -80986393.456190586 36463089.342110634 0 0 0 0 225444657.72044373 -96895935.845044136 0 -96895935.845044136 -70228044.232484818 0 0 0 0 183991705.87885427 12414598.227852583 0 12414598.227852583 41926462.183042526 0 0 0 0 100227740.62343979 2030093.81021595 0 2030093.81021595 58748167.808906555 0 0 0 0 15134929.381271362 14387972.307014465 0 14387972.307014465 -16075660.664108276 0 0 0 0 8900155.6478271484 20614143.505712509 0 20614143.505712509 -20660237.808462143 0 0 0 0 23882357.910682678 16322919.2435112 0 16322919.2435112 -25861976.558868408 0 0 0 0 11489217.973197937 26206372.726930618 0 26206372.726930618 -27777865.882316589 0 0 0 0 18642007.349311829 22959230.311678886 0 22959230.311678886 -28109048.132499695 0 0 0 0 14966023.59463501 22018611.176753998 0 22018611.176753998 -25718507.132996321 0 0 0 0 15632738.218412399 20565025.684120655 0 20565025.684120655 -25174809.647632599 0 0 0 0 11226686.578926086 21423643.577497482 0 21423643.577497482 -25247418.293653965 0 0 0 0 13981738.053389072 22314380.72968781 0 22314380.72968781 -25741037.574752808 0 0 0 0 14019058.75417161 23065720.75346601 0 23065720.75346601 -24067315.600547791 0 0 0 0 11124299.213729858 22484284.392547607 0 22484284.392547607 -28292245.551120758 0 0 0 0 22837521.682962827 7759128.3045394979 0 7759128.3045394979 -14767759.480289573 0 0 0 0 8551565.2860717773 23692273.868700027 0 23692273.868700027 -25422412.090873718 0 0 0 0 50607974.894992828 -5191526.0486650467 0 -5191526.0486650467 65689768.3189888 0 0 0 0 159598313.18668365 -4563052.689453125 0 -4563052.689453125 62541236.423751831 0 0 0 0 8778731.975838434 -1319214.8621764947 0 -1319214.8621764947 -2310502.1466418961 0 0 0 0 88992461.077400208 4107435.1626319885 0 4107435.1626319885 60286876.845541477 0 0 0 0 24330851.110155106 -44743158.139554381 0 -44743158.139554381 70827058.288578033 0 0 0 0 87608698.175956726 -72704847.454838276 0 -72704847.454838276 38771092.894655228 0 0 0 0 36602763.301063538 -72156800.614675999 0 -72156800.614675999 48960410.658382416 0 0 0 0 88744879.686878204 -45196931.497564316 0 -45196931.497564316 65453655.787427902 0 0 0 0 51219454.16608429 -34753984.824574471 0 -34753984.824574471 66764779.602718353 0 0 0 0 86145044.010353088 -35133837.576505661 0 -35133837.576505661 66028273.591656208 0 0 0 0 67689734.947395325 -22464609.361774921 0 -22464609.361774921 63759828.471206665 0 0 0 0 63758427.533752441 -49143152.244068623 0 -49143152.244068623 70091941.037622452 0 0 0 0 70694900.491836548 -47246836.644456863 0 -47246836.644456863 70607612.369560242 0 0 0 0 52062592.413038492 -55801660.411496997 0 -55801660.411496997 71255721.601905823 0 0 0 0 90163785.843383789 -38456538.120183945 0 -38456538.120183945 68474206.663089275 0 0 0 0 110454785.15575409 32016219.818514824 0 32016219.818514824 -13822013.596646398 0 0 0 0 84946510.572547913 -83506674.332157135 0 -83506674.332157135 19042562.941665649 0 0 0 0 119107654.54024124 -76850274.047932625 0 -76850274.047932625 18398030.805131912 0 0 0 0 186381068.95376968 -57844225.387434959 0 -57844225.387434959 23623978.582345963 0 0 0 0 4693778.1726533882 3954631.599915849 0 3954631.599915849 -3904770.875726359 0 0 0 0 72290041.44203186 -48711857.501262665 0 -48711857.501262665 63357800.525011539 0 0 0 0 71849036.086418152 -54615255.523967743 0 -54615255.523967743 61986666.088151932 0 0 0 0 10059219.537689209 53698651.176811218 0 53698651.176811218 34569318.498100281 0 0 0 0 143379378.89615631 -7829865.495800972 0 -7829865.495800972 -6324376.6452736855 0 0 0 0 46204626.058849335 -637379.39182901382 0 -637379.39182901382 20625304.23252964 0 0 0 0 43020316.483053401 -35555970.874080658 0 -35555970.874080658 -288497480.68149853 0 0 0 0 71909305.427204132 -42142348.492825985 0 -42142348.492825985 85683606.381212234 0 0 0 0 23655881.082587756 6699901.6206595618 0 6699901.6206595618 -2890338.7234239336 0 0 0 0 143795269.60160828 -69248973.643160343 0 -69248973.643160343 132557485.92689705 0 0 0 0 64746190.491905212 28931301.659739494 0 28931301.659739494 75383783.643143058 0 0 0 0 44112062.765403748 -10543432.078635693 0 -10543432.078635693 -25869840.623155832 0 0 0 0 -14882760.245300293 37677121.906465054 0 37677121.906465054 127511932.11572456 0 0 0 0 -4789778.949836731 -14192103.258758545 0 -14192103.258758545 126074039.95341718 0 0 0 0 64232542.972298861 195484978.81355476 0 195484978.81355476 -232214370.86784577 0 0 0 0 -114797335.40718295 284983079.51490003 0 284983079.51490003 -259787198.86780643 0 0 0 0 56317340.540393829 -18547641.691468716 0 -18547641.691468716 -43477091.749655724 0 0 0 0 16786380.587565925 6632258.9320748113 0 6632258.9320748113 -2031475.8655554755 0 0 0 0 -102748907.99854884 346935666.02534437 0 346935666.02534437 -250963853.01204777 0 0 0 0 6006704.1745593855 2102853.273457339 0 2102853.273457339 -2889812.4742888808 0 0 0 0 115597350.01903534 -39332147.327243328 0 -39332147.327243328 48197292.344686508 0 0 0 0 112171791.08176422 -17172819.730690002 0 -17172819.730690002 60106947.874260902 0 0 0 0 2205456565.85499 92509676.164042845 0 92509676.164042845 -183331071.66191867 0 0 0 0 1572424359.6334441 548988302.79275477 0 548988302.79275477 -400883273.48953092 0 0 0 0 1291242465.3663635 -321400798.1764608 0 -321400798.1764608 -492120639.95904839 0 0 0 0 1562239246.1852684 -698897943.41360426 0 -698897943.41360426 -32017808.725100756 0 0 0 0 2492032193.3746567 -930876107.46863866 0 -930876107.46863866 -25655387.913756609 0 0 0 0 1041604132.4513595 -263435130.13168365 0 -263435130.13168365 48781967.999173939 0 0 0 0 2358670287.9526558 721589578.53625023 0 721589578.53625023 540452928.03688335 0 0 0 0 2204728824.8711128 267783177.45677659 0 267783177.45677659 409366781.60423583 0 0 0 0 2355684198.8332214 -180627471.12386376 0 -180627471.12386376 1499459148.4121263 0 0 0 0 2306334663.4145346 -29921649.175402056 0 -29921649.175402056 163180220.2014192 0 0 0 0 2098490532.9396772 676246047.3364805 0 676246047.3364805 -249007466.44645587 0 0 0 0 1529819884.325985 1196608810.3778758 0 1196608810.3778758 483888831.57973754 0 0 0 0 1191143085.1138802 -646837372.743294 0 -646837372.743294 441455085.57810688 0 0 0 0 2703220787.5484467 377608563.29606187 0 377608563.29606187 -138696766.46773911 0 0 0 0 8694767.2631303817 -902951.78438164759 0 -902951.78438164759 -513606.07154663163 0 0 0 0 -502052100.09753418 156052839.14387393 0 156052839.14387393 139414393.07600391 0 0 0 0 1112460838.2991638 857961828.45821023 0 857961828.45821023 204912072.53737205 0 0 0 0 72208268.925617218 2223167.1187544465 0 2223167.1187544465 224883464.33074737 0 0 0 0 861338294.66976357 313641468.74525517 0 313641468.74525517 -60072444.986029103 0 0 0 0 205139450.99739838 451033605.47144401 0 451033605.47144401 322805447.93263829 0 0 0 0 -57953302.066719055 -41694694.035079181 0 -41694694.035079181 -16903401.858081505 0 0 0 0 114894184.514534 116531319.41185267 0 116531319.41185267 31009888.525974665 0 0 0 0 21209540.83960741 -2673423.8093291074 0 -2673423.8093291074 -2322813.2236775886 0 0 0 0 -17722322.635192871 -5464496.2168917656 0 -5464496.2168917656 -84634016.441246748 0 0 0 0 138798727.29743576 389814.64201116562 0 389814.64201116562 -208151608.30983067 0 0 0 0 258034420.97285843 -28002037.131179735 0 -28002037.131179735 -424653579.22626388 0 0 0 0 25141175.86841774 99717766.135712534 0 99717766.135712534 -8911818.2057391405 0 0 0 0 1401203.2922155708 -1456970.6900747642 0 -1456970.6900747642 -1698517.5080507088 0 0 0 0 -54254838.26166153 -141909048.92661154 0 -141909048.92661154 163547311.23260558 0 0 0 0 1035791315.4181417 -321541141.12556779 0 -321541141.12556779 29202911.755210906 0 0 0 0 979853469.94709015 -321907742.73514938 0 -321907742.73514938 29275392.012121134 0 0 0 0 844060.87216567993 147019989.89136821 0 147019989.89136821 99986353.651889324 0 0 0 0 -72048441.417509079 11289870.185586244 0 11289870.185586244 327509048.82918334 0 0 0 0 149130530.33155441 -295924616.25796783 0 -295924616.25796783 285318630.84566462 0 0 0 0 -23443005.724403381 1636648.3399056196 0 1636648.3399056196 83465931.441235185 0 0 0 0 -2273391.2543440014 -1208454.3743275926 0 -1208454.3743275926 -1009631.0265949306 0 0 0 0 3471291.2370910645 78304736.082167387 0 78304736.082167387 -83829322.834593236 0 0 0 0 2311130.2145004272 5146162.4177033603 0 5146162.4177033603 34643485.272133589 0 0 0 0 26696038.273923572 -16928329.454209134 0 -16928329.454209134 -10515706.955630723 0 0 0 0 8651129.4569418989 14682808.210828563 0 14682808.210828563 3046893.3163146023 0 0 0 0 82493138.914173126 21153231.591490418 0 21153231.591490418 580979.3293184936 0 0 0 0 78600158.462013721 63797.728374835104 0 63797.728374835104 -16584189.495131731 0 0 0 0 26876045.762349486 4594807.4987051338 0 4594807.4987051338 -11515354.717715815 0 0 0 0 98117763.304351807 45740373.958421707 0 45740373.958421707 -5003391.196949482 0 0 0 0 -5771855.0520553589 40004425.690074235 0 40004425.690074235 1154189.012958616 0 0 0 0 9041506.844078064 27410796.653042316 0 27410796.653042316 -1529812.2163950503 0 0 0 0 -26221038.602149963 37558865.185737252 0 37558865.185737252 82158820.523111731 0 0 0 0 10641556.941642761 46775838.70385468 0 46775838.70385468 -39306480.443316221 0 0 0 0 86690597.155845642 -147858212.27094328 0 -147858212.27094328 -370498497.45715594 0 0 0 0 27989676.740405001 -2705127.5188606586 0 -2705127.5188606586 -5353419.5925876061 0 0 0 0 32225070.407306671 30749971.387921095 0 30749971.387921095 -70773565.019418716 0 0 0 0 31026602.872552872 -201935090.65206879 0 -201935090.65206879 -273149982.43263626 0 0 0 0 20633321.434898376 -75035861.620121151 0 -75035861.620121151 -104413496.81752558 0 0 0 0 129159174.1151278 -105997518.96349326 0 -105997518.96349326 -95624163.121222585 0 0 0 0 75854213.283966064 -97112484.198147222 0 -97112484.198147222 -94216669.027473032 0 0 0 0 -37497948.231895447 -63786849.35251978 0 -63786849.35251978 -98713177.433752969 0 0 0 0 -128184144.61862183 -100703393.39058962 0 -100703393.39058962 -276055103.67624718 0 0 0 0 58971799.512979507 -121961601.12484318 0 -121961601.12484318 -274736471.29621124 0 0 0 0 227292.50761222839 -170226696.78191078 0 -170226696.78191078 -116525561.88022155 0 0 0 0 7221997.4079257781 12933727.415582567 0 12933727.415582567 -2507920.607719698 0 0 0 0 37297510.785812378 1751861.9474349841 0 1751861.9474349841 11772053.449440032 0 0 0 0 134084172.33985138 101308051.98600829 0 101308051.98600829 63877322.952436298 0 0 0 0 1328370.2909944579 4061957.555861244 0 4061957.555861244 -139551.68031055713 0 0 0 0 86707503.067331314 47484154.885806419 0 47484154.885806419 2892675.2332937717 0 0 0 0 26456809.523288727 18399052.328068972 0 18399052.328068972 -41023321.465440512 0 0 0 0 1510436.6239477061 502026.7503824681 0 502026.7503824681 -129789.94396493505 0 0 0 0 34224631.975952148 -52973077.096480966 0 -52973077.096480966 2165185.8319936991 0 0 0 0 180110455.40220165 -61204763.00345479 0 -61204763.00345479 -22803325.194102526 0 0 0 0 25759757.85490578 -16542241.765387798 0 -16542241.765387798 -11086929.402028726 0 0 0 0 207766531.55072784 8918621.0882392824 0 8918621.0882392824 -105205971.71489406 0 0 0 0 241615330.9617157 -138714226.75520658 0 -138714226.75520658 -247188723.60585609 0 0 0 0 32942720.68106842 43015874.496305943 0 43015874.496305943 9504241.9248554111 0 0 0 0 112266964.04730225 -112432343.02026445 0 -112432343.02026445 -86790483.598640352 0 0 0 0 77508300.709320068 -55338845.274251163 0 -55338845.274251163 -93429867.513173819 0 0 0 0 25149004.135637499 -15407564.187659822 0 -15407564.187659822 -12190108.326848829 0 0 0 0 -18426324.790313721 -49693802.83066462 0 -49693802.83066462 -25346506.794658542 0 0 0 0 150072479.01807213 -258104112.77006531 0 -258104112.77006531 -4565921.1812477112 0 0 0 0 16034860.942581177 -44857482.183605045 0 -44857482.183605045 -35062279.311877489 0 0 0 0 -34915601.279464722 -3740295.3088316917 0 -3740295.3088316917 70628744.01571846 0 0 0 0 336613975.52368927 -46403880.431412697 0 -46403880.431412697 9169023.5492687225 0 0 0 0 355253433.12273633 97383775.83780995 0 97383775.83780995 -16706921.16799736 0 0 0 0 -242628173.31696129 -35318068.257478714 0 -35318068.257478714 -121097741.03909206 0 0 0 0 177906055.26235199 -70211293.270072937 0 -70211293.270072937 88937334.272520065 0 0 0 0 -911625.58349494636 -2601262.4018076742 0 -2601262.4018076742 -1258144.5862705819 0 0 0 0 257265557.49789047 19075337.643000603 0 19075337.643000603 36357797.150821686 0 0 0 0 268272146.83208466 63683455.987583637 0 63683455.987583637 10998397.637317657 0 0 0 0 152614623.85131073 67989386.579086304 0 67989386.579086304 40228615.343314171 0 0 0 0 244934297.69938278 108936427.50354195 0 108936427.50354195 33154647.216445923 0 0 0 0 267232494.39519501 85740587.305776596 0 85740587.305776596 39338952.794621706 0 0 0 0 257693040.10981703 117649621.18289214 0 117649621.18289214 31148013.326354027 0 0 0 0 -184923689.44252968 -163698523.31665277 0 -163698523.31665277 -21606168.600978851 0 0 0 0 -7962046.7257997841 -6062497.4563560979 0 -6062497.4563560979 -476876.18642772641 0 0 0 0 129479688.21651363 9040322.3853311539 0 9040322.3853311539 21421663.907430649 0 0 0 0 -67334721.035863876 -43611288.717996597 0 -43611288.717996597 -25841981.532146454 0 0 0 0 305380547.09905243 -23203662.102558136 0 -23203662.102558136 -20295084.364464104 0 0 0 0 144605001.04771042 -2617024.2371921539 0 -2617024.2371921539 -26093229.234567642 0 0 0 0 -79397121.08523941 -27872864.962685585 0 -27872864.962685585 -45560492.377658844 0 0 0 0 649185146.25217819 102680262.62784672 0 102680262.62784672 -32107467.296991348 0 0 0 0 -136517586.48555374 38273024.877529621 0 38273024.877529621 84098882.421374083 0 0 0 0 651613711.97959518 224993098.00688171 0 224993098.00688171 -176949518.4991374 0 0 0 0 342917064.07824898 352908286.03641534 0 352908286.03641534 224433468.92197382 0 0 0 0 117060994.81519926 83418096.876169115 0 83418096.876169115 65136920.1948452 0 0 0 0 231878028.3826828 194767445.45980787 0 194767445.45980787 172335375.85389042 0 0 0 0 31300897.21056366 -203505196.74538374 0 -203505196.74538374 -146665218.19793987 0 0 0 0 4037321.067411609 -1246279.3689987976 0 -1246279.3689987976 427904.51783130108 0 0 0 0 167929348.70944977 -276707359.70110321 0 -276707359.70110321 -156390877.0436306 0 0 0 0 212784882.43746948 -74790759.254918575 0 -74790759.254918575 -285662147.88820636 0 0 0 0 227180291.74816513 -129919898.28385496 0 -129919898.28385496 -136287825.94090509 0 0 0 0 891959488.72502136 -186530620.18155003 0 -186530620.18155003 -316055590.94812679 0 0 0 0 167964848.35078239 60956366.575515032 0 60956366.575515032 23969007.501838446 0 0 0 0 727364873.09293461 -383028954.15592098 0 -383028954.15592098 99365044.974859238 0 0 0 0 101400132.5697937 1007999531.5126657 0 1007999531.5126657 -73210692.301854134 0 0 0 0 1709780.3349672742 -2041936.6361654359 0 -2041936.6361654359 -1850697.5737928012 0 0 0 0 -2261513.8470875965 -246132.27341470588 0 -246132.27341470588 -364938.67697347514 0 0 0 0 31416649.432064056 47851292.713783741 0 47851292.713783741 46438031.690315247 0 0 0 0 -6423809.7800089009 -21144367.806431606 0 -21144367.806431606 -1598133.9105630359 0 0 0 0 243348273.62849331 3191851.3062958717 0 3191851.3062958717 -87762588.427577972 0 0 0 0 8095449.1220888272 -8302018.7363409847 0 -8302018.7363409847 -6008812.0571100758 0 0 0 0 91107089.230134964 -46382514.682081223 0 -46382514.682081223 -19525960.107217312 0 0 0 0 110597470.45500946 -109893863.2108531 0 -109893863.2108531 -58677857.318071365 0 0 0 0 111118337.18097496 -115598558.97103977 0 -115598558.97103977 -113870141.57304907 0 0 0 0 91249380.255334854 -118524234.49523926 0 -118524234.49523926 -31834150.869338989 0 0 0 0 91924727.059194565 -116070082.10736752 0 -116070082.10736752 -59989198.610999584 0 0 0 0 112694514.00580215 -82470208.224731922 0 -82470208.224731922 -6621495.0444326401 0 0 0 0 45029301.781781197 -79336125.219379663 0 -79336125.219379663 -5256944.5321159363 0 0 0 0 50578058.059610367 -93465447.249234676 0 -93465447.249234676 29234870.657951355 0 0 0 0 18252166.712299347 -66217156.345633507 0 -66217156.345633507 41216904.52804327 0 0 0 0 22208531.957782388 -42720466.626273394 0 -42720466.626273394 4103865.1931610107 0 0 0 0 37485342.041191816 -6092218.9695277214 0 -6092218.9695277214 -36506524.189689636 0 0 0 0 -3368446.6965904236 -10267104.905714035 0 -10267104.905714035 -23138109.071392059 0 0 0 0 46310688.536668777 -39004067.424778938 0 -39004067.424778938 -5638715.7236296535 0 0 0 0 64734023.562982559 -62144677.639017105 0 -62144677.639017105 9524982.4898114204 0 0 0 0 58953201.817355633 -35644670.018904328 0 -35644670.018904328 3380903.1575584412 0 0 0 0 -308540.87436951511 -1247938.3263589712 0 -1247938.3263589712 -1580598.7006562427 0 0 0 0 84006916.723103523 -43579701.611958504 0 -43579701.611958504 -5012493.7174959183 0 0 0 0 12000861.401227724 -7946702.8433089778 0 -7946702.8433089778 -10652965.442763617 0 0 0 0 -10464255.784111023 -18716865.34885639 0 -18716865.34885639 -430502.80083620548 0 0 0 0 15084413.133098602 -22056854.080445468 0 -22056854.080445468 -40769137.078957677 0 0 0 0 -12121491.688644409 -41895665.579467535 0 -41895665.579467535 -33469954.948862851 0 0 0 0 -79999159.103157043 79893042.874710739 0 79893042.874710739 138231811.09945202 0 0 0 0 -53527556.111557007 -63473957.427128553 0 -63473957.427128553 2718424.8821374178 0 0 0 0 -52574510.134548187 -71471666.605235636 0 -71471666.605235636 -52563227.33916229 0 0 0 0 -9279154.3772754669 -34670585.152621359 0 -34670585.152621359 -3672547.1712694168 0 0 0 0 -4715657.4322624207 -25086795.014233008 0 -25086795.014233008 -64016250.970554948 0 0 0 0 19216507.269931272 -6121211.4046434285 0 -6121211.4046434285 -11712457.324420011 0 0 0 0 27142166.061337471 18999218.257786512 0 18999218.257786512 -39844329.583418608 0 0 0 0 25109741.358040735 -7448764.8979569655 0 -7448764.8979569655 -10877827.220965505 0 0 0 0 8065302.9740219116 -6464043.6981008053 0 -6464043.6981008053 -8018019.6192983389 0 0 0 0 18906099.489686619 -565132.40418067575 0 -565132.40418067575 -12120452.926610796 0 0 0 0 98071469.550064087 49719051.251755834 0 49719051.251755834 -124887798.42359817 0 0 0 0 31412475.390624776 -7000885.6041820357 0 -7000885.6041820357 -5077016.7307734564 0 0 0 0 80755015.797877312 -15296353.166348696 0 -15296353.166348696 -54984558.068308413 0 0 0 0 8711584.8762110621 -5641689.1061468469 0 -5641689.1061468469 -7000682.9434462469 0 0 0 0 17036523.584087372 -73852435.074867189 0 -73852435.074867189 -46366373.067462623 0 0 0 0 -178342917.23519135 -48932988.39229697 0 -48932988.39229697 54649155.692580223 0 0 0 0 210620.07321489975 -348987.71844816208 0 -348987.71844816208 48295.21142172988 0 0 0 0 191812261.72055817 -116340044.80927461 0 -116340044.80927461 -183101664.29173374 0 0 0 0 225596330.99898148 -53911838.576712668 0 -53911838.576712668 -72344645.670225501 0 0 0 0 70214561.394302368 -112327884.1977399 0 -112327884.1977399 22353541.185659051 0 0 0 0 -41344311.759428978 617734.44949478656 0 617734.44949478656 -1354079.8919620514 0 0 0 0 52340486.244178772 -79686648.254175007 0 -79686648.254175007 12692238.359060764 0 0 0 0 626708.49667734653 -920485.61719778553 0 -920485.61719778553 -131203.18898566673 0 0 0 0 65075930.823911667 -48013750.798486918 0 -48013750.798486918 30905017.200528622 0 0 0 0 39035794.157305717 -103564327.68953556 0 -103564327.68953556 37964283.460298777 0 0 0 0 46089475.688354492 -89803149.149233878 0 -89803149.149233878 -33567774.868587732 0 0 0 0 -45789271.183074951 -91952070.506376088 0 -91952070.506376088 28577301.237279654 0 0 0 0 22768433.896974564 -64602276.067624152 0 -64602276.067624152 17464183.342840195 0 0 0 0 -52584398.106292725 -36879001.410500944 0 -36879001.410500944 15248247.538851619 0 0 0 0 -21112598.092140198 -14739689.181868747 0 -14739689.181868747 -16290029.668654323 0 0 0 0 79711496.360385895 -16014337.514341116 0 -16014337.514341116 -103287093.31552839 0 0 0 0 -1696504.597556401 -871990.04435716569 0 -871990.04435716569 6993.3447122842772 0 0 0 0 -52289027.636859894 -17126355.248060644 0 -17126355.248060644 15293491.879875183 0 0 0 0 -38745230.881591797 -43882767.499347448 0 -43882767.499347448 17615539.299972594 0 0 0 0 -44948160.495727539 -28444745.771699786 0 -28444745.771699786 13836454.799270451 0 0 0 0 -52742799.222198486 -29135217.574144542 0 -29135217.574144542 14841831.454930842 0 0 0 0 14360253.725486755 -24245461.739811897 0 -24245461.739811897 -21142306.487867594 0 0 0 0 -5753866.1403020769 -2524894.3618308082 0 -2524894.3618308082 336220.99927651812 0 0 0 0 -33135582.99023056 -15434719.371450096 0 -15434719.371450096 -1942770.9433411062 0 0 0 0 16955690.854423523 -7643638.6858421564 0 -7643638.6858421564 -16729002.842012405 0 0 0 0 3010051.4647915289 -27107557.876611464 0 -27107557.876611464 -8272001.5289836554 0 0 0 0 -5256367.705291748 -9313586.1646076441 0 -9313586.1646076441 -6474835.7693890333 0 0 0 0 -1517362.614585612 -2720858.7269740384 0 -2720858.7269740384 -1406602.8228971185 0 0 0 0 3585126.0057066632 1870538.4421359412 0 1870538.4421359412 -1082414.6620394622 0 0 0 0 -6701078.9161682129 -27589582.560664773 0 -27589582.560664773 -13115113.698236942 0 0 0 0 3757954.5972061157 -120608.16945075989 0 -120608.16945075989 -2108736.4310342669 0 0 0 0 -147168409.78234577 -19268805.998058513 0 -19268805.998058513 73955826.252528667 0 0 0 0 38986103.621650696 -109544728.46553379 0 -109544728.46553379 49448730.120492697 0 0 0 0 -37888452.542709351 20762158.326774061 0 20762158.326774061 6363975.9226579666 0 0 0 0 -109046999.95002747 -34695942.991454601 0 -34695942.991454601 37784848.286733866 0 0 0 0 -65554657.656097412 -23673024.174419641 0 -23673024.174419641 -15890918.400306702 0 0 0 0 -175441178.06904602 -109279531.46126533 0 -109279531.46126533 -29342681.125106096 0 0 0 0 70777.097572281957 -6116.6292707696557 0 -6116.6292707696557 -153592.62200522702 0 0 0 0 311371849.22799683 -30266037.980373919 0 -30266037.980373919 49247381.632290155 0 0 0 0 155511819.65097046 -26556810.196182251 0 -26556810.196182251 55594115.359268963 0 0 0 0 249116717.32512283 -138737253.71066469 0 -138737253.71066469 -1336756.4622184336 0 0 0 0 343389926.2219162 -214922780.41415787 0 -214922780.41415787 117955302.2206254 0 0 0 0 568305477.36334229 8126027.1259756088 0 8126027.1259756088 9230482.3340209723 0 0 0 0 1156140470.3961258 -451426621.14700162 0 -451426621.14700162 36307383.6455957 0 0 0 0 1418015054.7462287 578726921.99642587 0 578726921.99642587 -11518251.228951573 0 0 0 0 715475628.29369164 199138897.12166882 0 199138897.12166882 -84649069.846306264 0 0 0 0 404119887.20704269 -94749090.056237519 0 -94749090.056237519 -23347008.079602152 0 0 0 0 214654242.43971252 -13092340.990661681 0 -13092340.990661681 7767145.9610665441 0 0 0 0 -67636481.923606873 -66689411.574315757 0 -66689411.574315757 1531460.1171366796 0 0 0 0 352646443.5796814 52712246.22661195 0 52712246.22661195 -149909224.43210185 0 0 0 0 3192583.2240400314 -48752152.663956463 0 -48752152.663956463 -56408206.420942008 0 0 0 0 21663408.754242092 -5469507.3990042564 0 -5469507.3990042564 -800448.88628128008 0 0 0 0 285940491.36172485 171617519.25900891 0 171617519.25900891 16652809.228835821 0 0 0 0 500155976.72824478 137182195.40982231 0 137182195.40982231 -135873103.361085 0 0 0 0 322547528.48954773 78618758.327395946 0 78618758.327395946 -57657110.774111845 0 0 0 0 483715021.5251255 165783461.97685969 0 165783461.97685969 54733941.74486649 0 0 0 0 769605263.93352127 509027370.31556797 0 509027370.31556797 128650174.0465081 0 0 0 0 2197995245.1165571 1285035374.8967957 0 1285035374.8967957 544429156.14816439 0 0 0 0 2203235387.4808083 380726231.34575272 0 380726231.34575272 -328285558.10696518 0 0 0 0 5458161.1147848517 214092.63221519627 0 214092.63221519627 -1884149.1265954408 0 0 0 0 746659573.37542915 -233291239.17488593 0 -233291239.17488593 -503537108.67857194 0 0 0 0 603517760.52240372 347184157.71201652 0 347184157.71201652 -65468563.965232015 0 0 0 0 599345976.74281883 354708636.64858305 0 354708636.64858305 -27332431.535111129 0 0 0 0 3005643.4504883103 -468420.85228236765 0 -468420.85228236765 -425511.23285500309 0 0 0 0 445060756.34183884 -710062769.67654777 0 -710062769.67654777 -383269910.52000302 0 0 0 0 2202135340.4766254 882222769.11698854 0 882222769.11698854 -225012046.42070299 0 0 0 0 939144087.61944389 450006177.69908553 0 450006177.69908553 -313402015.98115838 0 0 0 0 1538051148.6789379 -83589675.719642922 0 -83589675.719642922 -916090718.05611277 0 0 0 0 1157277166.8353252 -666846389.4820801 0 -666846389.4820801 -46317479.518226743 0 0 0 0 1274469501.7417774 304413667.97960478 0 304413667.97960478 -1126048913.3714194 0 0 0 0 1510991338.9266605 -82188728.209580779 0 -82188728.209580779 -915486773.52596319 0 0 0 0 -164208399.58923244 -815094173.61067629 0 -815094173.61067629 240273992.55439377 0 0 0 0 -107837735.89990234 -398922094.58359528 0 -398922094.58359528 -1278875171.5333605 0 0 0 0 311663641.37308693 -212348986.77748251 0 -212348986.77748251 -486924775.31574154 0 0 0 0 -789812070.4486084 187614294.96283054 0 187614294.96283054 -764286485.38746452 0 0 0 0 119816852.41678238 29094304.192649364 0 29094304.192649364 -749517454.72214878 0 0 0 0 -1185674199.9984016 -665299821.01210165 0 -665299821.01210165 -379041656.28029895 0 0 0 0 -439293546.94622803 -782990120.4250685 0 -782990120.4250685 -374520464.60986137 0 0 0 0 -298036236.85793686 -631831385.85374224 0 -631831385.85374224 -269728119.70065641 0 0 0 0 396273739.98242378 -901112683.80999291 0 -901112683.80999291 -171417423.39654619 0 0 0 0 463620068.57008934 -116319972.47478217 0 -116319972.47478217 -459164211.006078 0 0 0 0 10593896.435353503 -4734910.2054716712 0 -4734910.2054716712 -5345384.7878868366 0 0 0 0 262082885.98071289 -413955952.98577237 0 -413955952.98577237 374580718.96407419 0 0 0 0 891825048.82392502 -312668851.93125963 0 -312668851.93125963 188733028.17255002 0 0 0 0 723355836.51919425 -968057699.50799084 0 -968057699.50799084 262905459.51699933 0 0 0 0 1030296903.0147123 -538721273.95096087 0 -538721273.95096087 557412116.04679394 0 0 0 0 2206469737.4160256 -723298038.28617251 0 -723298038.28617251 -364876834.70616287 0 0 0 0 403131905.20704079 -147985697.93029642 0 -147985697.93029642 208580259.60924786 0 0 0 0 2201164417.5961938 -1346459063.1559231 0 -1346459063.1559231 953672040.24345076 0 0 0 0 10175465.821907703 -4888645.1497947266 0 -4888645.1497947266 -4204012.3206189657 0 0 0 0 2180017870.8162246 -1239127457.2327967 0 -1239127457.2327967 224208549.39285588 0 0 0 0 187731638.59728622 -562765202.44089365 0 -562765202.44089365 1395651576.7591593 0 0 0 0 8000419.7818671353 -2671393.5014130613 0 -2671393.5014130613 1246992.4524460058 0 0 0 0 -66798216.482995987 -77551403.015207931 0 -77551403.015207931 630974920.48017621 0 0 0 0 162076229.74108315 -353538825.97740614 0 -353538825.97740614 386418459.28641975 0 0 0 0 265655399.30017805 -449237327.07022196 0 -449237327.07022196 466586169.1394223 0 0 0 0 141971089.55243778 -210679868.15030122 0 -210679868.15030122 301389339.56580687 0 0 0 0 122511852.92564106 -101306248.61108448 0 -101306248.61108448 94167719.668010652 0 0 0 0 53499306.07632184 11461119.227603227 0 11461119.227603227 26997494.141573906 0 0 0 0 9745919.1260948181 -90759541.36122188 0 -90759541.36122188 238317386.28951713 0 0 0 0 171194806.97156906 -233413765.75480652 0 -233413765.75480652 219428925.36225021 0 0 0 0 114565118.42152047 -150849074.50609192 0 -150849074.50609192 131673593.16995311 0 0 0 0 81852820.552336693 -185113839.19094551 0 -185113839.19094551 288306786.51325703 0 0 0 0 179100480.82727623 -266704284.34034252 0 -266704284.34034252 239896093.7684226 0 0 0 0 171000199.7511754 -241154054.07671571 0 -241154054.07671571 405844119.4003315 0 0 0 0 103038515.95289421 -256668347.17169094 0 -256668347.17169094 359392818.04247761 0 0 0 0 310378288.38326263 -282736237.40279889 0 -282736237.40279889 296390404.0274564 0 0 0 0 2267652330.5676937 -241369144.85159063 0 -241369144.85159063 -322960649.77298623 0 0 0 0 6366458.988873234 -2032722.3053857437 0 -2032722.3053857437 -934753.72860759287 0 0 0 0 -239878782.96389389 -1215033706.9905381 0 -1215033706.9905381 -768397311.38956606 0 0 0 0 1398935391.7942863 1001266828.1225543 0 1001266828.1225543 -55393860.913317204 0 0 0 0 332269511.20639658 -735792163.77751219 0 -735792163.77751219 -433644768.06666589 0 0 0 0 135608263.2089467 -1142696772.7906063 0 -1142696772.7906063 -765032337.74070501 0 0 0 0 9358447.4338633455 -4375239.7554128245 0 -4375239.7554128245 -4558697.5626035687 0 0 0 0 189522565.07489109 -366254051.20991039 0 -366254051.20991039 421793745.14052135 0 0 0 0 219852327.8560077 -291178397.26189584 0 -291178397.26189584 318912670.31069756 0 0 0 0 60528615.719603062 -251329767.61974812 0 -251329767.61974812 397179674.22759962 0 0 0 0 97120534.387472153 -223197594.59297466 0 -223197594.59297466 366218516.0223217 0 0 0 0 13365580.987153053 -197685425.90422344 0 -197685425.90422344 555520915.61418366 0 0 0 0 7783420.4291219711 -226999560.32687712 0 -226999560.32687712 407713689.39322472 0 0 0 0 66647784.515332103 -361264482.37585771 0 -361264482.37585771 464549701.46086407 0 0 0 0 71454842.373846054 -270375107.00848943 0 -270375107.00848943 198836066.94996858 0 0 0 0 -8915798.1961112022 -290430343.77326751 0 -290430343.77326751 116715063.70039654 0 0 0 0 -30548794.166183472 -264155162.004462 0 -264155162.004462 203380597.50317264 0 0 0 0 101129185.39436495 -182477537.04733518 0 -182477537.04733518 32663951.722276688 0 0 0 0 36726241.05749774 -286354770.08573878 0 -286354770.08573878 377851566.94312668 0 0 0 0 115134077.35783577 -269046994.86750007 0 -269046994.86750007 204515840.17851293 0 0 0 0 75732962.129655838 -185135198.00848627 0 -185135198.00848627 246107063.50746447 0 0 0 0 73175812.408503532 -108196121.98682737 0 -108196121.98682737 122993084.3973479 0 0 0 0 107446989.77688026 -214751066.59887487 0 -214751066.59887487 102131968.23589849 0 0 0 0 54403187.870481014 -22484252.560265079 0 -22484252.560265079 33247783.322089583 0 0 0 0 96725363.918179035 -133307290.829992 0 -133307290.829992 -5525561.2332945168 0 0 0 0 100424585.25864315 -156007951.00133044 0 -156007951.00133044 132466863.96541518 0 0 0 0 87828019.948237419 -29684516.145718217 0 -29684516.145718217 5871616.6955618858 0 0 0 0 27637956.008349895 -12341193.830572128 0 -12341193.830572128 4148662.6465950012 0 0 0 0 46751301.620684624 -39042310.274885416 0 -39042310.274885416 146074412.36402327 0 0 0 0 59896310.104092121 -31324770.239595175 0 -31324770.239595175 10690492.010212421 0 0 0 0 40004274.06681633 -3970268.3785984516 0 -3970268.3785984516 5423538.3148198128 0 0 0 0 24782738.462876558 3448744.2493387461 0 3448744.2493387461 -2534775.8047800064 0 0 0 0 15415913.347643618 3732811.5029337993 0 3732811.5029337993 -9354758.6502029132 0 0 0 0 19098311.02378875 11535836.108514786 0 11535836.108514786 -4133303.6272525787 0 0 0 0 25707505.686979175 5017583.4156281352 0 5017583.4156281352 84038.700093269348 0 0 0 0 41477648.983560562 -6930838.3769361973 0 -6930838.3769361973 -7768333.8008253574 0 0 0 0 53906142.97206068 -30317681.410583034 0 -30317681.410583034 11934105.22613268 0 0 0 0 57070046.166776657 -3865848.1183758974 0 -3865848.1183758974 -10830864.535190105 0 0 0 0 76653781.739904642 -169412.65397000313 0 -169412.65397000313 -24395070.766288996 0 0 0 0 2016063.6540456871 -926694.00472500245 0 -926694.00472500245 -772518.85845458822 0 0 0 0 -172657214.62066025 -133863787.26022327 0 -133863787.26022327 -175905318.51367837 0 0 0 0 48494668.416590214 -14293537.629373699 0 -14293537.629373699 -16868660.315834641 0 0 0 0 69802819.133019924 -8004049.5138787031 0 -8004049.5138787031 -26814975.624593735 0 0 0 0 88358657.453654587 -190292890.30039164 0 -190292890.30039164 -267974361.66756654 0 0 0 0 87413952.577784061 -147831804.92213202 0 -147831804.92213202 77366686.3375597 0 0 0 0 52028087.267236918 -66093654.313419044 0 -66093654.313419044 -103567944.3349061 0 0 0 0 132056814.30818534 -100195653.78100033 0 -100195653.78100033 -251538682.53565237 0 0 0 0 34181821.933650494 -185516605.16897207 0 -185516605.16897207 -171401567.78695345 0 0 0 0 61504954.684613943 -101162662.43344337 0 -101162662.43344337 -231617735.91777867 0 0 0 0 13852555.503672339 -11975526.487445034 0 -11975526.487445034 -7340475.7090839008 0 0 0 0 11774637.710016428 -8560981.033459682 0 -8560981.033459682 -6033631.2065968672 0 0 0 0 9061729.409917593 -7702901.7964195907 0 -7702901.7964195907 -5468712.5542349815 0 0 0 0 26888181.875472069 61494.538695335388 0 61494.538695335388 -25994675.027621031 0 0 0 0 24027937.003533363 -30174805.990897417 0 -30174805.990897417 -15236006.039883614 0 0 0 0 14478217.558614533 -12427630.525298286 0 -12427630.525298286 -3556118.7833357374 0 0 0 0 9234479.7650089264 -9110270.6939001083 0 -9110270.6939001083 -3980054.5476366282 0 0 0 0 4255528.4654320087 -4041718.4817038355 0 -4041718.4817038355 -1370851.1324904722 0 0 0 0 134000559.37945163 197532066.86303112 0 197532066.86303112 -322852240.37869191 0 0 0 0 15224945.060576916 -50972816.976812541 0 -50972816.976812541 -128073133.37000775 0 0 0 0 383711291.22286439 -210424908.82995772 0 -210424908.82995772 46551155.475741863 0 0 0 0 242759467.97349977 137867382.77256936 0 137867382.77256936 133095958.41282845 0 0 0 0 199852921.90281749 -4093286.4222171307 0 -4093286.4222171307 -119375782.56370401 0 0 0 0 257244663.14312434 -201907379.03304768 0 -201907379.03304768 130394279.10068965 0 0 0 0 122929946.97515965 -239661232.64596963 0 -239661232.64596963 119907308.73081589 0 0 0 0 789712730.55065489 -543334591.0964458 0 -543334591.0964458 449304415.34376168 0 0 0 0 170108486.11258435 -176564432.86571836 0 -176564432.86571836 334142066.84483957 0 0 0 0 516917345.7733717 167072570.49456763 0 167072570.49456763 508415549.58740425 0 0 0 0 219887737.93937802 -128941614.57844818 0 -128941614.57844818 238411934.9158802 0 0 0 0 328201801.42503691 -206288581.56491661 0 -206288581.56491661 -60792331.667535305 0 0 0 0 537693229.5570178 -584967385.93059182 0 -584967385.93059182 623283132.28793097 0 0 0 0 505095804.37375116 16476180.37304616 0 16476180.37304616 -560244856.28578615 0 0 0 0 14103268.692397267 -276620937.25017452 0 -276620937.25017452 1385888041.2867303 0 0 0 0 2491308.6265761433 -2277153.3593522217 0 -2277153.3593522217 296643.92101153615 0 0 0 0 -16454377.189368248 -23561387.247794867 0 -23561387.247794867 -288944435.65428376 0 0 0 0 800671947.64829111 -270351658.60475492 0 -270351658.60475492 -424633365.09607315 0 0 0 0 369124457.67485315 -27943419.38828022 0 -27943419.38828022 -239387615.79583311 0 0 0 0 368841626.06052148 -14594127.991629917 0 -14594127.991629917 -380249178.44564819 0 0 0 0 490249112.70840216 -67685787.890994787 0 -67685787.890994787 -270904753.37160587 0 0 0 0 459509479.27629983 -195084525.09278464 0 -195084525.09278464 -64736325.611727238 0 0 0 0 345416151.68945026 -12633944.49766314 0 -12633944.49766314 8917586.997875452 0 0 0 0 217750218.70342374 -47111827.267026007 0 -47111827.267026007 37496495.105578542 0 0 0 0 315313746.84085405 -50508599.90494436 0 -50508599.90494436 -198073522.43596411 0 0 0 0 342339394.9719429 28927324.946856737 0 28927324.946856737 -126470136.51402199 0 0 0 0 20483576.990709782 -58204506.742806911 0 -58204506.742806911 26540624.365234137 0 0 0 0 128303669.83047748 179339500.11868161 0 179339500.11868161 -155673736.57792974 0 0 0 0 1108944.1447511083 111267.29287536279 0 111267.29287536279 -197528.32083746762 0 0 0 0 2912781.359556742 -271374.16546297702 0 -271374.16546297702 -553859.15985014476 0 0 0 0 41798116.448990226 -41739005.620148659 0 -41739005.620148659 -241556667.54235101 0 0 0 0 -97979925.829568863 -84186365.359624863 0 -84186365.359624863 -176357387.38056719 0 0 0 0 -85142337.970337868 -91467967.551982641 0 -91467967.551982641 -233944306.11971793 0 0 0 0 16358945.664867878 -90798424.855002463 0 -90798424.855002463 -480593073.32126451 0 0 0 0 17307392.96362114 -44113688.765955687 0 -44113688.765955687 -655063318.88250303 0 0 0 0 38282565.357973099 -76769638.814279556 0 -76769638.814279556 -185229951.88324767 0 0 0 0 -92593311.875947952 -210347146.5188638 0 -210347146.5188638 -405467556.6508708 0 0 0 0 -19294439.329726219 16334729.385809422 0 16334729.385809422 -332673469.06439161 0 0 0 0 6629860.7474118359 -6337206.0657714996 0 -6337206.0657714996 338850.3589494084 0 0 0 0 -158702483.43091011 -272826625.77145934 0 -272826625.77145934 -397965380.42867231 0 0 0 0 38814417.652033806 -145159504.49732494 0 -145159504.49732494 478162785.15699482 0 0 0 0 1261761.5413112678 -749352.69897638168 0 -749352.69897638168 -881035.40099513298 0 0 0 0 -7686257.2377119064 -230208477.91291308 0 -230208477.91291308 -523490912.50164127 0 0 0 0 -4606079.1572220922 -147099612.931454 0 -147099612.931454 492602401.71404076 0 0 0 0 12782731.215221666 -582837.20973746339 0 -582837.20973746339 -2776884.7484979783 0 0 0 0 6532163.3518951461 -7006290.3700932376 0 -7006290.3700932376 -4265678.9933386333 0 0 0 0 57920884.469725847 -177855851.23208094 0 -177855851.23208094 366173128.12492591 0 0 0 0 61288705.057013512 -158721420.8958168 0 -158721420.8958168 462004544.55017042 0 0 0 0 -244605464.34363008 -108162127.87065312 0 -108162127.87065312 -49594570.696812034 0 0 0 0 -211913955.73881817 -209320241.64635593 0 -209320241.64635593 260662070.79517961 0 0 0 0 1299985515.3117132 742842652.76245701 0 742842652.76245701 151743985.76531136 0 0 0 0 1269843344.7457566 1360205483.5527625 0 1360205483.5527625 587260003.22078276 0 0 0 0 1179612821.9124987 736663854.64454556 0 736663854.64454556 393118176.92664909 0 0 0 0 5801879.5331085473 128229.51506414107 0 128229.51506414107 -1102779.9782530838 0 0 0 0 1262961199.4574511 604798820.15207005 0 604798820.15207005 86578396.826987416 0 0 0 0 205949571.46463811 -268107810.06685528 0 -268107810.06685528 -466260754.67869103 0 0 0 0 -25860881.025390148 -47350939.057283819 0 -47350939.057283819 -462298535.59981394 0 0 0 0 -136948819.79185486 -22793617.257429302 0 -22793617.257429302 -243131538.031654 0 0 0 0 -49173854.83026886 -71999457.330287874 0 -71999457.330287874 -252626969.23282111 0 0 0 0 94936416.848218441 102059648.86307591 0 102059648.86307591 -324647111.61658734 0 0 0 0 672301454.91423035 -328142066.49688733 0 -328142066.49688733 -98216279.811091214 0 0 0 0 413232765.02975845 -376276575.68539965 0 -376276575.68539965 -45765503.919327021 0 0 0 0 -1671873.6052565575 -143473980.12684792 0 -143473980.12684792 -39926944.304626584 0 0 0 0 1808345.7120730663 -407200.93750802102 0 -407200.93750802102 -376386.55886533507 0 0 0 0 19067075.458400011 -32043353.506319702 0 -32043353.506319702 -405529928.16827142 0 0 0 0 975619330.55859566 219752353.14076674 0 219752353.14076674 -406753464.43866616 0 0 0 0 1179350929.893477 207798644.1735152 0 207798644.1735152 24247848.512739748 0 0 0 0 7713794.5022327676 -3758818.4460505662 0 -3758818.4460505662 -115216.05524591025 0 0 0 0 1175365304.014055 153366043.31743073 0 153366043.31743073 -698464141.44152915 0 0 0 0 1377706828.3749247 131962586.10188526 0 131962586.10188526 10635280.345844984 0 0 0 0 803458538.49951696 -152482058.2457391 0 -152482058.2457391 -114518248.14456415 0 0 0 0 770226791.08187103 -110156869.77448773 0 -110156869.77448773 -168279776.65334687 0 0 0 0 949965196.20081186 -19648080.180084169 0 -19648080.180084169 -206662480.0459547 0 0 0 0 5953397.3269138373 -3171149.4716654159 0 -3171149.4716654159 -870572.3598082104 0 0 0 0 2205498696.8059082 238579066.24463654 0 238579066.24463654 -132307890.5643544 0 0 0 0 2201166763.5208302 -163471511.70292506 0 -163471511.70292506 -393057242.85984898 0 0 0 0 1221324551.2566378 -299864194.41076326 0 -299864194.41076326 -15492133.750330091 0 0 0 0 1410513451.3699622 -28992792.20890379 0 -28992792.20890379 -222111081.8175202 0 0 0 0 1803123289.9063058 -544691477.86724699 0 -544691477.86724699 -307725269.57901371 0 0 0 0 1443658341.1852794 -42549622.75870496 0 -42549622.75870496 -469522179.71151131 0 0 0 0 1924879173.4866042 636630987.10270452 0 636630987.10270452 -631961475.98185992 0 0 0 0 1162861181.7811632 574035271.35312366 0 574035271.35312366 248168393.73017931 0 0 0 0 1005304439.087451 244136481.78734303 0 244136481.78734303 416708246.05657101 0 0 0 0 1752278271.2262728 -478345637.21277952 0 -478345637.21277952 663174628.02664816 0 0 0 0 1040957831.1363573 675350701.7792778 0 675350701.7792778 468942208.66545486 0 0 0 0 917116921.7832557 357474481.35126376 0 357474481.35126376 460353120.39310265 0 0 0 0 9324726.7861712165 -2900886.5286646546 0 -2900886.5286646546 -3261965.237158163 0 0 0 0 1123828314.2666688 631621191.00923491 0 631621191.00923491 224533236.62755919 0 0 0 0 960384274.64974165 596227649.28177071 0 596227649.28177071 391413335.34082508 0 0 0 0 1180489213.2743363 536511517.41156209 0 536511517.41156209 383990774.50104332 0 0 0 0 616685.30429733824 -274310.68449694384 0 -274310.68449694384 -983006.46484789997 0 0 0 0 13295406.131645203 -72115044.05568409 0 -72115044.05568409 -814897397.50893891 0 0 0 0 -1102123891.1205559 -1398749728.6314552 0 -1398749728.6314552 -2389952763.5646935 0 0 0 0 2200180298.8975735 -90212448.866846338 0 -90212448.866846338 -1184359670.7430422 0 0 0 0 479590.6396561265 -5673891.5626541832 0 -5673891.5626541832 932932.59503641515 0 0 0 0 214634869.64176011 -348879426.14029622 0 -348879426.14029622 544106080.65683651 0 0 0 0 1439025142.2483234 295530857.00550592 0 295530857.00550592 -725723698.55353403 0 0 0 0 200880304.9938603 -123720231.98781633 0 -123720231.98781633 -61120367.059916496 0 0 0 0 -40199818.22126317 -43249207.788324356 0 -43249207.788324356 -78998297.987555027 0 0 0 0 191755138.31262088 -140633964.70896673 0 -140633964.70896673 -92296616.485226631 0 0 0 0 294128679.2735157 -235482237.13107872 0 -235482237.13107872 -45688762.214880347 0 0 0 0 353054220.86057901 -146318609.56122541 0 -146318609.56122541 -89228395.861980677 0 0 0 0 261341795.46868891 -200687045.20386219 0 -200687045.20386219 -17101158.931538105 0 0 0 0 234817330.62727445 -49120137.084100246 0 -49120137.084100246 -30350052.498588562 0 0 0 0 157393794.69338906 4677587.1950945854 0 4677587.1950945854 -103479108.08566666 0 0 0 0 101000870.38483238 -95883029.768086433 0 -95883029.768086433 -32274152.449737549 0 0 0 0 50757577.392690659 102090238.16055298 0 102090238.16055298 -55961194.421916962 0 0 0 0 97550978.651493073 127599420.08933401 0 127599420.08933401 -80148733.450802803 0 0 0 0 145573538.52370548 38700103.03054142 0 38700103.03054142 -20526815.237438679 0 0 0 0 74941618.543845654 130519243.37931204 0 130519243.37931204 -6347073.1106624603 0 0 0 0 92592311.194506168 119399649.07228136 0 119399649.07228136 -146945801.60955715 0 0 0 0 12573237.209173203 149015938.94809818 0 149015938.94809818 -80402926.09247303 0 0 0 0 -20875406.316572189 155969602.43251038 0 155969602.43251038 -142973710.7288276 0 0 0 0 -85957785.081133366 228940011.4153223 0 228940011.4153223 -219484718.27345085 0 0 0 0 5003692.2720293999 -50587853.053973198 0 -50587853.053973198 -43544692.39510417 0 0 0 0 41185038.287837744 63331669.568113327 0 63331669.568113327 -128403721.96398926 0 0 0 0 -36064715.172782421 42470146.724867344 0 42470146.724867344 -125146917.93333817 0 0 0 0 -9586544.7770143747 -54613027.563776493 0 -54613027.563776493 -218850809.59041023 0 0 0 0 -167593721.55725336 158876523.67546725 0 158876523.67546725 -202629719.54597664 0 0 0 0 -153656724.29260612 206256339.25213051 0 206256339.25213051 -607415555.50207424 0 0 0 0 -268577422.91154689 123644962.38943934 0 123644962.38943934 -213310818.65070343 0 0 0 0 -48621388.907509655 220853876.09699965 0 220853876.09699965 -233695960.47558022 0 0 0 0 -246625390.80359697 53165956.543274879 0 53165956.543274879 -308527028.05480099 0 0 0 0 -283953122.58111143 290017061.8148365 0 290017061.8148365 -247623139.59097052 0 0 0 0 -102176562.53757191 358247223.85709 0 358247223.85709 -368353489.2259922 0 0 0 0 153817613.86270356 -61343031.66282177 0 -61343031.66282177 -167649509.04403687 0 0 0 0 -95150413.493667603 196713744.07925129 0 196713744.07925129 -435088682.89452171 0 0 0 0 1237412.0116038879 -671031.82379767997 0 -671031.82379767997 -1741450.1327500511 0 0 0 0 -764643065.30638981 569163471.91060114 0 569163471.91060114 -288317654.4675293 0 0 0 0 -522656609.1762023 521212550.27864265 0 521212550.27864265 -513987024.43264723 0 0 0 0 -258853015.05340672 240922397.05885696 0 240922397.05885696 -343487720.16136551 0 0 0 0 -720366466.70411181 320077819.92551148 0 320077819.92551148 -170218115.25201035 0 0 0 0 -107420277.01512527 108860739.8311224 0 108860739.8311224 -225056751.81104732 0 0 0 0 -126454998.61593416 94444159.373895645 0 94444159.373895645 -35846629.356206894 0 0 0 0 102046660.69758445 3344371.8455352783 0 3344371.8455352783 -173604254.29452515 0 0 0 0 -298863935.23120606 220141104.60087061 0 220141104.60087061 -222480736.09652901 0 0 0 0 -62562398.917661428 15349003.779729843 0 15349003.779729843 -278232984.42114806 0 0 0 0 167563618.43461633 -106002072.53572607 0 -106002072.53572607 -168801640.56298161 0 0 0 0 -88031232.805518895 12895032.695127964 0 12895032.695127964 -73506382.994729996 0 0 0 0 146129209.87380683 -164191459.61625147 0 -164191459.61625147 214637.66814136505 0 0 0 0 316680656.72356713 -110787140.97874737 0 -110787140.97874737 -91008760.934454918 0 0 0 0 81995110.30898428 -50069113.311075211 0 -50069113.311075211 68651798.577793121 0 0 0 0 259315181.90816832 -2997304.139682889 0 -2997304.139682889 -65718627.173400879 0 0 0 0 241786863.7587209 -57679160.714909315 0 -57679160.714909315 245377674.40079117 0 0 0 0 544101539.02912545 -199833451.58647537 0 -199833451.58647537 28533114.562155724 0 0 0 0 598550506.5585537 -100181720.66510248 0 -100181720.66510248 52859470.49473381 0 0 0 0 827806755.71854854 -299961126.49403095 0 -299961126.49403095 174724798.0807724 0 0 0 0 1034810178.4455225 -270221870.89377403 0 -270221870.89377403 129304818.44075203 0 0 0 0 477043610.3792516 -70981760.821711302 0 -70981760.821711302 384915385.63467026 0 0 0 0 1630045348.6005623 -281229184.92815065 0 -281229184.92815065 35710854.814159393 0 0 0 0 1426739872.8195803 -201016235.39097977 0 -201016235.39097977 66818579.01322937 0 0 0 0 1120868755.1626053 -29104168.647769451 0 -29104168.647769451 177900599.8912468 0 0 0 0 395186.48703112872 -2319064.6295098243 0 -2319064.6295098243 2084490.2209777907 0 0 0 0 -55302197.009891361 104796899.20112056 0 104796899.20112056 227140314.95250893 0 0 0 0 117850.69390659418 -115779.65716748126 0 -115779.65716748126 -135765.32478990988 0 0 0 0 810453770.43056095 -79847829.378190994 0 -79847829.378190994 195745572.29280734 0 0 0 0 1358616857.3081486 149766160.90721321 0 149766160.90721321 -81119477.123965025 0 0 0 0 5444769.7565700533 -570095.69563829293 0 -570095.69563829293 -9706686.7142462377 0 0 0 0 844708009.72448659 -48746994.096670151 0 -48746994.096670151 -51407595.067371845 0 0 0 0 803886890.06785965 -10551800.675055265 0 -10551800.675055265 -50886226.622462273 0 0 0 0 15846320.38094759 22588561.840837955 0 22588561.840837955 -72248335.569568634 0 0 0 0 359985419.52990162 -194792065.7562409 0 -194792065.7562409 8053563.6560592651 0 0 0 0 316310132.12904823 -167836262.69315451 0 -167836262.69315451 73086399.135786057 0 0 0 0 546536683.44264627 -132473559.48915768 0 -132473559.48915768 -47399078.646113396 0 0 0 0 608549765.86814392 -222569124.91472816 0 -222569124.91472816 25992684.513822556 0 0 0 0 -25672316.394276619 8329051.3403491974 0 8329051.3403491974 48069755.413953066 0 0 0 0 106539622.56329632 -40177004.575239182 0 -40177004.575239182 -3069732.248234272 0 0 0 0 10326615.826948786 -9878315.6829351615 0 -9878315.6829351615 -1847603.9204994433 0 0 0 0 203368.9670715332 2130720.4472596645 0 2130720.4472596645 -12616661.375233799 0 0 0 0 -24012674.948262505 -66848989.575275108 0 -66848989.575275108 138231118.0880909 0 0 0 0 36592591.919485569 -39435911.609767437 0 -39435911.609767437 3518331.2580773532 0 0 0 0 32361336.436451912 -17420578.981819868 0 -17420578.981819868 -78895418.529455423 0 0 0 0 124897990.20937109 -48889401.000920296 0 -48889401.000920296 -148268598.87085319 0 0 0 0 -41245555.255273581 159461608.73514593 0 159461608.73514593 28437693.918031454 0 0 0 0 -10490698.523400784 105102216.22146368 0 105102216.22146368 -169702634.41495872 0 0 0 0 -132589170.85888481 62693520.672403812 0 62693520.672403812 33225510.312725544 0 0 0 0 3094655.0484048128 53605949.166776747 0 53605949.166776747 -13038360.123358727 0 0 0 0 -40138038.486988783 74116658.205547452 0 74116658.205547452 -25852645.662568092 0 0 0 0 -9803830.5035223961 -19656741.0154109 0 -19656741.0154109 150427603.0886575 0 0 0 0 100381134.30000305 103605793.9312709 0 103605793.9312709 277560952.11092424 0 0 0 0 505448580.78298521 -182121369.04585218 0 -182121369.04585218 -67383221.214779377 0 0 0 0 534622341.70428932 -91570169.449344605 0 -91570169.449344605 -51830877.197497368 0 0 0 0 2906985.4848927129 14289.44292544527 0 14289.44292544527 -5990265.8519095313 0 0 0 0 506139695.0369066 -75243725.990039349 0 -75243725.990039349 6911537.5109767914 0 0 0 0 365225209.3693254 -75216577.825070143 0 -75216577.825070143 -13716302.031767368 0 0 0 0 355070125.79555929 -190995364.23061514 0 -190995364.23061514 -35763252.781627417 0 0 0 0 345905812.24584329 -168745176.25749516 0 -168745176.25749516 -15672411.544921875 0 0 0 0 1406095.800496808 -593912.17342167441 0 -593912.17342167441 -2538473.0462659048 0 0 0 0 230002528.843503 -114790052.65725386 0 -114790052.65725386 20218523.778001547 0 0 0 0 193726890.36824179 -36538476.17960012 0 -36538476.17960012 -45884699.931807518 0 0 0 0 -7418260.4618024826 -24729305.995461464 0 -24729305.995461464 143735841.98363042 0 0 0 0 432855.22527449846 -554566.34757021395 0 -554566.34757021395 -530891.65085045807 0 0 0 0 258833064.7457881 -154468140.53197324 0 -154468140.53197324 115965015.49020576 0 0 0 0 282286022.35554498 -134189494.06213951 0 -134189494.06213951 55786215.239376068 0 0 0 0 251442173.95485401 -298854274.65217173 0 -298854274.65217173 178311358.42706338 0 0 0 0 -236733660.54494148 -36101757.42679017 0 -36101757.42679017 175111801.70664406 0 0 0 0 -39355675.091830254 -131666856.04359221 0 -131666856.04359221 62195697.234759331 0 0 0 0 87711075.713386059 -106150216.41228998 0 -106150216.41228998 -66411582.119849682 0 0 0 0 80761192.081500769 -111587036.44559443 0 -111587036.44559443 24336319.263655186 0 0 0 0 296012155.00032353 -106008898.52748907 0 -106008898.52748907 -75370984.303696632 0 0 0 0 276306454.20633459 -164028938.03165162 0 -164028938.03165162 -21025701.590553522 0 0 0 0 104796156.650424 -63444830.909108341 0 -63444830.909108341 35289652.221059322 0 0 0 0 253542384.07112741 -66472930.680368662 0 -66472930.680368662 30676956.6600945 0 0 0 0 113470984.42799807 52774784.145887136 0 52774784.145887136 87264258.409698233 0 0 0 0 229742271.1182127 -73859462.177354336 0 -73859462.177354336 94125745.58978799 0 0 0 0 200781598.83220327 -85784523.803408265 0 -85784523.803408265 284732460.62282944 0 0 0 0 171021981.09208822 -7474192.8700679541 0 -7474192.8700679541 86956797.722851515 0 0 0 0 171685216.37810004 12504806.782629132 0 12504806.782629132 204523692.10692799 0 0 0 0 113299344.78580308 -74091788.990300894 0 -74091788.990300894 113757845.96892333 0 0 0 0 149968157.82972991 108617439.9925459 0 108617439.9925459 143565927.61836147 0 0 0 0 130080797.2231704 101251257.90341735 0 101251257.90341735 364269164.085917 0 0 0 0 42656939.308374301 72372916.861604303 0 72372916.861604303 525580154.15886199 0 0 0 0 247539677.07517457 41041873.683834314 0 41041873.683834314 377065634.06299251 0 0 0 0 329420675.06195331 -134261381.94283706 0 -134261381.94283706 745977668.3664937 0 0 0 0 383125209.89942014 217616150.90785521 0 217616150.90785521 485931357.72369838 0 0 0 0 566327387.84841299 -27009918.48317045 0 -27009918.48317045 523904029.70143318 0 0 0 0 432832275.39275384 -118998822.41758716 0 -118998822.41758716 254204283.5721848 0 0 0 0 472507315.55959809 -242948229.47919878 0 -242948229.47919878 581830456.78711152 0 0 0 0 223443498.60422873 -117872968.85757422 0 -117872968.85757422 528869267.74600554 0 0 0 0 329295730.5807035 -195182121.14372873 0 -195182121.14372873 131356299.99628258 0 0 0 0 334883471.48734653 -136555723.3723979 0 -136555723.3723979 131985659.71458626 0 0 0 0 413518671.19618243 -238550494.92492461 0 -238550494.92492461 257584395.92452803 0 0 0 0 487387633.34101534 -70380978.551469147 0 -70380978.551469147 126485902.18830442 0 0 0 0 412683597.28060758 -132173696.78141832 0 -132173696.78141832 85079503.855491161 0 0 0 0 354080672.61985463 -71642430.381803215 0 -71642430.381803215 26551910.40615654 0 0 0 0 356454185.77883577 -214776151.01378161 0 -214776151.01378161 67754626.999990463 0 0 0 0 325569427.97664797 -161261216.50291252 0 -161261216.50291252 6788933.7770011425 0 0 0 0 323361555.27131635 -205504855.35361934 0 -205504855.35361934 14233234.043399334 0 0 0 0 179195589.94762611 139723619.06939888 0 139723619.06939888 106779311.14097309 0 0 0 0 256992132.68758726 65767184.725605011 0 65767184.725605011 49167178.280755773 0 0 0 0 180434470.06120205 126326458.92651868 0 126326458.92651868 56319417.714097977 0 0 0 0 89936904.378830433 141802968.92323089 0 141802968.92323089 59004018.910308838 0 0 0 0 157004325.85523343 87894864.657762766 0 87894864.657762766 48143931.291827202 0 0 0 0 172140639.00456095 90410983.998987198 0 90410983.998987198 841031.64374351501 0 0 0 0 237400739.67191887 57083208.135599613 0 57083208.135599613 -21072901.240219593 0 0 0 0 312011091.00588727 -107087967.35305977 0 -107087967.35305977 -2331605.5109863281 0 0 0 0 191731614.54347014 9499547.9909415245 0 9499547.9909415245 38125518.368808746 0 0 0 0 246598043.75996232 75500577.577339411 0 75500577.577339411 116004956.74387264 0 0 0 0 360731232.77016592 -22201535.197171211 0 -22201535.197171211 43559581.269072413 0 0 0 0 377661219.87076211 42865612.278639317 0 42865612.278639317 116355522.86891747 0 0 0 0 384467316.00821364 5746900.4493727684 0 5746900.4493727684 76444667.762809753 0 0 0 0 506070030.63406324 -71910813.619667053 0 -71910813.619667053 123993579.72808361 0 0 0 0 449951220.0998807 -90234836.794552922 0 -90234836.794552922 235655002.30028987 0 0 0 0 434202844.42172909 115193954.84916317 0 115193954.84916317 201113354.01964259 0 0 0 0 329781662.06526327 188579469.81026769 0 188579469.81026769 197725972.28359461 0 0 0 0 213340895.18735695 189762729.01614022 0 189762729.01614022 284733967.44779348 0 0 0 0 255760438.97210884 102715934.32494807 0 102715934.32494807 114886433.16224289 0 0 0 0 163556373.31437945 147740391.14499986 0 147740391.14499986 148517381.39993572 0 0 0 0 161553516.4253273 149941585.27987361 0 149941585.27987361 256493981.66854835 0 0 0 0 392631113.6270591 277674411.11053526 0 277674411.11053526 473993744.5472222 0 0 0 0 328206461.81050825 148027457.11538595 0 148027457.11538595 276082781.20591617 0 0 0 0 124942442.92225361 146562658.35954124 0 146562658.35954124 487270661.05529439 0 0 0 0 759570442.48312032 -107659393.89242876 0 -107659393.89242876 236326787.25198305 0 0 0 0 671598260.65612102 57402194.822864413 0 57402194.822864413 214992638.95975035 0 0 0 0 1199098959.0953779 -159585792.06886983 0 -159585792.06886983 365488923.67981797 0 0 0 0 601908041.21119189 5762210.5921721756 0 5762210.5921721756 342517569.79236937 0 0 0 0 -19302317.441608787 142410692.78221434 0 142410692.78221434 690431244.78568888 0 0 0 0 589414074.5463624 -208494660.50311229 0 -208494660.50311229 1239413308.8071446 0 0 0 0 589241008.9981159 390168307.87028134 0 390168307.87028134 786688995.930336 0 0 0 0 1293148607.24808 366214299.80005866 0 366214299.80005866 659897152.83355188 0 0 0 0 89431710.494693756 135547048.95885539 0 135547048.95885539 596973197.03615713 0 0 0 0 328621368.75070095 68966535.683848619 0 68966535.683848619 532232952.93651569 0 0 0 0 312908466.27271247 132025201.6791867 0 132025201.6791867 412189806.05359089 0 0 0 0 15736328.532876968 -101313635.41362643 0 -101313635.41362643 588070718.19925117 0 0 0 0 50587199.355763435 -49942564.897404671 0 -49942564.897404671 357331007.37501383 0 0 0 0 -19966492.181710243 3758715.1633017063 0 3758715.1633017063 427621353.8951782 0 0 0 0 27683871.527369022 -97299810.963997364 0 -97299810.963997364 344736754.17270088 0 0 0 0 60022818.788278937 13254347.738837481 0 13254347.738837481 381162066.24389172 0 0 0 0 -41999234.7557621 64233607.765538156 0 64233607.765538156 327742293.03783286 0 0 0 0 -13198224.221376896 -728939.67164039612 0 -728939.67164039612 301967120.33069324 0 0 0 0 -65290733.847699165 7146783.9996290207 0 7146783.9996290207 247847974.15628386 0 0 0 0 -62942922.6727314 10380968.764492035 0 10380968.764492035 252220260.78871548 0 0 0 0 -88719598.918476105 56351107.025807381 0 56351107.025807381 250613573.35696507 0 0 0 0 -51961513.614052773 -20617570.747444749 0 -20617570.747444749 316609378.08482146 0 0 0 0 -66834539.6962533 28582727.518483967 0 28582727.518483967 277307946.35725254 0 0 0 0 -72457423.020462036 101696681.96559644 0 101696681.96559644 256866526.93217731 0 0 0 0 -52809950.490385056 113738250.69236243 0 113738250.69236243 263107225.93612576 0 0 0 0 -10272097.970745564 92086206.258386374 0 92086206.258386374 235206492.03290391 0 0 0 0 11627301.427436829 140593254.58843684 0 140593254.58843684 342460842.90794724 0 0 0 0 54981179.992129326 93091894.643736959 0 93091894.643736959 303685943.24663901 0 0 0 0 125237017.85989982 142308382.80086401 0 142308382.80086401 323364804.08702642 0 0 0 0 12181400.81272316 99036092.94225429 0 99036092.94225429 461808709.30768168 0 0 0 0 -6692585.4603333473 44661093.440395318 0 44661093.440395318 309579220.52067715 0 0 0 0 -20497122.371768475 86933485.191871271 0 86933485.191871271 234190034.50314331 0 0 0 0 -123319906.70576859 56136299.703309774 0 56136299.703309774 235523679.28085867 0 0 0 0 -102771155.23404121 37107367.475050986 0 37107367.475050986 226768177.79031619 0 0 0 0 -108856246.97677326 77963212.458041191 0 77963212.458041191 180157855.01866293 0 0 0 0 -68881527.281702995 109949265.31039155 0 109949265.31039155 148130110.75749552 0 0 0 0 -85479297.967149734 69543256.279686466 0 69543256.279686466 117175814.55761391 0 0 0 0 -97202098.73132515 39712960.318073168 0 39712960.318073168 174727426.81392872 0 0 0 0 -100766874.24854404 129381016.56376502 0 129381016.56376502 280700117.25224018 0 0 0 0 -101087934.06580544 202784620.44023922 0 202784620.44023922 -55168069.153894007 0 0 0 0 -161947489.93236542 95616188.92243731 0 95616188.92243731 129558092.43345571 0 0 0 0 -108903575.91705132 203625849.31257629 0 203625849.31257629 27887701.542938799 0 0 0 0 -84297743.755846024 102282274.49010479 0 102282274.49010479 18028832.803137541 0 0 0 0 -103156375.7322197 112591349.27898055 0 112591349.27898055 160397155.62492824 0 0 0 0 -75214329.281644821 164263111.51528859 0 164263111.51528859 21363622.031719208 0 0 0 0 -77147511.33577919 220163813.77363825 0 220163813.77363825 -3864666.4038405418 0 0 0 0 -87246927.958580017 195424963.01010942 0 195424963.01010942 -34759879.794838905 0 0 0 0 -95617437.787420273 206224179.7564311 0 206224179.7564311 -9373804.4292295575 0 0 0 0 -157433472.79553562 133455655.54632847 0 133455655.54632847 -33619284.39912653 0 0 0 0 -158582236.70049286 161607411.60251641 0 161607411.60251641 -3865154.3185901642 0 0 0 0 10421774.840742111 175026210.90615511 0 175026210.90615511 167426656.73012471 0 0 0 0 20683985.366791725 182574060.61329746 0 182574060.61329746 87073567.610084057 0 0 0 0 71826990.438165665 189072378.85188431 0 189072378.85188431 279858425.95081663 0 0 0 0 50121316.921826363 135478312.52257562 0 135478312.52257562 147569634.17752171 0 0 0 0 -18205585.448758125 155778948.04399109 0 155778948.04399109 275621476.39110279 0 0 0 0 -23742221.063918114 117700455.29956532 0 117700455.29956532 146693005.27605438 0 0 0 0 -34934214.319883347 149698259.39960337 0 149698259.39960337 84008836.197508812 0 0 0 0 -58412591.288484573 159857522.77886772 0 159857522.77886772 178463494.37643433 0 0 0 0 -32856918.868843317 162489550.79572719 0 162489550.79572719 83870026.621573448 0 0 0 0 -30164799.538409233 204665557.16498947 0 204665557.16498947 27503819.120218277 0 0 0 0 -83608502.618774414 177829392.42300224 0 177829392.42300224 100064080.83208036 0 0 0 0 -73764199.725509644 224811851.74000931 0 224811851.74000931 -15889563.847080231 0 0 0 0 -61706793.736953735 180787827.39315557 0 180787827.39315557 10186875.218381882 0 0 0 0 4621798.578368187 203671770.66957569 0 203671770.66957569 9265102.431804657 0 0 0 0 25046370.463214397 153279878.47923875 0 153279878.47923875 -148950.41278076172 0 0 0 0 78560595.585156441 162248025.74289894 0 162248025.74289894 165088145.42804456 0 0 0 0 81788252.214160919 147179778.635463 0 147179778.635463 72187105.721567154 0 0 0 0 102696081.51070595 135433708.28039837 0 135433708.28039837 -6979837.2773532867 0 0 0 0 31317803.983373642 182149949.68295622 0 182149949.68295622 74872224.894891798 0 0 0 0 25399796.276273727 158683986.22960663 0 158683986.22960663 -5612021.716319263 0 0 0 0 43272287.659166813 164184363.35791636 0 164184363.35791636 -81483053.6346035 0 0 0 0 -13477859.628135681 186341298.11599636 0 186341298.11599636 -7604339.272603035 0 0 0 0 -2931277.2220616341 195454067.33037806 0 195454067.33037806 -68229590.997770309 0 0 0 0 -239271.82253837585 184956874.92274952 0 184956874.92274952 -160039238.46319199 0 0 0 0 38565364.8255229 174593135.22469211 0 174593135.22469211 -172542517.09388542 0 0 0 0 -18939384.94716835 172742178.20583248 0 172742178.20583248 -81049064.629848123 0 0 0 0 -3040327.9554245472 245341672.95341587 0 245341672.95341587 -265466029.98754501 0 0 0 0 2272201.8650093079 179759260.28379822 0 179759260.28379822 -167959762.17842531 0 0 0 0 14218792.746890068 194009666.55584025 0 194009666.55584025 -266016924.24525261 0 0 0 0 -64350865.145505905 175612323.62641525 0 175612323.62641525 -161273705.63324356 0 0 0 0 48990662.873365402 231156689.58822823 0 231156689.58822823 -365423097.6667223 0 0 0 0 3554447.6191730499 170509155.56978035 0 170509155.56978035 -280960508.320508 0 0 0 0 -8725125.372364521 127372958.26805925 0 127372958.26805925 -377946994.19361115 0 0 0 0 65834707.681873322 159228497.56150818 0 159228497.56150818 -378983052.64221722 0 0 0 0 63433962.959911346 187001193.69846153 0 187001193.69846153 -427538138.51093292 0 0 0 0 49399048.030410767 238342434.92585468 0 238342434.92585468 -289598458.98252296 0 0 0 0 -114218635.03215551 161869251.42473841 0 161869251.42473841 -330545937.20468712 0 0 0 0 -134456601.31713963 216875656.31185126 0 216875656.31185126 -260165787.10786057 0 0 0 0 -54713102.370220184 191227437.15348244 0 191227437.15348244 -374765912.36989975 0 0 0 0 -65011459.859642029 188554660.42641449 0 188554660.42641449 -375228579.45110989 0 0 0 0 -287877708.48862839 259178442.57760048 0 259178442.57760048 -363916616.52190065 0 0 0 0 -93622847.236824036 213650056.65745354 0 213650056.65745354 -282919291.92878342 0 0 0 0 -45945771.513877869 166663059.78947353 0 166663059.78947353 -230293301.71232009 0 0 0 0 -153478864.01506615 151217867.34823895 0 151217867.34823895 -231088958.76814461 0 0 0 0 -117108825.46285725 196469845.21773434 0 196469845.21773434 -146727143.03906631 0 0 0 0 -76031137.450222015 221410510.33667946 0 221410510.33667946 -197199025.12854481 0 0 0 0 -130226200.66039658 190289896.31474972 0 190289896.31474972 -208716140.89826965 0 0 0 0 -77056508.543725967 208588301.82442284 0 208588301.82442284 -259268906.57052612 0 0 0 0 -90232505.672834396 190092218.06523323 0 190092218.06523323 -145588834.27469921 0 0 0 0 -68263260.749212742 215866738.28367674 0 215866738.28367674 -101138271.15939903 0 0 0 0 -86229758.326415062 226451340.56292701 0 226451340.56292701 -104499644.41909409 0 0 0 0 -58969977.961143494 170279558.95625401 0 170279558.95625401 -78991569.693403244 0 0 0 0 -54615056.379325867 213359942.70130777 0 213359942.70130777 -105320706.12622738 0 0 0 0 -76958502.63689518 180134751.87817907 0 180134751.87817907 -142253610.16785812 0 0 0 0 -45771854.392580032 178888385.92972755 0 178888385.92972755 -2867616.2953052521 0 0 0 0 -32659887.006372452 202885016.96405387 0 202885016.96405387 -44055464.46056366 0 0 0 0 -75712686.960601807 190702787.19985676 0 190702787.19985676 -47326725.698568344 0 0 0 0 -78766652.282869339 196353286.77722359 0 196353286.77722359 -42288872.42358017 0 0 0 0 -78541778.836704254 228033357.56791496 0 228033357.56791496 -64308951.922310352 0 0 0 0 -59653685.631847382 191310723.69553757 0 191310723.69553757 -101359450.91647148 0 0 0 0 -59099919.836093903 187283509.24869347 0 187283509.24869347 -127564587.886343 0 0 0 0 -132738706.83700943 163745218.6944232 0 163745218.6944232 -57535183.019818306 0 0 0 0 -49083942.042551041 156316076.23138046 0 156316076.23138046 -60470601.197501421 0 0 0 0 10231642.749205709 30875748.247370601 0 30875748.247370601 -38662235.6203022 0 0 0 0 2514409.7364692688 103191023.64700603 0 103191023.64700603 -184990136.36577559 0 0 0 0 -3231417.8852033615 96547249.793705225 0 96547249.793705225 -177861615.24018478 0 0 0 0 -66646968.983288765 218907099.97857189 0 218907099.97857189 -187836743.79941559 0 0 0 0 -31719812.937294006 178606541.9634304 0 178606541.9634304 -203061011.16122437 0 0 0 0 -73119269.730846405 219310331.78899813 0 219310331.78899813 -130521279.14568901 0 0 0 0 -86229707.356678009 208355977.36773682 0 208355977.36773682 -179787365.31831932 0 0 0 0 -36796601.969007492 165044958.0285902 0 165044958.0285902 -120548091.54384804 0 0 0 0 -39342362.118131638 201973401.96701336 0 201973401.96701336 -247669129.45349121 0 0 0 0 -54699225.784870148 192830958.74501038 0 192830958.74501038 -243860308.4211998 0 0 0 0 7282379.6696548462 100756976.22333145 0 100756976.22333145 -304019148.70784187 0 0 0 0 42431196.357570648 79377175.939378738 0 79377175.939378738 -359325928.22606659 0 0 0 0 -19814801.190969467 186569845.90895939 0 186569845.90895939 -503539312.06894302 0 0 0 0 4504535.3929519653 116693259.58649826 0 116693259.58649826 -317472140.83872986 0 0 0 0 50505116.544445038 86670273.731054306 0 86670273.731054306 -504978997.10347366 0 0 0 0 46428753.834693909 91021761.337118149 0 91021761.337118149 -493375109.6419754 0 0 0 0 36045953.361413285 10126750.583589146 0 10126750.583589146 -5031513.7716146978 0 0 0 0 31067439.568286896 1902781.3080396652 0 1902781.3080396652 36572485.291254997 0 0 0 0 51928245.452735901 3929728.7027511597 0 3929728.7027511597 1105949.1676654816 0 0 0 0 46113829.918663025 14559323.926036835 0 14559323.926036835 9416568.0515384674 0 0 0 0 49733247.830936432 26226145.324530482 0 26226145.324530482 -48033552.81517601 0 0 0 0 56930557.173187256 -3301232.2805809975 0 -3301232.2805809975 -4545211.41547966 0 0 0 0 4370386.9063663483 51463384.285391092 0 51463384.285391092 -18312679.715101242 0 0 0 0 44209112.842224121 28570184.307364464 0 28570184.307364464 -36347726.266797066 0 0 0 0 40161131.49092865 98462454.144636154 0 98462454.144636154 -37660752.527412415 0 0 0 0 39712890.573352814 -1497715.6501436234 0 -1497715.6501436234 533727.81763267517 0 0 0 0 25981094.679618835 9781157.9906158447 0 9781157.9906158447 8493664.249879837 0 0 0 0 24760303.791305542 22354623.908683777 0 22354623.908683777 -11761919.256931782 0 0 0 0 19673824.182052612 5027302.8250017166 0 5027302.8250017166 28526984.476980209 0 0 0 0 43745146.119745255 -12959213.741648674 0 -12959213.741648674 9165424.9423427582 0 0 0 0 261387924.11866093 -451150802.43843555 0 -451150802.43843555 -19557156.782970071 0 0 0 0 291104900.13601542 38233107.780386925 0 38233107.780386925 36920184.834308624 0 0 0 0 -70188023.711714745 281750632.23558235 0 281750632.23558235 -260836230.96569252 0 0 0 0 1517460.788834597 1434167.8441018956 0 1434167.8441018956 1158529.1665428802 0 0 0 0 -83138765.649122238 320522519.15897894 0 320522519.15897894 -293665566.59823227 0 0 0 0 71950882.236513138 450169626.21221352 0 450169626.21221352 -214898633.96578407 0 0 0 0 92078420.687675476 373023099.62507629 0 373023099.62507629 -313993677.3769021 0 0 0 0 -45014459.313717842 312985962.98036134 0 312985962.98036134 -333951493.62820053 0 0 0 0 346527584.93514824 490103073.36400032 0 490103073.36400032 -376054261.40774918 0 0 0 0 115555809.08184576 316461829.95734477 0 316461829.95734477 -504729147.84378815 0 0 0 0 481981776.79960108 137036975.77726722 0 137036975.77726722 -732153450.94358444 0 0 0 0 -219413790.37708664 -46037895.740189552 0 -46037895.740189552 -506580753.74061775 0 0 0 0 24191434.932154249 15192702.868174588 0 15192702.868174588 3347389.9110044036 0 0 0 0 34302121.59931469 263254535.71676874 0 263254535.71676874 166570857.65025139 0 0 0 0 -276656271.02476883 -117726870.73530006 0 -117726870.73530006 -107919789.59856796 0 0 0 0 -107122243.81341171 284395171.7978096 0 284395171.7978096 -551288797.49937439 0 0 0 0 -258196.22957611084 217069408.77952957 0 217069408.77952957 -637768705.12780952 0 0 0 0 -3064521.049206607 8803249.266001435 0 8803249.266001435 1987794.9068197398 0 0 0 0 557246836.64968109 -241005311.74378204 0 -241005311.74378204 58741906.857197762 0 0 0 0 451514567.66360474 -117117418.07030487 0 -117117418.07030487 -29217958.944321632 0 0 0 0 59524178.531211853 -478002088.54067421 0 -478002088.54067421 -49309472.96259594 0 0 0 0 1025048308.150322 -375386716.07747841 0 -375386716.07747841 -306281491.96973395 0 0 0 0 1141948076.0702209 -127904972.17750359 0 -127904972.17750359 -362144111.01130825 0 0 0 0 626961171.30606079 -124924378.06373787 0 -124924378.06373787 -190120154.09088135 0 0 0 0 750864752.1048584 -115932842.56502914 0 -115932842.56502914 -362454295.87585413 0 0 0 0 686572885.4621048 -355690206.6510582 0 -355690206.6510582 -307209421.21223664 0 0 0 0 551949934.45016479 -292273817.38666868 0 -292273817.38666868 -120098875.94903374 0 0 0 0 612206322.79338074 -161247724.39669514 0 -161247724.39669514 -60726119.463204384 0 0 0 0 594894583.65327835 -220091212.12065887 0 -220091212.12065887 -96985829.192995071 0 0 0 0 371563360.50897217 -3858625.5618772507 0 -3858625.5618772507 -227941591.09336472 0 0 0 0 747324038.40513611 -279234800.81642413 0 -279234800.81642413 28313518.093839645 0 0 0 0 1172196928.0433807 58989453.302765846 0 58989453.302765846 -145031490.556427 0 0 0 0 707023750.63203681 -63321348.514912002 0 -63321348.514912002 -143315483.05164337 0 0 0 0 706450859.46829224 -226581869.65938568 0 -226581869.65938568 -160812381.18926811 0 0 0 0 281266908.75140762 140978552.79628992 0 140978552.79628992 5809531.9169807434 0 0 0 0 644038441.07266235 -40740493.626121521 0 -40740493.626121521 -147244873.32194901 0 0 0 0 761014957.81208801 292018354.82000732 0 292018354.82000732 -71792923.9165802 0 0 0 0 829064988.70492554 275597230.21565056 0 275597230.21565056 -67888828.450697422 0 0 0 0 819666427.79676819 256730194.47275925 0 256730194.47275925 -104345884.38880157 0 0 0 0 1476350270.3286285 366187379.74830532 0 366187379.74830532 -89723304.281080246 0 0 0 0 2281390.0408204868 1665298.2036333177 0 1665298.2036333177 -128052.7091692239 0 0 0 0 333077948.03860474 174450266.61874676 0 174450266.61874676 106160219.22460556 0 0 0 0 -15526252.084594727 -146696520.84852219 0 -146696520.84852219 -696718784.15538025 0 0 0 0 406132402.80230713 387440224.90605021 0 387440224.90605021 -142833809.36316872 0 0 0 0 408538655.75873566 425538532.27169752 0 425538532.27169752 -2573291.1838645935 0 0 0 0 604527493.77297974 362773743.40103722 0 362773743.40103722 -182300121.14549255 0 0 0 0 706051361.4577713 531382135.68122149 0 531382135.68122149 72769779.09167099 0 0 0 0 219895704.33572388 -89735239.928461075 0 -89735239.928461075 -482343887.18794823 0 0 0 0 82879380.664299011 131422928.81378555 0 131422928.81378555 -148328053.16747665 0 0 0 0 100346208.33154297 142657123.71378708 0 142657123.71378708 -417603664.66595697 0 0 0 0 -140541755.20398045 1032202698.5015179 0 1032202698.5015179 -14540251.289756775 0 0 0 0 68093710.947845459 30099619.391234398 0 30099619.391234398 -281259720.7491684 0 0 0 0 60923809.171295166 -8845513.1180839539 0 -8845513.1180839539 -78489225.929636478 0 0 0 0 17275770.269271851 -21512415.344511509 0 -21512415.344511509 53159513.003632545 0 0 0 0 8265371.588169029 774079.78528354317 0 774079.78528354317 -4236777.0134032834 0 0 0 0 34409106.250101104 8382222.1458190698 0 8382222.1458190698 -5662458.1784711871 0 0 0 0 57365407.098609924 -15946708.478452206 0 -15946708.478452206 -114196260.13010788 0 0 0 0 258118994.49385071 481765412.54302406 0 481765412.54302406 -404031925.73569107 0 0 0 0 -376166999.19644547 109293503.08758211 0 109293503.08758211 126007399.71587849 0 0 0 0 148797219.34641647 26643389.885426521 0 26643389.885426521 -37193356.649835587 0 0 0 0 28138110.684114456 19701469.764740467 0 19701469.764740467 60782197.704814911 0 0 0 0 25135780.327631649 8314224.2206447097 0 8314224.2206447097 -4748969.6980049545 0 0 0 0 1012503.71733284 55001405.323415756 0 55001405.323415756 -62157842.545045853 0 0 0 0 15705951.179677581 -1430210.7090862356 0 -1430210.7090862356 -10045354.535661755 0 0 0 0 -215386791.85753441 114864519.84446263 0 114864519.84446263 -10587523.729438543 0 0 0 0 -103730708.49079514 90878215.590403199 0 90878215.590403199 -10681964.93692112 0 0 0 0 303914230.75429535 108210220.72212219 0 108210220.72212219 -24876672.762747288 0 0 0 0 166895313.51821518 104344034.65791631 0 104344034.65791631 57118909.725968361 0 0 0 0 271822054.5030098 130859259.06573868 0 130859259.06573868 20094455.012577057 0 0 0 0 481586742.43669891 263607789.6072216 0 263607789.6072216 -103242613.31382084 0 0 0 0 476678905.70652008 203094121.21418667 0 203094121.21418667 -58307317.776289463 0 0 0 0 535681323.27038193 320794996.19665813 0 320794996.19665813 -48647334.609861374 0 0 0 0 372773491.63676834 292794072.86598969 0 292794072.86598969 43458821.059074402 0 0 0 0 687299075.05765533 -507813499.60719967 0 -507813499.60719967 -262562122.18347645 0 0 0 0 -14212534.88551712 140934438.11180878 0 140934438.11180878 435663368.50819206 0 0 0 0 9474531.6642052382 2841543.3277871711 0 2841543.3277871711 -1230070.9674099581 0 0 0 0 469838360.51008606 418475764.20235634 0 418475764.20235634 102126163.13302326 0 0 0 0 181033219.27282715 631514799.39827442 0 631514799.39827442 1272743563.8171864 0 0 0 0 485239980.22868919 398331964.4841423 0 398331964.4841423 -117817303.91059875 0 0 0 0 -190962758.11616516 629318780.13208485 0 629318780.13208485 2770736228.271862 0 0 0 0 859116325.84933472 1190983300.9214115 0 1190983300.9214115 667396284.21183014 0 0 0 0 1984375336.2757454 1145053446.323204 0 1145053446.323204 -1274375025.4257927 0 0 0 0 -27146970.268745184 7438153.8670706749 0 7438153.8670706749 -63814246.731527328 0 0 0 0 28257809.92230669 -24220082.981929678 0 -24220082.981929678 14598131.786415301 0 0 0 0 292830043.28059387 -164180043.99531937 0 -164180043.99531937 -274137181.54867077 0 0 0 0 20421234.743226305 -67889779.937444344 0 -67889779.937444344 -97703394.232652664 0 0 0 0 955830135.65322495 -85317654.934666634 0 -85317654.934666634 -806778340.84666443 0 0 0 0 -179791152.80555344 -78617717.075715065 0 -78617717.075715065 -31964912.867910385 0 0 0 0 -130231074.60275006 -203367312.91980886 0 -203367312.91980886 -179030489.05819511 0 0 0 0 165935713.6086576 240287261.87731552 0 240287261.87731552 -341012543.68697071 0 0 0 0 -198593289.15677103 20449007.431923211 0 20449007.431923211 42737183.301826477 0 0 0 0 418155561.68468666 186034493.07013774 0 186034493.07013774 173318002.76514816 0 0 0 0 417297551.63456726 202766277.94661832 0 202766277.94661832 123275020.99672127 0 0 0 0 525037355.1554718 270635436.96814728 0 270635436.96814728 87615780.157178402 0 0 0 0 547054891.93065643 241481540.92761302 0 241481540.92761302 43796933.828516006 0 0 0 0 510555947.66340256 369374210.22581244 0 369374210.22581244 159934479.88731569 0 0 0 0 647567073.74197388 332835224.45982254 0 332835224.45982254 86839509.396412134 0 0 0 0 182679069.26153421 -561694592.16087914 0 -561694592.16087914 -70143249.100402832 0 0 0 0 -228827908.080753 -668110609.38856316 0 -668110609.38856316 34355404.500865936 0 0 0 0 3648447.2262232201 -1527804.5725751529 0 -1527804.5725751529 -1672015.3865369633 0 0 0 0 27041058.777599122 -22251217.171964157 0 -22251217.171964157 10617736.730860107 0 0 0 0 712281044.89090729 192267507.0652889 0 192267507.0652889 115182824.88031864 0 0 0 0 677884303.88941193 225268044.81303406 0 225268044.81303406 92023095.94169426 0 0 0 0 664484810.02256775 104884431.79807532 0 104884431.79807532 234004274.57672596 0 0 0 0 163857986.37945306 -173108356.75451851 0 -173108356.75451851 -109730262.71944809 0 0 0 0 187778805.15024424 517827101.66197014 0 517827101.66197014 -780485042.9780426 0 0 0 0 -31767711.841595978 -332758273.49665833 0 -332758273.49665833 -232959665.23770332 0 0 0 0 -115273930.26108837 -373367536.90876007 0 -373367536.90876007 19609119.853378296 0 0 0 0 -324146673.51873809 -654743780.84758377 0 -654743780.84758377 322471557.16169357 0 0 0 0 -103552729.47297601 -334499185.59075928 0 -334499185.59075928 83127668.864152908 0 0 0 0 -108161466.70452315 -470575761.9739275 0 -470575761.9739275 672535384.90780163 0 0 0 0 404543026.2030161 -618026501.35983968 0 -618026501.35983968 255534410.96214294 0 0 0 0 -460859647.11776942 -197637443.30256557 0 -197637443.30256557 90483661.926012039 0 0 0 0 7965997.352621289 -3551773.5822363179 0 -3551773.5822363179 -5868557.3460731106 0 0 0 0 -132455601.87797642 153414618.92055953 0 153414618.92055953 -25291738.393093586 0 0 0 0 316318245.55351639 43147715.026699543 0 43147715.026699543 27770768.712042809 0 0 0 0 481515351.70963669 161695653.28125882 0 161695653.28125882 18533920.779786289 0 0 0 0 451282311.31553268 190711772.19035387 0 190711772.19035387 2719938.9199677706 0 0 0 0 561593370.69319725 152208685.0318079 0 152208685.0318079 120931669.72194195 0 0 0 0 470976786.43174362 130489893.80176681 0 130489893.80176681 139631222.91784191 0 0 0 0 546597204.70789337 188318854.62452006 0 188318854.62452006 178291514.99068451 0 0 0 0 505730552.61331177 311043418.2534712 0 311043418.2534712 346648527.90527749 0 0 0 0 476676686.70412827 217989247.20101357 0 217989247.20101357 190127344.99893093 0 0 0 0 543040886.79251099 171048970.51728797 0 171048970.51728797 367344811.77738571 0 0 0 0 540994115.77598763 190048206.18109167 0 190048206.18109167 196582993.2137146 0 0 0 0 501051449.43688202 349319871.73080534 0 349319871.73080534 246030147.04026431 0 0 0 0 444859888.22137451 245934423.60738909 0 245934423.60738909 -28566830.691010833 0 0 0 0 462429040.42401886 191312211.89101839 0 191312211.89101839 141163761.95615721 0 0 0 0 459778550.39574432 177573166.9557066 0 177573166.9557066 80060610.983812332 0 0 0 0 -539753156.79233742 152808249.71659672 0 152808249.71659672 44580937.479199827 0 0 0 0 2536374.4082616288 -2283796.96379341 0 -2283796.96379341 -1947793.7578239166 0 0 0 0 -57849440.411102295 24027460.844699502 0 24027460.844699502 63746444.191182077 0 0 0 0 226391607.42109299 530523718.27655685 0 530523718.27655685 -101140812.22655916 0 0 0 0 258493168.86166763 92340437.972508192 0 92340437.972508192 285271805.9708519 0 0 0 0 -168579894.73111725 231464431.52268744 0 231464431.52268744 315894025.01665735 0 0 0 0 -556742176.3824333 -44494206.786158562 0 -44494206.786158562 83005269.324695587 0 0 0 0 554799303.44446182 432171209.31757689 0 432171209.31757689 163544192.40143204 0 0 0 0 575489584.36725616 387177419.13298845 0 387177419.13298845 157957177.71388721 0 0 0 0 24527042.60459606 -17225846.896116048 0 -17225846.896116048 8196166.0645294711 0 0 0 0 583185708.05517578 382451011.92854452 0 382451011.92854452 72862101.379457235 0 0 0 0 532392409.93125153 307590235.8780849 0 307590235.8780849 29282003.675540805 0 0 0 0 377375877.36169052 312854566.17430556 0 312854566.17430556 96662221.943212986 0 0 0 0 546973839.16386271 438866054.3283242 0 438866054.3283242 64498794.32455346 0 0 0 0 499788964.13397217 366673950.62136042 0 366673950.62136042 7982481.9460118786 0 0 0 0 423779627.36689758 414243764.7296567 0 414243764.7296567 102832759.36769855 0 0 0 0 -434593254.72362876 -82600970.395055771 0 -82600970.395055771 30972967.185058594 0 0 0 0 -367729252.92332232 -5744847.1799325943 0 -5744847.1799325943 -65142993.652482033 0 0 0 0 567258118.44656277 335876084.22717464 0 335876084.22717464 664327069.18915558 0 0 0 0 602280478.91402245 193515442.4235456 0 193515442.4235456 7981563.770591259 0 0 0 0 1826555.5352994651 -265742.968127653 0 -265742.968127653 -449137.1581338197 0 0 0 0 12734538.226982193 -9006851.6050438527 0 -9006851.6050438527 2810293.6316770148 0 0 0 0 221723053.85723877 207189803.57703114 0 207189803.57703114 144755859.89129829 0 0 0 0 140770165.09022903 301581383.38352919 0 301581383.38352919 400559851.61166167 0 0 0 0 -13998676.418931127 137992555.62173063 0 137992555.62173063 225580477.84190845 0 0 0 0 59420661.923923492 153137460.13462377 0 153137460.13462377 224216672.24649048 0 0 0 0 -158959223.02373093 -37826528.445354462 0 -37826528.445354462 160149436.92413568 0 0 0 0 181457887.29772231 78274978.576404572 0 78274978.576404572 301831514.56689262 0 0 0 0 -31801496.907658018 -132846039.60166931 0 -132846039.60166931 108377569.74209404 0 0 0 0 -170707232.75227439 -64763342.140445709 0 -64763342.140445709 124165730.71955776 0 0 0 0 -56817613.287084877 -31927354.314625263 0 -31927354.314625263 12915227.371574402 0 0 0 0 -204979201.99917942 46855211.590879917 0 46855211.590879917 -213676082.46290207 0 0 0 0 -617870497.54479527 265810426.21481228 0 265810426.21481228 -24445169.623464584 0 0 0 0 -354347932.36496955 -437097.92729759216 0 -437097.92729759216 91109125.743900299 0 0 0 0 -265761933.6140697 -21398393.077325821 0 -21398393.077325821 51967923.047687531 0 0 0 0 -424081639.75846469 59337619.118246078 0 59337619.118246078 70674220.468978882 0 0 0 0 -234390202.40960217 53681534.570390701 0 53681534.570390701 100277927.94034481 0 0 0 0 -300249053.67366648 123384493.60186553 0 123384493.60186553 15397090.636642456 0 0 0 0 -314158222.19127488 93662144.600356102 0 93662144.600356102 -22303695.513887405 0 0 0 0 -272837605.24114203 26019114.850672722 0 26019114.850672722 135521761.79739571 0 0 0 0 -360593354.08610797 50572756.400776863 0 50572756.400776863 129448629.60258102 0 0 0 0 -35868479.301232547 57220879.71571064 0 57220879.71571064 44190489.349526405 0 0 0 0 23505569.815320678 -203995552.04610837 0 -203995552.04610837 301812917.74575424 0 0 0 0 135986026.51506358 -249224259.60909176 0 -249224259.60909176 107418562.45064545 0 0 0 0 424799058.81793821 -296147819.18638134 0 -296147819.18638134 113568585.7824707 0 0 0 0 433330383.68294871 -151157345.12606478 0 -151157345.12606478 238205335.03895569 0 0 0 0 653749116.09998131 -42949555.675221443 0 -42949555.675221443 278972661.4168334 0 0 0 0 24078100.330275476 -132257863.4555552 0 -132257863.4555552 462181665.10582352 0 0 0 0 1217817353.7871895 778318355.28537321 0 778318355.28537321 702724241.65986443 0 0 0 0 378738045.51934576 221700428.8998847 0 221700428.8998847 338090139.90650368 0 0 0 0 1921586900.6632063 378890281.40372372 0 378890281.40372372 -28046434.446025133 0 0 0 0 533315661.10188103 88550070.348246574 0 88550070.348246574 11845971.138395309 0 0 0 0 566432.05257184338 2146405.454358303 0 2146405.454358303 5361135.9555219449 0 0 0 0 -127909695.37600183 -92667795.86920166 0 -92667795.86920166 1006285921.747509 0 0 0 0 82639040.808635712 856015763.17068958 0 856015763.17068958 1304816103.9258976 0 0 0 0 1775443692.9059711 239108692.80281687 0 239108692.80281687 69163261.660653114 0 0 0 0 -75456350.548261076 104277855.37871838 0 104277855.37871838 1184556293.1608849 0 0 0 0 747888010.55785704 -371110898.61014342 0 -371110898.61014342 -918498960.64160633 0 0 0 0 12877939.364797922 2205886.4582210574 0 2205886.4582210574 -3576775.4305307083 0 0 0 0 -150075875.15723777 179726766.66328931 0 179726766.66328931 131868201.14166641 0 0 0 0 58917290.79344368 -86171413.843654871 0 -86171413.843654871 -293275442.48771286 0 0 0 0 135395348.27188587 13167469.885836601 0 13167469.885836601 -222461457.78011656 0 0 0 0 103289357.56280851 62071710.775560379 0 62071710.775560379 -143379590.51749516 0 0 0 0 90893495.531140089 46616874.73141712 0 46616874.73141712 -100855306.35158777 0 0 0 0 176615274.90724874 -117919723.82306504 0 -117919723.82306504 -429276052.30279714 0 0 0 0 116092197.12698889 33657450.912017584 0 33657450.912017584 -113710367.37862039 0 0 0 0 639714911.60601306 36600202.657380819 0 36600202.657380819 -283248270.64740372 0 0 0 0 269179571.5191741 334372380.86414909 0 334372380.86414909 116327234.80908203 0 0 0 0 120504935.72037613 -564316371.43656635 0 -564316371.43656635 -108838633.23669767 0 0 0 0 5589737.4376799613 760260.48472090997 0 760260.48472090997 -1395848.5644216081 0 0 0 0 -451015893.58734703 -72434393.435996056 0 -72434393.435996056 270987377.767272 0 0 0 0 43501599.045276642 -57312821.593584538 0 -57312821.593584538 87341223.12912178 0 0 0 0 -117625445.27280045 138251513.42678452 0 138251513.42678452 10512086.534244061 0 0 0 0 113588995.99916553 23704637.050673485 0 23704637.050673485 -303662856.72103119 0 0 0 0 2544653.961106196 4911936.9790500645 0 4911936.9790500645 -1451938.4342352878 0 0 0 0 -44483428.681466103 -22731642.987255812 0 -22731642.987255812 -2528621.672826767 0 0 0 0 79133822.789251328 283789085.23737764 0 283789085.23737764 64815793.826104164 0 0 0 0 293917170.85256958 401996826.11336708 0 401996826.11336708 99253633.758597732 0 0 0 0 120253.44692230225 153995681.30669022 0 153995681.30669022 169852717.48697066 0 0 0 0 48443908.69834137 167192232.75606251 0 167192232.75606251 53178020.457565308 0 0 0 0 -31253544.287316322 125664255.93677616 0 125664255.93677616 -5534302.0248527527 0 0 0 0 24090523.363902092 -35820109.572271347 0 -35820109.572271347 45225832.337553978 0 0 0 0 29148556.484844208 560542255.12075472 0 560542255.12075472 415308813.07311869 0 0 0 0 -48985932.971265793 115361915.61574841 0 115361915.61574841 666020774.31920242 0 0 0 0 213345613.69583607 509226412.22296691 0 509226412.22296691 332109465.67068481 0 0 0 0 12746006.074709922 3767689.0530903256 0 3767689.0530903256 -4208636.8737195851 0 0 0 0 537466446.72030592 315620790.55275273 0 315620790.55275273 -375883506.19192266 0 0 0 0 5699210.7737656273 2670065.9429291915 0 2670065.9429291915 -2254219.4078580239 0 0 0 0 321265792.03253555 721408589.07626295 0 721408589.07626295 678068594.37687087 0 0 0 0 120771877.44129658 541953262.37625432 0 541953262.37625432 321182983.71686745 0 0 0 0 103575103.67910004 217652009.77850723 0 217652009.77850723 188920859.83550644 0 0 0 0 715527435.77353668 375906296.53685427 0 375906296.53685427 179713061.65449795 0 0 0 0 236828295.94696808 141731722.87801838 0 141731722.87801838 167981514.87354541 0 0 0 0 280759225.3705492 36237465.314378262 0 36237465.314378262 420008231.48541069 0 0 0 0 531183177.91361713 279810514.33330292 0 279810514.33330292 97019669.235133842 0 0 0 0 229630253.37342834 228825232.24745464 0 228825232.24745464 178468085.65649259 0 0 0 0 221220450.8559885 235658239.95844236 0 235658239.95844236 181529921.26488376 0 0 0 0 285891674.68603945 342421044.0430392 0 342421044.0430392 391258515.37050915 0 0 0 0 450080934.82556248 -73919855.752322704 0 -73919855.752322704 -136266446.87237921 0 0 0 0 127670022.08676624 34536582.370000251 0 34536582.370000251 69872241.732545793 0 0 0 0 131634973.08539772 -222627253.61044848 0 -222627253.61044848 -174128468.18944657 0 0 0 0 -33074663.688631058 22736848.934666932 0 22736848.934666932 -58250270.379907131 0 0 0 0 35586540.787226677 -64217308.193508863 0 -64217308.193508863 -5410592.6298801899 0 0 0 0 117340129.58622169 -7490924.3918605149 0 -7490924.3918605149 33915785.855335534 0 0 0 0 41079739.845340729 -14342237.367238536 0 -14342237.367238536 59381167.559422657 0 0 0 0 67536788.633401871 -26970188.296847105 0 -26970188.296847105 -29149330.583675385 0 0 0 0 66171941.298620224 -20756953.807361364 0 -20756953.807361364 38126394.407011509 0 0 0 0 86109605.843401909 -32797129.891189456 0 -32797129.891189456 14679321.905368805 0 0 0 0 121050422.30074501 35262239.370417833 0 35262239.370417833 12760812.072572231 0 0 0 0 106889419.57086563 -5989807.1592580453 0 -5989807.1592580453 24090327.93357192 0 0 0 0 113914937.70422745 -22431092.214548849 0 -22431092.214548849 62565674.610147566 0 0 0 0 221877190.61159801 69418407.150809646 0 69418407.150809646 48149636.68878603 0 0 0 0 279437326.6852932 95103048.588555932 0 95103048.588555932 -33129477.863366485 0 0 0 0 124628510.66838074 21555914.353383064 0 21555914.353383064 35063994.223632455 0 0 0 0 170001134.81174183 88359546.5771164 0 88359546.5771164 104729197.92709088 0 0 0 0 307665945.64604378 233912237.94574201 0 233912237.94574201 113012631.10072839 0 0 0 0 246208700.40632391 175159764.25470746 0 175159764.25470746 57651462.859208822 0 0 0 0 -110220283.23410034 -77967412.133153915 0 -77967412.133153915 -2572498.1381376982 0 0 0 0 269143355.24323702 136257728.72938061 0 136257728.72938061 -43040137.091939449 0 0 0 0 3699867.5214974657 -904453.964885714 0 -904453.964885714 -2454317.6373341633 0 0 0 0 -152861375.96960831 -39206022.974526584 0 -39206022.974526584 40776507.684187651 0 0 0 0 -24275610.73698616 -125684506.18629599 0 -125684506.18629599 7933648.0683028698 0 0 0 0 -113637703.80839348 -55989020.964486599 0 -55989020.964486599 47839426.057403088 0 0 0 0 -120383994.41301346 -33580434.077309847 0 -33580434.077309847 -1066602.5067548752 0 0 0 0 -103163200.45002937 -151858260.65683258 0 -151858260.65683258 -98288524.643422127 0 0 0 0 6746096.6109693469 -2375312.8432949143 0 -2375312.8432949143 -3463655.0348694911 0 0 0 0 12030926.333005905 -112770662.51424026 0 -112770662.51424026 -155089310.9098258 0 0 0 0 -65040227.225185394 -48177846.019244194 0 -48177846.019244194 -130586142.94240761 0 0 0 0 18398232.351573914 -133760885.66459511 0 -133760885.66459511 -105120040.26679993 0 0 0 0 94011204.194356918 26209040.898940325 0 26209040.898940325 -75510916.533417702 0 0 0 0 -17790807.627085686 -26880485.19474113 0 -26880485.19474113 -65971938.518918991 0 0 0 0 100655378.68211746 10574454.737224698 0 10574454.737224698 -75723432.686045304 0 0 0 0 -8920491.3418722153 -18635111.157345831 0 -18635111.157345831 85638130.123480439 0 0 0 0 167284027.49285412 -89301054.964389786 0 -89301054.964389786 68071392.564708471 0 0 0 0 125108821.73104668 67776593.343502164 0 67776593.343502164 137649098.89930248 0 0 0 0 51118126.541707039 -10240078.569188714 0 -10240078.569188714 61251944.938124299 0 0 0 0 24682524.765392303 25033750.560585976 0 25033750.560585976 57864424.786274284 0 0 0 0 31137116.748132706 15794724.734242916 0 15794724.734242916 76667281.623986334 0 0 0 0 36325613.466031075 2655970.6314044148 0 2655970.6314044148 43588904.021856308 0 0 0 0 64968433.626033783 7730695.6670300961 0 7730695.6670300961 -75580397.031326771 0 0 0 0 35638455.923213959 13439833.172137499 0 13439833.172137499 38571140.135813832 0 0 0 0 46416092.850769997 5767196.2383594513 0 5767196.2383594513 -23675062.444019318 0 0 0 0 17033401.211921692 4996202.917427063 0 4996202.917427063 -22751041.637015343 0 0 0 0 91907513.690722466 30712108.796183109 0 30712108.796183109 -54247865.288087368 0 0 0 0 19304937.969111893 7455493.4593985612 0 7455493.4593985612 -9214293.5428392794 0 0 0 0 34718463.735376358 -54668236.730353355 0 -54668236.730353355 -99942955.945344687 0 0 0 0 -188818360.76462746 23270168.486039221 0 23270168.486039221 21744697.518957138 0 0 0 0 31244869.518947989 -10953571.569763534 0 -10953571.569763534 6224809.2073092423 0 0 0 0 18060711.993694305 -140547116.22540337 0 -140547116.22540337 78352542.994518042 0 0 0 0 247547798.02985001 -282199129.4729619 0 -282199129.4729619 126798241.33713293 0 0 0 0 -1138820.6753091812 63989626.914655685 0 63989626.914655685 63245625.380721092 0 0 0 0 6221576.4511287026 2304769.5336539317 0 2304769.5336539317 -2955751.0270840586 0 0 0 0 107982864.29974174 -124868985.25456899 0 -124868985.25456899 7178518.4479896426 0 0 0 0 288803105.87965393 -226758320.84350604 0 -226758320.84350604 237649.5182916671 0 0 0 0 435555037.11222267 52285244.69254443 0 52285244.69254443 -378716257.89419508 0 0 0 0 -105316709.55834579 17729154.395724595 0 17729154.395724595 2874675.1385352612 0 0 0 0 323265049.07397127 -125125145.70133415 0 -125125145.70133415 -87735144.874397218 0 0 0 0 26812911.300454892 -20033777.507643994 0 -20033777.507643994 16728058.184744723 0 0 0 0 -223478204.21036398 -470562629.06504536 0 -470562629.06504536 464936502.83831787 0 0 0 0 -170629002.33287239 -26085784.752675056 0 -26085784.752675056 31935875.513892174 0 0 0 0 -184069579.35007286 52623409.656599998 0 52623409.656599998 -11825325.040397525 0 0 0 0 405179560.72683716 208059888.25041294 0 208059888.25041294 -285045326.54466343 0 0 0 0 -214802938.63372803 187222711.82693148 0 187222711.82693148 -40814357.738057137 0 0 0 0 34990529.053733826 72430095.908082962 0 72430095.908082962 27792094.587112665 0 0 0 0 86143312.328552246 129216899.15961361 0 129216899.15961361 -37658028.924348354 0 0 0 0 161364854.26739502 -31530791.967463493 0 -31530791.967463493 60535550.529203415 0 0 0 0 157125151.98532867 52802639.603218079 0 52802639.603218079 -50346198.806612015 0 0 0 0 -70773309.683830261 41724013.756527901 0 41724013.756527901 -76670452.313558578 0 0 0 0 20533970.117507041 -8348804.6357925106 0 -8348804.6357925106 574575.67427373247 0 0 0 0 -46061719.071432114 -23037358.858664632 0 -23037358.858664632 157596830.32890558 0 0 0 0 45740613.672996521 -62730576.037123919 0 -62730576.037123919 133754784.86882949 0 0 0 0 -43505594.448501587 46121751.99003458 0 46121751.99003458 62830091.6555233 0 0 0 0 146547336.85985565 59350347.557201862 0 59350347.557201862 53710148.918875694 0 0 0 0 72342159.033462524 101899480.31555557 0 101899480.31555557 88529598.240301371 0 0 0 0 -383004302.83252716 203471148.23125648 0 203471148.23125648 -3057561.2856171131 0 0 0 0 623199.31504083984 -669931.50946297497 0 -669931.50946297497 -804722.82121158205 0 0 0 0 230674313.58222961 73548866.253312111 0 73548866.253312111 -162707241.3155508 0 0 0 0 82289850.327468872 -165738831.94766057 0 -165738831.94766057 244835828.87146187 0 0 0 0 293747753.85683441 -31594923.756600857 0 -31594923.756600857 -99915391.035158157 0 0 0 0 56547634.984092712 22897770.360852957 0 22897770.360852957 -3796872.8743163645 0 0 0 0 44273553.032148361 64366039.164490223 0 64366039.164490223 -77689622.693856239 0 0 0 0 50406104.566253766 -6175251.9702492226 0 -6175251.9702492226 -2946251.5916673411 0 0 0 0 1382478.2746446095 -8217829.9625136377 0 -8217829.9625136377 -504429.30433057947 0 0 0 0 16535449.003593445 -93600272.936894894 0 -93600272.936894894 -10605024.96038115 0 0 0 0 83545346.801053047 -47627788.830602229 0 -47627788.830602229 -220393383.73313808 0 0 0 0 54107428.115961447 -5723563.3235727996 0 -5723563.3235727996 -6939247.5867439294 0 0 0 0 147634830.9776268 203798153.03676748 0 203798153.03676748 -263034637.41530704 0 0 0 0 38952159.425640106 117536143.84971476 0 117536143.84971476 167655728.2513876 0 0 0 0 13227567.178707823 -655747.43411143124 0 -655747.43411143124 -2098521.249225433 0 0 0 0 -43481545.65184021 387105946.76536846 0 387105946.76536846 -190804867.46551514 0 0 0 0 -79326199.884147644 190095596.7687366 0 190095596.7687366 396297020.65279102 0 0 0 0 59781056.683433533 60855414.378088951 0 60855414.378088951 -50151268.304172039 0 0 0 0 170104312.13469315 -130425929.64935589 0 -130425929.64935589 -69319980.470180511 0 0 0 0 346658243.7115097 136476454.31152225 0 136476454.31152225 -48025546.358852386 0 0 0 0 -15650836.112289429 29295495.894004822 0 29295495.894004822 -79701657.351817131 0 0 0 0 62320201.927963257 223102336.28131008 0 223102336.28131008 140544200.82659268 0 0 0 0 109743949.45874023 128540622.06834841 0 128540622.06834841 -76911561.879206657 0 0 0 0 -69846117.197128296 119645910.894907 0 119645910.894907 60461554.759008408 0 0 0 0 -62462276.094409466 214820864.78772864 0 214820864.78772864 482956331.16470814 0 0 0 0 5605.1872394233942 4882164.4240482748 0 4882164.4240482748 1663003.4597241599 0 0 0 0 151270157.37133884 7757422.9359982014 0 7757422.9359982014 -29935203.415672302 0 0 0 0 302015010.19295502 -71652937.131323338 0 -71652937.131323338 -15375637.873636246 0 0 0 0 4987309.3773912042 698582.0517127607 0 698582.0517127607 -1732702.4213299928 0 0 0 0 227821111.18213654 -221984538.42640722 0 -221984538.42640722 96392534.433698654 0 0 0 0 -1987447.8483524323 3967716.2923418283 0 3967716.2923418283 -5919995.6762495041 0 0 0 0 4048755.3332222849 4412554.62816572 0 4412554.62816572 -129587.39682295499 0 0 0 0 51763049.783033371 -31985910.79695797 0 -31985910.79695797 -94697541.608612061 0 0 0 0 97186.028137207031 7584849.5731487274 0 7584849.5731487274 -12685750.639936447 0 0 0 0 3746474.7265714929 2933625.7256257255 0 2933625.7256257255 -1174943.2984841797 0 0 0 0 -73415.7822265625 4997659.4875917435 0 4997659.4875917435 -6032359.6684600115 0 0 0 0 -95691474.722648621 76629482.073247433 0 76629482.073247433 -128994331.60533142 0 0 0 0 7132994.7130700685 587954.0839866139 0 587954.0839866139 -3448194.3440632354 0 0 0 0 34120885.353164673 136097835.0093503 0 136097835.0093503 -191629912.26636577 0 0 0 0 1316523.8207321167 3974683.0901522636 0 3974683.0901522636 -16674409.799181223 0 0 0 0 3265195.0802078918 3358174.4846981014 0 3358174.4846981014 -831837.83619624563 0 0 0 0 -39920790.489974976 114166011.88928843 0 114166011.88928843 -81074837.573307037 0 0 0 0 26152712.12468338 152504220.76156688 0 152504220.76156688 -82659120.032278061 0 0 0 0 -39014427.23588562 71666193.337923527 0 71666193.337923527 -22142040.457435131 0 0 0 0 129634305.76433563 13923999.068772912 0 13923999.068772912 -60932485.55948925 0 0 0 0 116062799.63378525 118663041.82763839 0 118663041.82763839 61802446.661522865 0 0 0 0 111347857.64258289 93632947.339669406 0 93632947.339669406 -31329756.698730469 0 0 0 0 3138993.0467629675 -716213.7534147501 0 -716213.7534147501 -4202427.6029683389 0 0 0 0 -77412353.249710083 -72310621.810220242 0 -72310621.810220242 -41196691.433207512 0 0 0 0 -43636412.069511086 59889618.480992064 0 59889618.480992064 -62678666.446857452 0 0 0 0 -71564613.563827515 167882433.63178444 0 167882433.63178444 -96860635.791689157 0 0 0 0 -207116366.42391586 157406669.69228315 0 157406669.69228315 -56510648.031801224 0 0 0 0 142294895.53418589 42782435.548511267 0 42782435.548511267 -12582250.277211189 0 0 0 0 96715903.767875671 54187597.667862892 0 54187597.667862892 30861474.0700109 0 0 0 0 205294801.41899395 82115400.110592842 0 82115400.110592842 13544680.844412327 0 0 0 0 121560656.43691444 14462496.300248384 0 14462496.300248384 -28089546.230920792 0 0 0 0 15191375.300699234 -7531329.9668226242 0 -7531329.9668226242 -1218670.5750026703 0 0 0 0 54504110.534864426 -68879042.701882839 0 -68879042.701882839 -84216114.618902922 0 0 0 0 236792544.4933567 -574700464.70507491 0 -574700464.70507491 -166221708.69745255 0 0 0 0 48077829.271067649 -8598473.9461177737 0 -8598473.9461177737 -5711857.2460767087 0 0 0 0 79745729.779443741 -2024351.5437061787 0 -2024351.5437061787 -70611047.200263023 0 0 0 0 61165411.725322723 4949845.2920701504 0 4949845.2920701504 12404836.995346546 0 0 0 0 13293390.897937775 -4746932.4368443489 0 -4746932.4368443489 6140965.6539018154 0 0 0 0 -287255338.24212646 90544109.410077095 0 90544109.410077095 11404851.075077057 0 0 0 0 802406027.41400146 228753045.43493462 0 228753045.43493462 26394337.95157814 0 0 0 0 295016977.54061127 -528846803.73067856 0 -528846803.73067856 -119339145.56233597 0 0 0 0 820063494.06111908 426841600.51205969 0 426841600.51205969 415319335.52652359 0 0 0 0 1029716.4464330897 1839801.2166530471 0 1839801.2166530471 651096.04068250116 0 0 0 0 319404695.93789673 -378481224.78535557 0 -378481224.78535557 183972436.29765415 0 0 0 0 111836582.95620728 23690439.399286032 0 23690439.399286032 260389462.72314358 0 0 0 0 546131718.04533386 -90026582.060176849 0 -90026582.060176849 -42564705.986682892 0 0 0 0 275339675.484375 -61776916.213611603 0 -61776916.213611603 -39509826.416619599 0 0 0 0 1286784.126277972 759718.35304959863 0 759718.35304959863 648240.18234708905 0 0 0 0 30663624.176362991 -126326930.20125091 0 -126326930.20125091 78829294.322582245 0 0 0 0 361632303.3503418 -488707539.92001534 0 -488707539.92001534 -221734926.38428497 0 0 0 0 52469169.339595795 360210411.051085 0 360210411.051085 -87997306.338735461 0 0 0 0 42258633.902295418 -6621333.1282584965 0 -6621333.1282584965 -6027373.8090378661 0 0 0 0 73221197.070672989 -12892505.326077461 0 -12892505.326077461 -55852817.22125721 0 0 0 0 -17380966.75453949 -97268359.234749317 0 -97268359.234749317 -37722234.690751553 0 0 0 0 80177452.992103577 67527394.011456013 0 67527394.011456013 25050215.416545868 0 0 0 0 46061968.105607986 11253267.27759409 0 11253267.27759409 20877971.647534847 0 0 0 0 52550323.2345047 19695127.581696987 0 19695127.581696987 7056498.7501564026 0 0 0 0 40750024.546180725 37824717.170459986 0 37824717.170459986 21529985.733968735 0 0 0 0 25961396.60483551 8657268.9412035942 0 8657268.9412035942 13773788.942897081 0 0 0 0 24252088.701301575 12893210.017122269 0 12893210.017122269 3889602.369934082 0 0 0 0 -18357610.428115845 -28198115.042715549 0 -28198115.042715549 13131978.996053696 0 0 0 0 -9467832.0275249481 16508669.857826591 0 16508669.857826591 61349466.988691807 0 0 0 0 40097418.720039368 45780030.041396618 0 45780030.041396618 28246155.478486061 0 0 0 0 3932484.2662883475 3709367.3135943785 0 3709367.3135943785 2554799.0155258393 0 0 0 0 71981090.117435455 37011585.685205221 0 37011585.685205221 10579961.663360596 0 0 0 0 -104598175.12619781 -54449520.101415634 0 -54449520.101415634 51200078.442177773 0 0 0 0 37167658.254486084 30995756.732313156 0 30995756.732313156 10892047.551960945 0 0 0 0 -40498375.357788086 2164133.3227424622 0 2164133.3227424622 -70049170.653680801 0 0 0 0 -37543681.667480469 27225866.626844406 0 27225866.626844406 -61635162.84255743 0 0 0 0 -34075365.933197021 37274448.297624588 0 37274448.297624588 -35171099.996636868 0 0 0 0 -46524813.359985352 -9095003.7297592163 0 -9095003.7297592163 -15181562.086359024 0 0 0 0 -43132466.428344727 -24024793.962984085 0 -24024793.962984085 -49562161.20483017 0 0 0 0 -48166837.233901978 -24858020.749437332 0 -24858020.749437332 -33789632.725524902 0 0 0 0 5703825.7263512611 19115954.446455285 0 19115954.446455285 28718682.464359283 0 0 0 0 -52771513.480697632 -3628034.2312002182 0 -3628034.2312002182 23231920.700643539 0 0 0 0 5808252.5008239746 22183722.756727219 0 22183722.756727219 -20732488.319442749 0 0 0 0 -31574515.201873779 27018100.521530151 0 27018100.521530151 4273505.2348709106 0 0 0 0 63632558.55865097 25571696.805401802 0 25571696.805401802 64022749.759592056 0 0 0 0 60297469.830215454 10424644.96289444 0 10424644.96289444 10485227.169617653 0 0 0 0 67834272.688610077 -37842690.903971195 0 -37842690.903971195 62987848.560230255 0 0 0 0 -16624508.495651245 20781615.388513565 0 20781615.388513565 33349293.77025032 0 0 0 0 56484869.263298035 -11225394.875491619 0 -11225394.875491619 33069064.62388289 0 0 0 0 164173187.91104126 75984567.669939041 0 75984567.669939041 -76019318.303434849 0 0 0 0 -129115019.30077076 58113551.34541738 0 58113551.34541738 80886277.67399025 0 0 0 0 177049295.55026245 68553185.590173721 0 68553185.590173721 55845514.956607819 0 0 0 0 251734359.23364258 -21260409.153675079 0 -21260409.153675079 -29084064.213887691 0 0 0 0 272389161.17855072 -53200545.410878181 0 -53200545.410878181 -8651718.9866333008 0 0 0 0 253692611.06079006 -35635484.205667913 0 -35635484.205667913 60655357.231738091 0 0 0 0 827375.4489848651 413409.71380130574 0 413409.71380130574 -362782.90234201215 0 0 0 0 347885356.57913589 -120508754.6281358 0 -120508754.6281358 72265788.883979797 0 0 0 0 361043360.61826324 -22990079.146354198 0 -22990079.146354198 -29396976.825924873 0 0 0 0 209963751.40153503 -61911510.646265984 0 -61911510.646265984 50434189.38687706 0 0 0 0 358184318.43013763 -154588693.68049145 0 -154588693.68049145 -10736788.676570892 0 0 0 0 70821019.895549774 3789215.4572350979 0 3789215.4572350979 3963006.9567570686 0 0 0 0 539282.65887729265 467128.54078058898 0 467128.54078058898 8923.0203725192696 0 0 0 0 54277886.193359375 2856000.2364106178 0 2856000.2364106178 41804776.876905322 0 0 0 0 52908137.522224426 -7037576.8181872368 0 -7037576.8181872368 -1353924.3167724609 0 0 0 0 35817735.757165909 1576667.5951976776 0 1576667.5951976776 -11851716.367753029 0 0 0 0 16341239.591720581 11419226.438401222 0 11419226.438401222 -1881894.6562271118 0 0 0 0 26787544.064544678 15279485.241241693 0 15279485.241241693 -19910749.672495842 0 0 0 0 -17264999.144874573 26611904.735367775 0 26611904.735367775 727471.26497745514 0 0 0 0 -8840360.8137054443 48086699.412854671 0 48086699.412854671 7955045.7739543915 0 0 0 0 28828428.568325043 34112444.412005424 0 34112444.412005424 2031302.5069465637 0 0 0 0 22050858.238113403 27915841.217439651 0 27915841.217439651 -1808218.5792369843 0 0 0 0 22127599.909484863 55690831.968240738 0 55690831.968240738 17368461.203237295 0 0 0 0 79778445.038848877 14654337.807615757 0 14654337.807615757 -457108.8436498642 0 0 0 0 9956876.1507034302 35779155.895841599 0 35779155.895841599 -6034985.1291065216 0 0 0 0 -35066230.760482788 30973308.485069275 0 30973308.485069275 6899120.0195188522 0 0 0 0 3904575.3889846802 3539235.3469643593 0 3539235.3469643593 1677108.5702171326 0 0 0 0 1525763.3728761226 6390741.70429717 0 6390741.70429717 6670869.4657721352 0 0 0 0 -65108506.783157349 25956989.272484303 0 25956989.272484303 8701084.2751321793 0 0 0 0 -46706607.044525146 51425153.440787792 0 51425153.440787792 -9765976.5234870911 0 0 0 0 6032423.5869602412 1582932.6123164445 0 1582932.6123164445 -1088429.5705731846 0 0 0 0 25567825.298553467 21160884.409370422 0 21160884.409370422 22031885.899044991 0 0 0 0 8876532.341927588 9262319.234532468 0 9262319.234532468 857172.79966905341 0 0 0 0 -37984081.289886475 24783032.535777569 0 24783032.535777569 -1206874.1131639481 0 0 0 0 15868191.087234497 6191965.6940031052 0 6191965.6940031052 -66355522.734783173 0 0 0 0 18922629.739425659 15242843.965337753 0 15242843.965337753 -56190156.868635178 0 0 0 0 -13108664.746149063 37608721.931934714 0 37608721.931934714 1926258.9724187851 0 0 0 0 9193460.3848885894 11696872.35426617 0 11696872.35426617 9382575.4794183224 0 0 0 0 -6468436.4614334106 22886560.180759907 0 22886560.180759907 37672970.869839668 0 0 0 0 1554427.4080475271 4587260.3076975644 0 4587260.3076975644 2163853.280440852 0 0 0 0 11820648.254996322 2223489.8788648285 0 2223489.8788648285 -8627860.6945423707 0 0 0 0 74961087.065841675 66923523.526875019 0 66923523.526875019 -15131825.721630633 0 0 0 0 13507566.734107248 816545.46020833403 0 816545.46020833403 -8726178.6761492472 0 0 0 0 27660962.172927856 17465503.683101177 0 17465503.683101177 -274202.7133731842 0 0 0 0 42787951.383422852 24252261.544095039 0 24252261.544095039 1723835.5316724777 0 0 0 0 24541675.056270599 8187892.9451811314 0 8187892.9451811314 24867203.74698925 0 0 0 0 58590722.737014771 917288.59034252167 0 917288.59034252167 -11951949.019414902 0 0 0 0 34309767.011901855 26333982.867341042 0 26333982.867341042 5163539.9454193115 0 0 0 0 28691115.136399269 -390181.69952431321 0 -390181.69952431321 -5875266.8837203979 0 0 0 0 24897563.424690247 27609161.553336382 0 27609161.553336382 38617018.149421692 0 0 0 0 2552006.8478871286 -252057.19680725038 0 -252057.19680725038 -2344014.7808888573 0 0 0 0 -7038886.3707809448 5335557.650829792 0 5335557.650829792 2135261.2515039444 0 0 0 0 6436648.4388569482 2066221.2167075053 0 2066221.2167075053 -2826980.8368831798 0 0 0 0 -4519913.1605529785 13487427.914170265 0 13487427.914170265 -13485222.582885027 0 0 0 0 4587181.6481170654 2029804.3654589653 0 2029804.3654589653 -8649514.0683174133 0 0 0 0 -12031811.932983398 -39857724.028754234 0 -39857724.028754234 26829379.240561247 0 0 0 0 126180062.9563446 708756.01422309875 0 708756.01422309875 -12668631.171653509 0 0 0 0 -80669170.690718651 -11964510.241823524 0 -11964510.241823524 -4255712.3006901741 0 0 0 0 -27317104.792324066 -14009890.497731566 0 -14009890.497731566 -16249264.684607029 0 0 0 0 -949798.44574669749 1657457.1411735192 0 1657457.1411735192 -55126.707476232201 0 0 0 0 821011.71264648438 6098513.4580895901 0 6098513.4580895901 -1230842.8451089859 0 0 0 0 4639304.8823013306 10157742.253499985 0 10157742.253499985 -4555700.2033805847 0 0 0 0 -11398482.768409729 18060696.536319733 0 18060696.536319733 7927142.1047142744 0 0 0 0 13681370.971769333 30393962.778758287 0 30393962.778758287 9076159.0819072723 0 0 0 0 407701709.42545319 8150412.6341366768 0 8150412.6341366768 -17535587.930508137 0 0 0 0 283477743.24889374 -96939501.756574154 0 -96939501.756574154 23527965.277447701 0 0 0 0 747165.26329730451 534559.91304334626 0 534559.91304334626 -149378.51519409381 0 0 0 0 176827207.97089386 -8232760.970870018 0 -8232760.970870018 62488222.785511494 0 0 0 0 340183335.0751915 -203689181.29705358 0 -203689181.29705358 92099276.670046806 0 0 0 0 -322899.62023162842 2548428.35536623 0 2548428.35536623 -8892065.9986724854 0 0 0 0 175766952.77929688 -120136766.57319021 0 -120136766.57319021 90998235.557931423 0 0 0 0 1468852.6594862044 1734394.4912587889 0 1734394.4912587889 -98840.910369005986 0 0 0 0 190503814.70056725 -80871750.623510599 0 -80871750.623510599 9475472.5113296509 0 0 0 0 127896554.27751923 -54471323.527543068 0 -54471323.527543068 24466562.406291008 0 0 0 0 182311850.02363586 -90580555.918162346 0 -90580555.918162346 13497026.634704113 0 0 0 0 230525847.32139587 -107586096.24973416 0 -107586096.24973416 19470148.832888603 0 0 0 0 229042863.42266846 -69376715.469534636 0 -69376715.469534636 11497530.340989113 0 0 0 0 1306345.0510731488 561237.46685911715 0 561237.46685911715 -663770.56574498117 0 0 0 0 251451170.19636917 -94169236.389598131 0 -94169236.389598131 -5202033.7010126114 0 0 0 0 220573879.62423706 -48532616.422303677 0 -48532616.422303677 55117201.664029121 0 0 0 0 1313453.0925568193 1126048.7763738558 0 1126048.7763738558 346628.60762533359 0 0 0 0 215222738.57787323 -38673879.093067408 0 -38673879.093067408 31543688.752365112 0 0 0 0 97303181.132575989 -74396518.253778458 0 -74396518.253778458 19722874.738743305 0 0 0 0 208983795.26311111 -54607245.991816998 0 -54607245.991816998 -1892433.324464798 0 0 0 0 164031154.3739624 -90258123.252182484 0 -90258123.252182484 27820025.972481728 0 0 0 0 713666.65146820247 3076525.4893173389 0 3076525.4893173389 496686.06175998971 0 0 0 0 46374331.742395401 27193517.033444464 0 27193517.033444464 -8286634.4423360825 0 0 0 0 115562020.4577961 -38780454.96483171 0 -38780454.96483171 -13867336.688317776 0 0 0 0 517899.07382202148 6720223.0708081722 0 6720223.0708081722 -8982557.1054162979 0 0 0 0 12962749.716968536 58533267.86872375 0 58533267.86872375 46911252.432435036 0 0 0 0 6995183.4023345001 3155166.7953282408 0 3155166.7953282408 -2282328.0113814883 0 0 0 0 407440399.65092468 -69017222.804179668 0 -69017222.804179668 -27975199.811124802 0 0 0 0 503249515.52387428 82618569.583621502 0 82618569.583621502 -83890462.663965225 0 0 0 0 473135180.46977234 100537024.36099958 0 100537024.36099958 -91455374.665006638 0 0 0 0 469138697.96495056 49554573.319126606 0 49554573.319126606 -88027950.350937843 0 0 0 0 150461123.02738953 -47381769.861661434 0 -47381769.861661434 -7529581.7475185394 0 0 0 0 437415935.93481827 63673432.938998699 0 63673432.938998699 -53353748.759625435 0 0 0 0 -277113.45874165744 698576.74522681162 0 698576.74522681162 189101.17710343283 0 0 0 0 444885256.59426117 26045515.804041386 0 26045515.804041386 -46027570.840432882 0 0 0 0 54665983.758146286 99765463.543937564 0 99765463.543937564 51887454.723759651 0 0 0 0 200118276.847332 147621194.69438243 0 147621194.69438243 23360826.251282692 0 0 0 0 454543896.92536163 35726767.667477608 0 35726767.667477608 -38932720.099392891 0 0 0 0 689083919.34017944 -1091461.918479681 0 -1091461.918479681 -33248987.179166675 0 0 0 0 521826546.77985764 -144240414.08680177 0 -144240414.08680177 56637954.234362125 0 0 0 0 228322508.95201111 135911766.86276245 0 135911766.86276245 85106426.306153774 0 0 0 0 353237931.66093445 47904556.285449505 0 47904556.285449505 -22302479.186053276 0 0 0 0 525401602.30096817 216078673.03631616 0 216078673.03631616 -28844281.482578278 0 0 0 0 1557646.2667362392 1027784.0831025885 0 1027784.0831025885 -258613.43954472826 0 0 0 0 -71566619.472132683 -47743645.474198878 0 -47743645.474198878 60152575.823379517 0 0 0 0 170945274.20527649 48911919.277086735 0 48911919.277086735 59669301.971340537 0 0 0 0 388550056.16438293 -35465408.562869072 0 -35465408.562869072 8177595.1508141756 0 0 0 0 384620083.02059937 -48477471.356436491 0 -48477471.356436491 56903009.497927189 0 0 0 0 487887313.97259521 -18247134.508223534 0 -18247134.508223534 21722246.334268093 0 0 0 0 199817202.37992096 117646360.70960498 0 117646360.70960498 44587532.648476601 0 0 0 0 87969.422606319189 307990.3694967255 0 307990.3694967255 1060539.4279031055 0 0 0 0 17153254.978557587 39413859.360765934 0 39413859.360765934 131496168.83767366 0 0 0 0 484344147.55255127 74035307.192811847 0 74035307.192811847 -71639510.819952488 0 0 0 0 456643449.37960052 75594635.507900715 0 75594635.507900715 4988815.181483984 0 0 0 0 446535151.9168644 53228382.881459773 0 53228382.881459773 -76031214.333112717 0 0 0 0 255526.1852209717 557853.98121915758 0 557853.98121915758 2285645.242189182 0 0 0 0 -11432898.552684784 -11449103.553484201 0 -11449103.553484201 12582504.8687644 0 0 0 0 -46467586.452083588 -35699233.910804987 0 -35699233.910804987 18078934.909598827 0 0 0 0 38142318.486438751 -28208599.548069954 0 -28208599.548069954 15518373.116486549 0 0 0 0 -5165519.334526062 -6780280.1828913689 0 -6780280.1828913689 12494500.497486591 0 0 0 0 22803890.75182724 19432449.05919385 0 19432449.05919385 -21313352.154393196 0 0 0 0 -26519633.286239624 7296014.1765055656 0 7296014.1765055656 26127316.154690742 0 0 0 0 -1250699.5221633911 388696.52414226532 0 388696.52414226532 16945674.808744907 0 0 0 0 -14337520.106544495 10902658.424011707 0 10902658.424011707 27117322.308466434 0 0 0 0 -103064994.24725342 25822348.215441704 0 25822348.215441704 26668798.027203798 0 0 0 0 4077548.7402706146 90071093.931261539 0 90071093.931261539 1667079.1918907166 0 0 0 0 67847082.065261841 17272419.85820055 0 17272419.85820055 -22191322.975662231 0 0 0 0 133474540.28518677 87191720.699989796 0 87191720.699989796 -32874228.338559151 0 0 0 0 30686033.293006897 38485879.199579 0 38485879.199579 -31841432.585271835 0 0 0 0 134553979.37000275 1002993.2065215111 0 1002993.2065215111 -54673055.171365738 0 0 0 0 46483087.660728455 -7192765.8121871948 0 -7192765.8121871948 -49450668.065613985 0 0 0 0 64691625.437515259 99877089.261087418 0 99877089.261087418 43890989.54653877 0 0 0 0 1704427.4263952821 -35954.102083463222 0 -35954.102083463222 -1970303.2467942555 0 0 0 0 93259815.013442993 991999499.43991089 0 991999499.43991089 -300066450.37506485 0 0 0 0 -8354234.4044799805 -154037058.38325024 0 -154037058.38325024 466951136.68985748 0 0 0 0 -94969584.950872421 14252718.800070286 0 14252718.800070286 17357241.303828239 0 0 0 0 2397052.6054919511 3169756.4576158226 0 3169756.4576158226 -378677.76650449494 0 0 0 0 40563933.297706604 -76454396.431693554 0 -76454396.431693554 -51747126.533791542 0 0 0 0 -91233569.039604187 7305498.9217357635 0 7305498.9217357635 6546264.803021431 0 0 0 0 4406998.8472165316 10989494.996247038 0 10989494.996247038 9743354.5356877595 0 0 0 0 -87562364.728843689 15672717.783787727 0 15672717.783787727 11859565.21779871 0 0 0 0 -85835008.259376526 25237066.944208145 0 25237066.944208145 23439898.185480118 0 0 0 0 1537743.7631759644 29144887.199097157 0 29144887.199097157 -15576848.055276871 0 0 0 0 867317.37326955795 26357437.711959958 0 26357437.711959958 -16181901.037384033 0 0 0 0 8649095.4919962883 25864079.523054868 0 25864079.523054868 -22042107.03332901 0 0 0 0 17192605.83089447 55626480.300751686 0 55626480.300751686 45095278.684724808 0 0 0 0 -22641207.791732788 -6467492.4559702873 0 -6467492.4559702873 83816248.736047268 0 0 0 0 -24405350.987098694 7017426.7123374939 0 7017426.7123374939 -8198990.9771177769 0 0 0 0 -77064807.991676331 36732035.950977802 0 36732035.950977802 33471218.839591503 0 0 0 0 -48431903.036315918 51147184.804727077 0 51147184.804727077 28726945.9154737 0 0 0 0 -9939554.3692550659 17535376.184160233 0 17535376.184160233 9520445.6776046753 0 0 0 0 -48366249.464990616 36651559.767632484 0 36651559.767632484 -40456470.625660896 0 0 0 0 32757981.119590759 76639751.694402218 0 76639751.694402218 40562806.470164537 0 0 0 0 88316658.392059326 -15621611.367930174 0 -15621611.367930174 60705443.515545368 0 0 0 0 18038724.869827271 39007060.318646431 0 39007060.318646431 -35604390.669579029 0 0 0 0 -21132907.183826447 137101757.22143769 0 137101757.22143769 -45370227.064995199 0 0 0 0 514727.90730544925 75617.60330421105 0 75617.60330421105 -191275.94865522161 0 0 0 0 -36098186.299091697 159232538.98546112 0 159232538.98546112 15514278.592453003 0 0 0 0 3858281.0755205601 8979064.7781044971 0 8979064.7781044971 10375686.743177466 0 0 0 0 -26355196.132164001 59189727.275249481 0 59189727.275249481 -40017327.268369675 0 0 0 0 -58164171.158412933 47571292.241518974 0 47571292.241518974 -30989493.606796265 0 0 0 0 -19538195.416557312 39643754.797569275 0 39643754.797569275 -48288706.194696426 0 0 0 0 -50959719.042488813 -106873979.81579775 0 -106873979.81579775 -19183730.931075096 0 0 0 0 -69487983.922103882 173161151.95087981 0 173161151.95087981 22116569.526091695 0 0 0 0 10522478.723617554 26567442.849556923 0 26567442.849556923 -22554824.113559723 0 0 0 0 14265325.543769836 28218017.647367477 0 28218017.647367477 -31556409.133064747 0 0 0 0 2709092.6296234131 35337460.446400166 0 35337460.446400166 -29527898.011165619 0 0 0 0 -30545486.523853302 45908572.178009033 0 45908572.178009033 -23337439.263635635 0 0 0 0 -10252713.648830414 27968682.300409317 0 27968682.300409317 -16272347.377832413 0 0 0 0 6894549.4696426392 38246845.569767952 0 38246845.569767952 -46488398.548778534 0 0 0 0 -17529895.953788757 45170265.213736534 0 45170265.213736534 -33080763.506572723 0 0 0 0 -1023048.7431716919 34971744.389219284 0 34971744.389219284 -30291142.651046753 0 0 0 0 1712581.5700683594 37495299.146707535 0 37495299.146707535 -38626478.453969955 0 0 0 0 21607726.98992157 28600013.761425972 0 28600013.761425972 -35925162.004769802 0 0 0 0 17384771.909736633 20857358.253705978 0 20857358.253705978 -24159919.787244797 0 0 0 0 12211423.327629089 26765282.99467659 0 26765282.99467659 -27541787.062517166 0 0 0 0 23253062.910423517 24556051.325118899 0 24556051.325118899 -30898924.473079681 0 0 0 0 34435792.911127567 25829342.623906553 0 25829342.623906553 -23871793.031795502 0 0 0 0 17440844.96163559 17415244.833844662 0 17415244.833844662 1769975.1827802658 0 0 0 0 25385472.69985199 16555643.179854393 0 16555643.179854393 -29926477.071016788 0 0 0 0 4313361.8308029175 31110551.147081375 0 31110551.147081375 -24466879.841791153 0 0 0 0 -3895640.1040878296 27451497.475461006 0 27451497.475461006 -29703081.278181076 0 0 0 0 10757761.344108582 34086989.913351059 0 34086989.913351059 -30695885.583171844 0 0 0 0 38355020.534378052 23346585.082553864 0 23346585.082553864 -10637414.236245155 0 0 0 0 20682584.260150909 9403150.0480241776 0 9403150.0480241776 -19866095.303314209 0 0 0 0 23532909.637973547 13805341.242517659 0 13805341.242517659 -1480082.5312779453 0 0 0 0 43233429.13974762 -8178085.0558280945 0 -8178085.0558280945 -7332633.6572437286 0 0 0 0 42264892.094091892 7710676.4517220259 0 7710676.4517220259 79899804.247898102 0 0 0 0 3556392.5997815058 7151753.7117266972 0 7151753.7117266972 8485584.1859638933 0 0 0 0 -59078508.388690948 91556697.126832008 0 91556697.126832008 -60910542.043800354 0 0 0 0 -15835832.885787964 54163095.969189644 0 54163095.969189644 -78349061.54712534 0 0 0 0 -8240668.6016845703 51661290.881892204 0 51661290.881892204 -50911440.213711739 0 0 0 0 -27310380.411968231 34618710.322790146 0 34618710.322790146 -27409717.731678009 0 0 0 0 10906138.606838226 15665264.335142612 0 15665264.335142612 -13240715.905993462 0 0 0 0 6961270.4925355911 42104228.298240185 0 42104228.298240185 -29480453.235767365 0 0 0 0 -84833508.537345886 38813241.940200806 0 38813241.940200806 -19704724.034808159 0 0 0 0 -12773194.974716187 58209491.397631645 0 58209491.397631645 -20838550.774802208 0 0 0 0 -44530.542755126953 71222590.741976261 0 71222590.741976261 -9752123.2412662506 0 0 0 0 -75848627.393218994 120183545.43083382 0 120183545.43083382 -35729660.919740677 0 0 0 0 3051553.4015199989 4584977.0734790526 0 4584977.0734790526 4293871.913544951 0 0 0 0 -88228689.951087952 189363220.48532867 0 189363220.48532867 174695676.57866383 0 0 0 0 -79760059.54724884 79526741.647268295 0 79526741.647268295 84286651.950553894 0 0 0 0 -421040302.99763489 175030177.45385218 0 175030177.45385218 60991735.190512657 0 0 0 0 49534087.693641663 203941941.58228636 0 203941941.58228636 -26272933.627022862 0 0 0 0 2175452.9872582108 280348.42919800431 0 280348.42919800431 -852250.75506822951 0 0 0 0 -36457300.393923044 -157910502.04121158 0 -157910502.04121158 18484452.744840622 0 0 0 0 1322072992.0801849 -449673390.50707746 0 -449673390.50707746 -222662118.44847107 0 0 0 0 490326268.37338257 -493689179.55773234 0 -493689179.55773234 -170993298.53412282 0 0 0 0 1896514328.1624756 761116040.58412743 0 761116040.58412743 1325815870.7003708 0 0 0 0 2198090.8616888449 120468.50535221025 0 120468.50535221025 -1082547.9106432851 0 0 0 0 73904752.928008556 -302348804.14114201 0 -302348804.14114201 -49213045.915107727 0 0 0 0 134626710.52095032 -162028226.94496584 0 -162028226.94496584 274522949.3060236 0 0 0 0 -139710255.58711243 -252344688.23599386 0 -252344688.23599386 187583120.38872147 0 0 0 0 -199595086.62120819 -379065515.48270893 0 -379065515.48270893 -49417905.075119019 0 0 0 0 348238722.12644196 109134386.21451378 0 109134386.21451378 -174315353.10694313 0 0 0 0 375894179.52084351 237726862.00989628 0 237726862.00989628 148766038.22587132 0 0 0 0 124199560.28460312 -1264883377.1305046 0 -1264883377.1305046 -311795281.24777222 0 0 0 0 701019377.50395966 494154971.63785648 0 494154971.63785648 348603490.78992176 0 0 0 0 1247094503.3311787 -381307281.79987407 0 -381307281.79987407 43318664.136618614 0 0 0 0 7226459.3369833753 -2322492.9684008807 0 -2322492.9684008807 421051.8749269339 0 0 0 0 399570449.50348663 376390202.79408932 0 376390202.79408932 659803003.57313395 0 0 0 0 273480867.95335388 -467512855.16372967 0 -467512855.16372967 511162431.21155536 0 0 0 0 105334346.64064407 -134473691.63548207 0 -134473691.63548207 177927178.70719147 0 0 0 0 654002202.68194199 144142818.81612277 0 144142818.81612277 -65518216.562238693 0 0 0 0 32875446.552549839 34522289.02877596 0 34522289.02877596 343373792.08405876 0 0 0 0 321509599.3971405 255647687.73333597 0 255647687.73333597 247471564.4447155 0 0 0 0 1390512223.5490952 425626173.24893379 0 425626173.24893379 33978803.029622555 0 0 0 0 627648052.76087189 79020036.734469414 0 79020036.734469414 -113480006.6872499 0 0 0 0 608418946.31850052 -80720181.311675787 0 -80720181.311675787 -227495866.49768543 0 0 0 0 900094180.02556992 -7052984.8030636311 0 -7052984.8030636311 -260392195.75576591 0 0 0 0 630366413.72589111 -64126697.661826968 0 -64126697.661826968 -258937703.6843605 0 0 0 0 372680564.19501495 77843197.246309757 0 77843197.246309757 -97064810.900302887 0 0 0 0 360503784.2660675 26578374.688468933 0 26578374.688468933 -105926573.6444006 0 0 0 0 319823224.99575806 17678184.309941769 0 17678184.309941769 -101904825.04863858 0 0 0 0 326373149.22651672 67054549.277938366 0 67054549.277938366 -95157384.748599291 0 0 0 0 349545928.24533844 -203763205.27196312 0 -203763205.27196312 -105858563.96906281 0 0 0 0 644402698.68070221 -59012539.349256277 0 -59012539.349256277 -220454790.02028084 0 0 0 0 585940191.81245422 111665433.14304471 0 111665433.14304471 65853867.344354257 0 0 0 0 413351504.63728952 -15129072.402580291 0 -15129072.402580291 -69939741.781279564 0 0 0 0 406143267.71612549 -65797569.285969734 0 -65797569.285969734 -109284902.28558159 0 0 0 0 154668353.73227692 -32207990.073460102 0 -32207990.073460102 -50731426.839909077 0 0 0 0 -45554631.543403625 34817661.312259674 0 34817661.312259674 25852318.295305252 0 0 0 0 151683842.35814285 7932715.3816244602 0 7932715.3816244602 -8542804.1030664444 0 0 0 0 38206880.479881287 42867454.063908577 0 42867454.063908577 -89362568.337224483 0 0 0 0 145026803.32092285 -48942362.001605511 0 -48942362.001605511 -75036076.947125435 0 0 0 0 -10197573.048252106 -176235887.88121533 0 -176235887.88121533 -36039365.477462769 0 0 0 0 419017860.47943115 -173800493.07416153 0 -173800493.07416153 -84619979.303496361 0 0 0 0 530419289.75672913 -33540916.120159149 0 -33540916.120159149 -115746655.0704242 0 0 0 0 
</DataArray>
<DataArray type="Float64" Name="cross_section_updated" format="ascii">
1 1 1 1 1 0.051251384549126283 1 1 1 1 1 1 1 0.050031541452472413 1 1 1 1 0.049905389653743512 1 1 0.052428955691165915 1 1 1 1 0.050608277612823681 1 1 1 1 0.053074576735446202 1 1 1 1 1 1 1 1 1 1 1 1 1 0.049973450435708104 1 1 0.049929507326404235 1 1 1 1 1 0.050128803279620521 1 1 1 1 1 1 1 0.051360136717802284 1 1 1 1 0.051102967279054931 1 1 1 1 1 1 1 1 1 0.050976993758924227 1 1 0.052417958881567875 1 1 0.055537177345706693 1 1 1 1 0.049812733850902256 1 1 1 1 1 1 1 0.055671766926895627 0.049973512246306723 0.046876985044817812 1 1 0.047553684383904699 1 1 1 1 1 0.05212479189268529 1 1 1 1 1 1 1 1 1 1 1 1 1 0.049751202618119675 1 1 1 0.048625106809341151 1 1 1 1 1 1 0.049690216911751496 1 1 1 1 1 1 1 1 1 1 1 1 1 1 1 1 1 1 1 1 1 1 1 1 1 0.050008217336888858 1 1 1 0.050794761185950277 1 1 0.049525684948205452 1 1 1 1 1 1 1 1 1 1 1 0.050292448850516182 1 1 1 1 1 1 1 1 0.051082068592305289 1 1 1 1 1 1 1 1 0.051920520064211377 1 1 1 1 1 1 1 1 1 0.05025674382966918 1 1 1 1 1 1 1 1 1 1 1 1 1 1 1 1 1 1 1 1 1 1 1 0.050012154131216006 1 1 1 0.052090345880555791 1 0.050045609293006318 1 0.05056634563892088 1 1 0.054360029352696737 1 1 1 0.050278840276786058 1 0.050995815729045255 1 0.051620715817952509 1 0.050832566006715887 0.053848039806951201 1 0.051771159637488642 1 1 0.053119285973068295 1 0.051284917126246804 1 1 1 0.050431766709006301 1 0.050250223139693004 0.051530267619754072 1 1 0.051289870818895161 1 1 1 0.050142366108132067 1 0.050589380495048492 0.050668651006488527 0.049918471297138348 1 0.050828243989652716 1 1 1 0.04995826645158595 1 0.05056779444167786 0.051821437272255265 0.050032263805130817 1 1 0.053469213472896238 0.0541565542092102 1 1 1 1 0.055208319894353389 1 0.04994766965520539 1 1 0.0501629692475574 1 1 1 0.05054146385099445 1 0.049826607247939088 0.050714643895476599 0.049573436495507085 1 1 1 0.050922252508968986 1 0.050278036107908777 0.051038081006143501 0.05120687277605003 0.051506538860808276 1 1 1 0.050265069888464256 0.049999660860891512 1 1 0.049899729003749144 0.05060411527634058 0.051180882436291028 1 0.051092713341849789 1 1 1 1 0.04999779921860497 1 1 1 1 1 1 1 0.052302038857466607 1 1 1 1 1 1 0.05011178118217096 0.049999260398778646 1 1 1 0.05244624175562404 1 1 1 0.050018489091864821 1 0.051286739474416983 1 0.051028006146981927 0.052126121103938987 1 1 1 1 0.050568576730743109 1 1 0.052653165379862782 1 1 1 1 0.050021200913255064 1 0.04997110401104278 1 1 1 1 1 0.049179669079607538 0.055440723426458421 1 1 1 1 1 1 1 1 0.050048632326387753 1 1 1 0.04956447263233027 1 1 0.051421688656570694 1 0.049995185578516954 1 1 1 1 1 1 1 1 1 1 1 0.052874853643526037 1 0.050092921488731207 1 0.052450827708358003 1 1 1 0.049755914615378018 1 0.050007750513062263 1 0.050248787208823038 1 1 1 1 1 1 0.050939204711776737 1 0.051226226121402513 1 1 1 0.050925069011725617 1 1 1 0.051012802479171178 1 0.050689878871273554 0.051196398747118614 1 1 1 1 0.052530111022998871 1 1 1 1 0.052942837068801228 0.050346505578384479 1 1 0.050114905425780121 1 0.050325997386260875 1 0.053860714430228926 0.053659909116544724 1 1 1 0.050045119554845315 1 1 1 1 0.051343549872088938 1 1 1 1 1 1 1 1 1 1 1 0.050006603150291165 1 1 1 1 0.05343721594601962 1 1 1 0.050861192062338523 1 0.049817182150563306 0.049837744555724414 0.049999642783685003 1 1 1 0.0520562192117697 0.053318981777668972 1 0.053730701326732633 1 1 0.051402396682737453 1 1 1 1 0.05388016813699209 1 1 1 1 1 1 1 1 1 1 1 0.054562100844439437 0.048872795239276359 1 1 0.052710911453714308 1 1 1 0.049994607209007377 1 1 1 1 1 1 0.051558454095911393 1 1 1 0.04922346063060247 1 1 1 0.051827060704694061 1 1 1 1 1 1 1 1 1 1 1 0.050853914144681385 1 1 1 0.050091199882765065 1 1 1 1 1 1 1 0.050375129087795317 1 1 1 1 1 0.050877048881160167 1 1 1 1 1 1 1 1 1 1 1 1 1 1 1 1 1 1 1 0.058359424515521736 1 1 1 1 0.056801925665645216 1 1 0.052854047885792399 1 1 1 1 1 1 1 0.050107750197202677 1 1 1 1 1 1 1 1 0.04981255526855069 1 0.050023859463394479 1 1 0.057594566102471184 1 1 1 0.057277451251486255 1 1 0.059026180121340061 1 1 1 0.050185247003229586 1 0.050697674972676118 1 1 0.049988215893276754 1 0.059131516925015795 1 1 1 1 1 1 1 1 1 1 1 1 1 1 1 1 1 1 1 1 1 1 0.050618755175075476 1 0.050971829215240134 1 0.050370240371821834 1 1 1 1 1 1 1 1 1 1 1 1 1 1 1 0.050269900887109961 1 1 1 1 1 1 1 1 1 0.050348854287965525 1 1 1 1 1 1 1 1 1 1 1 1 1 1 1 1 1 1 1 1 1 1 1 1 1 1 1 1 1 0.050930077996659738 1 1 0.050865142126740266 1 1 1 0.054141542723761288 0.050003080444346176 1 0.0518721939470458 1 1 1 1 1 0.054386560836335487 1 1 1 1 1 0.053826090585871879 1 1 1 1 1 1 1 1 1 1 1 1 1 1 1 1 1 1 1 1 1 1 1 1 1 1 1 1 1 1 1 1 1 1 1 1 1 1 1 1 1 1 1 1 1 1 1 1 1 0.051016144181080865 1 1 1 1 1 1 1 1 1 1 1 1 1 1 1 0.052606568476835897 1 1 1 1 0.051323108054165102 1 1 1 1 1 1 1 1 1 1 1 1 1 1 1 1 1 1 1 1 1 1 1 1 1 1 1 0.051803943743884674 1 1 0.050107195108455883 1 0.052385329834838047 0.050439837194108474 0.049218583718296557 0.049809397366692987 1 1 0.049969752728085376 1 1 1 1 1 1 1 1 1 1 1 1 1 1 1 1 1 0.053034554871163479 1 1 0.053955480029483083 1 0.051889052648742426 1 1 1 1 0.054248170795595123 1 0.050265205843563233 1 1 1 1 0.050048246538971712 1 1 1 0.050555561777600254 1 1 1 1 1 0.05029746942619695 1 0.052389641723933421 1 1 0.05013201048814038 0.052292739611624874 1 0.051467167385871704 1 1 1 1 1 1 1 1 1 1 1 0.054572494106310501 1 1 1 0.053603291998431148 1 1 1 0.052710937800976673 1 1 0.053835535555934594 0.04979186167630513 0.049950157636085381 1 1 1 1 1 1 1 1 1 1 1 0.049995879076567322 1 1 1 1 1 1 1 1 0.05348154088406297 0.057116786478854098 0.053082267056033458 1 1 1 1 1 1 1 1 0.055969478179904511 0.050082378144069524 1 1 1 0.04885244454136551 1 1 0.050220361593258933 1 1 1 1 1 1 1 1 1 1 1 0.05009425662814302 1 1 1 1 1 1 1 1 0.05017440741132654 1 1 1 1 1 1 1 1 1 1 0.049975622616033194 1 0.051202356668899218 0.056505236012136369 0.049875583653786804 1 1 1 1 1 1 1 0.053692950471663038 0.058195181692625282 1 0.04957860762185877 1 1 1 1 1 0.051477569870161208 1 0.049839462932428434 0.051057835167131978 1 1 1 0.052651900941863138 1 0.05380555108646768 1 1 1 1 0.050009560851979537 1 1 1 1 1 1 1 1 1 1 1 1 1 1 1 1 1 0.052955276031330559 1 1 1 0.055226909844175248 1 1 1 1 1 0.051220221074103268 1 1 1 1 1 1 0.053965619695601826 1 0.051566678616416568 1 1 1 1 1 1 1 1 0.050278648035873827 1 1 1 0.050578512533178674 1 1 1 1 1 1 1 1 1 1 1 1 1 1 1 1 1 1 1 1 1 1 1 1 1 0.050012793626898519 0.049750640731799758 0.054704776216664586 1 1 1 1 0.048713951593202076 1 1 1 1 0.048075471160158853 1 1 1 1 1 1 1 0.05137679936899376 1 1 1 1 1 1 1 1 0.052478673028490012 1 1 1 1 1 1 1 1 1 1 1 1 0.051329368515373515 1 1 1 1 1 1 0.050359919911747056 1 1 1 1 1 1 1 1 0.0486822753586603 1 1 1 0.053598734250195845 1 1 1 1 1 1 1 1 1 1 1 1 0.051101873659496255 1 1 1 1 1 1 1 1 1 1 1 1 1 1 1 1 1 1 1 1 1 1 1 1 1 1 1 1 1 1 1 1 1 1 1 1 1 1 1 1 1 1 1 1 1 1 1 0.050029397506662555 1 1 1 1 1 1 1 1 1 1 1 1 1 1 1 1 1 1 1 1 1 1 1 1 0.05118333032168601 1 1 1 1 1 1 1 1 1 1 0.051333143671083721 1 1 0.052585029429945682 1 1 1 1 1 1 1 1 1 0.052834789952705456 1 0.05308908832461514 1 1 1 1 0.05294633445723209 1 1 0.055912561967226826 1 0.050318294205931403 1 1 1 1 1 0.052983004108218053 1 1 1 1 1 1 1 1 0.0536933253472077 1 1 1 1 1 1 1 1 1 1 1 1 1 1 0.055937830205199851 1 0.054172173150319372 0.049318920426150381 1 1 1 1 1 0.049743668643279899 1 1 1 1 1 1 1 1 1 1 1 1 1 1 1 0.052592400038169902 1 1 1 1 1 1 1 1 1 1 1 1 1 1 1 1 0.050146485261384932 1 1 1 1 1 0.057955252874930925 0.050909507792938548 1 1 0.05639357854766347 1 1 1 1 1 1 1 1 1 1 0.049725400874968816 1 1 1 1 1 1 1 1 1 0.05076480438289982 1 0.061102982496623513 1 1 1 1 1 0.05009562380542254 1 1 1 1 0.061921732519237958 1 1 1 0.05009900666369111 1 1 1 0.062114905433158507 1 1 0.04853192226201189 1 1 1 1 1 1 1 1 1 1 1 1 1 1 1 1 0.05045240397440795 1 1 1 1 1 1 1 0.049149466755330565 1 1 1 1 1 1 1 1 1 1 1 1 1 1 1 1 1 1 1 1 1 1 1 1 1 1 1 0.063500215063597459 1 1 1 1 0.049551910070054037 1 1 1 0.043349468521370005 1 1 1 1 1 1 1 1 1 0.043754667598275954 1 0.050005174340420414 1 1 1 1 1 1 1 1 1 1 1 1 1 1 1 1 1 1 0.050021736450135294 0.059078362435711552 1 1 1 0.047878525975172614 1 1 0.055154071391778171 1 1 0.053767994900770083 1 1 1 0.050453986640926984 1 1 0.051418448311851522 1 1 1 1 1 1 1 1 1 1 1 1 1 1 1 1 1 1 1 1 0.050600471902311914 1 0.051098104746018676 1 1 1 1 1 1 1 1 1 1 1 0.052263515384748306 1 0.052061196799648948 1 1 1 0.052190748925114758 1 1 1 1 1 0.05025705118490556 1 1 1 1 1 1 0.053876452768761088 1 1 1 1 1 1 1 1 1 1 1 0.055983887933340484 1 1 1 1 1 1 1 1 0.050197207950851135 1 1 1 0.048897913670288361 1 1 0.057947495758686969 1 1 1 1 1 0.050209140406873798 1 1 1 1 1 1 1 1 1 0.050073522643477066 1 1 0.051768534901415447 1 0.051727587503584825 1 0.050250789458227772 0.050481414955736895 0.050218390652467547 1 0.050065789873326473 1 1 1 1 1 1 0.048765651819498275 1 1 1 1 1 1 0.05031883351049958 1 1 1 1 1 1 1 0.048312454663038386 1 1 1 1 0.047518345967838049 1 1 1 1 1 0.050978396559077807 1 0.050049601707553744 1 1 1 1 1 1 1 1 1 1 0.050838947990648774 1 1 1 1 1 1 1 0.058542954400056739 1 1 1 1 1 1 1 0.049996396096176385 1 0.051252566925364139 1 1 1 1 1 1 1 1 0.05837923902636559 1 1 1 0.067233160659180793 0.050021413603250284 1 1 1 1 1 0.057457087372568043 0.049844431788058426 1 0.054994881407200026 1 1 0.051440836623361574 1 1 0.058147267714003879 1 1 1 1 1 1 1 1 0.058664254078063527 1 1 1 1 1 0.059602626357827405 1 1 1 1 0.07183019388965689 1 1 0.069878917301813948 1 1 1 1 1 1 1 1 1 1 1 1 1 1 1 1 1 1 1 1 1 1 1 1 1 1 1 1 1 1 1 1 1 1 1 1 1 1 1 1 1 0.049264356105318534 1 1 0.050153760025018923 1 1 1 1 1 0.051806492061393136 1 1 1 1 0.049702883473783301 1 1 1 1 1 1 1 1 1 1 1 1 1 1 1 1 1 1 1 1 1 1 1 1 0.051450844769708209 1 1 1 0.050615899675586107 1 1 1 1 1 1 0.05025950576829577 1 1 1 1 1 1 1 1 1 1 1 0.051617279698059897 1 0.048153411965953692 0.052736028306746688 1 1 0.051005297593804393 1 1 1 1 1 1 1 1 1 1 1 0.053295597503519171 1 1 0.051909234197707196 1 1 1 1 1 1 1 1 1 1 1 1 1 1 1 0.052207549083564599 1 1 1 1 1 1 1 0.050093620107047702 1 0.051047965582243011 1 1 1 1 0.048259531836325711 1 0.050312400408491866 1 1 1 1 1 1 1 1 1 0.051914573316008676 1 1 1 1 1 1 1 1 1 1 1 1 1 1 1 1 1 0.04913144235814057 1 1 1 1 1 1 1 1 1 1 1 1 1 1 1 1 1 1 1 1 1 1 1 1 1 0.050266965545061909 0.050232028341679107 1 1 1 1 1 1 1 1 1 1 1 0.050807032112346551 1 1 1 1 0.050133543098391881 1 1 1 1 0.050441391806118389 1 1 1 1 1 1 1 1 0.051412068998604524 1 1 1 1 1 1 1 1 1 0.050642648762251406 1 1 1 1 1 1 1 1 1 1 1 1 1 1 1 1 1 1 1 1 0.054766355921365951 1 1 1 1 1 1 1 1 1 1 1 1 1 1 0.050015624150316532 1 0.050227805809905886 1 1 1 1 1 1 1 1 0.050793989482008799 1 1 0.05048731157820166 1 1 1 1 1 1 1 1 1 1 1 1 1 1 1 1 1 1 1 1 1 1 1 1 1 1 1 1 1 1 1 1 1 1 1 1 0.050061843683114962 1 1 0.05020372131799912 1 1 1 1 0.047739989450883404 1 0.056811721531454591 1 1 0.055278411609373294 1 0.051835706932554265 1 1 1 1 1 0.050815438856520456 1 1 1 1 1 1 1 1 1 1 1 1 0.052320430740326627 1 1 1 0.045867210573892668 1 1 1 1 1 1 1 1 1 0.055036407650719425 1 1 1 1 0.054406812947566385 0.047930231124979461 1 1 1 1 1 1 1 1 0.050205254364769358 1 1 1 1 1 0.051462469744182844 1 1 1 0.051231468405450592 1 1 1 0.053869312060610568 1 1 1 1 0.04912257141836783 1 1 1 1 1 1 1 1 1 1 1 1 1 1 0.052056797211739614 1 1 1 1 1 1 0.047549373205720405 1 0.051290488456406894 0.050003900569512809 1 0.043094757535550081 1 0.053232202871598418 1 1 1 1 0.050046422483327455 1 1 1 1 0.050008506510421449 1 1 1 1 1 1 1 1 1 0.050859172901737304 1 1 1 1 1 1 1 1 1 1 1 1 1 1 0.051879440977771113 1 1 1 0.050124059280169525 1 1 1 0.05034524377144748 1 0.050054157041554193 1 1 1 1 1 1 1 1 1 1 1 1 1 1 1 1 0.051033856117051614 1 1 1 1 1 1 0.05335691919252282 1 1 1 1 1 1 1 1 1 1 1 1 1 1 1 1 1 1 0.058226347153404315 1 1 1 1 1 1 1 1 1 1 1 1 1 1 1 1 1 1 1 1 1 1 1 1 1 1 1 1 1 1 1 1 1 1 0.050635318220834197 1 1 1 1 0.050417369006466803 1 1 1 1 1 1 1 0.056074135846398476 1 1 1 1 1 1 1 1 1 0.053009441126416756 1 1 0.058761715376541006 1 1 1 1 1 0.050009897240197852 1 1 1 0.050915355422843631 1 1 0.051233081247809342 1 1 1 1 1 1 1 1 1 1 1 1 1 1 1 1 1 1 1 1 0.05531935693351106 1 1 1 1 1 1 1 1 1 1 0.050340376279605123 0.057143650763124804 1 0.064578914723323569 1 1 1 1 1 0.066432486294508333 1 1 1 1 0.050319192642591166 1 1 1 1 1 0.04985773532497427 1 0.050003978445853817 1 1 0.04949619795183878 1 1 1 1 1 1 1 1 0.049835885818901152 1 1 1 1 1 1 0.050535937032776028 1 1 1 1 1 1 0.050619959099492101 1 1 1 1 0.051633370141230449 1 1 0.049939959692580686 1 0.052314355029529525 1 1 0.050040695388479696 1 1 1 1 1 1 0.050173910452166508 1 1 1 1 0.050034820931595871 1 1 1 1 1 1 1 1 0.051459053096371665 0.052772884344535947 1 1 1 1 1 1 1 1 0.050426383803629418 1 1 1 1 1 1 0.050199928079463718 1 1 1 1 1 1 1 0.051639739752566138 1 1 1 0.0533210095699065 1 1 1 1 1 1 1 1 1 1 1 1 0.050444450556361264 1 1 1 1 0.051545755027268159 1 1 0.050685991990922427 1 1 1 1 0.049328308202424613 1 1 1 0.050039552975795647 0.048820838052528216 1 1 1 0.050739557354453728 1 1 1 0.050656279566710954 1 1 1 1 1 1 1 1 1 0.049163219706105259 1 1 1 0.050011446222791078 1 1 1 1 1 1 1 1 1 1 1 1 0.048903535215944718 1 0.050248860755721741 1 1 0.051399045276115232 1 1 0.050848983604473846 1 1 1 1 1 1 1 0.050020537790068396 1 1 1 1 1 0.049966362171486242 1 0.051429018786704972 1 1 1 0.046356858400991068 0.055100812449556696 1 0.051542844709627493 0.047854274341164293 1 0.049547220206397985 1 1 1 1 1 1 0.050317072452096781 1 0.054915457903949375 1 1 1 1 1 1 1 1 1 1 1 1 1 0.049891679218196774 1 1 0.053317536132323658 1 0.051008138363395801 1 1 0.054158151409432101 1 1 1 0.050790036099463642 0.051090991443892161 1 1 0.054611839166727343 1 1 1 1 1 1 1 1 1 1 1 1 1 1 1 1 1 1 1 1 1 1 1 0.050627730704880261 0.049974256463944641 1 0.051058998886721163 1 0.051782245651391556 1 1 0.050000207935181881 0.048232729726774358 1 1 0.049998438242821901 1 1 0.051556939873369831 1 1 0.049186430727544209 1 0.051973383932860842 1 1 1 1 0.049938693551605948 1 1 1 1 0.050545356617558136 1 0.050753125293827445 0.050908865841049554 1 0.049936501126403028 1 1 0.055429798374576081 0.050282934517054692 1 1 1 0.052127811141701473 1 1 1 1 0.053580592143627259 0.050364023123476556 1 1 1 1 1 0.04977455897175688 1 1 1 1 1 1 1 1 1 1 1 0.049871355181578425 1 0.050152682151860542 1 0.05190747781060831 1 1 0.049997194479741262 1 0.052796862436873218 1 1 1 1 1 1 1 1 0.051432063127931658 1 1 0.049649256546146339 1 1 1 1 0.049999392061896228 1 1 1 1 1 1 1 1 1 1 1 1 0.05107908422788536 1 1 1 1 1 1 1 1 1 1 1 0.050187594052931384 1 1 1 1 1 1 0.050049095744028854 1 0.049616681358911209 1 1 0.050524179859522685 1 1 1 1 1 1 1 1 1 1 1 1 1 1 1 1 1 0.05048564267654182 0.054064473598986647 1 1 1 0.04990954487633105 1 1 0.05467509815379655 1 1 1 1 1 1 1 1 1 1 1 1 1 1 1 1 1 1 1 1 1 1 1 1 1 0.050005501457589183 0.05257905354205028 1 1 1 1 1 1 1 1 1 1 1 0.05287875818904756 1 1 1 1 1 1 1 1 1 1 1 1 1 1 1 1 1 1 1 1 1 1 1 1 1 1 1 1 1 1 1 1 1 0.050144822616188002 1 1 1 1 1 0.050156712518512656 1 1 0.049684317675136397 1 1 0.052842648156562422 0.048455236966564896 1 1 1 1 1 1 1 1 1 1 1 1 1 0.048469095725721292 1 1 0.049896919928882691 1 1 1 1 1 1 0.049999470901508726 1 1 0.048540560774168698 1 1 1 1 1 1 1 1 1 1 1 1 1 0.050915220315823906 1 1 1 1 1 1 1 0.049997649582055631 1 1 1 1 1 1 1 1 1 1 1 1 0.05007171271824469 1 1 0.050022616974215832 1 1 1 1 1 1 1 1 1 1 1 1 1 1 1 1 1 1 1 1 0.050947018630172453 1 1 0.049990076922146957 1 0.050005024799819484 1 1 1 0.050003878971108993 1 1 0.052267935834817196 1 0.051161607185343239 1 1 1 0.051584591599230234 1 1 1 1 0.050046100155225155 1 1 1 1 1 1 1 0.050139724849836205 1 1 1 0.05058127324506085 1 1 1 1 1 1 1 1 1 1 1 1 0.050082320134444941 1 1 1 1 1 1 1 1 0.050723879271696255 1 1 1 1 1 1 1 1 1 1 1 0.051021860588706933 1 1 1 1 1 1 1 1 1 1 1 1 1 1 1 1 1 1 1 0.051654481386594883 0.050601996220055991 1 1 1 0.050229197536789762 1 1 1 1 1 1 1 1 1 1 1 1 0.050001562018546705 1 1 1 1 1 1 1 1 1 0.050016023508172511 1 1 1 1 1 1 1 1 1 1 1 1 1 1 1 1 0.056602308697781822 1 0.050501552812640141 1 1 1 1 1 0.055123520613636276 1 1 1 1 0.050607621394804209 1 1 1 0.049980329897507191 1 1 1 0.051415673808047249 1 1 1 1 1 1 1 1 1 0.05130772010741564 1 1 1 0.053477619185370306 1 1 0.050692748914831311 1 1 1 1 1 1 0.05033765776883737 1 1 1 1 1 1 1 1 0.051315784983409593 1 1 1 0.050623972884914811 1 1 1 1 1 1 1 1 1 1 1 1 1 1 1 1 1 1 1 1 1 1 1 1 1 1 1 0.050459555949919285 1 1 1 1 1 1 1 0.050287634884050067 1 1 1 1 1 1 1 1 1 1 1 1 1 1 1 1 1 1 1 1 1 1 1 1 1 0.05039587878396587 1 0.050192584346883076 1 1 1 1 1 1 0.050375212257237366 1 1 1 0.050042385627530127 1 1 0.050173949882200433 1 1 1 1 1 1 1 1 1 1 1 1 0.056604946678672358 1 1 1 1 1 0.055682774944561406 1 1 1 1 1 1 1 1 1 1 1 1 1 0.05017191782015458 1 1 1 0.049958934457149232 1 1 1 1 1 1 1 1 1 1 1 1 0.049854131288327545 0.05204321319821649 1 1 1 1 0.050929368654894211 1 1 1 1 1 1 1 1 1 0.049924692270795698 0.05266023483596035 1 1 1 1 1 0.053664387207604844 1 1 1 1 1 0.050359375333869846 1 1 1 1 1 0.049989192823625989 1 0.050142928120209401 1 1 1 1 0.051254815112874622 1 0.049584916664434528 1 0.051216484255259737 0.050014310875392487 1 1 1 1 1 1 1 0.049918905509878653 0.051169939030511542 1 1 1 1 1 1 0.049999949453149992 0.05494559795284866 0.051144616515085936 1 0.049746270089297065 0.049006927423161338 1 1 1 0.049971970788645168 1 1 1 1 1 0.054573604179904332 0.051109948783293731 0.049998840836498269 1 0.049666468966773916 1 1 1 0.049996756256403568 1 0.054638304388231286 0.050120004792574835 1 1 1 1 1 1 1 0.051041286731677286 0.048864731586029206 1 1 0.05526065009363168 0.057544766694088353 0.047802198820439505 1 1 1 1 1 1 1 1 1 1 1 1 1 1 1 1 1 1 1 1 1 1 1 1 1 1 1 1 1 1 1 1 1 1 1 1 1 1 1 1 0.050014074707124698 1 1 1 1 1 1 1 1 1 1 0.050035064409319423 1 1 1 1 1 1 0.050080863395861076 1 1 0.049758124957191792 1 1 1 1 1 1 1 1 1 1 1 1 1 0.049978780690341423 1 0.049667077924201566 1 1 1 1 0.05112671686785511 1 1 1 0.058107387455722137 1 1 0.057600958695226898 1 1 1 0.049996922187119291 1 1 0.05015347236649631 1 1 1 1 1 0.050082982709823129 1 1 1 1 1 1 1 0.050025383323575673 1 1 1 1 1 1 1 0.056939513841407684 1 1 0.05613732349821178 1 1 1 1 0.049917964067326792 1 0.050050300477456018 1 1 1 1 1 0.049746118572819492 1 1 1 1 0.050303350043499132 1 1 1 1 1 1 0.050948615402327056 0.050830898548940295 1 1 1 1 1 0.05343909001444104 1 1 0.052678740304237658 1 1 1 1 1 1 1 1 1 1 0.052725565213863124 1 1 1 1 1 1 1 1 1 1 1 1 1 1 1 1 1 1 0.050957245846243365 1 1 1 1 1 1 0.049889238399412297 1 1 1 1 1 1 1 0.047440463661286611 0.049605246622070144 1 1 1 1 0.049937525491123895 1 1 1 1 1 1 1 0.048924034864520065 1 1 0.051213349255766052 1 0.053507283751711439 0.048608404324209938 0.052796525944391298 1 1 1 1 1 1 0.050986302078247725 1 1 1 1 1 0.049996244598843324 1 1 1 1 0.052053530324579919 1 1 1 0.046476304382455834 1 1 1 0.051332910524321401 1 1 1 1 1 1 1 1 1 1 1 1 1 1 1 1 1 1 1 1 1 1 1 1 1 0.051843850721631654 1 1 1 1 1 1 1 0.050178773936309207 1 0.051131254433130047 1 1 1 1 1 1 0.055516890950936967 1 1 0.050591748008312877 1 1 1 0.050019430985655436 1 1 0.051342089468161017 1 1 1 1 1 0.049936787433742941 1 1 1 0.049975282452292075 0.05033118439360515 1 1 1 1 1 1 1 1 1 1 1 1 0.049486151648306775 1 1 1 1 1 1 1 1 1 0.048116181936785032 1 1 1 1 1 0.049974370432814871 0.051468086639397094 1 1 1 1 1 1 1 1 1 0.050295076653329551 1 1 1 1 1 1 1 1 0.0509879728101644 1 1 1 1 1 1 1 1 1 1 1 1 1 1 1 1 1 1 0.05041908254984994 1 1 1 1 0.051000355794910787 1 0.050353865817658397 1 0.050056319175324791 1 1 1 1 1 1 1 1 1 1 1 1 1 1 1 1 1 0.04992172125191989 1 1 1 1 1 0.052448446009980998 1 1 1 0.049359100745224482 0.053136107561174761 1 1 1 1 1 0.050920643635615909 1 1 1 1 0.049754477767072883 1 1 1 1 1 1 1 1 0.052306185626825832 1 1 1 1 1 1 1 0.051337792638973548 1 1 1 1 1 1 1 1 1 0.049785836340839475 1 1 1 1 1 1 1 1 1 1 1 1 1 1 1 1 1 1 0.049954824146031938 1 1 1 1 1 1 1 1 1 1 1 1 1 0.050262560089066599 1 1 1 1 1 1 0.050176267278043599 1 1 0.050691812098494764 1 1 0.050214266872297533 1 1 1 1 1 1 1 1 1 1 1 1 1 1 1 1 1 1 1 1 1 1 1 1 1 1 0.050072291169815722 1 0.050514598681974901 1 0.05000139449154014 0.049740898958542043 1 1 1 0.050816310438984165 1 1 1 1 1 1 1 1 1 0.049860581196872505 0.050723772333608724 1 0.052832961587909184 1 1 1 1 1 1 1 1 1 1 1 1 1 1 0.049999840433707171 1 0.049520964670958005 0.049511918663926791 1 0.051191777236617837 1 1 1 1 1 1 1 1 1 0.048832249229579003 0.049642005736174014 1 1 1 1 1 1 1 1 1 1 1 1 1 1 1 1 1 1 1 1 1 1 0.050977890108539023 1 1 1 1 1 0.0495538525356106 1 1 1 1 1 0.048447158517010501 1 1 1 0.052938722292305215 1 1 1 1 1 1 1 1 1 0.052432373569455085 1 1 1 1 0.05349817854783577 1 1 1 1 1 1 0.047589406405083697 1 1 1 1 1 1 1 0.050417322602721026 1 1 1 1 0.047785186938298661 1 1 1 1 1 1 1 1 1 1 0.050837303196528572 1 1 1 1 0.052429975054593993 1 1 1 0.053906787481197364 1 1 1 1 1 0.050926044580852425 1 1 1 1 1 1 1 1 1 1 1 1 1 1 0.049465595692204656 0.056484286948362779 1 1 0.054823821486395023 1 1 1 1 1 1 1 0.049763563413014876 1 1 1 1 1 1 0.050656289850036035 1 1 1 1 1 1 1 1 1 1 1 1 1 1 1 1 1 1 1 1 1 1 1 0.052103252800934738 1 1 1 1 1 1 1 1 0.050066368940953149 1 1 1 1 0.050136171912481278 1 1 1 1 1 0.053531956214332863 1 0.049960362938423784 1 0.051213195715554431 1 1 1 1 1 1 1 0.049886734592760398 1 1 1 0.055860551819871415 1 1 1 1 1 0.052403605797009284 1 1 1 1 1 0.049751254153123432 1 0.050569035229717507 1 1 0.0508235663084785 1 0.049519522905397025 1 1 1 1 1 0.050268216723628238 1 1 1 0.050758086167215 1 1 1 1 1 1 1 1 1 1 0.04981365454965983 1 1 1 1 1 1 1 1 1 1 1 1 1 1 1 1 1 1 1 1 1 1 0.052440134658471416 1 1 1 1 1 1 1 1 1 1 1 1 1 1 1 1 1 1 0.055975841343893967 1 1 1 0.057995115630844349 1 1 1 1 1 1 0.066073246012229608 1 1 1 0.052403539144493347 0.053547106695966872 1 0.059427882669118678 1 0.050770101575228835 0.056410698277070487 1 0.055515468870678916 1 1 0.053623849291372913 1 1 0.049080349966659477 0.053847721794604037 1 1 1 1 1 1 1 1 0.051632894331909679 1 0.051551531663711694 1 1 1 1 1 1 1 1 1 1 1 1 1 1 1 1 1 1 1 1 1 1 0.053299589327832776 1 1 1 1 1 1 1 1 0.054963541108378103 1 1 0.050105014238034117 1 1 0.05591379180974284 0.050356845467204731 1 1 0.050104094257662504 1 1 1 1 1 1 1 1 1 1 1 1 1 1 1 1 1 1 1 1 1 1 1 1 1 1 1 1 1 1 1 1 1 1 1 1 1 1 1 0.075197179106284734 1 0.070989772063137641 1 1 1 1 1 1 1 1 1 1 1 1 1 1 1 1 1 1 1 1 1 1 1 1 1 1 1 1 1 1 1 1 1 1 1 1 1 1 1 1 0.053024396495705922 1 1 0.053282703522992206 1 1 1 1 1 0.049561451271884271 1 0.050361640343134201 1 1 0.048986919164832693 1 1 1 1 1 1 0.045742531811508412 1 1 1 1 1 1 1 1 1 1 1 0.050048541873589827 1 1 0.054876439417711205 0.073142970322481043 1 0.081032653141829863 1 1 0.044261309035297666 1 1 1 1 0.078462467209628226 1 1 1 1 1 1 1 1 1 0.050109213852393128 1 0.049967205305009282 1 1 1 1 1 1 1 0.05029000862933776 1 0.046245244140643176 1 1 1 1 1 1 1 1 1 0.049522968438217595 1 0.047526358029741839 1 1 1 1 1 1 1 1 1 1 0.04855756024676728 1 1 1 0.049539571671756655 1 1 0.050010299207032496 1 1 0.057746485326739899 1 1 1 1 0.054651182942999671 1 1 1 0.050037999594253944 1 1 1 1 1 1 1 1 1 1 1 1 1 1 0.051560142356153901 1 1 1 1 1 1 0.053444716306658285 1 0.049251990855015602 1 0.072667119265461377 1 1 1 0.052839582137237454 1 1 1 1 1 1 1 1 0.0781767732124235 1 1 1 1 1 0.050080459845410354 1 1 0.078786990487377043 1 1 1 1 1 1 1 1 1 0.05619862938888763 1 1 1 0.052295426047630683 1 1 1 1 1 1 0.059020691424274518 1 1 1 1 1 1 1 1 1 1 1 1 1 1 1 1 1 1 1 1 1 1 1 1 1 1 1 1 1 1 1 0.05251278351413638 1 1 1 1 1 0.050771314413875349 1 1 0.050264680154284092 0.051365004351216798 1 1 1 1 0.051975339334922301 1 1 1 1 1 0.051676588119618137 1 1 1 1 1 1 1 1 1 1 1 1 1 1 1 1 0.05101769596463928 1 1 1 1 1 1 1 1 0.051233836037328249 0.052840876322690807 1 1 1 1 1 1 0.0524450153398053 1 1 1 1 0.051885971901734759 1 1 1 1 1 1 1 1 1 1 1 1 1 1 1 1 1 1 1 1 1 1 1 1 0.052337268037689975 1 1 0.050842180488192876 1 1 1 1 1 1 1 1 1 1 1 1 1 1 1 1 1 1 1 1 1 1 1 1 1 1 1 0.051304126906511482 1 0.052232032852756981 1 1 1 1 1 0.054546895429091885 1 1 1 1 1 1 1 1 1 1 1 1 1 1 1 1 1 1 1 1 0.053171342835170041 0.051620055576035245 1 0.054211865185366907 1 1 1 1 1 1 1 1 1 1 1 1 1 1 1 1 0.05419153462743477 1 1 1 0.051929173660008252 1 1 1 1 1 1 1 1 1 1 1 1 1 0.0523148625763349 1 1 1 1 1 1 1 1 1 1 1 1 1 1 1 1 1 1 1 1 1 1 0.06703485108202592 1 1 1 1 1 1 1 1 1 1 1 1 1 0.066887643318764761 1 0.059652925520137318 1 1 0.064096193989232358 0.058885300627327858 1 1 1 1 1 1 1 1 1 1 1 1 1 1 1 1 1 1 1 1 0.049247086957784361 1 1 0.059898570094053145 1 1 1 0.050391014742630788 1 1 1 1 1 1 0.058246880801255591 1 1 1 0.050482506124727156 1 1 1 1 1 1 1 1 0.050031897469776085 1 1 0.05168279172313086 1 1 0.053113651863358279 1 0.052824284398002318 1 1 1 1 0.05375401081806256 0.060678104582540957 1 1 0.049531287798222967 0.060383213824651796 1 1 0.054037852299472056 1 1 1 1 0.049968177459886916 1 1 0.053659133772827924 0.050613218068194812 1 0.050013247213354969 1 1 1 1 1 1 1 1 1 1 1 1 1 1 1 1 1 1 1 1 0.050116329959588313 1 1 1 1 0.052005594820927689 1 1 1 1 0.049860284351065737 0.050554913260907101 1 1 1 1 1 1 1 1 1 1 1 1 0.050202293032985394 1 1 1 0.057573871181566545 1 1 1 1 1 1 1 0.058292576047741795 1 1 1 0.050360497429457626 1 1 0.049953860147414882 0.04968185389997358 1 1 1 0.059571391856064367 1 1 1 0.049901018597879453 1 1 1 1 1 1 1 1 1 1 1 1 1 1 1 1 1 1 0.050586035214865543 1 1 1 1 1 1 1 1 1 1 1 1 1 1 1 1 1 1 0.049982248675298782 0.051597272632819671 1 1 1 1 1 0.052345748365040606 0.050024953777319629 1 0.052935479117126302 1 1 1 1 1 1 1 1 1 0.071303809467580928 1 1 1 0.06983663505904035 1 1 1 1 1 1 1 1 1 1 1 1 1 1 0.061276889088663633 1 1 1 1 1 1 1 0.066215917905958585 1 1 0.068147948259475122 1 1 1 1 1 1 0.055610418538872539 1 1 1 1 0.057108359980806274 1 1 1 1 1 1 0.047990963127655981 1 1 1 1 1 1 1 1 0.049843744009078081 0.054204228438723225 1 1 1 0.052875741079254315 0.048351610203302163 1 1 1 1 1 0.050962611569568918 1 1 1 1 1 1 0.050203746125202654 1 1 1 1 0.050328749730729302 1 1 1 1 1 0.050158782963537429 1 1 1 1 0.046216688732385262 1 1 1 1 1 1 1 1 1 1 1 1 1 1 1 1 1 1 1 1 1 1 1 1 1 0.049895671498337894 1 1 1 1 0.059542524655183081 1 0.05169201755961654 1 0.063066006704437946 1 1 0.050432644674482642 1 1 0.049200367650157437 1 1 0.050045308495504329 1 1 1 1 1 1 0.047119801912340442 1 1 0.048010427956806344 1 0.051493264087514035 0.049434449982548888 0.048857472814081357 1 1 0.050990570002077143 1 0.051193504639302841 0.051136792156367648 1 1 1 0.049979905116339041 1 0.049992881461648923 1 1 1 1 1 1 0.052788556784967078 1 1 1 0.049974396636911708 1 1 1 1 1 1 1 0.052867324535719837 1 1 1 0.05480495244507165 1 0.043802047002586608 0.045554609850955864 1 1 1 1 1 1 1 0.050517102709002427 1 1 1 1 1 1 1 1 0.049604257474220426 0.053727993623990736 1 1 1 1 0.055186139970566095 1 1 0.05501990442415855 1 1 1 0.04999768862635643 1 1 1 0.054087186854482473 0.051919840993562158 1 1 1 1 0.049741279208148956 1 1 1 1 1 0.051922248347044078 0.053854275725777952 1 1 1 1 1 1 1 1 1 1 1 1 1 1 1 1 1 1 1 1 1 1 1 1 1 1 1 1 1 1 1 0.051237378232440872 1 1 1 0.050110792755327177 1 1 1 1 1 1 1 1 1 1 1 1 1 1 1 0.053407020851937943 1 0.049654061737854478 0.048156214272070133 1 1 0.054004830487104478 1 1 1 1 1 1 1 1 1 1 1 1 1 1 1 1 1 1 1 1 1 1 1 0.049376913360884241 1 1 0.053082544833734799 0.050060005735706153 1 1 1 1 1 1 1 0.052114287659406899 1 1 1 0.048128637160698713 1 1 1 1 0.049299742655345972 0.049768052317132674 1 1 1 1 1 1 1 0.054116934689020173 1 1 1 1 0.052798485291395324 1 1 1 1 0.050521022676850311 1 1 1 1 1 1 1 1 1 1 1 1 1 1 1 1 1 1 1 0.049380260278882697 1 1 1 1 1 1 1 1 1 1 1 1 1 1 1 1 0.04951322887333149 1 1 1 0.049821956229250744 1 1 1 1 1 1 1 1 1 0.051051959891495954 1 1 1 1 1 1 1 1 1 1 1 1 1 1 1 1 1 1 1 1 1 0.050900711613342406 1 1 1 1 1 1 1 1 1 1 1 1 1 1 1 1 1 0.052396588452145509 1 1 1 1 1 0.049873754573214614 1 1 1 1 1 1 1 1 1 1 1 1 1 1 1 1 1 1 1 1 1 1 1 1 1 1 1 0.049671455308507861 1 1 0.047072241729780952 1 1 1 0.046336784594762981 1 1 1 1 1 1 1 1 1 1 1 1 1 1 1 0.042539983525358281 1 0.052970083942773472 1 1 1 1 1 1 1 1 1 0.044557498359696066 1 1 1 1 1 1 1 1 1 0.049238470542139104 0.046879281255397962 1 1 1 1 1 1 1 1 1 1 1 1 1 1 1 1 1 1 1 1 1 1 1 1 1 1 1 1 1 1 1 1 1 1 1 1 1 1 1 1 1 1 1 1 1 1 1 1 1 1 1 1 1 1 1 1 1 1 1 1 1 1 1 1 1 1 1 1 1 1 1 0.049360676030410597 1 1 1 1 1 1 0.048129497756647668 1 1 1 1 1 1 1 1 1 0.049048356551249651 1 0.048007292268376169 1 1 1 1 1 1 1 1 1 1 1 1 1 1 1 1 1 1 1 1 1 1 1 1 1 1 1 1 1 1 1 1 1 1 0.051384639881156713 1 1 1 0.051680332404751589 0.049233793566696882 1 1 1 1 1 1 1 1 1 1 1 1 1 1 1 1 1 1 1 1 1 1 0.050669989115175784 0.051001044822081718 1 1 1 1 1 1 1 1 0.049106721020977739 1 1 1 1 1 1 0.049435808866359648 1 1 1 1 1 0.050586839141669775 1 1 1 1 0.050240799138555267 1 1 1 0.047174219323521623 1 1 1 0.048760075702763396 1 1 0.049938800643611871 1 1 1 1 1 1 1 1 1 1 1 1 1 0.05057322259644316 1 1 1 1 1 1 1 1 0.051012827976901681 1 1 1 1 1 1 1 1 1 1 1 0.050114422879899312 1 1 1 0.050046694373392681 1 1 1 1 0.051299980414224955 1 1 1 1 1 1 1 1 0.050869172167370441 1 0.04923063071178789 1 1 0.052801682679607054 1 1 1 1 1 0.05038983952615346 1 1 1 1 1 1 1 1 1 1 1 1 0.050605914545589582 1 1 1 1 1 1 1 1 1 0.051002573839160147 1 1 1 1 1 1 0.05018616124622665 1 1 1 1 1 1 1 0.050623006338447553 1 1 1 1 1 0.051228920884037125 1 1 1 1 1 1 1 1 1 1 1 1 1 1 1 1 1 1 1 1 1 1 1 1 1 1 1 1 1 1 1 1 1 1 1 1 1 1 1 1 1 1 1 1 1 1 1 0.050412954330367118 1 0.050832285453768507 1 1 1 1 1 1 1 1 1 1 1 1 1 1 0.049894249290907293 1 1 1 1 1 1 1 1 1 1 1 1 1 1 1 0.052353907888849957 1 1 0.050723663535006777 1 0.04871480242007277 1 1 1 1 1 0.05114053479851971 1 1 1 1 1 1 1 1 1 1 1 1 1 1 1 1 1 1 1 1 0.052920949879236172 1 1 1 1 1 1 1 1 1 1 1 0.052721503779658382 1 0.050266950956003587 1 1 0.052035988771945242 1 0.057526030689463756 1 1 1 1 1 1 1 0.049934705668221557 1 0.054073517138260398 1 1 1 1 0.053371707720334602 1 1 1 1 0.050835256185989719 0.050942886393479436 1 1 0.047817993900735926 1 1 1 1 1 1 1 1 1 1 1 1 1 1 1 1 0.04981276370896269 1 1 1 1 1 1 1 1 1 1 1 1 1 1 0.049453707525920536 1 0.050277170048608245 1 1 1 1 1 1 1 0.05619973070213298 1 0.05625027089636371 1 1 1 1 1 1 1 1 1 0.050130077846812955 0.054671475863160228 1 1 1 0.055641119532159167 1 1 1 1 0.058533333943379118 1 0.054779487379038351 1 1 0.049379940486484281 1 0.059524119267369814 0.058678427553277603 0.050319063030381056 1 1 0.050004141734018549 1 1 1 0.050931656723636795 0.052911427192390857 0.049806188125685838 1 1 1 1 1 1 1 1 1 1 1 0.050220237410647656 1 1 1 1 1 1 0.057703892331502832 1 1 1 0.050093194300939357 1 1 1 1 1 1 1 1 0.050311801851150209 1 1 1 0.050120929383911765 1 1 1 1 1 1 1 1 1 1 1 1 1 1 1 1 1 1 1 1 1 1 1 1 1 1 1 1 1 1 1 1 1 1 1 1 1 1 1 1 1 1 1 1 1 1 1 1 1 1 1 1 1 1 1 1 1 1 1 1 0.051138781015153179 1 1 1 1 1 0.052786112999414755 1 1 1 1 0.051265742305808486 1 1 1 0.055156008758196401 1 1 1 1 1 1 1 1 1 1 1 1 1 1 1 1 1 1 1 1 1 1 1 1 1 1 1 1 1 1 1 1 1 1 1 1 1 1 1 1 0.052204066299421897 1 1 0.055551519462760296 1 1 1 1 1 1 1 0.049669841163359825 1 1 1 1 1 1 1 1 1 1 1 0.048514514181331125 1 1 0.050117243526521159 1 0.052032859390484097 1 1 1 0.057341895243273343 1 1 1 1 1 1 1 1 0.049858263334029172 1 1 1 1 0.049567153113086668 1 1 1 1 0.056370035324574554 1 0.051743797773359357 1 1 1 1 1 1 1 1 1 1 1 1 0.052511074812229906 1 0.054612679647087665 1 1 1 1 1 1 1 1 1 1 1 1 1 0.050251825936364472 1 1 1 1 1 1 1 1 1 0.050566321788546663 1 1 1 0.050314495852182201 1 1 1 1 1 1 1 1 1 1 1 1 1 1 1 1 1 1 1 1 1 1 1 1 1 1 1 1 1 1 1 1 1 1 1 0.050952766996927419 1 1 0.049986194018944746 1 1 1 1 0.051183309542962324 1 1 1 1 1 1 1 1 1 1 1 1 1 1 1 0.05130123313505041 1 1 1 1 1 1 1 1 1 0.050495725267899257 1 0.050621984641018879 1 1 1 1 1 1 1 0.050727765718865815 1 1 1 1 1 1 1 1 1 1 1 1 1 1 0.051326523314126619 1 1 1 1 1 1 1 1 1 1 1 0.053291094151201063 1 1 1 1 1 1 1 1 1 1 1 1 1 1 1 1 1 1 1 1 1 1 1 0.049838536932903382 1 0.049680361386615531 1 1 1 1 1 1 0.052280372102163103 1 0.051860571876493081 1 1 1 0.051875881337959992 1 1 1 0.050147401646863085 1 1 1 0.051559312376674903 1 1 0.049658974270917186 1 1 1 1 1 1 1 0.049723536052602692 1 1 1 1 1 1 1 0.056074142749460196 1 1 1 1 1 1 1 1 1 1 1 1 1 0.051156741506061351 1 1 1 1 1 1 1 1 0.056097456596663112 1 1 1 1 1 1 1 1 1 1 1 1 1 1 1 1 1 1 1 1 0.054656174164867545 1 1 1 1 1 1 1 1 1 1 1 1 1 1 1 1 1 1 1 1 1 1 1 1 1 1 1 1 1 1 1 1 1 1 1 1 1 1 1 1 1 1 1 1 1 1 1 1 1 1 0.04941363222184611 1 0.052534096106510102 1 1 1 0.050401581767668617 1 1 0.049863176400043861 0.052936044428230383 1 0.048135919774744913 1 1 1 1 1 1 1 1 1 1 1 1 1 1 1 1 1 1 1 1 1 1 1 1 1 1 1 1 1 1 1 1 1 1 1 0.049807669887260778 1 1 1 1 0.048883075772319109 1 1 0.051369814693281036 1 1 1 0.050685826866501166 1 1 1 1 0.047608018553121842 1 0.050056696072275739 0.054951258996277924 1 1 1 1 0.054157405503173509 1 1 1 0.047178923542649749 1 1 1 0.051795270282104414 1 1 1 1 1 1 0.049970367359179105 1 1 1 1 1 1 1 1 1 1 1 1 1 1 1 1 1 1 1 1 0.049144589621814852 1 1 1 1 1 1 1 1 1 1 1 1 1 1 1 1 1 1 0.049825334176038204 1 1 0.049529762490204882 1 1 0.059978797269961484 1 1 1 1 1 1 1 1 1 1 1 0.049128803286140721 1 1 1 1 0.0502618981658998 1 1 1 1 0.051947461141971851 1 1 1 0.051387176898986878 1 1 1 1 1 1 1 1 1 1 1 1 1 1 1 1 1 1 1 1 1 1 1 1 1 0.050613510805678705 1 1 1 1 1 1 1 1 0.051384313560704789 1 1 1 0.058993679571805159 1 1 1 1 1 1 1 1 1 1 1 1 1 1 1 1 1 1 1 1 1 1 1 1 0.048890910690219037 1 1 1 0.051780053596148214 1 1 1 1 1 1 1 1 0.04895795258000267 1 1 0.051187590065496689 1 1 1 1 0.050353373194925125 1 1 1 1 1 1 1 0.058047817187118225 1 0.049599577685546362 1 1 0.048988817619904312 1 1 0.059451898815958873 0.050025817491448368 1 1 1 1 1 1 1 1 1 1 1 1 1 1 1 1 1 1 1 1 1 0.054292898589845345 1 1 1 1 0.056291570080771146 1 1 1 1 1 1 1 1 1 1 1 1 1 0.052857994306234821 1 1 0.050146873598669102 1 1 1 1 1 1 1 1 1 1 1 1 1 1 1 1 1 1 1 1 1 1 1 1 1 1 1 1 1 1 1 1 1 1 1 1 1 1 1 1 1 1 1 1 1 1 1 1 1 1 1 1 1 1 1 1 1 1 1 1 1 1 1 1 1 1 1 1 1 1 1 1 1 1 1 1 1 1 1 1 1 1 1 1 1 1 1 1 1 1 1 1 1 1 1 1 1 1 1 1 1 1 1 1 1 1 1 1 1 1 1 1 1 1 1 1 1 1 1 1 1 1 1 1 1 1 1 1 0.049898082880037997 1 1 1 1 1 1 1 0.049425509240273863 1 1 1 1 1 1 1 1 1 0.048512077012679247 1 0.05466019431595405 1 1 1 0.052047495524996365 1 1 0.052714917174996011 1 1 1 1 1 1 1 1 1 1 1 1 1 1 1 1 1 1 1 1 1 1 1 1 1 1 1 1 1 1 1 1 1 1 1 1 1 0.049323817271354146 1 1 0.052215474441279261 0.048402197484571523 1 1 0.049704545820014948 1 1 0.056542189676798159 1 1 1 0.055022075031583649 1 1 1 1 1 1 1 1 1 0.051765917747379792 1 1 1 1 1 1 0.049870073584961816 1 1 1 1 1 1 1 1 1 1 1 1 1 1 1 1 1 1 1 1 1 1 1 1 1 1 1 1 1 1 1 0.050298742479569503 1 1 1 1 1 1 1 1 1 1 1 1 1 1 1 1 1 1 1 1 1 1 1 1 1 1 1 1 1 1 1 1 1 1 1 1 1 1 1 1 1 1 1 1 1 1 0.055560748595691184 1 0.050460242998900166 1 1 1 1 0.050152438148749076 1 1 1 1 0.055054338214532775 1 1 1 1 0.049893370984968148 1 1 1 1 1 1 1 1 0.050584269495678416 1 1 0.050472397071198938 1 0.050161192730991802 1 1 1 1 0.050889334178548476 1 1 0.050523562561108001 0.052971627093670773 1 1 1 1 1 1 0.050071612100497098 1 1 1 1 1 1 1 1 1 1 0.050644777378960351 0.054863762249236128 1 1 1 1 1 0.055041464658719161 1 1 0.050419028919857778 1 1 1 1 0.051056881515765137 1 1 0.050004948946102884 1 1 1 1 1 1 1 1 1 1 1 1 1 1 1 1 1 1 1 1 1 1 1 1 1 1 1 1 1 0.050115149654166864 1 0.050033981122408915 1 1 1 1 1 1 1 1 1 1 1 1 1 0.049984319087820667 1 1 1 1 0.058646707959038535 0.058670458810402878 1 1 1 1 1 1 1 1 1 1 1 1 1 1 1 1 1 1 1 1 1 1 1 1 1 1 1 1 1 1 1 1 1 1 1 1 1 1 1 1 1 1 0.050040163814572283 1 1 1 0.050055844726751626 1 1 1 1 1 1 1 1 1 1 1 1 1 1 1 1 1 1 1 1 0.058553995885089832 1 1 0.058379493241190232 1 1 1 1 1 1 1 1 1 0.050001825721658011 1 1 1 1 1 0.056418699997899995 1 1 1 1 1 0.049951886866910065 1 0.050021188767976149 1 1 1 1 1 1 1 1 1 1 1 1 1 0.051761086702695816 1 1 1 0.053058394225970841 0.056030135792572898 1 1 1 1 1 1 1 1 0.050001541053204028 1 1 0.054473881876638645 1 1 0.050004045056899343 0.051940708089185987 1 1 1 1 1 0.049971392744234823 1 1 1 1 1 1 1 0.050519203343797746 1 1 0.05118658105825738 0.050322888354772069 1 1 1 1 1 1 0.053682466939007155 0.048817323806430252 1 1 1 0.051458217558100636 1 1 1 1 1 1 1 0.051167436234984154 1 1 1 1 1 1 1 1 1 1 1 1 1 1 1 1 1 1 1 1 1 1 1 1 1 1 0.054760717734119335 1 1 1 1 1 1 1 0.050121785948158477 1 1 1 1 1 1 1 1 1 1 1 0.055651704462963379 1 1 1 1 1 1 1 1 0.051814874576347876 1 1 1 1 1 1 1 1 1 1 1 1 1 1 1 1 0.051514697651927767 1 1 1 0.051077779100684784 1 1 1 1 1 0.053517616395719655 1 1 1 1 1 1 1 1 1 1 1 1 1 1 0.049736229299266591 1 1 1 1 0.048995467667047918 1 1 0.047905031097572902 1 1 1 1 1 0.050026984003103118 1 1 1 1 1 1 1 1 1 1 1 1 1 1 0.050199841926776685 1 0.048623296351405804 1 1 1 0.050550276182004854 1 0.050519188954228279 1 0.051861652842914344 1 1 1 1 1 1 0.050141262738176248 0.051773456691515188 1 1 1 1 1 1 0.052118963839827351 1 0.05049582135029012 1 1 1 1 1 1 1 1 1 1 1 1 1 1 1 1 1 0.054028338700866728 1 1 1 0.049887759827600214 0.053734529450717661 1 1 1 1 1 0.051136560477812634 1 1 0.050105350665679851 0.050455420241726036 1 1 1 1 1 1 1 1 1 1 1 1 1 1 1 1 1 1 1 1 1 1 1 1 1 1 1 1 1 1 1 1 1 1 1 1 1 1 1 1 1 1 1 1 0.049069066946401077 1 1 0.053022100725749519 0.052122226738572572 0.049922965676890106 1 1 1 1 1 1 0.049790757349281393 1 1 1 1 1 1 1 1 1 0.050090146205814777 1 1 1 0.050509859305511481 1 1 1 1 1 1 1 1 1 1 1 1 1 1 1 1 1 1 1 1 0.051161090826177417 1 1 1 1 0.050589877812018569 1 1 1 1 1 1 1 1 1 1 1 1 1 1 1 1 1 1 1 1 1 1 1 1 1 1 1 1 1 1 1 1 1 1 0.049571353854403769 1 0.050277145915615017 1 1 1 1 1 1 1 1 0.050598364322939834 1 1 1 0.049097492856708912 1 0.050321218407324821 1 1 1 1 1 1 1 1 0.055075752796064824 1 1 1 1 0.0521244267733105 1 1 1 1 0.049822105196370439 1 1 1 1 1 1 1 0.050676829243897277 1 1 1 1 0.050380863049831977 1 1 1 1 1 1 1 1 1 1 1 1 1 1 1 1 1 1 1 1 1 1 1 1 1 1 1 1 1 1 1 1 1 1 1 1 1 1 1 1 1 1 1 1 1 1 0.050784099685296721 1 1 1 1 0.050008420850271462 0.050327507138974568 1 1 0.050700357972975472 0.050811181515708792 1 1 1 1 1 1 1 1 1 1 1 1 1 1 1 1 1 1 1 0.050347040752861956 1 1 1 0.050087442122494941 0.050003473295308791 1 1 1 1 1 1 1 1 1 1 1 1 1 1 1 1 1 1 1 1 1 1 1 1 1 1 1 0.05023430923233272 1 1 1 1 1 1 1 0.049921464709018502 1 1 1 1 1 1 1 1 1 1 1 1 1 1 1 0.049456724514647374 1 1 1 1 1 1 1 1 0.050457032312604087 1 0.049653133300588403 0.051160650936080673 1 1 1 1 1 1 1 1 1 1 1 1 0.050737095475663088 1 1 1 1 1 1 1 1 1 1 1 1 1 1 1 1 1 1 0.055735437859461917 1 1 1 0.051208417388534065 1 1 1 1 1 1 1 1 0.050414355048813989 1 1 1 1 1 1 1 1 1 1 1 1 1 1 1 0.05132215939946802 1 1 1 0.050459817489201086 1 1 1 1 1 1 1 1 1 1 1 1 1 1 1 1 1 1 1 1 1 1 1 1 1 1 1 1 1 1 1 1 1 0.05043443222702991 1 0.050200373826762568 1 1 1 1 1 1 1 1 0.049992005525030608 1 1 1 1 1 1 1 1 1 0.04990910165587327 1 1 0.050064715994110165 1 1 1 1 1 0.050024147829157907 1 1 1 1 0.049983932641893651 1 1 1 1 0.050034607431656733 1 1 1 0.050249490736886643 1 0.04923161005967111 1 1 0.049646997739252872 1 1 1 1 1 1 1 1 1 1 1 1 1 1 0.049992737469633813 1 1 0.050004662728576912 1 0.050004057372116203 1 1 1 0.05000480926671165 1 1 0.048904337013522627 1 1 1 1 0.050355085500649259 1 0.050795077802468738 1 1 1 1 1 1 0.050297401718764199 1 0.050211844769296077 1 1 1 1 1 0.057869530507034729 1 1 1 1 0.050654598120475625 1 1 1 1 1 1 0.057453263207457798 1 1 1 1 1 1 1 1 1 1 1 1 1 1 1 1 1 1 1 1 1 1 1 1 1 1 1 1 1 1 1 1 1 0.050066226821402014 0.050014394776513926 1 1 1 1 1 1 1 1 1 1 0.058004974199675402 1 1 0.050915879865982699 0.056496016973126166 1 0.049965662252266528 1 1 1 1 1 1 1 0.056994065195674029 1 1 1 1 1 1 1 1 1 1 1 1 0.050181442289781497 1 1 1 1 0.050034242135261149 1 1 1 1 1 1 1 1 1 1 1 1 0.051298137386618814 1 1 1 1 1 1 1 1 1 1 1 1 1 1 1 1 1 0.051247684228522133 1 1 1 1 1 0.050410943762061539 1 1 1 0.052296091231432869 1 1 1 1 1 1 0.05148783156867949 1 0.051702709775211103 1 1 1 0.050971686020942181 1 1 1 1 1 1 1 1 1 0.052717001729672239 1 1 0.050011090130805222 1 1 1 1 1 1 1 0.050610247257562094 1 1 1 1 1 1 1 1 1 1 1 1 1 0.049188905210282241 1 1 0.050566379859588916 1 1 1 1 1 1 0.04998080720859617 1 1 1 1 1 1 0.053536697858539907 1 1 1 1 1 1 1 0.05518785972115399 1 1 1 1 1 1 1 1 1 1 1 1 1 1 1 1 1 1 1 1 1 1 0.050432168077868295 1 1 1 1 1 1 1 1 1 1 0.053791117246606027 1 1 1 1 0.053832894279650212 0.050792086643519578 1 1 1 1 0.050783265774817545 1 1 1 1 1 1 1 1 1 0.050682901250961504 1 1 1 1 1 1 1 1 1 1 1 0.053332443800530954 1 1 1 0.051800994196033373 1 1 1 0.051328461914219137 1 1 1 1 1 1 1 1 1 1 1 1 0.053673820221139604 1 1 1 1 1 0.050005487031650142 1 1 0.049978856892488231 1 1 1 1 1 1 1 1 1 1 1 1 1 1 0.052706689407075152 1 1 1 1 1 1 1 0.057122911424110689 1 1 1 0.059680735364263923 1 1 1 1 1 0.049934378037200737 1 1 1 1 1 1 1 1 1 0.049961008176362662 1 1 1 1 1 1 1 1 0.060665840023844286 1 1 1 1 1 0.0512639905389752 1 1 1 1 1 1 1 0.050433930791255618 1 1 1 1 1 1 1 1 1 1 1 1 1 1 1 1 1 1 1 1 1 1 1 1 1 1 1 1 1 1 1 1 1 1 1 1 1 1 1 1 1 1 1 1 1 1 1 1 0.051418506920315472 1 1 1 1 1 1 1 0.050641224233714935 1 1 1 1 1 1 1 1 1 1 1 1 1 1 1 1 1 1 1 1 1 1 0.049778648992706433 0.050284269877749185 1 1 0.051907427986195395 0.054566991505334797 1 1 1 1 1 1 1 0.056887464803095755 1 1 1 1 1 1 1 1 1 1 1 1 1 1 0.049828589901056916 1 1 1 1 1 1 1 1 0.049925359864335293 1 1 0.050102388496694225 1 1 1 0.050314150607237963 1 1 1 1 1 1 1 1 1 1 1 1 1 1 1 1 1 1 1 1 1 1 1 1 1 1 1 1 0.049944445505729254 1 1 1 1 1 1 1 1 0.049983068275402415 1 1 1 1 1 1 0.049719497390716426 0.049937245459364246 1 1 1 1 0.050039495972219128 1 1 0.049971628943555078 1 1 0.049424890595028081 1 1 1 1 1 1 0.05002174190467093 1 1 1 1 1 1 1 1 0.050004734485287278 1 1 1 1 1 1 1 1 1 1 1 0.050014721992956104 1 1 0.050009997652966022 1 1 1 1 1 1 1 0.050026380129393699 1 1 1 0.050074697826890599 1 0.050119530478139648 1 0.050039302418483055 1 1 1 1 1 1 1 1 1 1 1 1 1 1 1 1 1 0.050306483446469166 1 0.049999648871033212 1 1 1 1 1 1 1 1 1 1 0.050248232861491451 1 1 1 1 1 1 1 0.050219492803141821 1 1 1 0.050001370893125237 1 0.052513219513499722 0.052007866579658987 1 1 0.054204027126022097 1 1 1 1 0.051457476909162164 1 1 1 0.05224717578670543 1 1 1 0.053041706617846504 1 0.05442925317436953 0.050115932359359648 1 1 1 1 1 1 0.054892064179462435 1 1 1 1 1 1 1 1 0.048081554880666406 0.050002885682806614 0.048691843529386138 1 0.046907086794911873 1 1 0.054909477903165235 0.050000966349228695 1 1 0.06075956300884125 1 1 1 1 1 1 1 1 1 1 1 0.049972040260302976 1 1 1 1 1 1 1 1 1 1 1 1 1 0.049360040516839815 0.048236957964096064 1 1 1 1 0.049051211312184401 1 1 1 0.051931672740550626 1 1 1 1 1 0.048600626180515236 0.049997416306400817 1 1 1 0.051523060508005494 1 1 1 1 1 1 1 1 1 1 1 1 1 1 1 0.050629393130701708 1 1 1 0.05071534169990205 1 1 1 0.05030650347431824 1 1 1 1 1 1 0.052368456845150381 1 1 1 1 1 0.051909905972343025 1 1 1 1 1 1 1 1 0.050017554439288799 1 1 1 1 1 1 1 1 1 0.050041219290434792 1 1 1 1 0.0500346293181647 1 0.050033502414443265 1 1 0.049556389611729292 1 0.051037128733821401 1 1 1 1 1 1 0.05066123766648032 1 0.05003733005821355 0.050180185871414471 1 1 1 1 1 1 1 1 0.053222970564623856 1 0.050201852327875815 1 0.050035736601733355 1 0.049748207383107541 1 1 1 1 1 1 1 1 1 1 1 0.050398105725604575 1 1 1 0.050422358448006604 1 1 1 1 1 1 1 1 0.050024252722402032 1 1 1 1 1 1 1 1 1 0.050325428708123413 1 1 1 1 0.052889577551542583 1 1 0.057299875816579707 1 1 1 1 1 1 1 1 1 0.060385004639556407 1 1 1 0.059590735634744235 1 1 1 1 1 1 1 1 1 1 1 1 1 1 1 1 1 1 1 0.060203858802961224 1 1 1 1 1 1 1 1 1 1 0.049728012916714019 1 1 1 1 1 1 1 1 1 1 1 1 1 1 1 1 1 1 1 1 1 1 1 1 1 1 1 1 1 1 1 1 1 1 1 1 1 1 1 1 1 1 1 1 1 0.048416669494466012 0.050081388473675367 1 1 1 1 1 1 1 1 1 1 1 1 1 0.048543159707818355 0.055898007944618258 1 1 1 0.05469001866955446 1 1 0.049509820887552347 1 1 1 0.047787110035174017 1 1 1 0.047966863772912545 1 1 1 1 1 1 1 1 0.050376097417106261 1 1 0.049626942116858877 1 0.051851183089594445 0.049862247585284368 1 1 1 1 1 1 0.050150980518132007 1 0.051342570052768315 0.049827589038847639 0.049894170879119251 1 1 0.050460287652704799 1 1 0.049699547538875156 0.049808185322999819 1 1 1 1 1 1 1 1 1 1 1 1 1 1 1 1 1 1 1 1 1 0.059828180723347571 1 1 1 1 1 1 1 1 1 0.050207950332446516 1 1 1 1 1 1 1 0.050731249991135402 0.059131028534348859 1 1 1 1 1 1 1 1 1 1 1 1 1 1 1 1 1 1 1 1 1 1 1 0.049679722421679992 1 0.050013131688141109 1 1 1 1 1 1 1 0.049168430160797603 1 1 1 0.053546759285470286 0.057168966746543246 1 1 0.052420058879819903 1 1 1 1 0.052773431349220912 1 1 1 0.056329684012378346 1 1 1 0.049284955023101942 1 1 1 1 1 1 1 1 1 0.047586698520280309 0.052224354969356873 1 1 1 1 1 0.04822355614257133 1 1 0.05267846202604784 0.047231021392396232 0.049240927094712214 1 1 1 1 1 0.05782553074244879 1 1 1 1 1 1 1 1 1 0.050708308924524319 1 0.050301794969213838 1 1 1 1 1 1 1 1 1 1 1 1 1 1 1 1 1 1 1 1 1 1 1 1 0.050984250745925996 1 1 1 1 0.049914563149162997 0.05286661836113158 1 1 1 0.048229688715592689 1 1 1 1 1 1 1 1 1 1 1 1 1 1 1 1 0.05488781879256114 1 1 1 0.050058855672309152 1 1 0.057087793051906449 1 1 1 1 1 1 1 1 1 1 1 1 1 0.054527937886744718 1 1 0.052066503065865785 1 1 1 0.055573602734296887 1 0.050967492665841121 1 0.05035811621080441 1 0.048195491525179449 0.05330257288695317 0.050103343085370143 1 1 1 1 1 1 1 1 0.050791991690428855 1 1 1 1 1 1 1 1 0.054909495066027735 1 1 0.047839801134266641 1 1 1 1 1 1 1 1 1 1 1 1 1 1 1 1 1 1 1 1 1 0.056255609294681486 1 1 1 1 1 1 1 1 1 1 0.053941859850754566 1 0.05103781790023796 1 1 0.051255116305016633 1 0.054095760628261776 1 0.049949788315396891 1 1 0.0499166331307715 1 0.054976402765086502 1 1 0.050686207967312664 1 1 1 0.04934427894658186 1 1 1 1 1 1 1 1 1 1 1 1 1 1 1 1 1 1 1 1 1 1 1 1 1 1 1 1 1 1 1 1 1 1 1 1 1 1 1 1 1 1 1 1 1 1 1 1 1 1 1 1 1 1 1 1 1 1 1 1 1 0.052798455433867415 1 1 0.054472185672572983 1 1 1 1 1 1 0.048361981596785425 0.054833840342987189 1 1 1 1 1 1 1 1 1 1 1 1 1 1 1 1 1 1 0.052017003303088352 1 1 1 0.050124115774735772 1 1 1 1 1 1 1 1 1 1 1 1 1 1 1 1 0.050051668162694282 1 1 1 1 1 1 1 0.055471852609231764 1 1 1 1 1 1 1 1 0.054482067180261107 1 0.050169029306253908 1 1 1 1 1 1 1 1 1 1 1 1 1 1 1 1 0.05278771060966967 1 1 1 1 1 1 1 0.056828290901954084 1 1 1 1 0.049872660171457583 1 1 1 1 1 1 1 0.049051077427292852 1 1 0.054691743708946756 0.049571469035175945 1 1 0.057229505485364165 1 1 1 1 1 1 0.058946642717197635 1 1 1 1 1 1 1 1 1 0.048011488149615852 1 1 0.050139744776129785 1 1 0.04992230837206002 1 1 0.054369324047051894 1 1 1 1 1 0.053740629855003108 1 1 1 1 1 1 1 1 0.050272518674117896 1 1 1 1 1 1 1 0.050908600569923287 1 1 1 1 1 1 1 1 1 1 1 1 0.051384782238155083 1 1 1 1 1 1 1 0.04979145600491746 0.049894033486521987 1 0.042870120718489779 1 0.048900917176255915 1 1 1 1 1 1 1 1 1 1 1 1 1 1 1 0.050007305843771735 1 0.047447666318138605 1 1 1 1 1 1 1 1 0.056451723427838892 1 0.052398451837136054 1 0.046390186597540878 1 0.060366478118895353 1 0.049638261249496315 1 1 0.05005080002427012 1 1 1 1 1 0.050054456482020428 1 1 1 1 1 1 1 1 0.050116431157537202 1 1 1 1 1 0.050366811724431984 1 1 0.043302526201262653 1 0.050314292509960043 0.049509221808934377 1 1 1 1 1 1 1 1 0.049972486872510831 1 1 1 1 1 1 1 1 1 1 1 1 1 0.057225695790921391 1 1 1 1 1 1 1 0.050610009628659275 1 1 1 0.050609157257822626 1 1 1 1 1 1 1 1 1 1 1 1 1 1 1 1 1 0.049900484435436702 1 1 1 1 1 1 1 0.049915053354444169 1 1 0.05273818857565369 1 1 1 1 1 1 1 1 1 1 1 1 1 1 1 0.052102569507459666 1 1 1 1 0.049872792006271899 1 1 1 1 1 1 1 1 1 1 1 1 1 1 1 1 1 1 1 1 1 1 1 1 1 0.046856000347991936 1 1 1 1 1 1 0.04985238726027752 1 1 1 1 1 1 1 1 1 0.048911111292075288 0.054158311912826204 1 1 1 0.05522444730141822 1 0.049643843075081524 1 1 1 1 1 1 1 1 1 1 1 1 1 1 1 0.051079118059799582 1 1 1 1 1 1 1 1 1 1 1 1 0.050355025853871221 0.050900979780600576 1 1 1 1 1 1 1 1 0.05290371931741291 1 1 0.049900056690418672 1 1 0.053876721298551478 0.048549451135370021 1 1 1 1 1 1 1 0.051706110980422063 1 1 1 1 1 1 1 1 1 0.050545953926729358 1 1 1 0.050485556503831089 1 1 1 1 1 0.050166533423478314 1 1 1 1 1 1 1 1 1 1 1 1 0.049439291728980699 1 1 1 0.049737332653321989 1 1 1 0.051554902803424535 1 1 1 1 1 1 1 1 1 1 1 1 1 1 1 1 1 1 1 1 1 1 1 1 1 1 1 1 1 1 1 1 0.049463841888652507 1 1 1 1 1 1 1 1 1 1 1 1 1 1 1 1 1 1 1 1 1 1 1 1 0.050740276330942219 1 0.05004306810009921 1 1 0.046952495923072705 1 1 1 1 1 1 1 1 1 0.053782594335655992 1 1 1 1 1 1 1 1 1 1 1 1 1 1 0.048106223816722748 1 1 1 1 0.049218375204026762 1 1 1 0.049851532567724996 1 1 1 1 1 1 1 1 1 1 1 1 1 1 1 1 1 1 1 1 1 1 1 1 1 1 1 1 1 1 1 1 1 1 1 1 1 1 1 1 1 1 1 1 1 1 1 1 1 1 1 1 1 1 1 1 1 1 1 1 1 1 1 1 1 1 1 1 1 1 1 1 1 1 1 1 1 1 1 1 1 1 1 1 1 1 1 1 1 1 1 1 1 1 1 1 1 1 1 1 1 1 1 1 1 1 1 1 1 1 1 1 1 1 1 1 1 1 1 1 1 1 1 1 1 1 1 1 1 1 1 1 1 1 1 1 1 1 1 1 1 1 1 1 1 1 1 1 1 1 1 1 1 1 1 1 1 1 1 1 1 1 1 1 1 1 1 1 1 1 1 1 1 1 1 1 1 1 1 1 1 1 1 1 1 1 1 1 1 0.061917825885274669 1 1 1 1 1 1 1 1 1 1 1 1 1 1 1 1 0.050880682516852294 1 1 1 1 1 1 1 1 0.058105066810801617 1 1 1 1 0.049546911735792933 1 1 1 1 1 1 1 1 1 1 1 1 1 1 1 1 1 1 1 1 1 1 0.05080421242668124 1 1 1 1 1 1 1 1 1 1 1 1 1 0.048640423554572675 0.061300464551309219 1 1 1 1 1 0.058379416443623877 1 0.046922093901860168 1 1 1 1 1 1 1 1 1 1 1 0.053143137835944161 1 1 1 1 1 1 1 0.062311671433650927 1 1 1 1 1 1 1 1 1 1 1 1 1 1 1 0.050762699014368924 0.060725374727789758 1 1 1 1 1 1 1 1 1 1 1 1 0.048326499271541687 1 1 1 1 1 1 1 1 1 1 1 1 1 1 1 1 0.049495921215363718 1 1 1 1 1 1 1 0.058576988438912091 1 1 1 1 1 1 1 1 1 1 0.05008684245952038 0.054124097328476589 1 1 1 1 1 1 1 1 1 1 1 1 1 1 1 1 1 1 1 1 1 1 1 1 1 1 1 1 1 1 0.051937355107120643 1 1 1 1 1 0.053216741351479385 1 1 1 1 1 1 1 1 1 1 0.051436571727457921 1 1 1 1 0.049358565275575812 1 1 1 1 1 1 1 1 1 1 0.052876671731706223 1 0.051096502107684759 1 1 1 1 1 1 1 1 1 1 1 1 1 1 1 1 1 1 1 1 1 1 1 1 1 1 1 1 1 1 1 0.050443393328426803 1 1 1 1 1 0.051206092342795724 1 1 1 1 1 1 1 1 1 1 1 1 1 1 1 1 1 1 0.051021225972204251 1 1 0.056914241294620645 1 1 1 0.050359548241558423 1 1 1 1 1 0.061566412030834246 1 1 1 1 1 1 1 1 1 1 0.056087847170098681 1 1 1 1 1 1 0.049673104323996124 1 1 1 1 1 0.065614688023532111 0.050046316336994759 1 1 0.062667266240125308 1 1 0.050705321920467603 1 1 1 1 1 1 1 1 1 1 0.050776603474478654 1 1 0.051309192524281677 1 1 0.051875443126553983 1 1 0.051619235633370439 1 1 0.04916866951534319 1 1 0.051467883752700734 1 1 1 1 1 1 0.048688121496515954 1 1 1 1 1 1 1 1 1 1 1 0.062342356572854946 1 1 1 1 1 1 1 0.05077847238414971 1 1 1 1 0.050076407349635983 1 1 1 0.060468748785345569 1 1 1 1 1 1 1 1 1 1 1 0.050117505833918531 1 1 1 1 1 1 1 1 1 1 1 1 1 1 1 1 1 1 1 1 1 1 1 1 0.050045830707288567 1 1 1 1 1 0.050073937155642997 1 1 1 1 1 1 1 1 1 1 1 1 1 1 0.050655731271420305 1 1 0.049916540698494043 1 0.054585405294612921 1 1 1 1 0.056645053026634681 1 0.04974707310536132 0.048703578955155341 1 0.049274054897335412 1 1 1 1 1 1 1 0.050021189192710744 1 0.049554575572704276 1 1 1 1 1 1 0.050189627646160917 1 1 1 1 1 1 0.050263392812107871 1 1 1 1 0.050765964233152903 1 1 1 1 1 0.050026637915884742 1 1 0.050276741494050106 1 1 1 1 0.051168472205356239 1 1 1 1 0.049883171999704927 1 1 1 1 1 1 0.050125056628622863 1 1 1 1 1 1 1 1 1 0.050615581942668089 1 1 1 1 1 1 0.050300965599720353 1 1 1 1 0.050624330297691436 1 1 1 1 1 1 1 1 1 1 1 1 1 1 1 1 0.049855382130048941 1 1 1 0.049838503919318405 1 1 0.055824317545211971 1 1 1 1 1 1 1 1 1 1 1 1 1 1 1 1 0.050081444074724653 1 0.055236490022677963 1 1 1 1 1 1 1 1 1 1 1 1 1 1 1 1 1 1 1 1 1 1 1 1 1 1 0.056629595525300655 1 1 0.054276190335975076 1 1 1 1 1 1 1 1 1 1 0.052634422423775702 1 1 1 1 0.050325199138859869 1 1 1 1 0.050243755064135219 1 1 1 1 1 1 1 1 1 0.052172026561846552 1 1 1 1 1 1 1 1 1 1 1 1 1 1 1 1 1 1 1 1 1 1 1 1 1 1 1 1 
</DataArray>
</CellData>
</Piece>
</UnstructuredGrid>
</VTKFile>
